# vtk DataFile Version 2.0
data file: Results_Ti64_RandomMicroFZreducedNewBCs_21x21x21_AbqInp_PowerLaw_00001 generated by Matthew W. Priddy on Mon Aug 18 13:54:38 2014
ASCII
DATASET RECTILINEAR_GRID
DIMENSIONS 22 22 22
X_COORDINATES 22 float
 0.0000  0.0500  0.1000  0.1500  0.2000  0.2500  0.3000  0.3500  0.4000  0.4500  0.5000  0.5500  0.6000  0.6500  0.7000  0.7500  0.8000  0.8500  0.9000  0.9500  1.0000  1.0500 
Y_COORDINATES 22 float
 0.0000  0.0500  0.1000  0.1500  0.2000  0.2500  0.3000  0.3500  0.4000  0.4500  0.5000  0.5500  0.6000  0.6500  0.7000  0.7500  0.8000  0.8500  0.9000  0.9500  1.0000  1.0500 
Z_COORDINATES 22 float
 0.0000  0.0500  0.1000  0.1500  0.2000  0.2500  0.3000  0.3500  0.4000  0.4500  0.5000  0.5500  0.6000  0.6500  0.7000  0.7500  0.8000  0.8500  0.9000  0.9500  1.0000  1.0500 
CELL_DATA 9261
SCALARS GrainID int 1
LOOKUP_TABLE default
    1     2     3     4     5     6     7     8     9    10    11    12    13    14    15    16    17    18    19    20    21 
   22    23    24    25    26    27    28    29    30    31    32    33    34    35    36    37    38    39    40    41    42 
   43    44    45    46    47    48    49    50    51    52    53    54    55    56    57    58    59    60    61    62    63 
   64    65    66    67    68    69    70    71    72    73    74    75    76    77    78    79    80    81    82    83    84 
   85    86    87    88    89    90    91    92    93    94    95    96    97    98    99   100   101   102   103   104   105 
  106   107   108   109   110   111   112   113   114   115   116   117   118   119   120   121   122   123   124   125   126 
  127   128   129   130   131   132   133   134   135   136   137   138   139   140   141   142   143   144   145   146   147 
  148   149   150   151   152   153   154   155   156   157   158   159   160   161   162   163   164   165   166   167   168 
  169   170   171   172   173   174   175   176   177   178   179   180   181   182   183   184   185   186   187   188   189 
  190   191   192   193   194   195   196   197   198   199   200   201   202   203   204   205   206   207   208   209   210 
  211   212   213   214   215   216   217   218   219   220   221   222   223   224   225   226   227   228   229   230   231 
  232   233   234   235   236   237   238   239   240   241   242   243   244   245   246   247   248   249   250   251   252 
  253   254   255   256   257   258   259   260   261   262   263   264   265   266   267   268   269   270   271   272   273 
  274   275   276   277   278   279   280   281   282   283   284   285   286   287   288   289   290   291   292   293   294 
  295   296   297   298   299   300   301   302   303   304   305   306   307   308   309   310   311   312   313   314   315 
  316   317   318   319   320   321   322   323   324   325   326   327   328   329   330   331   332   333   334   335   336 
  337   338   339   340   341   342   343   344   345   346   347   348   349   350   351   352   353   354   355   356   357 
  358   359   360   361   362   363   364   365   366   367   368   369   370   371   372   373   374   375   376   377   378 
  379   380   381   382   383   384   385   386   387   388   389   390   391   392   393   394   395   396   397   398   399 
  400   401   402   403   404   405   406   407   408   409   410   411   412   413   414   415   416   417   418   419   420 
  421   422   423   424   425   426   427   428   429   430   431   432   433   434   435   436   437   438   439   440   441 
  442   443   444   445   446   447   448   449   450   451   452   453   454   455   456   457   458   459   460   461   462 
  463   464   465   466   467   468   469   470   471   472   473   474   475   476   477   478   479   480   481   482   483 
  484   485   486   487   488   489   490   491   492   493   494   495   496   497   498   499   500   501   502   503   504 
  505   506   507   508   509   510   511   512   513   514   515   516   517   518   519   520   521   522   523   524   525 
  526   527   528   529   530   531   532   533   534   535   536   537   538   539   540   541   542   543   544   545   546 
  547   548   549   550   551   552   553   554   555   556   557   558   559   560   561   562   563   564   565   566   567 
  568   569   570   571   572   573   574   575   576   577   578   579   580   581   582   583   584   585   586   587   588 
  589   590   591   592   593   594   595   596   597   598   599   600   601   602   603   604   605   606   607   608   609 
  610   611   612   613   614   615   616   617   618   619   620   621   622   623   624   625   626   627   628   629   630 
  631   632   633   634   635   636   637   638   639   640   641   642   643   644   645   646   647   648   649   650   651 
  652   653   654   655   656   657   658   659   660   661   662   663   664   665   666   667   668   669   670   671   672 
  673   674   675   676   677   678   679   680   681   682   683   684   685   686   687   688   689   690   691   692   693 
  694   695   696   697   698   699   700   701   702   703   704   705   706   707   708   709   710   711   712   713   714 
  715   716   717   718   719   720   721   722   723   724   725   726   727   728   729   730   731   732   733   734   735 
  736   737   738   739   740   741   742   743   744   745   746   747   748   749   750   751   752   753   754   755   756 
  757   758   759   760   761   762   763   764   765   766   767   768   769   770   771   772   773   774   775   776   777 
  778   779   780   781   782   783   784   785   786   787   788   789   790   791   792   793   794   795   796   797   798 
  799   800   801   802   803   804   805   806   807   808   809   810   811   812   813   814   815   816   817   818   819 
  820   821   822   823   824   825   826   827   828   829   830   831   832   833   834   835   836   837   838   839   840 
  841   842   843   844   845   846   847   848   849   850   851   852   853   854   855   856   857   858   859   860   861 
  862   863   864   865   866   867   868   869   870   871   872   873   874   875   876   877   878   879   880   881   882 
  883   884   885   886   887   888   889   890   891   892   893   894   895   896   897   898   899   900   901   902   903 
  904   905   906   907   908   909   910   911   912   913   914   915   916   917   918   919   920   921   922   923   924 
  925   926   927   928   929   930   931   932   933   934   935   936   937   938   939   940   941   942   943   944   945 
  946   947   948   949   950   951   952   953   954   955   956   957   958   959   960   961   962   963   964   965   966 
  967   968   969   970   971   972   973   974   975   976   977   978   979   980   981   982   983   984   985   986   987 
  988   989   990   991   992   993   994   995   996   997   998   999  1000  1001  1002  1003  1004  1005  1006  1007  1008 
 1009  1010  1011  1012  1013  1014  1015  1016  1017  1018  1019  1020  1021  1022  1023  1024  1025  1026  1027  1028  1029 
 1030  1031  1032  1033  1034  1035  1036  1037  1038  1039  1040  1041  1042  1043  1044  1045  1046  1047  1048  1049  1050 
 1051  1052  1053  1054  1055  1056  1057  1058  1059  1060  1061  1062  1063  1064  1065  1066  1067  1068  1069  1070  1071 
 1072  1073  1074  1075  1076  1077  1078  1079  1080  1081  1082  1083  1084  1085  1086  1087  1088  1089  1090  1091  1092 
 1093  1094  1095  1096  1097  1098  1099  1100  1101  1102  1103  1104  1105  1106  1107  1108  1109  1110  1111  1112  1113 
 1114  1115  1116  1117  1118  1119  1120  1121  1122  1123  1124  1125  1126  1127  1128  1129  1130  1131  1132  1133  1134 
 1135  1136  1137  1138  1139  1140  1141  1142  1143  1144  1145  1146  1147  1148  1149  1150  1151  1152  1153  1154  1155 
 1156  1157  1158  1159  1160  1161  1162  1163  1164  1165  1166  1167  1168  1169  1170  1171  1172  1173  1174  1175  1176 
 1177  1178  1179  1180  1181  1182  1183  1184  1185  1186  1187  1188  1189  1190  1191  1192  1193  1194  1195  1196  1197 
 1198  1199  1200  1201  1202  1203  1204  1205  1206  1207  1208  1209  1210  1211  1212  1213  1214  1215  1216  1217  1218 
 1219  1220  1221  1222  1223  1224  1225  1226  1227  1228  1229  1230  1231  1232  1233  1234  1235  1236  1237  1238  1239 
 1240  1241  1242  1243  1244  1245  1246  1247  1248  1249  1250  1251  1252  1253  1254  1255  1256  1257  1258  1259  1260 
 1261  1262  1263  1264  1265  1266  1267  1268  1269  1270  1271  1272  1273  1274  1275  1276  1277  1278  1279  1280  1281 
 1282  1283  1284  1285  1286  1287  1288  1289  1290  1291  1292  1293  1294  1295  1296  1297  1298  1299  1300  1301  1302 
 1303  1304  1305  1306  1307  1308  1309  1310  1311  1312  1313  1314  1315  1316  1317  1318  1319  1320  1321  1322  1323 
 1324  1325  1326  1327  1328  1329  1330  1331  1332  1333  1334  1335  1336  1337  1338  1339  1340  1341  1342  1343  1344 
 1345  1346  1347  1348  1349  1350  1351  1352  1353  1354  1355  1356  1357  1358  1359  1360  1361  1362  1363  1364  1365 
 1366  1367  1368  1369  1370  1371  1372  1373  1374  1375  1376  1377  1378  1379  1380  1381  1382  1383  1384  1385  1386 
 1387  1388  1389  1390  1391  1392  1393  1394  1395  1396  1397  1398  1399  1400  1401  1402  1403  1404  1405  1406  1407 
 1408  1409  1410  1411  1412  1413  1414  1415  1416  1417  1418  1419  1420  1421  1422  1423  1424  1425  1426  1427  1428 
 1429  1430  1431  1432  1433  1434  1435  1436  1437  1438  1439  1440  1441  1442  1443  1444  1445  1446  1447  1448  1449 
 1450  1451  1452  1453  1454  1455  1456  1457  1458  1459  1460  1461  1462  1463  1464  1465  1466  1467  1468  1469  1470 
 1471  1472  1473  1474  1475  1476  1477  1478  1479  1480  1481  1482  1483  1484  1485  1486  1487  1488  1489  1490  1491 
 1492  1493  1494  1495  1496  1497  1498  1499  1500  1501  1502  1503  1504  1505  1506  1507  1508  1509  1510  1511  1512 
 1513  1514  1515  1516  1517  1518  1519  1520  1521  1522  1523  1524  1525  1526  1527  1528  1529  1530  1531  1532  1533 
 1534  1535  1536  1537  1538  1539  1540  1541  1542  1543  1544  1545  1546  1547  1548  1549  1550  1551  1552  1553  1554 
 1555  1556  1557  1558  1559  1560  1561  1562  1563  1564  1565  1566  1567  1568  1569  1570  1571  1572  1573  1574  1575 
 1576  1577  1578  1579  1580  1581  1582  1583  1584  1585  1586  1587  1588  1589  1590  1591  1592  1593  1594  1595  1596 
 1597  1598  1599  1600  1601  1602  1603  1604  1605  1606  1607  1608  1609  1610  1611  1612  1613  1614  1615  1616  1617 
 1618  1619  1620  1621  1622  1623  1624  1625  1626  1627  1628  1629  1630  1631  1632  1633  1634  1635  1636  1637  1638 
 1639  1640  1641  1642  1643  1644  1645  1646  1647  1648  1649  1650  1651  1652  1653  1654  1655  1656  1657  1658  1659 
 1660  1661  1662  1663  1664  1665  1666  1667  1668  1669  1670  1671  1672  1673  1674  1675  1676  1677  1678  1679  1680 
 1681  1682  1683  1684  1685  1686  1687  1688  1689  1690  1691  1692  1693  1694  1695  1696  1697  1698  1699  1700  1701 
 1702  1703  1704  1705  1706  1707  1708  1709  1710  1711  1712  1713  1714  1715  1716  1717  1718  1719  1720  1721  1722 
 1723  1724  1725  1726  1727  1728  1729  1730  1731  1732  1733  1734  1735  1736  1737  1738  1739  1740  1741  1742  1743 
 1744  1745  1746  1747  1748  1749  1750  1751  1752  1753  1754  1755  1756  1757  1758  1759  1760  1761  1762  1763  1764 
 1765  1766  1767  1768  1769  1770  1771  1772  1773  1774  1775  1776  1777  1778  1779  1780  1781  1782  1783  1784  1785 
 1786  1787  1788  1789  1790  1791  1792  1793  1794  1795  1796  1797  1798  1799  1800  1801  1802  1803  1804  1805  1806 
 1807  1808  1809  1810  1811  1812  1813  1814  1815  1816  1817  1818  1819  1820  1821  1822  1823  1824  1825  1826  1827 
 1828  1829  1830  1831  1832  1833  1834  1835  1836  1837  1838  1839  1840  1841  1842  1843  1844  1845  1846  1847  1848 
 1849  1850  1851  1852  1853  1854  1855  1856  1857  1858  1859  1860  1861  1862  1863  1864  1865  1866  1867  1868  1869 
 1870  1871  1872  1873  1874  1875  1876  1877  1878  1879  1880  1881  1882  1883  1884  1885  1886  1887  1888  1889  1890 
 1891  1892  1893  1894  1895  1896  1897  1898  1899  1900  1901  1902  1903  1904  1905  1906  1907  1908  1909  1910  1911 
 1912  1913  1914  1915  1916  1917  1918  1919  1920  1921  1922  1923  1924  1925  1926  1927  1928  1929  1930  1931  1932 
 1933  1934  1935  1936  1937  1938  1939  1940  1941  1942  1943  1944  1945  1946  1947  1948  1949  1950  1951  1952  1953 
 1954  1955  1956  1957  1958  1959  1960  1961  1962  1963  1964  1965  1966  1967  1968  1969  1970  1971  1972  1973  1974 
 1975  1976  1977  1978  1979  1980  1981  1982  1983  1984  1985  1986  1987  1988  1989  1990  1991  1992  1993  1994  1995 
 1996  1997  1998  1999  2000  2001  2002  2003  2004  2005  2006  2007  2008  2009  2010  2011  2012  2013  2014  2015  2016 
 2017  2018  2019  2020  2021  2022  2023  2024  2025  2026  2027  2028  2029  2030  2031  2032  2033  2034  2035  2036  2037 
 2038  2039  2040  2041  2042  2043  2044  2045  2046  2047  2048  2049  2050  2051  2052  2053  2054  2055  2056  2057  2058 
 2059  2060  2061  2062  2063  2064  2065  2066  2067  2068  2069  2070  2071  2072  2073  2074  2075  2076  2077  2078  2079 
 2080  2081  2082  2083  2084  2085  2086  2087  2088  2089  2090  2091  2092  2093  2094  2095  2096  2097  2098  2099  2100 
 2101  2102  2103  2104  2105  2106  2107  2108  2109  2110  2111  2112  2113  2114  2115  2116  2117  2118  2119  2120  2121 
 2122  2123  2124  2125  2126  2127  2128  2129  2130  2131  2132  2133  2134  2135  2136  2137  2138  2139  2140  2141  2142 
 2143  2144  2145  2146  2147  2148  2149  2150  2151  2152  2153  2154  2155  2156  2157  2158  2159  2160  2161  2162  2163 
 2164  2165  2166  2167  2168  2169  2170  2171  2172  2173  2174  2175  2176  2177  2178  2179  2180  2181  2182  2183  2184 
 2185  2186  2187  2188  2189  2190  2191  2192  2193  2194  2195  2196  2197  2198  2199  2200  2201  2202  2203  2204  2205 
 2206  2207  2208  2209  2210  2211  2212  2213  2214  2215  2216  2217  2218  2219  2220  2221  2222  2223  2224  2225  2226 
 2227  2228  2229  2230  2231  2232  2233  2234  2235  2236  2237  2238  2239  2240  2241  2242  2243  2244  2245  2246  2247 
 2248  2249  2250  2251  2252  2253  2254  2255  2256  2257  2258  2259  2260  2261  2262  2263  2264  2265  2266  2267  2268 
 2269  2270  2271  2272  2273  2274  2275  2276  2277  2278  2279  2280  2281  2282  2283  2284  2285  2286  2287  2288  2289 
 2290  2291  2292  2293  2294  2295  2296  2297  2298  2299  2300  2301  2302  2303  2304  2305  2306  2307  2308  2309  2310 
 2311  2312  2313  2314  2315  2316  2317  2318  2319  2320  2321  2322  2323  2324  2325  2326  2327  2328  2329  2330  2331 
 2332  2333  2334  2335  2336  2337  2338  2339  2340  2341  2342  2343  2344  2345  2346  2347  2348  2349  2350  2351  2352 
 2353  2354  2355  2356  2357  2358  2359  2360  2361  2362  2363  2364  2365  2366  2367  2368  2369  2370  2371  2372  2373 
 2374  2375  2376  2377  2378  2379  2380  2381  2382  2383  2384  2385  2386  2387  2388  2389  2390  2391  2392  2393  2394 
 2395  2396  2397  2398  2399  2400  2401  2402  2403  2404  2405  2406  2407  2408  2409  2410  2411  2412  2413  2414  2415 
 2416  2417  2418  2419  2420  2421  2422  2423  2424  2425  2426  2427  2428  2429  2430  2431  2432  2433  2434  2435  2436 
 2437  2438  2439  2440  2441  2442  2443  2444  2445  2446  2447  2448  2449  2450  2451  2452  2453  2454  2455  2456  2457 
 2458  2459  2460  2461  2462  2463  2464  2465  2466  2467  2468  2469  2470  2471  2472  2473  2474  2475  2476  2477  2478 
 2479  2480  2481  2482  2483  2484  2485  2486  2487  2488  2489  2490  2491  2492  2493  2494  2495  2496  2497  2498  2499 
 2500  2501  2502  2503  2504  2505  2506  2507  2508  2509  2510  2511  2512  2513  2514  2515  2516  2517  2518  2519  2520 
 2521  2522  2523  2524  2525  2526  2527  2528  2529  2530  2531  2532  2533  2534  2535  2536  2537  2538  2539  2540  2541 
 2542  2543  2544  2545  2546  2547  2548  2549  2550  2551  2552  2553  2554  2555  2556  2557  2558  2559  2560  2561  2562 
 2563  2564  2565  2566  2567  2568  2569  2570  2571  2572  2573  2574  2575  2576  2577  2578  2579  2580  2581  2582  2583 
 2584  2585  2586  2587  2588  2589  2590  2591  2592  2593  2594  2595  2596  2597  2598  2599  2600  2601  2602  2603  2604 
 2605  2606  2607  2608  2609  2610  2611  2612  2613  2614  2615  2616  2617  2618  2619  2620  2621  2622  2623  2624  2625 
 2626  2627  2628  2629  2630  2631  2632  2633  2634  2635  2636  2637  2638  2639  2640  2641  2642  2643  2644  2645  2646 
 2647  2648  2649  2650  2651  2652  2653  2654  2655  2656  2657  2658  2659  2660  2661  2662  2663  2664  2665  2666  2667 
 2668  2669  2670  2671  2672  2673  2674  2675  2676  2677  2678  2679  2680  2681  2682  2683  2684  2685  2686  2687  2688 
 2689  2690  2691  2692  2693  2694  2695  2696  2697  2698  2699  2700  2701  2702  2703  2704  2705  2706  2707  2708  2709 
 2710  2711  2712  2713  2714  2715  2716  2717  2718  2719  2720  2721  2722  2723  2724  2725  2726  2727  2728  2729  2730 
 2731  2732  2733  2734  2735  2736  2737  2738  2739  2740  2741  2742  2743  2744  2745  2746  2747  2748  2749  2750  2751 
 2752  2753  2754  2755  2756  2757  2758  2759  2760  2761  2762  2763  2764  2765  2766  2767  2768  2769  2770  2771  2772 
 2773  2774  2775  2776  2777  2778  2779  2780  2781  2782  2783  2784  2785  2786  2787  2788  2789  2790  2791  2792  2793 
 2794  2795  2796  2797  2798  2799  2800  2801  2802  2803  2804  2805  2806  2807  2808  2809  2810  2811  2812  2813  2814 
 2815  2816  2817  2818  2819  2820  2821  2822  2823  2824  2825  2826  2827  2828  2829  2830  2831  2832  2833  2834  2835 
 2836  2837  2838  2839  2840  2841  2842  2843  2844  2845  2846  2847  2848  2849  2850  2851  2852  2853  2854  2855  2856 
 2857  2858  2859  2860  2861  2862  2863  2864  2865  2866  2867  2868  2869  2870  2871  2872  2873  2874  2875  2876  2877 
 2878  2879  2880  2881  2882  2883  2884  2885  2886  2887  2888  2889  2890  2891  2892  2893  2894  2895  2896  2897  2898 
 2899  2900  2901  2902  2903  2904  2905  2906  2907  2908  2909  2910  2911  2912  2913  2914  2915  2916  2917  2918  2919 
 2920  2921  2922  2923  2924  2925  2926  2927  2928  2929  2930  2931  2932  2933  2934  2935  2936  2937  2938  2939  2940 
 2941  2942  2943  2944  2945  2946  2947  2948  2949  2950  2951  2952  2953  2954  2955  2956  2957  2958  2959  2960  2961 
 2962  2963  2964  2965  2966  2967  2968  2969  2970  2971  2972  2973  2974  2975  2976  2977  2978  2979  2980  2981  2982 
 2983  2984  2985  2986  2987  2988  2989  2990  2991  2992  2993  2994  2995  2996  2997  2998  2999  3000  3001  3002  3003 
 3004  3005  3006  3007  3008  3009  3010  3011  3012  3013  3014  3015  3016  3017  3018  3019  3020  3021  3022  3023  3024 
 3025  3026  3027  3028  3029  3030  3031  3032  3033  3034  3035  3036  3037  3038  3039  3040  3041  3042  3043  3044  3045 
 3046  3047  3048  3049  3050  3051  3052  3053  3054  3055  3056  3057  3058  3059  3060  3061  3062  3063  3064  3065  3066 
 3067  3068  3069  3070  3071  3072  3073  3074  3075  3076  3077  3078  3079  3080  3081  3082  3083  3084  3085  3086  3087 
 3088  3089  3090  3091  3092  3093  3094  3095  3096  3097  3098  3099  3100  3101  3102  3103  3104  3105  3106  3107  3108 
 3109  3110  3111  3112  3113  3114  3115  3116  3117  3118  3119  3120  3121  3122  3123  3124  3125  3126  3127  3128  3129 
 3130  3131  3132  3133  3134  3135  3136  3137  3138  3139  3140  3141  3142  3143  3144  3145  3146  3147  3148  3149  3150 
 3151  3152  3153  3154  3155  3156  3157  3158  3159  3160  3161  3162  3163  3164  3165  3166  3167  3168  3169  3170  3171 
 3172  3173  3174  3175  3176  3177  3178  3179  3180  3181  3182  3183  3184  3185  3186  3187  3188  3189  3190  3191  3192 
 3193  3194  3195  3196  3197  3198  3199  3200  3201  3202  3203  3204  3205  3206  3207  3208  3209  3210  3211  3212  3213 
 3214  3215  3216  3217  3218  3219  3220  3221  3222  3223  3224  3225  3226  3227  3228  3229  3230  3231  3232  3233  3234 
 3235  3236  3237  3238  3239  3240  3241  3242  3243  3244  3245  3246  3247  3248  3249  3250  3251  3252  3253  3254  3255 
 3256  3257  3258  3259  3260  3261  3262  3263  3264  3265  3266  3267  3268  3269  3270  3271  3272  3273  3274  3275  3276 
 3277  3278  3279  3280  3281  3282  3283  3284  3285  3286  3287  3288  3289  3290  3291  3292  3293  3294  3295  3296  3297 
 3298  3299  3300  3301  3302  3303  3304  3305  3306  3307  3308  3309  3310  3311  3312  3313  3314  3315  3316  3317  3318 
 3319  3320  3321  3322  3323  3324  3325  3326  3327  3328  3329  3330  3331  3332  3333  3334  3335  3336  3337  3338  3339 
 3340  3341  3342  3343  3344  3345  3346  3347  3348  3349  3350  3351  3352  3353  3354  3355  3356  3357  3358  3359  3360 
 3361  3362  3363  3364  3365  3366  3367  3368  3369  3370  3371  3372  3373  3374  3375  3376  3377  3378  3379  3380  3381 
 3382  3383  3384  3385  3386  3387  3388  3389  3390  3391  3392  3393  3394  3395  3396  3397  3398  3399  3400  3401  3402 
 3403  3404  3405  3406  3407  3408  3409  3410  3411  3412  3413  3414  3415  3416  3417  3418  3419  3420  3421  3422  3423 
 3424  3425  3426  3427  3428  3429  3430  3431  3432  3433  3434  3435  3436  3437  3438  3439  3440  3441  3442  3443  3444 
 3445  3446  3447  3448  3449  3450  3451  3452  3453  3454  3455  3456  3457  3458  3459  3460  3461  3462  3463  3464  3465 
 3466  3467  3468  3469  3470  3471  3472  3473  3474  3475  3476  3477  3478  3479  3480  3481  3482  3483  3484  3485  3486 
 3487  3488  3489  3490  3491  3492  3493  3494  3495  3496  3497  3498  3499  3500  3501  3502  3503  3504  3505  3506  3507 
 3508  3509  3510  3511  3512  3513  3514  3515  3516  3517  3518  3519  3520  3521  3522  3523  3524  3525  3526  3527  3528 
 3529  3530  3531  3532  3533  3534  3535  3536  3537  3538  3539  3540  3541  3542  3543  3544  3545  3546  3547  3548  3549 
 3550  3551  3552  3553  3554  3555  3556  3557  3558  3559  3560  3561  3562  3563  3564  3565  3566  3567  3568  3569  3570 
 3571  3572  3573  3574  3575  3576  3577  3578  3579  3580  3581  3582  3583  3584  3585  3586  3587  3588  3589  3590  3591 
 3592  3593  3594  3595  3596  3597  3598  3599  3600  3601  3602  3603  3604  3605  3606  3607  3608  3609  3610  3611  3612 
 3613  3614  3615  3616  3617  3618  3619  3620  3621  3622  3623  3624  3625  3626  3627  3628  3629  3630  3631  3632  3633 
 3634  3635  3636  3637  3638  3639  3640  3641  3642  3643  3644  3645  3646  3647  3648  3649  3650  3651  3652  3653  3654 
 3655  3656  3657  3658  3659  3660  3661  3662  3663  3664  3665  3666  3667  3668  3669  3670  3671  3672  3673  3674  3675 
 3676  3677  3678  3679  3680  3681  3682  3683  3684  3685  3686  3687  3688  3689  3690  3691  3692  3693  3694  3695  3696 
 3697  3698  3699  3700  3701  3702  3703  3704  3705  3706  3707  3708  3709  3710  3711  3712  3713  3714  3715  3716  3717 
 3718  3719  3720  3721  3722  3723  3724  3725  3726  3727  3728  3729  3730  3731  3732  3733  3734  3735  3736  3737  3738 
 3739  3740  3741  3742  3743  3744  3745  3746  3747  3748  3749  3750  3751  3752  3753  3754  3755  3756  3757  3758  3759 
 3760  3761  3762  3763  3764  3765  3766  3767  3768  3769  3770  3771  3772  3773  3774  3775  3776  3777  3778  3779  3780 
 3781  3782  3783  3784  3785  3786  3787  3788  3789  3790  3791  3792  3793  3794  3795  3796  3797  3798  3799  3800  3801 
 3802  3803  3804  3805  3806  3807  3808  3809  3810  3811  3812  3813  3814  3815  3816  3817  3818  3819  3820  3821  3822 
 3823  3824  3825  3826  3827  3828  3829  3830  3831  3832  3833  3834  3835  3836  3837  3838  3839  3840  3841  3842  3843 
 3844  3845  3846  3847  3848  3849  3850  3851  3852  3853  3854  3855  3856  3857  3858  3859  3860  3861  3862  3863  3864 
 3865  3866  3867  3868  3869  3870  3871  3872  3873  3874  3875  3876  3877  3878  3879  3880  3881  3882  3883  3884  3885 
 3886  3887  3888  3889  3890  3891  3892  3893  3894  3895  3896  3897  3898  3899  3900  3901  3902  3903  3904  3905  3906 
 3907  3908  3909  3910  3911  3912  3913  3914  3915  3916  3917  3918  3919  3920  3921  3922  3923  3924  3925  3926  3927 
 3928  3929  3930  3931  3932  3933  3934  3935  3936  3937  3938  3939  3940  3941  3942  3943  3944  3945  3946  3947  3948 
 3949  3950  3951  3952  3953  3954  3955  3956  3957  3958  3959  3960  3961  3962  3963  3964  3965  3966  3967  3968  3969 
 3970  3971  3972  3973  3974  3975  3976  3977  3978  3979  3980  3981  3982  3983  3984  3985  3986  3987  3988  3989  3990 
 3991  3992  3993  3994  3995  3996  3997  3998  3999  4000  4001  4002  4003  4004  4005  4006  4007  4008  4009  4010  4011 
 4012  4013  4014  4015  4016  4017  4018  4019  4020  4021  4022  4023  4024  4025  4026  4027  4028  4029  4030  4031  4032 
 4033  4034  4035  4036  4037  4038  4039  4040  4041  4042  4043  4044  4045  4046  4047  4048  4049  4050  4051  4052  4053 
 4054  4055  4056  4057  4058  4059  4060  4061  4062  4063  4064  4065  4066  4067  4068  4069  4070  4071  4072  4073  4074 
 4075  4076  4077  4078  4079  4080  4081  4082  4083  4084  4085  4086  4087  4088  4089  4090  4091  4092  4093  4094  4095 
 4096  4097  4098  4099  4100  4101  4102  4103  4104  4105  4106  4107  4108  4109  4110  4111  4112  4113  4114  4115  4116 
 4117  4118  4119  4120  4121  4122  4123  4124  4125  4126  4127  4128  4129  4130  4131  4132  4133  4134  4135  4136  4137 
 4138  4139  4140  4141  4142  4143  4144  4145  4146  4147  4148  4149  4150  4151  4152  4153  4154  4155  4156  4157  4158 
 4159  4160  4161  4162  4163  4164  4165  4166  4167  4168  4169  4170  4171  4172  4173  4174  4175  4176  4177  4178  4179 
 4180  4181  4182  4183  4184  4185  4186  4187  4188  4189  4190  4191  4192  4193  4194  4195  4196  4197  4198  4199  4200 
 4201  4202  4203  4204  4205  4206  4207  4208  4209  4210  4211  4212  4213  4214  4215  4216  4217  4218  4219  4220  4221 
 4222  4223  4224  4225  4226  4227  4228  4229  4230  4231  4232  4233  4234  4235  4236  4237  4238  4239  4240  4241  4242 
 4243  4244  4245  4246  4247  4248  4249  4250  4251  4252  4253  4254  4255  4256  4257  4258  4259  4260  4261  4262  4263 
 4264  4265  4266  4267  4268  4269  4270  4271  4272  4273  4274  4275  4276  4277  4278  4279  4280  4281  4282  4283  4284 
 4285  4286  4287  4288  4289  4290  4291  4292  4293  4294  4295  4296  4297  4298  4299  4300  4301  4302  4303  4304  4305 
 4306  4307  4308  4309  4310  4311  4312  4313  4314  4315  4316  4317  4318  4319  4320  4321  4322  4323  4324  4325  4326 
 4327  4328  4329  4330  4331  4332  4333  4334  4335  4336  4337  4338  4339  4340  4341  4342  4343  4344  4345  4346  4347 
 4348  4349  4350  4351  4352  4353  4354  4355  4356  4357  4358  4359  4360  4361  4362  4363  4364  4365  4366  4367  4368 
 4369  4370  4371  4372  4373  4374  4375  4376  4377  4378  4379  4380  4381  4382  4383  4384  4385  4386  4387  4388  4389 
 4390  4391  4392  4393  4394  4395  4396  4397  4398  4399  4400  4401  4402  4403  4404  4405  4406  4407  4408  4409  4410 
 4411  4412  4413  4414  4415  4416  4417  4418  4419  4420  4421  4422  4423  4424  4425  4426  4427  4428  4429  4430  4431 
 4432  4433  4434  4435  4436  4437  4438  4439  4440  4441  4442  4443  4444  4445  4446  4447  4448  4449  4450  4451  4452 
 4453  4454  4455  4456  4457  4458  4459  4460  4461  4462  4463  4464  4465  4466  4467  4468  4469  4470  4471  4472  4473 
 4474  4475  4476  4477  4478  4479  4480  4481  4482  4483  4484  4485  4486  4487  4488  4489  4490  4491  4492  4493  4494 
 4495  4496  4497  4498  4499  4500  4501  4502  4503  4504  4505  4506  4507  4508  4509  4510  4511  4512  4513  4514  4515 
 4516  4517  4518  4519  4520  4521  4522  4523  4524  4525  4526  4527  4528  4529  4530  4531  4532  4533  4534  4535  4536 
 4537  4538  4539  4540  4541  4542  4543  4544  4545  4546  4547  4548  4549  4550  4551  4552  4553  4554  4555  4556  4557 
 4558  4559  4560  4561  4562  4563  4564  4565  4566  4567  4568  4569  4570  4571  4572  4573  4574  4575  4576  4577  4578 
 4579  4580  4581  4582  4583  4584  4585  4586  4587  4588  4589  4590  4591  4592  4593  4594  4595  4596  4597  4598  4599 
 4600  4601  4602  4603  4604  4605  4606  4607  4608  4609  4610  4611  4612  4613  4614  4615  4616  4617  4618  4619  4620 
 4621  4622  4623  4624  4625  4626  4627  4628  4629  4630  4631  4632  4633  4634  4635  4636  4637  4638  4639  4640  4641 
 4642  4643  4644  4645  4646  4647  4648  4649  4650  4651  4652  4653  4654  4655  4656  4657  4658  4659  4660  4661  4662 
 4663  4664  4665  4666  4667  4668  4669  4670  4671  4672  4673  4674  4675  4676  4677  4678  4679  4680  4681  4682  4683 
 4684  4685  4686  4687  4688  4689  4690  4691  4692  4693  4694  4695  4696  4697  4698  4699  4700  4701  4702  4703  4704 
 4705  4706  4707  4708  4709  4710  4711  4712  4713  4714  4715  4716  4717  4718  4719  4720  4721  4722  4723  4724  4725 
 4726  4727  4728  4729  4730  4731  4732  4733  4734  4735  4736  4737  4738  4739  4740  4741  4742  4743  4744  4745  4746 
 4747  4748  4749  4750  4751  4752  4753  4754  4755  4756  4757  4758  4759  4760  4761  4762  4763  4764  4765  4766  4767 
 4768  4769  4770  4771  4772  4773  4774  4775  4776  4777  4778  4779  4780  4781  4782  4783  4784  4785  4786  4787  4788 
 4789  4790  4791  4792  4793  4794  4795  4796  4797  4798  4799  4800  4801  4802  4803  4804  4805  4806  4807  4808  4809 
 4810  4811  4812  4813  4814  4815  4816  4817  4818  4819  4820  4821  4822  4823  4824  4825  4826  4827  4828  4829  4830 
 4831  4832  4833  4834  4835  4836  4837  4838  4839  4840  4841  4842  4843  4844  4845  4846  4847  4848  4849  4850  4851 
 4852  4853  4854  4855  4856  4857  4858  4859  4860  4861  4862  4863  4864  4865  4866  4867  4868  4869  4870  4871  4872 
 4873  4874  4875  4876  4877  4878  4879  4880  4881  4882  4883  4884  4885  4886  4887  4888  4889  4890  4891  4892  4893 
 4894  4895  4896  4897  4898  4899  4900  4901  4902  4903  4904  4905  4906  4907  4908  4909  4910  4911  4912  4913  4914 
 4915  4916  4917  4918  4919  4920  4921  4922  4923  4924  4925  4926  4927  4928  4929  4930  4931  4932  4933  4934  4935 
 4936  4937  4938  4939  4940  4941  4942  4943  4944  4945  4946  4947  4948  4949  4950  4951  4952  4953  4954  4955  4956 
 4957  4958  4959  4960  4961  4962  4963  4964  4965  4966  4967  4968  4969  4970  4971  4972  4973  4974  4975  4976  4977 
 4978  4979  4980  4981  4982  4983  4984  4985  4986  4987  4988  4989  4990  4991  4992  4993  4994  4995  4996  4997  4998 
 4999  5000  5001  5002  5003  5004  5005  5006  5007  5008  5009  5010  5011  5012  5013  5014  5015  5016  5017  5018  5019 
 5020  5021  5022  5023  5024  5025  5026  5027  5028  5029  5030  5031  5032  5033  5034  5035  5036  5037  5038  5039  5040 
 5041  5042  5043  5044  5045  5046  5047  5048  5049  5050  5051  5052  5053  5054  5055  5056  5057  5058  5059  5060  5061 
 5062  5063  5064  5065  5066  5067  5068  5069  5070  5071  5072  5073  5074  5075  5076  5077  5078  5079  5080  5081  5082 
 5083  5084  5085  5086  5087  5088  5089  5090  5091  5092  5093  5094  5095  5096  5097  5098  5099  5100  5101  5102  5103 
 5104  5105  5106  5107  5108  5109  5110  5111  5112  5113  5114  5115  5116  5117  5118  5119  5120  5121  5122  5123  5124 
 5125  5126  5127  5128  5129  5130  5131  5132  5133  5134  5135  5136  5137  5138  5139  5140  5141  5142  5143  5144  5145 
 5146  5147  5148  5149  5150  5151  5152  5153  5154  5155  5156  5157  5158  5159  5160  5161  5162  5163  5164  5165  5166 
 5167  5168  5169  5170  5171  5172  5173  5174  5175  5176  5177  5178  5179  5180  5181  5182  5183  5184  5185  5186  5187 
 5188  5189  5190  5191  5192  5193  5194  5195  5196  5197  5198  5199  5200  5201  5202  5203  5204  5205  5206  5207  5208 
 5209  5210  5211  5212  5213  5214  5215  5216  5217  5218  5219  5220  5221  5222  5223  5224  5225  5226  5227  5228  5229 
 5230  5231  5232  5233  5234  5235  5236  5237  5238  5239  5240  5241  5242  5243  5244  5245  5246  5247  5248  5249  5250 
 5251  5252  5253  5254  5255  5256  5257  5258  5259  5260  5261  5262  5263  5264  5265  5266  5267  5268  5269  5270  5271 
 5272  5273  5274  5275  5276  5277  5278  5279  5280  5281  5282  5283  5284  5285  5286  5287  5288  5289  5290  5291  5292 
 5293  5294  5295  5296  5297  5298  5299  5300  5301  5302  5303  5304  5305  5306  5307  5308  5309  5310  5311  5312  5313 
 5314  5315  5316  5317  5318  5319  5320  5321  5322  5323  5324  5325  5326  5327  5328  5329  5330  5331  5332  5333  5334 
 5335  5336  5337  5338  5339  5340  5341  5342  5343  5344  5345  5346  5347  5348  5349  5350  5351  5352  5353  5354  5355 
 5356  5357  5358  5359  5360  5361  5362  5363  5364  5365  5366  5367  5368  5369  5370  5371  5372  5373  5374  5375  5376 
 5377  5378  5379  5380  5381  5382  5383  5384  5385  5386  5387  5388  5389  5390  5391  5392  5393  5394  5395  5396  5397 
 5398  5399  5400  5401  5402  5403  5404  5405  5406  5407  5408  5409  5410  5411  5412  5413  5414  5415  5416  5417  5418 
 5419  5420  5421  5422  5423  5424  5425  5426  5427  5428  5429  5430  5431  5432  5433  5434  5435  5436  5437  5438  5439 
 5440  5441  5442  5443  5444  5445  5446  5447  5448  5449  5450  5451  5452  5453  5454  5455  5456  5457  5458  5459  5460 
 5461  5462  5463  5464  5465  5466  5467  5468  5469  5470  5471  5472  5473  5474  5475  5476  5477  5478  5479  5480  5481 
 5482  5483  5484  5485  5486  5487  5488  5489  5490  5491  5492  5493  5494  5495  5496  5497  5498  5499  5500  5501  5502 
 5503  5504  5505  5506  5507  5508  5509  5510  5511  5512  5513  5514  5515  5516  5517  5518  5519  5520  5521  5522  5523 
 5524  5525  5526  5527  5528  5529  5530  5531  5532  5533  5534  5535  5536  5537  5538  5539  5540  5541  5542  5543  5544 
 5545  5546  5547  5548  5549  5550  5551  5552  5553  5554  5555  5556  5557  5558  5559  5560  5561  5562  5563  5564  5565 
 5566  5567  5568  5569  5570  5571  5572  5573  5574  5575  5576  5577  5578  5579  5580  5581  5582  5583  5584  5585  5586 
 5587  5588  5589  5590  5591  5592  5593  5594  5595  5596  5597  5598  5599  5600  5601  5602  5603  5604  5605  5606  5607 
 5608  5609  5610  5611  5612  5613  5614  5615  5616  5617  5618  5619  5620  5621  5622  5623  5624  5625  5626  5627  5628 
 5629  5630  5631  5632  5633  5634  5635  5636  5637  5638  5639  5640  5641  5642  5643  5644  5645  5646  5647  5648  5649 
 5650  5651  5652  5653  5654  5655  5656  5657  5658  5659  5660  5661  5662  5663  5664  5665  5666  5667  5668  5669  5670 
 5671  5672  5673  5674  5675  5676  5677  5678  5679  5680  5681  5682  5683  5684  5685  5686  5687  5688  5689  5690  5691 
 5692  5693  5694  5695  5696  5697  5698  5699  5700  5701  5702  5703  5704  5705  5706  5707  5708  5709  5710  5711  5712 
 5713  5714  5715  5716  5717  5718  5719  5720  5721  5722  5723  5724  5725  5726  5727  5728  5729  5730  5731  5732  5733 
 5734  5735  5736  5737  5738  5739  5740  5741  5742  5743  5744  5745  5746  5747  5748  5749  5750  5751  5752  5753  5754 
 5755  5756  5757  5758  5759  5760  5761  5762  5763  5764  5765  5766  5767  5768  5769  5770  5771  5772  5773  5774  5775 
 5776  5777  5778  5779  5780  5781  5782  5783  5784  5785  5786  5787  5788  5789  5790  5791  5792  5793  5794  5795  5796 
 5797  5798  5799  5800  5801  5802  5803  5804  5805  5806  5807  5808  5809  5810  5811  5812  5813  5814  5815  5816  5817 
 5818  5819  5820  5821  5822  5823  5824  5825  5826  5827  5828  5829  5830  5831  5832  5833  5834  5835  5836  5837  5838 
 5839  5840  5841  5842  5843  5844  5845  5846  5847  5848  5849  5850  5851  5852  5853  5854  5855  5856  5857  5858  5859 
 5860  5861  5862  5863  5864  5865  5866  5867  5868  5869  5870  5871  5872  5873  5874  5875  5876  5877  5878  5879  5880 
 5881  5882  5883  5884  5885  5886  5887  5888  5889  5890  5891  5892  5893  5894  5895  5896  5897  5898  5899  5900  5901 
 5902  5903  5904  5905  5906  5907  5908  5909  5910  5911  5912  5913  5914  5915  5916  5917  5918  5919  5920  5921  5922 
 5923  5924  5925  5926  5927  5928  5929  5930  5931  5932  5933  5934  5935  5936  5937  5938  5939  5940  5941  5942  5943 
 5944  5945  5946  5947  5948  5949  5950  5951  5952  5953  5954  5955  5956  5957  5958  5959  5960  5961  5962  5963  5964 
 5965  5966  5967  5968  5969  5970  5971  5972  5973  5974  5975  5976  5977  5978  5979  5980  5981  5982  5983  5984  5985 
 5986  5987  5988  5989  5990  5991  5992  5993  5994  5995  5996  5997  5998  5999  6000  6001  6002  6003  6004  6005  6006 
 6007  6008  6009  6010  6011  6012  6013  6014  6015  6016  6017  6018  6019  6020  6021  6022  6023  6024  6025  6026  6027 
 6028  6029  6030  6031  6032  6033  6034  6035  6036  6037  6038  6039  6040  6041  6042  6043  6044  6045  6046  6047  6048 
 6049  6050  6051  6052  6053  6054  6055  6056  6057  6058  6059  6060  6061  6062  6063  6064  6065  6066  6067  6068  6069 
 6070  6071  6072  6073  6074  6075  6076  6077  6078  6079  6080  6081  6082  6083  6084  6085  6086  6087  6088  6089  6090 
 6091  6092  6093  6094  6095  6096  6097  6098  6099  6100  6101  6102  6103  6104  6105  6106  6107  6108  6109  6110  6111 
 6112  6113  6114  6115  6116  6117  6118  6119  6120  6121  6122  6123  6124  6125  6126  6127  6128  6129  6130  6131  6132 
 6133  6134  6135  6136  6137  6138  6139  6140  6141  6142  6143  6144  6145  6146  6147  6148  6149  6150  6151  6152  6153 
 6154  6155  6156  6157  6158  6159  6160  6161  6162  6163  6164  6165  6166  6167  6168  6169  6170  6171  6172  6173  6174 
 6175  6176  6177  6178  6179  6180  6181  6182  6183  6184  6185  6186  6187  6188  6189  6190  6191  6192  6193  6194  6195 
 6196  6197  6198  6199  6200  6201  6202  6203  6204  6205  6206  6207  6208  6209  6210  6211  6212  6213  6214  6215  6216 
 6217  6218  6219  6220  6221  6222  6223  6224  6225  6226  6227  6228  6229  6230  6231  6232  6233  6234  6235  6236  6237 
 6238  6239  6240  6241  6242  6243  6244  6245  6246  6247  6248  6249  6250  6251  6252  6253  6254  6255  6256  6257  6258 
 6259  6260  6261  6262  6263  6264  6265  6266  6267  6268  6269  6270  6271  6272  6273  6274  6275  6276  6277  6278  6279 
 6280  6281  6282  6283  6284  6285  6286  6287  6288  6289  6290  6291  6292  6293  6294  6295  6296  6297  6298  6299  6300 
 6301  6302  6303  6304  6305  6306  6307  6308  6309  6310  6311  6312  6313  6314  6315  6316  6317  6318  6319  6320  6321 
 6322  6323  6324  6325  6326  6327  6328  6329  6330  6331  6332  6333  6334  6335  6336  6337  6338  6339  6340  6341  6342 
 6343  6344  6345  6346  6347  6348  6349  6350  6351  6352  6353  6354  6355  6356  6357  6358  6359  6360  6361  6362  6363 
 6364  6365  6366  6367  6368  6369  6370  6371  6372  6373  6374  6375  6376  6377  6378  6379  6380  6381  6382  6383  6384 
 6385  6386  6387  6388  6389  6390  6391  6392  6393  6394  6395  6396  6397  6398  6399  6400  6401  6402  6403  6404  6405 
 6406  6407  6408  6409  6410  6411  6412  6413  6414  6415  6416  6417  6418  6419  6420  6421  6422  6423  6424  6425  6426 
 6427  6428  6429  6430  6431  6432  6433  6434  6435  6436  6437  6438  6439  6440  6441  6442  6443  6444  6445  6446  6447 
 6448  6449  6450  6451  6452  6453  6454  6455  6456  6457  6458  6459  6460  6461  6462  6463  6464  6465  6466  6467  6468 
 6469  6470  6471  6472  6473  6474  6475  6476  6477  6478  6479  6480  6481  6482  6483  6484  6485  6486  6487  6488  6489 
 6490  6491  6492  6493  6494  6495  6496  6497  6498  6499  6500  6501  6502  6503  6504  6505  6506  6507  6508  6509  6510 
 6511  6512  6513  6514  6515  6516  6517  6518  6519  6520  6521  6522  6523  6524  6525  6526  6527  6528  6529  6530  6531 
 6532  6533  6534  6535  6536  6537  6538  6539  6540  6541  6542  6543  6544  6545  6546  6547  6548  6549  6550  6551  6552 
 6553  6554  6555  6556  6557  6558  6559  6560  6561  6562  6563  6564  6565  6566  6567  6568  6569  6570  6571  6572  6573 
 6574  6575  6576  6577  6578  6579  6580  6581  6582  6583  6584  6585  6586  6587  6588  6589  6590  6591  6592  6593  6594 
 6595  6596  6597  6598  6599  6600  6601  6602  6603  6604  6605  6606  6607  6608  6609  6610  6611  6612  6613  6614  6615 
 6616  6617  6618  6619  6620  6621  6622  6623  6624  6625  6626  6627  6628  6629  6630  6631  6632  6633  6634  6635  6636 
 6637  6638  6639  6640  6641  6642  6643  6644  6645  6646  6647  6648  6649  6650  6651  6652  6653  6654  6655  6656  6657 
 6658  6659  6660  6661  6662  6663  6664  6665  6666  6667  6668  6669  6670  6671  6672  6673  6674  6675  6676  6677  6678 
 6679  6680  6681  6682  6683  6684  6685  6686  6687  6688  6689  6690  6691  6692  6693  6694  6695  6696  6697  6698  6699 
 6700  6701  6702  6703  6704  6705  6706  6707  6708  6709  6710  6711  6712  6713  6714  6715  6716  6717  6718  6719  6720 
 6721  6722  6723  6724  6725  6726  6727  6728  6729  6730  6731  6732  6733  6734  6735  6736  6737  6738  6739  6740  6741 
 6742  6743  6744  6745  6746  6747  6748  6749  6750  6751  6752  6753  6754  6755  6756  6757  6758  6759  6760  6761  6762 
 6763  6764  6765  6766  6767  6768  6769  6770  6771  6772  6773  6774  6775  6776  6777  6778  6779  6780  6781  6782  6783 
 6784  6785  6786  6787  6788  6789  6790  6791  6792  6793  6794  6795  6796  6797  6798  6799  6800  6801  6802  6803  6804 
 6805  6806  6807  6808  6809  6810  6811  6812  6813  6814  6815  6816  6817  6818  6819  6820  6821  6822  6823  6824  6825 
 6826  6827  6828  6829  6830  6831  6832  6833  6834  6835  6836  6837  6838  6839  6840  6841  6842  6843  6844  6845  6846 
 6847  6848  6849  6850  6851  6852  6853  6854  6855  6856  6857  6858  6859  6860  6861  6862  6863  6864  6865  6866  6867 
 6868  6869  6870  6871  6872  6873  6874  6875  6876  6877  6878  6879  6880  6881  6882  6883  6884  6885  6886  6887  6888 
 6889  6890  6891  6892  6893  6894  6895  6896  6897  6898  6899  6900  6901  6902  6903  6904  6905  6906  6907  6908  6909 
 6910  6911  6912  6913  6914  6915  6916  6917  6918  6919  6920  6921  6922  6923  6924  6925  6926  6927  6928  6929  6930 
 6931  6932  6933  6934  6935  6936  6937  6938  6939  6940  6941  6942  6943  6944  6945  6946  6947  6948  6949  6950  6951 
 6952  6953  6954  6955  6956  6957  6958  6959  6960  6961  6962  6963  6964  6965  6966  6967  6968  6969  6970  6971  6972 
 6973  6974  6975  6976  6977  6978  6979  6980  6981  6982  6983  6984  6985  6986  6987  6988  6989  6990  6991  6992  6993 
 6994  6995  6996  6997  6998  6999  7000  7001  7002  7003  7004  7005  7006  7007  7008  7009  7010  7011  7012  7013  7014 
 7015  7016  7017  7018  7019  7020  7021  7022  7023  7024  7025  7026  7027  7028  7029  7030  7031  7032  7033  7034  7035 
 7036  7037  7038  7039  7040  7041  7042  7043  7044  7045  7046  7047  7048  7049  7050  7051  7052  7053  7054  7055  7056 
 7057  7058  7059  7060  7061  7062  7063  7064  7065  7066  7067  7068  7069  7070  7071  7072  7073  7074  7075  7076  7077 
 7078  7079  7080  7081  7082  7083  7084  7085  7086  7087  7088  7089  7090  7091  7092  7093  7094  7095  7096  7097  7098 
 7099  7100  7101  7102  7103  7104  7105  7106  7107  7108  7109  7110  7111  7112  7113  7114  7115  7116  7117  7118  7119 
 7120  7121  7122  7123  7124  7125  7126  7127  7128  7129  7130  7131  7132  7133  7134  7135  7136  7137  7138  7139  7140 
 7141  7142  7143  7144  7145  7146  7147  7148  7149  7150  7151  7152  7153  7154  7155  7156  7157  7158  7159  7160  7161 
 7162  7163  7164  7165  7166  7167  7168  7169  7170  7171  7172  7173  7174  7175  7176  7177  7178  7179  7180  7181  7182 
 7183  7184  7185  7186  7187  7188  7189  7190  7191  7192  7193  7194  7195  7196  7197  7198  7199  7200  7201  7202  7203 
 7204  7205  7206  7207  7208  7209  7210  7211  7212  7213  7214  7215  7216  7217  7218  7219  7220  7221  7222  7223  7224 
 7225  7226  7227  7228  7229  7230  7231  7232  7233  7234  7235  7236  7237  7238  7239  7240  7241  7242  7243  7244  7245 
 7246  7247  7248  7249  7250  7251  7252  7253  7254  7255  7256  7257  7258  7259  7260  7261  7262  7263  7264  7265  7266 
 7267  7268  7269  7270  7271  7272  7273  7274  7275  7276  7277  7278  7279  7280  7281  7282  7283  7284  7285  7286  7287 
 7288  7289  7290  7291  7292  7293  7294  7295  7296  7297  7298  7299  7300  7301  7302  7303  7304  7305  7306  7307  7308 
 7309  7310  7311  7312  7313  7314  7315  7316  7317  7318  7319  7320  7321  7322  7323  7324  7325  7326  7327  7328  7329 
 7330  7331  7332  7333  7334  7335  7336  7337  7338  7339  7340  7341  7342  7343  7344  7345  7346  7347  7348  7349  7350 
 7351  7352  7353  7354  7355  7356  7357  7358  7359  7360  7361  7362  7363  7364  7365  7366  7367  7368  7369  7370  7371 
 7372  7373  7374  7375  7376  7377  7378  7379  7380  7381  7382  7383  7384  7385  7386  7387  7388  7389  7390  7391  7392 
 7393  7394  7395  7396  7397  7398  7399  7400  7401  7402  7403  7404  7405  7406  7407  7408  7409  7410  7411  7412  7413 
 7414  7415  7416  7417  7418  7419  7420  7421  7422  7423  7424  7425  7426  7427  7428  7429  7430  7431  7432  7433  7434 
 7435  7436  7437  7438  7439  7440  7441  7442  7443  7444  7445  7446  7447  7448  7449  7450  7451  7452  7453  7454  7455 
 7456  7457  7458  7459  7460  7461  7462  7463  7464  7465  7466  7467  7468  7469  7470  7471  7472  7473  7474  7475  7476 
 7477  7478  7479  7480  7481  7482  7483  7484  7485  7486  7487  7488  7489  7490  7491  7492  7493  7494  7495  7496  7497 
 7498  7499  7500  7501  7502  7503  7504  7505  7506  7507  7508  7509  7510  7511  7512  7513  7514  7515  7516  7517  7518 
 7519  7520  7521  7522  7523  7524  7525  7526  7527  7528  7529  7530  7531  7532  7533  7534  7535  7536  7537  7538  7539 
 7540  7541  7542  7543  7544  7545  7546  7547  7548  7549  7550  7551  7552  7553  7554  7555  7556  7557  7558  7559  7560 
 7561  7562  7563  7564  7565  7566  7567  7568  7569  7570  7571  7572  7573  7574  7575  7576  7577  7578  7579  7580  7581 
 7582  7583  7584  7585  7586  7587  7588  7589  7590  7591  7592  7593  7594  7595  7596  7597  7598  7599  7600  7601  7602 
 7603  7604  7605  7606  7607  7608  7609  7610  7611  7612  7613  7614  7615  7616  7617  7618  7619  7620  7621  7622  7623 
 7624  7625  7626  7627  7628  7629  7630  7631  7632  7633  7634  7635  7636  7637  7638  7639  7640  7641  7642  7643  7644 
 7645  7646  7647  7648  7649  7650  7651  7652  7653  7654  7655  7656  7657  7658  7659  7660  7661  7662  7663  7664  7665 
 7666  7667  7668  7669  7670  7671  7672  7673  7674  7675  7676  7677  7678  7679  7680  7681  7682  7683  7684  7685  7686 
 7687  7688  7689  7690  7691  7692  7693  7694  7695  7696  7697  7698  7699  7700  7701  7702  7703  7704  7705  7706  7707 
 7708  7709  7710  7711  7712  7713  7714  7715  7716  7717  7718  7719  7720  7721  7722  7723  7724  7725  7726  7727  7728 
 7729  7730  7731  7732  7733  7734  7735  7736  7737  7738  7739  7740  7741  7742  7743  7744  7745  7746  7747  7748  7749 
 7750  7751  7752  7753  7754  7755  7756  7757  7758  7759  7760  7761  7762  7763  7764  7765  7766  7767  7768  7769  7770 
 7771  7772  7773  7774  7775  7776  7777  7778  7779  7780  7781  7782  7783  7784  7785  7786  7787  7788  7789  7790  7791 
 7792  7793  7794  7795  7796  7797  7798  7799  7800  7801  7802  7803  7804  7805  7806  7807  7808  7809  7810  7811  7812 
 7813  7814  7815  7816  7817  7818  7819  7820  7821  7822  7823  7824  7825  7826  7827  7828  7829  7830  7831  7832  7833 
 7834  7835  7836  7837  7838  7839  7840  7841  7842  7843  7844  7845  7846  7847  7848  7849  7850  7851  7852  7853  7854 
 7855  7856  7857  7858  7859  7860  7861  7862  7863  7864  7865  7866  7867  7868  7869  7870  7871  7872  7873  7874  7875 
 7876  7877  7878  7879  7880  7881  7882  7883  7884  7885  7886  7887  7888  7889  7890  7891  7892  7893  7894  7895  7896 
 7897  7898  7899  7900  7901  7902  7903  7904  7905  7906  7907  7908  7909  7910  7911  7912  7913  7914  7915  7916  7917 
 7918  7919  7920  7921  7922  7923  7924  7925  7926  7927  7928  7929  7930  7931  7932  7933  7934  7935  7936  7937  7938 
 7939  7940  7941  7942  7943  7944  7945  7946  7947  7948  7949  7950  7951  7952  7953  7954  7955  7956  7957  7958  7959 
 7960  7961  7962  7963  7964  7965  7966  7967  7968  7969  7970  7971  7972  7973  7974  7975  7976  7977  7978  7979  7980 
 7981  7982  7983  7984  7985  7986  7987  7988  7989  7990  7991  7992  7993  7994  7995  7996  7997  7998  7999  8000  8001 
 8002  8003  8004  8005  8006  8007  8008  8009  8010  8011  8012  8013  8014  8015  8016  8017  8018  8019  8020  8021  8022 
 8023  8024  8025  8026  8027  8028  8029  8030  8031  8032  8033  8034  8035  8036  8037  8038  8039  8040  8041  8042  8043 
 8044  8045  8046  8047  8048  8049  8050  8051  8052  8053  8054  8055  8056  8057  8058  8059  8060  8061  8062  8063  8064 
 8065  8066  8067  8068  8069  8070  8071  8072  8073  8074  8075  8076  8077  8078  8079  8080  8081  8082  8083  8084  8085 
 8086  8087  8088  8089  8090  8091  8092  8093  8094  8095  8096  8097  8098  8099  8100  8101  8102  8103  8104  8105  8106 
 8107  8108  8109  8110  8111  8112  8113  8114  8115  8116  8117  8118  8119  8120  8121  8122  8123  8124  8125  8126  8127 
 8128  8129  8130  8131  8132  8133  8134  8135  8136  8137  8138  8139  8140  8141  8142  8143  8144  8145  8146  8147  8148 
 8149  8150  8151  8152  8153  8154  8155  8156  8157  8158  8159  8160  8161  8162  8163  8164  8165  8166  8167  8168  8169 
 8170  8171  8172  8173  8174  8175  8176  8177  8178  8179  8180  8181  8182  8183  8184  8185  8186  8187  8188  8189  8190 
 8191  8192  8193  8194  8195  8196  8197  8198  8199  8200  8201  8202  8203  8204  8205  8206  8207  8208  8209  8210  8211 
 8212  8213  8214  8215  8216  8217  8218  8219  8220  8221  8222  8223  8224  8225  8226  8227  8228  8229  8230  8231  8232 
 8233  8234  8235  8236  8237  8238  8239  8240  8241  8242  8243  8244  8245  8246  8247  8248  8249  8250  8251  8252  8253 
 8254  8255  8256  8257  8258  8259  8260  8261  8262  8263  8264  8265  8266  8267  8268  8269  8270  8271  8272  8273  8274 
 8275  8276  8277  8278  8279  8280  8281  8282  8283  8284  8285  8286  8287  8288  8289  8290  8291  8292  8293  8294  8295 
 8296  8297  8298  8299  8300  8301  8302  8303  8304  8305  8306  8307  8308  8309  8310  8311  8312  8313  8314  8315  8316 
 8317  8318  8319  8320  8321  8322  8323  8324  8325  8326  8327  8328  8329  8330  8331  8332  8333  8334  8335  8336  8337 
 8338  8339  8340  8341  8342  8343  8344  8345  8346  8347  8348  8349  8350  8351  8352  8353  8354  8355  8356  8357  8358 
 8359  8360  8361  8362  8363  8364  8365  8366  8367  8368  8369  8370  8371  8372  8373  8374  8375  8376  8377  8378  8379 
 8380  8381  8382  8383  8384  8385  8386  8387  8388  8389  8390  8391  8392  8393  8394  8395  8396  8397  8398  8399  8400 
 8401  8402  8403  8404  8405  8406  8407  8408  8409  8410  8411  8412  8413  8414  8415  8416  8417  8418  8419  8420  8421 
 8422  8423  8424  8425  8426  8427  8428  8429  8430  8431  8432  8433  8434  8435  8436  8437  8438  8439  8440  8441  8442 
 8443  8444  8445  8446  8447  8448  8449  8450  8451  8452  8453  8454  8455  8456  8457  8458  8459  8460  8461  8462  8463 
 8464  8465  8466  8467  8468  8469  8470  8471  8472  8473  8474  8475  8476  8477  8478  8479  8480  8481  8482  8483  8484 
 8485  8486  8487  8488  8489  8490  8491  8492  8493  8494  8495  8496  8497  8498  8499  8500  8501  8502  8503  8504  8505 
 8506  8507  8508  8509  8510  8511  8512  8513  8514  8515  8516  8517  8518  8519  8520  8521  8522  8523  8524  8525  8526 
 8527  8528  8529  8530  8531  8532  8533  8534  8535  8536  8537  8538  8539  8540  8541  8542  8543  8544  8545  8546  8547 
 8548  8549  8550  8551  8552  8553  8554  8555  8556  8557  8558  8559  8560  8561  8562  8563  8564  8565  8566  8567  8568 
 8569  8570  8571  8572  8573  8574  8575  8576  8577  8578  8579  8580  8581  8582  8583  8584  8585  8586  8587  8588  8589 
 8590  8591  8592  8593  8594  8595  8596  8597  8598  8599  8600  8601  8602  8603  8604  8605  8606  8607  8608  8609  8610 
 8611  8612  8613  8614  8615  8616  8617  8618  8619  8620  8621  8622  8623  8624  8625  8626  8627  8628  8629  8630  8631 
 8632  8633  8634  8635  8636  8637  8638  8639  8640  8641  8642  8643  8644  8645  8646  8647  8648  8649  8650  8651  8652 
 8653  8654  8655  8656  8657  8658  8659  8660  8661  8662  8663  8664  8665  8666  8667  8668  8669  8670  8671  8672  8673 
 8674  8675  8676  8677  8678  8679  8680  8681  8682  8683  8684  8685  8686  8687  8688  8689  8690  8691  8692  8693  8694 
 8695  8696  8697  8698  8699  8700  8701  8702  8703  8704  8705  8706  8707  8708  8709  8710  8711  8712  8713  8714  8715 
 8716  8717  8718  8719  8720  8721  8722  8723  8724  8725  8726  8727  8728  8729  8730  8731  8732  8733  8734  8735  8736 
 8737  8738  8739  8740  8741  8742  8743  8744  8745  8746  8747  8748  8749  8750  8751  8752  8753  8754  8755  8756  8757 
 8758  8759  8760  8761  8762  8763  8764  8765  8766  8767  8768  8769  8770  8771  8772  8773  8774  8775  8776  8777  8778 
 8779  8780  8781  8782  8783  8784  8785  8786  8787  8788  8789  8790  8791  8792  8793  8794  8795  8796  8797  8798  8799 
 8800  8801  8802  8803  8804  8805  8806  8807  8808  8809  8810  8811  8812  8813  8814  8815  8816  8817  8818  8819  8820 
 8821  8822  8823  8824  8825  8826  8827  8828  8829  8830  8831  8832  8833  8834  8835  8836  8837  8838  8839  8840  8841 
 8842  8843  8844  8845  8846  8847  8848  8849  8850  8851  8852  8853  8854  8855  8856  8857  8858  8859  8860  8861  8862 
 8863  8864  8865  8866  8867  8868  8869  8870  8871  8872  8873  8874  8875  8876  8877  8878  8879  8880  8881  8882  8883 
 8884  8885  8886  8887  8888  8889  8890  8891  8892  8893  8894  8895  8896  8897  8898  8899  8900  8901  8902  8903  8904 
 8905  8906  8907  8908  8909  8910  8911  8912  8913  8914  8915  8916  8917  8918  8919  8920  8921  8922  8923  8924  8925 
 8926  8927  8928  8929  8930  8931  8932  8933  8934  8935  8936  8937  8938  8939  8940  8941  8942  8943  8944  8945  8946 
 8947  8948  8949  8950  8951  8952  8953  8954  8955  8956  8957  8958  8959  8960  8961  8962  8963  8964  8965  8966  8967 
 8968  8969  8970  8971  8972  8973  8974  8975  8976  8977  8978  8979  8980  8981  8982  8983  8984  8985  8986  8987  8988 
 8989  8990  8991  8992  8993  8994  8995  8996  8997  8998  8999  9000  9001  9002  9003  9004  9005  9006  9007  9008  9009 
 9010  9011  9012  9013  9014  9015  9016  9017  9018  9019  9020  9021  9022  9023  9024  9025  9026  9027  9028  9029  9030 
 9031  9032  9033  9034  9035  9036  9037  9038  9039  9040  9041  9042  9043  9044  9045  9046  9047  9048  9049  9050  9051 
 9052  9053  9054  9055  9056  9057  9058  9059  9060  9061  9062  9063  9064  9065  9066  9067  9068  9069  9070  9071  9072 
 9073  9074  9075  9076  9077  9078  9079  9080  9081  9082  9083  9084  9085  9086  9087  9088  9089  9090  9091  9092  9093 
 9094  9095  9096  9097  9098  9099  9100  9101  9102  9103  9104  9105  9106  9107  9108  9109  9110  9111  9112  9113  9114 
 9115  9116  9117  9118  9119  9120  9121  9122  9123  9124  9125  9126  9127  9128  9129  9130  9131  9132  9133  9134  9135 
 9136  9137  9138  9139  9140  9141  9142  9143  9144  9145  9146  9147  9148  9149  9150  9151  9152  9153  9154  9155  9156 
 9157  9158  9159  9160  9161  9162  9163  9164  9165  9166  9167  9168  9169  9170  9171  9172  9173  9174  9175  9176  9177 
 9178  9179  9180  9181  9182  9183  9184  9185  9186  9187  9188  9189  9190  9191  9192  9193  9194  9195  9196  9197  9198 
 9199  9200  9201  9202  9203  9204  9205  9206  9207  9208  9209  9210  9211  9212  9213  9214  9215  9216  9217  9218  9219 
 9220  9221  9222  9223  9224  9225  9226  9227  9228  9229  9230  9231  9232  9233  9234  9235  9236  9237  9238  9239  9240 
 9241  9242  9243  9244  9245  9246  9247  9248  9249  9250  9251  9252  9253  9254  9255  9256  9257  9258  9259  9260  9261 
VECTORS Euler_phi1Phi0phi2 float 
 +1.745329E-01 +1.308997E+00 +0.000000E+00     +1.483530E+00 +9.599311E-01 +0.000000E+00     +3.490659E+00 +1.396263E+00 +0.000000E+00     +4.363323E+00 +1.308997E+00 +0.000000E+00     +2.967060E+00 +1.396263E+00 +0.000000E+00     +1.570796E+00 +4.363323E-01 +0.000000E+00     +8.726646E-01 +1.483530E+00 +0.000000E+00    
 +4.886922E+00 +3.490659E-01 +0.000000E+00     +5.934119E+00 +1.047198E+00 +0.000000E+00     +4.188790E+00 +1.483530E+00 +0.000000E+00     +6.021386E+00 +4.363323E-01 +0.000000E+00     +5.672320E+00 +1.134464E+00 +0.000000E+00     +1.396263E+00 +8.726646E-02 +0.000000E+00     +3.316126E+00 +1.047198E+00 +0.000000E+00    
 +6.108652E-01 +9.599311E-01 +0.000000E+00     +1.745329E-01 +1.745329E-01 +0.000000E+00     +2.617994E+00 +1.221730E+00 +0.000000E+00     +4.537856E+00 +5.235988E-01 +0.000000E+00     +2.879793E+00 +1.047198E+00 +0.000000E+00     +2.792527E+00 +7.853982E-01 +0.000000E+00     +1.832596E+00 +2.617994E-01 +0.000000E+00    
 +3.054326E+00 +1.745329E-01 +0.000000E+00     +1.483530E+00 +1.221730E+00 +0.000000E+00     +4.625123E+00 +1.570796E+00 +0.000000E+00     +6.195919E+00 +9.599311E-01 +0.000000E+00     +9.599311E-01 +2.617994E-01 +0.000000E+00     +4.799655E+00 +1.221730E+00 +0.000000E+00     +6.981317E-01 +5.235988E-01 +0.000000E+00    
 +3.490659E-01 +5.235988E-01 +0.000000E+00     +3.141593E+00 +1.745329E-01 +0.000000E+00     +1.047198E+00 +1.221730E+00 +0.000000E+00     +6.981317E-01 +4.363323E-01 +0.000000E+00     +5.061455E+00 +3.490659E-01 +0.000000E+00     +1.221730E+00 +1.483530E+00 +0.000000E+00     +2.268928E+00 +9.599311E-01 +0.000000E+00    
 +1.919862E+00 +6.108652E-01 +0.000000E+00     +5.061455E+00 +9.599311E-01 +0.000000E+00     +3.054326E+00 +4.363323E-01 +0.000000E+00     +2.967060E+00 +6.981317E-01 +0.000000E+00     +5.235988E+00 +1.570796E+00 +0.000000E+00     +1.483530E+00 +6.981317E-01 +0.000000E+00     +1.396263E+00 +1.745329E-01 +0.000000E+00    
 +3.228859E+00 +7.853982E-01 +0.000000E+00     +5.497787E+00 +2.617994E-01 +0.000000E+00     +1.134464E+00 +3.490659E-01 +0.000000E+00     +4.537856E+00 +1.134464E+00 +0.000000E+00     +1.396263E+00 +9.599311E-01 +0.000000E+00     +4.276057E+00 +4.363323E-01 +0.000000E+00     +1.570796E+00 +8.726646E-01 +0.000000E+00    
 +5.148721E+00 +8.726646E-02 +0.000000E+00     +1.745329E-01 +1.396263E+00 +0.000000E+00     +5.148721E+00 +1.396263E+00 +0.000000E+00     +3.403392E+00 +6.108652E-01 +0.000000E+00     +2.356194E+00 +1.221730E+00 +0.000000E+00     +5.235988E-01 +1.396263E+00 +0.000000E+00     +1.308997E+00 +1.570796E+00 +0.000000E+00    
 +2.617994E-01 +1.134464E+00 +0.000000E+00     +2.967060E+00 +1.483530E+00 +0.000000E+00     +4.625123E+00 +8.726646E-01 +0.000000E+00     +1.308997E+00 +4.363323E-01 +0.000000E+00     +4.276057E+00 +2.617994E-01 +0.000000E+00     +4.974188E+00 +4.363323E-01 +0.000000E+00     +5.061455E+00 +4.363323E-01 +0.000000E+00    
 +1.745329E-01 +3.490659E-01 +0.000000E+00     +4.974188E+00 +5.235988E-01 +0.000000E+00     +5.759587E+00 +1.396263E+00 +0.000000E+00     +2.181662E+00 +7.853982E-01 +0.000000E+00     +4.799655E+00 +8.726646E-02 +0.000000E+00     +6.021386E+00 +1.483530E+00 +0.000000E+00     +4.101524E+00 +1.745329E-01 +0.000000E+00    
 +8.726646E-01 +1.221730E+00 +0.000000E+00     +5.846853E+00 +3.490659E-01 +0.000000E+00     +7.853982E-01 +5.235988E-01 +0.000000E+00     +5.846853E+00 +4.363323E-01 +0.000000E+00     +5.846853E+00 +4.363323E-01 +0.000000E+00     +7.853982E-01 +6.108652E-01 +0.000000E+00     +3.141593E+00 +1.745329E-01 +0.000000E+00    
 +6.195919E+00 +1.745329E-01 +0.000000E+00     +2.617994E-01 +4.363323E-01 +0.000000E+00     +3.665191E+00 +1.570796E+00 +0.000000E+00     +1.745329E-01 +1.047198E+00 +0.000000E+00     +4.450590E+00 +9.599311E-01 +0.000000E+00     +2.617994E+00 +1.047198E+00 +0.000000E+00     +6.021386E+00 +4.363323E-01 +0.000000E+00    
 +4.974188E+00 +2.617994E-01 +0.000000E+00     +1.396263E+00 +1.134464E+00 +0.000000E+00     +1.832596E+00 +5.235988E-01 +0.000000E+00     +5.235988E+00 +3.490659E-01 +0.000000E+00     +4.276057E+00 +1.396263E+00 +0.000000E+00     +4.712389E+00 +1.047198E+00 +0.000000E+00     +1.483530E+00 +6.108652E-01 +0.000000E+00    
 +2.879793E+00 +1.134464E+00 +0.000000E+00     +1.483530E+00 +9.599311E-01 +0.000000E+00     +3.403392E+00 +4.363323E-01 +0.000000E+00     +2.617994E+00 +6.981317E-01 +0.000000E+00     +5.235988E+00 +5.235988E-01 +0.000000E+00     +1.570796E+00 +8.726646E-01 +0.000000E+00     +6.283185E+00 +1.134464E+00 +0.000000E+00    
 +5.410521E+00 +1.396263E+00 +0.000000E+00     +4.188790E+00 +9.599311E-01 +0.000000E+00     +4.276057E+00 +8.726646E-01 +0.000000E+00     +6.195919E+00 +3.490659E-01 +0.000000E+00     +3.926991E+00 +8.726646E-01 +0.000000E+00     +1.308997E+00 +1.570796E+00 +0.000000E+00     +3.926991E+00 +1.221730E+00 +0.000000E+00    
 +3.316126E+00 +7.853982E-01 +0.000000E+00     +2.356194E+00 +1.308997E+00 +0.000000E+00     +3.926991E+00 +1.483530E+00 +0.000000E+00     +1.570796E+00 +8.726646E-01 +0.000000E+00     +2.705260E+00 +1.134464E+00 +0.000000E+00     +3.577925E+00 +6.108652E-01 +0.000000E+00     +2.181662E+00 +5.235988E-01 +0.000000E+00    
 +2.356194E+00 +3.490659E-01 +0.000000E+00     +6.108652E-01 +9.599311E-01 +0.000000E+00     +2.094395E+00 +1.745329E-01 +0.000000E+00     +1.134464E+00 +8.726646E-01 +0.000000E+00     +6.108652E+00 +3.490659E-01 +0.000000E+00     +2.705260E+00 +1.134464E+00 +0.000000E+00     +4.974188E+00 +1.483530E+00 +0.000000E+00    
 +4.363323E-01 +3.490659E-01 +0.000000E+00     +5.323254E+00 +8.726646E-02 +0.000000E+00     +2.356194E+00 +7.853982E-01 +0.000000E+00     +5.759587E+00 +5.235988E-01 +0.000000E+00     +6.283185E+00 +1.396263E+00 +0.000000E+00     +4.014257E+00 +8.726646E-01 +0.000000E+00     +2.094395E+00 +9.599311E-01 +0.000000E+00    
 +4.537856E+00 +4.363323E-01 +0.000000E+00     +4.799655E+00 +8.726646E-01 +0.000000E+00     +2.007129E+00 +1.221730E+00 +0.000000E+00     +1.221730E+00 +6.981317E-01 +0.000000E+00     +3.926991E+00 +2.617994E-01 +0.000000E+00     +5.846853E+00 +7.853982E-01 +0.000000E+00     +5.235988E+00 +4.363323E-01 +0.000000E+00    
 +6.981317E-01 +4.363323E-01 +0.000000E+00     +6.195919E+00 +1.308997E+00 +0.000000E+00     +4.537856E+00 +1.134464E+00 +0.000000E+00     +3.054326E+00 +1.134464E+00 +0.000000E+00     +4.276057E+00 +6.981317E-01 +0.000000E+00     +2.530727E+00 +1.570796E+00 +0.000000E+00     +5.061455E+00 +6.108652E-01 +0.000000E+00    
 +1.396263E+00 +8.726646E-01 +0.000000E+00     +4.363323E-01 +6.981317E-01 +0.000000E+00     +1.658063E+00 +1.745329E-01 +0.000000E+00     +2.356194E+00 +2.617994E-01 +0.000000E+00     +3.577925E+00 +1.134464E+00 +0.000000E+00     +3.839724E+00 +6.981317E-01 +0.000000E+00     +1.047198E+00 +2.617994E-01 +0.000000E+00    
 +4.450590E+00 +9.599311E-01 +0.000000E+00     +6.108652E-01 +1.134464E+00 +0.000000E+00     +2.792527E+00 +8.726646E-02 +0.000000E+00     +1.134464E+00 +1.570796E+00 +0.000000E+00     +1.396263E+00 +4.363323E-01 +0.000000E+00     +1.832596E+00 +6.981317E-01 +0.000000E+00     +3.926991E+00 +3.490659E-01 +0.000000E+00    
 +2.967060E+00 +8.726646E-02 +0.000000E+00     +3.490659E-01 +5.235988E-01 +0.000000E+00     +3.054326E+00 +1.308997E+00 +0.000000E+00     +4.363323E+00 +6.108652E-01 +0.000000E+00     +6.108652E-01 +1.134464E+00 +0.000000E+00     +4.712389E+00 +6.981317E-01 +0.000000E+00     +1.483530E+00 +6.108652E-01 +0.000000E+00    
 +5.323254E+00 +6.108652E-01 +0.000000E+00     +2.094395E+00 +2.617994E-01 +0.000000E+00     +2.792527E+00 +1.745329E-01 +0.000000E+00     +1.745329E+00 +1.745329E-01 +0.000000E+00     +8.726646E-01 +1.396263E+00 +0.000000E+00     +5.846853E+00 +7.853982E-01 +0.000000E+00     +3.926991E+00 +5.235988E-01 +0.000000E+00    
 +3.228859E+00 +8.726646E-02 +0.000000E+00     +1.047198E+00 +1.396263E+00 +0.000000E+00     +3.054326E+00 +7.853982E-01 +0.000000E+00     +6.108652E+00 +4.363323E-01 +0.000000E+00     +3.054326E+00 +6.108652E-01 +0.000000E+00     +3.228859E+00 +6.108652E-01 +0.000000E+00     +3.665191E+00 +6.108652E-01 +0.000000E+00    
 +2.007129E+00 +1.745329E-01 +0.000000E+00     +6.981317E-01 +1.221730E+00 +0.000000E+00     +5.672320E+00 +1.396263E+00 +0.000000E+00     +4.625123E+00 +1.483530E+00 +0.000000E+00     +4.363323E-01 +1.308997E+00 +0.000000E+00     +5.846853E+00 +1.396263E+00 +0.000000E+00     +1.134464E+00 +1.047198E+00 +0.000000E+00    
 +3.054326E+00 +1.745329E-01 +0.000000E+00     +2.356194E+00 +1.745329E-01 +0.000000E+00     +2.617994E+00 +1.745329E-01 +0.000000E+00     +3.403392E+00 +1.396263E+00 +0.000000E+00     +5.585054E+00 +1.396263E+00 +0.000000E+00     +3.054326E+00 +1.047198E+00 +0.000000E+00     +9.599311E-01 +8.726646E-01 +0.000000E+00    
 +3.228859E+00 +1.308997E+00 +0.000000E+00     +3.316126E+00 +1.308997E+00 +0.000000E+00     +4.799655E+00 +6.108652E-01 +0.000000E+00     +3.577925E+00 +1.047198E+00 +0.000000E+00     +3.228859E+00 +6.108652E-01 +0.000000E+00     +5.934119E+00 +1.745329E-01 +0.000000E+00     +5.061455E+00 +5.235988E-01 +0.000000E+00    
 +3.926991E+00 +1.745329E-01 +0.000000E+00     +5.846853E+00 +1.745329E-01 +0.000000E+00     +8.726646E-02 +1.745329E-01 +0.000000E+00     +6.108652E+00 +6.108652E-01 +0.000000E+00     +1.919862E+00 +1.396263E+00 +0.000000E+00     +5.585054E+00 +9.599311E-01 +0.000000E+00     +3.752458E+00 +4.363323E-01 +0.000000E+00    
 +4.276057E+00 +1.221730E+00 +0.000000E+00     +1.396263E+00 +1.221730E+00 +0.000000E+00     +6.108652E-01 +1.570796E+00 +0.000000E+00     +5.323254E+00 +1.745329E-01 +0.000000E+00     +3.839724E+00 +9.599311E-01 +0.000000E+00     +1.745329E-01 +3.490659E-01 +0.000000E+00     +2.879793E+00 +1.745329E-01 +0.000000E+00    
 +4.974188E+00 +1.396263E+00 +0.000000E+00     +6.283185E+00 +1.570796E+00 +0.000000E+00     +3.839724E+00 +2.617994E-01 +0.000000E+00     +2.530727E+00 +6.981317E-01 +0.000000E+00     +5.846853E+00 +8.726646E-02 +0.000000E+00     +8.726646E-02 +4.363323E-01 +0.000000E+00     +3.926991E+00 +8.726646E-01 +0.000000E+00    
 +4.799655E+00 +8.726646E-02 +0.000000E+00     +1.570796E+00 +4.363323E-01 +0.000000E+00     +4.712389E+00 +5.235988E-01 +0.000000E+00     +4.101524E+00 +1.134464E+00 +0.000000E+00     +7.853982E-01 +1.134464E+00 +0.000000E+00     +5.497787E+00 +7.853982E-01 +0.000000E+00     +6.108652E+00 +9.599311E-01 +0.000000E+00    
 +1.832596E+00 +1.745329E-01 +0.000000E+00     +1.221730E+00 +1.483530E+00 +0.000000E+00     +5.497787E+00 +1.047198E+00 +0.000000E+00     +2.268928E+00 +1.396263E+00 +0.000000E+00     +2.356194E+00 +1.396263E+00 +0.000000E+00     +6.981317E-01 +4.363323E-01 +0.000000E+00     +4.363323E-01 +1.047198E+00 +0.000000E+00    
 +2.879793E+00 +1.308997E+00 +0.000000E+00     +5.235988E+00 +7.853982E-01 +0.000000E+00     +1.745329E-01 +9.599311E-01 +0.000000E+00     +4.276057E+00 +1.483530E+00 +0.000000E+00     +2.094395E+00 +5.235988E-01 +0.000000E+00     +3.141593E+00 +8.726646E-02 +0.000000E+00     +2.268928E+00 +1.047198E+00 +0.000000E+00    
 +7.853982E-01 +5.235988E-01 +0.000000E+00     +4.974188E+00 +5.235988E-01 +0.000000E+00     +1.919862E+00 +1.047198E+00 +0.000000E+00     +7.853982E-01 +1.396263E+00 +0.000000E+00     +4.886922E+00 +3.490659E-01 +0.000000E+00     +2.007129E+00 +6.981317E-01 +0.000000E+00     +3.490659E-01 +6.108652E-01 +0.000000E+00    
 +6.283185E+00 +1.483530E+00 +0.000000E+00     +1.134464E+00 +7.853982E-01 +0.000000E+00     +3.839724E+00 +8.726646E-02 +0.000000E+00     +5.061455E+00 +1.396263E+00 +0.000000E+00     +2.443461E+00 +1.308997E+00 +0.000000E+00     +2.879793E+00 +9.599311E-01 +0.000000E+00     +5.148721E+00 +7.853982E-01 +0.000000E+00    
 +5.235988E+00 +2.617994E-01 +0.000000E+00     +3.926991E+00 +3.490659E-01 +0.000000E+00     +2.792527E+00 +6.981317E-01 +0.000000E+00     +5.497787E+00 +1.308997E+00 +0.000000E+00     +5.410521E+00 +1.047198E+00 +0.000000E+00     +1.658063E+00 +6.981317E-01 +0.000000E+00     +3.403392E+00 +6.108652E-01 +0.000000E+00    
 +2.094395E+00 +5.235988E-01 +0.000000E+00     +4.886922E+00 +6.981317E-01 +0.000000E+00     +2.705260E+00 +7.853982E-01 +0.000000E+00     +5.585054E+00 +2.617994E-01 +0.000000E+00     +2.617994E-01 +1.221730E+00 +0.000000E+00     +8.726646E-01 +5.235988E-01 +0.000000E+00     +3.490659E+00 +2.617994E-01 +0.000000E+00    
 +2.617994E+00 +1.134464E+00 +0.000000E+00     +5.061455E+00 +6.108652E-01 +0.000000E+00     +1.396263E+00 +3.490659E-01 +0.000000E+00     +1.047198E+00 +3.490659E-01 +0.000000E+00     +5.672320E+00 +3.490659E-01 +0.000000E+00     +4.712389E+00 +7.853982E-01 +0.000000E+00     +5.061455E+00 +4.363323E-01 +0.000000E+00    
 +1.134464E+00 +9.599311E-01 +0.000000E+00     +2.181662E+00 +1.047198E+00 +0.000000E+00     +5.759587E+00 +1.570796E+00 +0.000000E+00     +6.108652E-01 +1.047198E+00 +0.000000E+00     +4.712389E+00 +1.134464E+00 +0.000000E+00     +2.617994E+00 +1.745329E-01 +0.000000E+00     +6.108652E-01 +1.134464E+00 +0.000000E+00    
 +9.599311E-01 +2.617994E-01 +0.000000E+00     +5.323254E+00 +1.745329E-01 +0.000000E+00     +5.410521E+00 +8.726646E-01 +0.000000E+00     +5.585054E+00 +6.108652E-01 +0.000000E+00     +3.577925E+00 +1.308997E+00 +0.000000E+00     +4.014257E+00 +1.221730E+00 +0.000000E+00     +2.617994E-01 +1.221730E+00 +0.000000E+00    
 +5.585054E+00 +1.745329E-01 +0.000000E+00     +3.665191E+00 +1.308997E+00 +0.000000E+00     +6.021386E+00 +6.981317E-01 +0.000000E+00     +5.585054E+00 +7.853982E-01 +0.000000E+00     +4.363323E+00 +1.396263E+00 +0.000000E+00     +6.195919E+00 +8.726646E-02 +0.000000E+00     +2.530727E+00 +8.726646E-02 +0.000000E+00    
 +6.283185E+00 +1.483530E+00 +0.000000E+00     +1.483530E+00 +4.363323E-01 +0.000000E+00     +9.599311E-01 +1.570796E+00 +0.000000E+00     +4.363323E+00 +1.483530E+00 +0.000000E+00     +4.101524E+00 +8.726646E-01 +0.000000E+00     +2.617994E+00 +1.221730E+00 +0.000000E+00     +4.625123E+00 +1.308997E+00 +0.000000E+00    
 +6.021386E+00 +1.396263E+00 +0.000000E+00     +4.799655E+00 +8.726646E-02 +0.000000E+00     +5.672320E+00 +1.483530E+00 +0.000000E+00     +5.759587E+00 +8.726646E-01 +0.000000E+00     +6.108652E-01 +1.047198E+00 +0.000000E+00     +3.316126E+00 +3.490659E-01 +0.000000E+00     +4.886922E+00 +1.570796E+00 +0.000000E+00    
 +5.323254E+00 +1.308997E+00 +0.000000E+00     +4.974188E+00 +7.853982E-01 +0.000000E+00     +3.926991E+00 +2.617994E-01 +0.000000E+00     +5.061455E+00 +8.726646E-02 +0.000000E+00     +2.879793E+00 +1.570796E+00 +0.000000E+00     +2.356194E+00 +1.308997E+00 +0.000000E+00     +2.443461E+00 +1.570796E+00 +0.000000E+00    
 +2.007129E+00 +1.047198E+00 +0.000000E+00     +4.712389E+00 +1.570796E+00 +0.000000E+00     +5.585054E+00 +7.853982E-01 +0.000000E+00     +7.853982E-01 +1.570796E+00 +0.000000E+00     +9.599311E-01 +7.853982E-01 +0.000000E+00     +5.934119E+00 +3.490659E-01 +0.000000E+00     +6.108652E+00 +7.853982E-01 +0.000000E+00    
 +4.276057E+00 +1.570796E+00 +0.000000E+00     +2.792527E+00 +1.134464E+00 +0.000000E+00     +5.148721E+00 +1.396263E+00 +0.000000E+00     +3.490659E-01 +1.396263E+00 +0.000000E+00     +3.490659E-01 +4.363323E-01 +0.000000E+00     +5.323254E+00 +2.617994E-01 +0.000000E+00     +5.846853E+00 +1.483530E+00 +0.000000E+00    
 +3.054326E+00 +1.308997E+00 +0.000000E+00     +3.228859E+00 +4.363323E-01 +0.000000E+00     +4.450590E+00 +1.308997E+00 +0.000000E+00     +1.396263E+00 +1.308997E+00 +0.000000E+00     +4.450590E+00 +5.235988E-01 +0.000000E+00     +3.577925E+00 +1.396263E+00 +0.000000E+00     +3.141593E+00 +1.396263E+00 +0.000000E+00    
 +2.967060E+00 +1.483530E+00 +0.000000E+00     +1.745329E+00 +1.308997E+00 +0.000000E+00     +2.181662E+00 +1.483530E+00 +0.000000E+00     +6.981317E-01 +5.235988E-01 +0.000000E+00     +6.195919E+00 +2.617994E-01 +0.000000E+00     +8.726646E-02 +4.363323E-01 +0.000000E+00     +5.497787E+00 +1.047198E+00 +0.000000E+00    
 +4.625123E+00 +2.617994E-01 +0.000000E+00     +3.752458E+00 +9.599311E-01 +0.000000E+00     +1.832596E+00 +1.483530E+00 +0.000000E+00     +8.726646E-02 +1.396263E+00 +0.000000E+00     +2.007129E+00 +5.235988E-01 +0.000000E+00     +5.410521E+00 +1.221730E+00 +0.000000E+00     +2.879793E+00 +8.726646E-01 +0.000000E+00    
 +4.363323E-01 +8.726646E-02 +0.000000E+00     +5.148721E+00 +2.617994E-01 +0.000000E+00     +1.221730E+00 +1.047198E+00 +0.000000E+00     +5.672320E+00 +1.047198E+00 +0.000000E+00     +5.148721E+00 +5.235988E-01 +0.000000E+00     +4.450590E+00 +8.726646E-02 +0.000000E+00     +4.625123E+00 +5.235988E-01 +0.000000E+00    
 +2.094395E+00 +6.108652E-01 +0.000000E+00     +4.799655E+00 +2.617994E-01 +0.000000E+00     +4.014257E+00 +5.235988E-01 +0.000000E+00     +7.853982E-01 +1.570796E+00 +0.000000E+00     +4.014257E+00 +1.134464E+00 +0.000000E+00     +4.276057E+00 +1.570796E+00 +0.000000E+00     +5.323254E+00 +7.853982E-01 +0.000000E+00    
 +2.705260E+00 +1.396263E+00 +0.000000E+00     +4.363323E-01 +6.981317E-01 +0.000000E+00     +1.658063E+00 +1.134464E+00 +0.000000E+00     +3.316126E+00 +1.396263E+00 +0.000000E+00     +1.919862E+00 +7.853982E-01 +0.000000E+00     +2.443461E+00 +1.047198E+00 +0.000000E+00     +1.658063E+00 +1.047198E+00 +0.000000E+00    
 +4.886922E+00 +8.726646E-01 +0.000000E+00     +1.745329E+00 +7.853982E-01 +0.000000E+00     +4.625123E+00 +1.134464E+00 +0.000000E+00     +2.181662E+00 +9.599311E-01 +0.000000E+00     +6.021386E+00 +3.490659E-01 +0.000000E+00     +4.101524E+00 +4.363323E-01 +0.000000E+00     +1.134464E+00 +1.396263E+00 +0.000000E+00    
 +1.658063E+00 +6.981317E-01 +0.000000E+00     +1.396263E+00 +5.235988E-01 +0.000000E+00     +3.316126E+00 +5.235988E-01 +0.000000E+00     +2.967060E+00 +1.570796E+00 +0.000000E+00     +2.967060E+00 +6.108652E-01 +0.000000E+00     +2.356194E+00 +1.396263E+00 +0.000000E+00     +4.799655E+00 +1.570796E+00 +0.000000E+00    
 +6.021386E+00 +1.396263E+00 +0.000000E+00     +2.443461E+00 +1.221730E+00 +0.000000E+00     +1.308997E+00 +1.396263E+00 +0.000000E+00     +3.839724E+00 +9.599311E-01 +0.000000E+00     +4.712389E+00 +1.047198E+00 +0.000000E+00     +2.443461E+00 +1.570796E+00 +0.000000E+00     +4.276057E+00 +8.726646E-01 +0.000000E+00    
 +2.617994E+00 +1.134464E+00 +0.000000E+00     +6.108652E+00 +5.235988E-01 +0.000000E+00     +4.276057E+00 +1.047198E+00 +0.000000E+00     +1.919862E+00 +1.483530E+00 +0.000000E+00     +2.007129E+00 +2.617994E-01 +0.000000E+00     +2.879793E+00 +1.134464E+00 +0.000000E+00     +2.268928E+00 +6.981317E-01 +0.000000E+00    
 +1.396263E+00 +9.599311E-01 +0.000000E+00     +4.712389E+00 +6.981317E-01 +0.000000E+00     +3.141593E+00 +1.047198E+00 +0.000000E+00     +2.792527E+00 +1.396263E+00 +0.000000E+00     +4.625123E+00 +4.363323E-01 +0.000000E+00     +3.752458E+00 +1.308997E+00 +0.000000E+00     +6.108652E-01 +1.570796E+00 +0.000000E+00    
 +3.577925E+00 +1.134464E+00 +0.000000E+00     +3.228859E+00 +1.134464E+00 +0.000000E+00     +7.853982E-01 +1.221730E+00 +0.000000E+00     +3.577925E+00 +1.308997E+00 +0.000000E+00     +4.363323E+00 +1.745329E-01 +0.000000E+00     +3.054326E+00 +1.047198E+00 +0.000000E+00     +1.221730E+00 +2.617994E-01 +0.000000E+00    
 +1.047198E+00 +1.134464E+00 +0.000000E+00     +1.134464E+00 +6.108652E-01 +0.000000E+00     +5.672320E+00 +9.599311E-01 +0.000000E+00     +2.705260E+00 +4.363323E-01 +0.000000E+00     +4.363323E-01 +9.599311E-01 +0.000000E+00     +1.483530E+00 +8.726646E-01 +0.000000E+00     +3.839724E+00 +4.363323E-01 +0.000000E+00    
 +2.007129E+00 +3.490659E-01 +0.000000E+00     +2.879793E+00 +6.981317E-01 +0.000000E+00     +1.745329E-01 +9.599311E-01 +0.000000E+00     +5.323254E+00 +5.235988E-01 +0.000000E+00     +5.323254E+00 +1.745329E-01 +0.000000E+00     +1.221730E+00 +7.853982E-01 +0.000000E+00     +1.221730E+00 +1.396263E+00 +0.000000E+00    
 +5.759587E+00 +1.745329E-01 +0.000000E+00     +2.879793E+00 +6.108652E-01 +0.000000E+00     +4.363323E-01 +5.235988E-01 +0.000000E+00     +2.617994E+00 +2.617994E-01 +0.000000E+00     +6.021386E+00 +1.134464E+00 +0.000000E+00     +3.490659E+00 +3.490659E-01 +0.000000E+00     +1.483530E+00 +5.235988E-01 +0.000000E+00    
 +2.007129E+00 +4.363323E-01 +0.000000E+00     +6.195919E+00 +1.308997E+00 +0.000000E+00     +1.745329E-01 +8.726646E-01 +0.000000E+00     +2.617994E-01 +2.617994E-01 +0.000000E+00     +6.195919E+00 +8.726646E-01 +0.000000E+00     +4.886922E+00 +1.134464E+00 +0.000000E+00     +2.443461E+00 +1.047198E+00 +0.000000E+00    
 +2.617994E-01 +4.363323E-01 +0.000000E+00     +4.450590E+00 +1.483530E+00 +0.000000E+00     +4.276057E+00 +5.235988E-01 +0.000000E+00     +4.625123E+00 +6.108652E-01 +0.000000E+00     +4.188790E+00 +1.570796E+00 +0.000000E+00     +2.617994E-01 +1.047198E+00 +0.000000E+00     +8.726646E-01 +6.981317E-01 +0.000000E+00    
 +5.148721E+00 +9.599311E-01 +0.000000E+00     +4.188790E+00 +9.599311E-01 +0.000000E+00     +4.625123E+00 +1.047198E+00 +0.000000E+00     +5.672320E+00 +2.617994E-01 +0.000000E+00     +2.181662E+00 +8.726646E-02 +0.000000E+00     +8.726646E-02 +1.134464E+00 +0.000000E+00     +2.879793E+00 +1.570796E+00 +0.000000E+00    
 +4.712389E+00 +6.108652E-01 +0.000000E+00     +1.832596E+00 +1.134464E+00 +0.000000E+00     +4.276057E+00 +1.221730E+00 +0.000000E+00     +1.396263E+00 +6.108652E-01 +0.000000E+00     +1.745329E-01 +1.308997E+00 +0.000000E+00     +8.726646E-02 +6.108652E-01 +0.000000E+00     +3.054326E+00 +1.047198E+00 +0.000000E+00    
 +5.585054E+00 +6.108652E-01 +0.000000E+00     +1.134464E+00 +2.617994E-01 +0.000000E+00     +6.981317E-01 +1.570796E+00 +0.000000E+00     +6.108652E+00 +1.483530E+00 +0.000000E+00     +6.021386E+00 +1.745329E-01 +0.000000E+00     +3.926991E+00 +1.396263E+00 +0.000000E+00     +2.617994E+00 +1.570796E+00 +0.000000E+00    
 +5.672320E+00 +8.726646E-01 +0.000000E+00     +6.981317E-01 +7.853982E-01 +0.000000E+00     +4.101524E+00 +2.617994E-01 +0.000000E+00     +4.188790E+00 +1.396263E+00 +0.000000E+00     +2.967060E+00 +1.745329E-01 +0.000000E+00     +1.483530E+00 +8.726646E-01 +0.000000E+00     +5.323254E+00 +1.221730E+00 +0.000000E+00    
 +1.745329E-01 +1.570796E+00 +0.000000E+00     +5.235988E-01 +6.981317E-01 +0.000000E+00     +2.443461E+00 +1.308997E+00 +0.000000E+00     +6.021386E+00 +8.726646E-01 +0.000000E+00     +1.483530E+00 +1.134464E+00 +0.000000E+00     +3.228859E+00 +6.981317E-01 +0.000000E+00     +5.585054E+00 +1.570796E+00 +0.000000E+00    
 +2.879793E+00 +9.599311E-01 +0.000000E+00     +1.832596E+00 +8.726646E-02 +0.000000E+00     +3.752458E+00 +1.745329E-01 +0.000000E+00     +5.235988E+00 +1.396263E+00 +0.000000E+00     +8.726646E-01 +6.981317E-01 +0.000000E+00     +4.014257E+00 +9.599311E-01 +0.000000E+00     +1.570796E+00 +6.108652E-01 +0.000000E+00    
 +2.617994E-01 +1.134464E+00 +0.000000E+00     +4.886922E+00 +1.396263E+00 +0.000000E+00     +4.537856E+00 +1.396263E+00 +0.000000E+00     +3.228859E+00 +1.221730E+00 +0.000000E+00     +3.054326E+00 +2.617994E-01 +0.000000E+00     +3.228859E+00 +8.726646E-01 +0.000000E+00     +1.221730E+00 +1.047198E+00 +0.000000E+00    
 +1.745329E+00 +4.363323E-01 +0.000000E+00     +2.792527E+00 +9.599311E-01 +0.000000E+00     +3.490659E-01 +4.363323E-01 +0.000000E+00     +6.021386E+00 +1.221730E+00 +0.000000E+00     +1.134464E+00 +2.617994E-01 +0.000000E+00     +3.228859E+00 +6.108652E-01 +0.000000E+00     +3.403392E+00 +1.570796E+00 +0.000000E+00    
 +6.283185E+00 +1.570796E+00 +0.000000E+00     +5.759587E+00 +1.308997E+00 +0.000000E+00     +2.007129E+00 +1.134464E+00 +0.000000E+00     +1.832596E+00 +4.363323E-01 +0.000000E+00     +4.276057E+00 +8.726646E-02 +0.000000E+00     +3.926991E+00 +1.745329E-01 +0.000000E+00     +5.934119E+00 +1.396263E+00 +0.000000E+00    
 +1.221730E+00 +1.745329E-01 +0.000000E+00     +3.228859E+00 +8.726646E-02 +0.000000E+00     +4.974188E+00 +1.308997E+00 +0.000000E+00     +1.570796E+00 +8.726646E-01 +0.000000E+00     +2.094395E+00 +6.981317E-01 +0.000000E+00     +6.021386E+00 +1.134464E+00 +0.000000E+00     +1.745329E+00 +1.570796E+00 +0.000000E+00    
 +4.625123E+00 +6.108652E-01 +0.000000E+00     +2.967060E+00 +1.483530E+00 +0.000000E+00     +6.283185E+00 +5.235988E-01 +0.000000E+00     +2.617994E-01 +1.221730E+00 +0.000000E+00     +4.188790E+00 +2.617994E-01 +0.000000E+00     +5.235988E-01 +1.308997E+00 +0.000000E+00     +5.061455E+00 +1.745329E-01 +0.000000E+00    
 +3.403392E+00 +2.617994E-01 +0.000000E+00     +2.094395E+00 +1.047198E+00 +0.000000E+00     +2.443461E+00 +1.570796E+00 +0.000000E+00     +2.268928E+00 +4.363323E-01 +0.000000E+00     +3.054326E+00 +5.235988E-01 +0.000000E+00     +4.450590E+00 +3.490659E-01 +0.000000E+00     +2.617994E-01 +8.726646E-01 +0.000000E+00    
 +5.235988E-01 +1.134464E+00 +0.000000E+00     +9.599311E-01 +1.570796E+00 +0.000000E+00     +1.047198E+00 +1.483530E+00 +0.000000E+00     +5.061455E+00 +1.308997E+00 +0.000000E+00     +4.014257E+00 +1.134464E+00 +0.000000E+00     +2.094395E+00 +7.853982E-01 +0.000000E+00     +2.967060E+00 +4.363323E-01 +0.000000E+00    
 +5.497787E+00 +1.570796E+00 +0.000000E+00     +5.323254E+00 +9.599311E-01 +0.000000E+00     +3.577925E+00 +1.745329E-01 +0.000000E+00     +1.745329E+00 +1.570796E+00 +0.000000E+00     +1.483530E+00 +6.981317E-01 +0.000000E+00     +5.148721E+00 +2.617994E-01 +0.000000E+00     +4.363323E-01 +1.047198E+00 +0.000000E+00    
 +4.625123E+00 +9.599311E-01 +0.000000E+00     +6.981317E-01 +5.235988E-01 +0.000000E+00     +4.886922E+00 +1.745329E-01 +0.000000E+00     +4.363323E-01 +1.134464E+00 +0.000000E+00     +2.879793E+00 +2.617994E-01 +0.000000E+00     +7.853982E-01 +1.396263E+00 +0.000000E+00     +3.316126E+00 +7.853982E-01 +0.000000E+00    
 +3.752458E+00 +7.853982E-01 +0.000000E+00     +2.181662E+00 +8.726646E-01 +0.000000E+00     +5.585054E+00 +8.726646E-01 +0.000000E+00     +2.967060E+00 +5.235988E-01 +0.000000E+00     +5.672320E+00 +8.726646E-01 +0.000000E+00     +6.195919E+00 +8.726646E-02 +0.000000E+00     +3.403392E+00 +1.221730E+00 +0.000000E+00    
 +2.617994E+00 +1.745329E-01 +0.000000E+00     +5.934119E+00 +1.745329E-01 +0.000000E+00     +1.221730E+00 +1.308997E+00 +0.000000E+00     +4.450590E+00 +8.726646E-02 +0.000000E+00     +3.141593E+00 +6.981317E-01 +0.000000E+00     +5.672320E+00 +5.235988E-01 +0.000000E+00     +4.450590E+00 +1.047198E+00 +0.000000E+00    
 +4.014257E+00 +1.396263E+00 +0.000000E+00     +3.490659E-01 +7.853982E-01 +0.000000E+00     +5.148721E+00 +4.363323E-01 +0.000000E+00     +3.490659E-01 +8.726646E-02 +0.000000E+00     +5.410521E+00 +7.853982E-01 +0.000000E+00     +5.672320E+00 +1.308997E+00 +0.000000E+00     +4.974188E+00 +1.134464E+00 +0.000000E+00    
 +3.141593E+00 +8.726646E-02 +0.000000E+00     +5.235988E-01 +1.483530E+00 +0.000000E+00     +4.014257E+00 +5.235988E-01 +0.000000E+00     +5.061455E+00 +5.235988E-01 +0.000000E+00     +8.726646E-02 +1.134464E+00 +0.000000E+00     +5.585054E+00 +1.396263E+00 +0.000000E+00     +5.759587E+00 +1.570796E+00 +0.000000E+00    
 +1.832596E+00 +8.726646E-02 +0.000000E+00     +2.967060E+00 +2.617994E-01 +0.000000E+00     +6.108652E+00 +1.570796E+00 +0.000000E+00     +4.014257E+00 +3.490659E-01 +0.000000E+00     +2.181662E+00 +3.490659E-01 +0.000000E+00     +5.759587E+00 +1.308997E+00 +0.000000E+00     +4.886922E+00 +1.047198E+00 +0.000000E+00    
 +5.759587E+00 +1.483530E+00 +0.000000E+00     +1.047198E+00 +1.134464E+00 +0.000000E+00     +3.577925E+00 +9.599311E-01 +0.000000E+00     +2.356194E+00 +4.363323E-01 +0.000000E+00     +6.021386E+00 +5.235988E-01 +0.000000E+00     +1.396263E+00 +5.235988E-01 +0.000000E+00     +2.617994E+00 +1.570796E+00 +0.000000E+00    
 +5.235988E-01 +1.134464E+00 +0.000000E+00     +5.410521E+00 +8.726646E-02 +0.000000E+00     +4.886922E+00 +1.134464E+00 +0.000000E+00     +5.323254E+00 +1.047198E+00 +0.000000E+00     +5.497787E+00 +5.235988E-01 +0.000000E+00     +3.577925E+00 +1.047198E+00 +0.000000E+00     +1.308997E+00 +4.363323E-01 +0.000000E+00    
 +5.410521E+00 +8.726646E-02 +0.000000E+00     +1.832596E+00 +1.134464E+00 +0.000000E+00     +4.537856E+00 +1.221730E+00 +0.000000E+00     +2.530727E+00 +1.483530E+00 +0.000000E+00     +5.410521E+00 +1.047198E+00 +0.000000E+00     +4.974188E+00 +1.570796E+00 +0.000000E+00     +3.490659E+00 +4.363323E-01 +0.000000E+00    
 +3.752458E+00 +7.853982E-01 +0.000000E+00     +2.705260E+00 +9.599311E-01 +0.000000E+00     +3.141593E+00 +8.726646E-02 +0.000000E+00     +4.101524E+00 +1.396263E+00 +0.000000E+00     +6.108652E+00 +7.853982E-01 +0.000000E+00     +1.483530E+00 +1.221730E+00 +0.000000E+00     +4.886922E+00 +1.570796E+00 +0.000000E+00    
 +2.879793E+00 +6.108652E-01 +0.000000E+00     +3.403392E+00 +6.981317E-01 +0.000000E+00     +1.308997E+00 +5.235988E-01 +0.000000E+00     +6.981317E-01 +1.308997E+00 +0.000000E+00     +3.490659E+00 +1.047198E+00 +0.000000E+00     +4.537856E+00 +1.396263E+00 +0.000000E+00     +3.141593E+00 +7.853982E-01 +0.000000E+00    
 +3.752458E+00 +5.235988E-01 +0.000000E+00     +4.014257E+00 +1.396263E+00 +0.000000E+00     +4.625123E+00 +1.047198E+00 +0.000000E+00     +2.094395E+00 +8.726646E-01 +0.000000E+00     +2.181662E+00 +8.726646E-01 +0.000000E+00     +3.403392E+00 +1.134464E+00 +0.000000E+00     +4.188790E+00 +8.726646E-01 +0.000000E+00    
 +4.886922E+00 +1.745329E-01 +0.000000E+00     +1.658063E+00 +3.490659E-01 +0.000000E+00     +4.974188E+00 +4.363323E-01 +0.000000E+00     +3.054326E+00 +1.483530E+00 +0.000000E+00     +4.101524E+00 +1.221730E+00 +0.000000E+00     +1.047198E+00 +1.483530E+00 +0.000000E+00     +2.617994E-01 +1.570796E+00 +0.000000E+00    
 +4.014257E+00 +9.599311E-01 +0.000000E+00     +4.101524E+00 +1.483530E+00 +0.000000E+00     +1.396263E+00 +1.308997E+00 +0.000000E+00     +3.839724E+00 +7.853982E-01 +0.000000E+00     +3.839724E+00 +1.047198E+00 +0.000000E+00     +1.134464E+00 +4.363323E-01 +0.000000E+00     +3.403392E+00 +7.853982E-01 +0.000000E+00    
 +4.188790E+00 +3.490659E-01 +0.000000E+00     +4.101524E+00 +1.047198E+00 +0.000000E+00     +4.450590E+00 +1.047198E+00 +0.000000E+00     +5.235988E+00 +8.726646E-01 +0.000000E+00     +2.530727E+00 +1.570796E+00 +0.000000E+00     +5.497787E+00 +6.981317E-01 +0.000000E+00     +4.450590E+00 +6.981317E-01 +0.000000E+00    
 +2.705260E+00 +1.483530E+00 +0.000000E+00     +2.007129E+00 +1.745329E-01 +0.000000E+00     +9.599311E-01 +6.981317E-01 +0.000000E+00     +5.235988E+00 +8.726646E-02 +0.000000E+00     +2.967060E+00 +1.308997E+00 +0.000000E+00     +4.363323E+00 +5.235988E-01 +0.000000E+00     +3.490659E-01 +3.490659E-01 +0.000000E+00    
 +4.974188E+00 +1.396263E+00 +0.000000E+00     +6.108652E+00 +1.221730E+00 +0.000000E+00     +1.483530E+00 +1.221730E+00 +0.000000E+00     +3.316126E+00 +1.483530E+00 +0.000000E+00     +3.316126E+00 +3.490659E-01 +0.000000E+00     +8.726646E-01 +1.745329E-01 +0.000000E+00     +2.705260E+00 +1.483530E+00 +0.000000E+00    
 +4.014257E+00 +3.490659E-01 +0.000000E+00     +1.570796E+00 +6.108652E-01 +0.000000E+00     +6.021386E+00 +1.221730E+00 +0.000000E+00     +2.879793E+00 +6.108652E-01 +0.000000E+00     +6.283185E+00 +1.745329E-01 +0.000000E+00     +1.396263E+00 +1.308997E+00 +0.000000E+00     +2.617994E-01 +1.570796E+00 +0.000000E+00    
 +2.792527E+00 +7.853982E-01 +0.000000E+00     +2.967060E+00 +8.726646E-01 +0.000000E+00     +2.705260E+00 +1.396263E+00 +0.000000E+00     +4.625123E+00 +1.134464E+00 +0.000000E+00     +3.403392E+00 +1.221730E+00 +0.000000E+00     +4.363323E+00 +1.483530E+00 +0.000000E+00     +1.570796E+00 +1.570796E+00 +0.000000E+00    
 +5.585054E+00 +8.726646E-01 +0.000000E+00     +1.832596E+00 +8.726646E-01 +0.000000E+00     +6.283185E+00 +1.134464E+00 +0.000000E+00     +2.617994E-01 +1.396263E+00 +0.000000E+00     +2.094395E+00 +3.490659E-01 +0.000000E+00     +1.047198E+00 +6.108652E-01 +0.000000E+00     +4.537856E+00 +1.570796E+00 +0.000000E+00    
 +4.712389E+00 +1.047198E+00 +0.000000E+00     +6.283185E+00 +3.490659E-01 +0.000000E+00     +2.530727E+00 +1.221730E+00 +0.000000E+00     +2.007129E+00 +8.726646E-01 +0.000000E+00     +1.047198E+00 +1.396263E+00 +0.000000E+00     +6.108652E+00 +1.483530E+00 +0.000000E+00     +5.759587E+00 +1.308997E+00 +0.000000E+00    
 +5.148721E+00 +2.617994E-01 +0.000000E+00     +5.235988E+00 +6.108652E-01 +0.000000E+00     +6.981317E-01 +5.235988E-01 +0.000000E+00     +4.101524E+00 +1.134464E+00 +0.000000E+00     +1.134464E+00 +1.483530E+00 +0.000000E+00     +6.108652E+00 +4.363323E-01 +0.000000E+00     +3.054326E+00 +4.363323E-01 +0.000000E+00    
 +2.879793E+00 +1.745329E-01 +0.000000E+00     +1.919862E+00 +1.221730E+00 +0.000000E+00     +8.726646E-02 +8.726646E-02 +0.000000E+00     +4.886922E+00 +8.726646E-01 +0.000000E+00     +2.617994E+00 +6.108652E-01 +0.000000E+00     +2.967060E+00 +1.483530E+00 +0.000000E+00     +3.490659E+00 +5.235988E-01 +0.000000E+00    
 +1.221730E+00 +1.047198E+00 +0.000000E+00     +3.665191E+00 +1.134464E+00 +0.000000E+00     +5.061455E+00 +9.599311E-01 +0.000000E+00     +3.839724E+00 +4.363323E-01 +0.000000E+00     +4.363323E+00 +1.483530E+00 +0.000000E+00     +8.726646E-01 +1.570796E+00 +0.000000E+00     +1.745329E-01 +1.221730E+00 +0.000000E+00    
 +5.061455E+00 +8.726646E-02 +0.000000E+00     +1.832596E+00 +1.483530E+00 +0.000000E+00     +5.672320E+00 +1.745329E-01 +0.000000E+00     +3.926991E+00 +6.981317E-01 +0.000000E+00     +5.759587E+00 +1.483530E+00 +0.000000E+00     +2.792527E+00 +1.308997E+00 +0.000000E+00     +2.094395E+00 +1.221730E+00 +0.000000E+00    
 +6.283185E+00 +9.599311E-01 +0.000000E+00     +4.014257E+00 +9.599311E-01 +0.000000E+00     +4.276057E+00 +9.599311E-01 +0.000000E+00     +2.443461E+00 +6.108652E-01 +0.000000E+00     +6.283185E+00 +3.490659E-01 +0.000000E+00     +1.745329E-01 +8.726646E-01 +0.000000E+00     +4.363323E-01 +6.981317E-01 +0.000000E+00    
 +1.658063E+00 +2.617994E-01 +0.000000E+00     +4.188790E+00 +8.726646E-02 +0.000000E+00     +4.188790E+00 +6.981317E-01 +0.000000E+00     +2.007129E+00 +8.726646E-02 +0.000000E+00     +3.752458E+00 +1.570796E+00 +0.000000E+00     +3.577925E+00 +1.047198E+00 +0.000000E+00     +4.799655E+00 +1.047198E+00 +0.000000E+00    
 +2.617994E+00 +6.981317E-01 +0.000000E+00     +5.148721E+00 +1.570796E+00 +0.000000E+00     +5.672320E+00 +1.047198E+00 +0.000000E+00     +3.665191E+00 +6.108652E-01 +0.000000E+00     +3.839724E+00 +6.981317E-01 +0.000000E+00     +4.712389E+00 +1.047198E+00 +0.000000E+00     +3.141593E+00 +1.396263E+00 +0.000000E+00    
 +5.148721E+00 +5.235988E-01 +0.000000E+00     +3.141593E+00 +9.599311E-01 +0.000000E+00     +3.141593E+00 +8.726646E-01 +0.000000E+00     +3.403392E+00 +8.726646E-02 +0.000000E+00     +1.308997E+00 +6.108652E-01 +0.000000E+00     +6.108652E+00 +3.490659E-01 +0.000000E+00     +4.450590E+00 +1.483530E+00 +0.000000E+00    
 +4.799655E+00 +6.108652E-01 +0.000000E+00     +3.403392E+00 +1.047198E+00 +0.000000E+00     +3.665191E+00 +7.853982E-01 +0.000000E+00     +2.705260E+00 +8.726646E-01 +0.000000E+00     +1.221730E+00 +1.308997E+00 +0.000000E+00     +6.108652E+00 +2.617994E-01 +0.000000E+00     +5.672320E+00 +9.599311E-01 +0.000000E+00    
 +6.195919E+00 +1.308997E+00 +0.000000E+00     +2.617994E-01 +1.308997E+00 +0.000000E+00     +6.981317E-01 +1.570796E+00 +0.000000E+00     +1.483530E+00 +6.981317E-01 +0.000000E+00     +6.108652E-01 +4.363323E-01 +0.000000E+00     +1.570796E+00 +1.134464E+00 +0.000000E+00     +3.490659E+00 +4.363323E-01 +0.000000E+00    
 +3.403392E+00 +1.134464E+00 +0.000000E+00     +4.625123E+00 +6.981317E-01 +0.000000E+00     +3.839724E+00 +8.726646E-01 +0.000000E+00     +4.276057E+00 +1.134464E+00 +0.000000E+00     +7.853982E-01 +7.853982E-01 +0.000000E+00     +3.839724E+00 +8.726646E-01 +0.000000E+00     +5.235988E-01 +4.363323E-01 +0.000000E+00    
 +3.926991E+00 +1.221730E+00 +0.000000E+00     +5.410521E+00 +5.235988E-01 +0.000000E+00     +1.832596E+00 +4.363323E-01 +0.000000E+00     +2.617994E-01 +3.490659E-01 +0.000000E+00     +1.483530E+00 +5.235988E-01 +0.000000E+00     +6.021386E+00 +6.108652E-01 +0.000000E+00     +9.599311E-01 +2.617994E-01 +0.000000E+00    
 +5.585054E+00 +5.235988E-01 +0.000000E+00     +1.308997E+00 +9.599311E-01 +0.000000E+00     +5.759587E+00 +3.490659E-01 +0.000000E+00     +6.021386E+00 +8.726646E-01 +0.000000E+00     +4.450590E+00 +1.221730E+00 +0.000000E+00     +9.599311E-01 +1.483530E+00 +0.000000E+00     +5.585054E+00 +1.134464E+00 +0.000000E+00    
 +2.094395E+00 +2.617994E-01 +0.000000E+00     +6.195919E+00 +6.108652E-01 +0.000000E+00     +2.443461E+00 +1.134464E+00 +0.000000E+00     +2.356194E+00 +6.981317E-01 +0.000000E+00     +3.054326E+00 +6.981317E-01 +0.000000E+00     +8.726646E-01 +1.745329E-01 +0.000000E+00     +6.021386E+00 +4.363323E-01 +0.000000E+00    
 +6.195919E+00 +1.570796E+00 +0.000000E+00     +4.974188E+00 +1.308997E+00 +0.000000E+00     +5.672320E+00 +1.308997E+00 +0.000000E+00     +4.363323E+00 +1.483530E+00 +0.000000E+00     +3.490659E+00 +2.617994E-01 +0.000000E+00     +3.665191E+00 +1.047198E+00 +0.000000E+00     +4.188790E+00 +6.108652E-01 +0.000000E+00    
 +4.014257E+00 +1.396263E+00 +0.000000E+00     +2.617994E+00 +3.490659E-01 +0.000000E+00     +1.832596E+00 +8.726646E-02 +0.000000E+00     +7.853982E-01 +2.617994E-01 +0.000000E+00     +8.726646E-01 +1.745329E-01 +0.000000E+00     +3.752458E+00 +5.235988E-01 +0.000000E+00     +6.981317E-01 +1.047198E+00 +0.000000E+00    
 +6.195919E+00 +1.483530E+00 +0.000000E+00     +4.974188E+00 +6.981317E-01 +0.000000E+00     +4.101524E+00 +7.853982E-01 +0.000000E+00     +2.268928E+00 +5.235988E-01 +0.000000E+00     +4.188790E+00 +9.599311E-01 +0.000000E+00     +4.799655E+00 +4.363323E-01 +0.000000E+00     +3.490659E+00 +1.745329E-01 +0.000000E+00    
 +1.570796E+00 +5.235988E-01 +0.000000E+00     +8.726646E-02 +5.235988E-01 +0.000000E+00     +1.047198E+00 +8.726646E-02 +0.000000E+00     +6.021386E+00 +6.108652E-01 +0.000000E+00     +2.530727E+00 +1.047198E+00 +0.000000E+00     +3.054326E+00 +1.047198E+00 +0.000000E+00     +2.617994E+00 +4.363323E-01 +0.000000E+00    
 +8.726646E-01 +1.396263E+00 +0.000000E+00     +3.926991E+00 +3.490659E-01 +0.000000E+00     +5.934119E+00 +1.047198E+00 +0.000000E+00     +3.054326E+00 +3.490659E-01 +0.000000E+00     +6.981317E-01 +1.134464E+00 +0.000000E+00     +1.570796E+00 +8.726646E-01 +0.000000E+00     +1.221730E+00 +1.134464E+00 +0.000000E+00    
 +4.101524E+00 +6.981317E-01 +0.000000E+00     +4.450590E+00 +5.235988E-01 +0.000000E+00     +4.363323E-01 +1.221730E+00 +0.000000E+00     +4.886922E+00 +1.483530E+00 +0.000000E+00     +4.276057E+00 +4.363323E-01 +0.000000E+00     +2.268928E+00 +7.853982E-01 +0.000000E+00     +2.967060E+00 +9.599311E-01 +0.000000E+00    
 +4.799655E+00 +5.235988E-01 +0.000000E+00     +3.839724E+00 +3.490659E-01 +0.000000E+00     +3.839724E+00 +4.363323E-01 +0.000000E+00     +4.101524E+00 +8.726646E-01 +0.000000E+00     +1.221730E+00 +8.726646E-01 +0.000000E+00     +6.981317E-01 +1.134464E+00 +0.000000E+00     +3.403392E+00 +8.726646E-01 +0.000000E+00    
 +3.839724E+00 +8.726646E-02 +0.000000E+00     +1.396263E+00 +9.599311E-01 +0.000000E+00     +4.014257E+00 +8.726646E-01 +0.000000E+00     +5.846853E+00 +1.483530E+00 +0.000000E+00     +6.021386E+00 +5.235988E-01 +0.000000E+00     +1.919862E+00 +3.490659E-01 +0.000000E+00     +3.839724E+00 +1.134464E+00 +0.000000E+00    
 +3.054326E+00 +8.726646E-01 +0.000000E+00     +4.799655E+00 +1.047198E+00 +0.000000E+00     +2.530727E+00 +1.047198E+00 +0.000000E+00     +2.617994E-01 +1.745329E-01 +0.000000E+00     +5.323254E+00 +8.726646E-01 +0.000000E+00     +2.007129E+00 +1.396263E+00 +0.000000E+00     +5.410521E+00 +2.617994E-01 +0.000000E+00    
 +1.396263E+00 +6.981317E-01 +0.000000E+00     +1.134464E+00 +7.853982E-01 +0.000000E+00     +5.235988E+00 +1.047198E+00 +0.000000E+00     +3.839724E+00 +1.396263E+00 +0.000000E+00     +6.108652E-01 +9.599311E-01 +0.000000E+00     +6.195919E+00 +9.599311E-01 +0.000000E+00     +1.832596E+00 +8.726646E-02 +0.000000E+00    
 +1.221730E+00 +8.726646E-02 +0.000000E+00     +3.490659E+00 +6.981317E-01 +0.000000E+00     +7.853982E-01 +2.617994E-01 +0.000000E+00     +2.792527E+00 +1.396263E+00 +0.000000E+00     +4.886922E+00 +1.570796E+00 +0.000000E+00     +5.235988E-01 +7.853982E-01 +0.000000E+00     +5.585054E+00 +7.853982E-01 +0.000000E+00    
 +3.839724E+00 +5.235988E-01 +0.000000E+00     +3.316126E+00 +1.134464E+00 +0.000000E+00     +1.745329E+00 +8.726646E-02 +0.000000E+00     +4.625123E+00 +7.853982E-01 +0.000000E+00     +1.745329E+00 +9.599311E-01 +0.000000E+00     +2.879793E+00 +1.745329E-01 +0.000000E+00     +2.181662E+00 +4.363323E-01 +0.000000E+00    
 +5.759587E+00 +3.490659E-01 +0.000000E+00     +6.195919E+00 +1.308997E+00 +0.000000E+00     +5.934119E+00 +1.745329E-01 +0.000000E+00     +1.570796E+00 +8.726646E-02 +0.000000E+00     +3.665191E+00 +1.308997E+00 +0.000000E+00     +4.712389E+00 +1.308997E+00 +0.000000E+00     +6.021386E+00 +8.726646E-02 +0.000000E+00    
 +3.926991E+00 +1.396263E+00 +0.000000E+00     +1.745329E+00 +9.599311E-01 +0.000000E+00     +1.570796E+00 +9.599311E-01 +0.000000E+00     +3.316126E+00 +1.221730E+00 +0.000000E+00     +5.148721E+00 +2.617994E-01 +0.000000E+00     +1.570796E+00 +9.599311E-01 +0.000000E+00     +2.705260E+00 +5.235988E-01 +0.000000E+00    
 +2.792527E+00 +1.396263E+00 +0.000000E+00     +2.879793E+00 +4.363323E-01 +0.000000E+00     +8.726646E-01 +9.599311E-01 +0.000000E+00     +4.014257E+00 +6.981317E-01 +0.000000E+00     +1.134464E+00 +1.396263E+00 +0.000000E+00     +1.396263E+00 +6.981317E-01 +0.000000E+00     +1.745329E+00 +1.483530E+00 +0.000000E+00    
 +3.665191E+00 +2.617994E-01 +0.000000E+00     +5.323254E+00 +3.490659E-01 +0.000000E+00     +2.617994E-01 +1.047198E+00 +0.000000E+00     +5.672320E+00 +1.134464E+00 +0.000000E+00     +1.134464E+00 +6.981317E-01 +0.000000E+00     +5.672320E+00 +1.570796E+00 +0.000000E+00     +2.967060E+00 +8.726646E-02 +0.000000E+00    
 +3.839724E+00 +8.726646E-01 +0.000000E+00     +4.886922E+00 +9.599311E-01 +0.000000E+00     +4.537856E+00 +1.483530E+00 +0.000000E+00     +3.490659E-01 +1.396263E+00 +0.000000E+00     +4.276057E+00 +6.981317E-01 +0.000000E+00     +1.919862E+00 +1.308997E+00 +0.000000E+00     +1.483530E+00 +9.599311E-01 +0.000000E+00    
 +3.054326E+00 +6.108652E-01 +0.000000E+00     +2.530727E+00 +7.853982E-01 +0.000000E+00     +2.705260E+00 +1.570796E+00 +0.000000E+00     +4.799655E+00 +1.570796E+00 +0.000000E+00     +3.490659E+00 +1.570796E+00 +0.000000E+00     +5.410521E+00 +9.599311E-01 +0.000000E+00     +4.712389E+00 +5.235988E-01 +0.000000E+00    
 +1.570796E+00 +1.570796E+00 +0.000000E+00     +3.490659E-01 +8.726646E-01 +0.000000E+00     +2.617994E+00 +9.599311E-01 +0.000000E+00     +1.570796E+00 +1.396263E+00 +0.000000E+00     +7.853982E-01 +1.308997E+00 +0.000000E+00     +2.617994E-01 +2.617994E-01 +0.000000E+00     +2.268928E+00 +2.617994E-01 +0.000000E+00    
 +2.617994E-01 +1.745329E-01 +0.000000E+00     +1.221730E+00 +1.221730E+00 +0.000000E+00     +4.188790E+00 +1.308997E+00 +0.000000E+00     +1.658063E+00 +6.981317E-01 +0.000000E+00     +4.537856E+00 +1.745329E-01 +0.000000E+00     +3.316126E+00 +1.483530E+00 +0.000000E+00     +3.577925E+00 +8.726646E-02 +0.000000E+00    
 +8.726646E-01 +6.981317E-01 +0.000000E+00     +3.490659E-01 +7.853982E-01 +0.000000E+00     +1.745329E+00 +2.617994E-01 +0.000000E+00     +1.832596E+00 +2.617994E-01 +0.000000E+00     +4.188790E+00 +8.726646E-02 +0.000000E+00     +5.061455E+00 +2.617994E-01 +0.000000E+00     +5.410521E+00 +2.617994E-01 +0.000000E+00    
 +1.832596E+00 +8.726646E-01 +0.000000E+00     +5.061455E+00 +8.726646E-02 +0.000000E+00     +4.188790E+00 +1.134464E+00 +0.000000E+00     +7.853982E-01 +8.726646E-01 +0.000000E+00     +6.981317E-01 +1.308997E+00 +0.000000E+00     +1.919862E+00 +1.483530E+00 +0.000000E+00     +6.283185E+00 +7.853982E-01 +0.000000E+00    
 +4.014257E+00 +1.483530E+00 +0.000000E+00     +5.759587E+00 +1.570796E+00 +0.000000E+00     +5.061455E+00 +1.047198E+00 +0.000000E+00     +6.283185E+00 +7.853982E-01 +0.000000E+00     +6.021386E+00 +1.570796E+00 +0.000000E+00     +4.799655E+00 +2.617994E-01 +0.000000E+00     +4.101524E+00 +1.570796E+00 +0.000000E+00    
 +6.021386E+00 +2.617994E-01 +0.000000E+00     +1.658063E+00 +6.981317E-01 +0.000000E+00     +5.061455E+00 +8.726646E-01 +0.000000E+00     +4.450590E+00 +8.726646E-01 +0.000000E+00     +3.752458E+00 +1.134464E+00 +0.000000E+00     +2.617994E+00 +3.490659E-01 +0.000000E+00     +6.981317E-01 +9.599311E-01 +0.000000E+00    
 +4.363323E-01 +1.134464E+00 +0.000000E+00     +4.974188E+00 +1.483530E+00 +0.000000E+00     +4.188790E+00 +9.599311E-01 +0.000000E+00     +4.188790E+00 +1.745329E-01 +0.000000E+00     +2.007129E+00 +1.047198E+00 +0.000000E+00     +1.134464E+00 +1.047198E+00 +0.000000E+00     +3.054326E+00 +1.221730E+00 +0.000000E+00    
 +3.839724E+00 +1.570796E+00 +0.000000E+00     +4.450590E+00 +4.363323E-01 +0.000000E+00     +1.658063E+00 +9.599311E-01 +0.000000E+00     +2.617994E-01 +4.363323E-01 +0.000000E+00     +5.410521E+00 +1.221730E+00 +0.000000E+00     +5.061455E+00 +1.047198E+00 +0.000000E+00     +4.276057E+00 +1.483530E+00 +0.000000E+00    
 +2.181662E+00 +1.134464E+00 +0.000000E+00     +4.363323E+00 +1.396263E+00 +0.000000E+00     +6.021386E+00 +1.221730E+00 +0.000000E+00     +5.672320E+00 +9.599311E-01 +0.000000E+00     +6.108652E-01 +4.363323E-01 +0.000000E+00     +4.276057E+00 +6.981317E-01 +0.000000E+00     +4.014257E+00 +1.570796E+00 +0.000000E+00    
 +3.316126E+00 +1.047198E+00 +0.000000E+00     +4.014257E+00 +1.134464E+00 +0.000000E+00     +5.235988E+00 +1.570796E+00 +0.000000E+00     +4.014257E+00 +7.853982E-01 +0.000000E+00     +1.221730E+00 +1.047198E+00 +0.000000E+00     +1.919862E+00 +1.396263E+00 +0.000000E+00     +4.188790E+00 +1.570796E+00 +0.000000E+00    
 +2.268928E+00 +1.134464E+00 +0.000000E+00     +3.054326E+00 +1.396263E+00 +0.000000E+00     +2.967060E+00 +8.726646E-02 +0.000000E+00     +6.195919E+00 +6.108652E-01 +0.000000E+00     +2.007129E+00 +6.108652E-01 +0.000000E+00     +1.745329E-01 +5.235988E-01 +0.000000E+00     +6.108652E+00 +1.047198E+00 +0.000000E+00    
 +5.759587E+00 +4.363323E-01 +0.000000E+00     +4.188790E+00 +8.726646E-01 +0.000000E+00     +5.846853E+00 +1.745329E-01 +0.000000E+00     +4.450590E+00 +6.981317E-01 +0.000000E+00     +6.108652E+00 +1.745329E-01 +0.000000E+00     +3.490659E+00 +1.396263E+00 +0.000000E+00     +6.021386E+00 +1.570796E+00 +0.000000E+00    
 +4.625123E+00 +7.853982E-01 +0.000000E+00     +2.792527E+00 +1.745329E-01 +0.000000E+00     +5.672320E+00 +4.363323E-01 +0.000000E+00     +5.934119E+00 +2.617994E-01 +0.000000E+00     +1.047198E+00 +1.396263E+00 +0.000000E+00     +4.014257E+00 +1.483530E+00 +0.000000E+00     +5.061455E+00 +6.981317E-01 +0.000000E+00    
 +2.879793E+00 +1.570796E+00 +0.000000E+00     +1.308997E+00 +1.570796E+00 +0.000000E+00     +1.658063E+00 +1.221730E+00 +0.000000E+00     +9.599311E-01 +1.570796E+00 +0.000000E+00     +3.054326E+00 +7.853982E-01 +0.000000E+00     +2.792527E+00 +1.134464E+00 +0.000000E+00     +4.363323E+00 +7.853982E-01 +0.000000E+00    
 +1.047198E+00 +8.726646E-02 +0.000000E+00     +2.967060E+00 +2.617994E-01 +0.000000E+00     +3.665191E+00 +1.308997E+00 +0.000000E+00     +4.974188E+00 +1.221730E+00 +0.000000E+00     +9.599311E-01 +6.981317E-01 +0.000000E+00     +1.658063E+00 +2.617994E-01 +0.000000E+00     +3.228859E+00 +6.981317E-01 +0.000000E+00    
 +5.410521E+00 +2.617994E-01 +0.000000E+00     +6.195919E+00 +1.396263E+00 +0.000000E+00     +2.617994E-01 +1.570796E+00 +0.000000E+00     +6.283185E+00 +9.599311E-01 +0.000000E+00     +8.726646E-01 +8.726646E-01 +0.000000E+00     +9.599311E-01 +6.108652E-01 +0.000000E+00     +1.134464E+00 +3.490659E-01 +0.000000E+00    
 +3.665191E+00 +4.363323E-01 +0.000000E+00     +4.974188E+00 +7.853982E-01 +0.000000E+00     +2.967060E+00 +1.396263E+00 +0.000000E+00     +5.148721E+00 +7.853982E-01 +0.000000E+00     +4.974188E+00 +6.108652E-01 +0.000000E+00     +5.235988E-01 +7.853982E-01 +0.000000E+00     +4.101524E+00 +1.221730E+00 +0.000000E+00    
 +3.926991E+00 +1.047198E+00 +0.000000E+00     +1.658063E+00 +7.853982E-01 +0.000000E+00     +4.712389E+00 +1.221730E+00 +0.000000E+00     +6.021386E+00 +6.108652E-01 +0.000000E+00     +1.570796E+00 +6.108652E-01 +0.000000E+00     +4.537856E+00 +1.570796E+00 +0.000000E+00     +1.658063E+00 +1.047198E+00 +0.000000E+00    
 +6.108652E-01 +1.396263E+00 +0.000000E+00     +4.450590E+00 +6.108652E-01 +0.000000E+00     +5.585054E+00 +6.108652E-01 +0.000000E+00     +5.759587E+00 +9.599311E-01 +0.000000E+00     +3.228859E+00 +9.599311E-01 +0.000000E+00     +5.846853E+00 +1.047198E+00 +0.000000E+00     +2.617994E+00 +1.308997E+00 +0.000000E+00    
 +3.141593E+00 +1.483530E+00 +0.000000E+00     +6.981317E-01 +9.599311E-01 +0.000000E+00     +5.934119E+00 +5.235988E-01 +0.000000E+00     +2.094395E+00 +9.599311E-01 +0.000000E+00     +2.617994E+00 +1.134464E+00 +0.000000E+00     +6.108652E+00 +6.108652E-01 +0.000000E+00     +2.617994E-01 +1.483530E+00 +0.000000E+00    
 +5.410521E+00 +1.745329E-01 +0.000000E+00     +7.853982E-01 +6.981317E-01 +0.000000E+00     +2.967060E+00 +1.308997E+00 +0.000000E+00     +3.665191E+00 +1.134464E+00 +0.000000E+00     +1.134464E+00 +1.745329E-01 +0.000000E+00     +5.846853E+00 +1.221730E+00 +0.000000E+00     +3.665191E+00 +1.745329E-01 +0.000000E+00    
 +2.879793E+00 +1.134464E+00 +0.000000E+00     +4.886922E+00 +1.134464E+00 +0.000000E+00     +3.752458E+00 +4.363323E-01 +0.000000E+00     +4.886922E+00 +1.745329E-01 +0.000000E+00     +1.483530E+00 +6.108652E-01 +0.000000E+00     +2.181662E+00 +5.235988E-01 +0.000000E+00     +1.396263E+00 +2.617994E-01 +0.000000E+00    
 +4.276057E+00 +3.490659E-01 +0.000000E+00     +2.705260E+00 +1.483530E+00 +0.000000E+00     +2.705260E+00 +1.308997E+00 +0.000000E+00     +5.672320E+00 +1.047198E+00 +0.000000E+00     +3.665191E+00 +1.396263E+00 +0.000000E+00     +3.054326E+00 +8.726646E-01 +0.000000E+00     +1.658063E+00 +5.235988E-01 +0.000000E+00    
 +1.221730E+00 +6.108652E-01 +0.000000E+00     +3.926991E+00 +1.047198E+00 +0.000000E+00     +5.585054E+00 +8.726646E-01 +0.000000E+00     +3.054326E+00 +1.221730E+00 +0.000000E+00     +4.886922E+00 +9.599311E-01 +0.000000E+00     +5.497787E+00 +4.363323E-01 +0.000000E+00     +1.308997E+00 +5.235988E-01 +0.000000E+00    
 +4.799655E+00 +1.134464E+00 +0.000000E+00     +3.490659E+00 +2.617994E-01 +0.000000E+00     +4.799655E+00 +6.108652E-01 +0.000000E+00     +1.658063E+00 +1.134464E+00 +0.000000E+00     +6.108652E+00 +9.599311E-01 +0.000000E+00     +3.839724E+00 +9.599311E-01 +0.000000E+00     +3.054326E+00 +1.047198E+00 +0.000000E+00    
 +3.752458E+00 +8.726646E-01 +0.000000E+00     +2.792527E+00 +1.308997E+00 +0.000000E+00     +6.021386E+00 +1.308997E+00 +0.000000E+00     +4.188790E+00 +8.726646E-01 +0.000000E+00     +4.537856E+00 +5.235988E-01 +0.000000E+00     +2.879793E+00 +1.308997E+00 +0.000000E+00     +5.061455E+00 +1.308997E+00 +0.000000E+00    
 +1.745329E+00 +5.235988E-01 +0.000000E+00     +5.846853E+00 +1.570796E+00 +0.000000E+00     +3.054326E+00 +1.745329E-01 +0.000000E+00     +5.410521E+00 +1.134464E+00 +0.000000E+00     +6.981317E-01 +2.617994E-01 +0.000000E+00     +3.490659E+00 +8.726646E-02 +0.000000E+00     +2.967060E+00 +1.745329E-01 +0.000000E+00    
 +1.308997E+00 +1.396263E+00 +0.000000E+00     +4.363323E+00 +8.726646E-02 +0.000000E+00     +8.726646E-02 +1.308997E+00 +0.000000E+00     +2.181662E+00 +1.570796E+00 +0.000000E+00     +3.839724E+00 +7.853982E-01 +0.000000E+00     +2.356194E+00 +6.108652E-01 +0.000000E+00     +2.007129E+00 +8.726646E-02 +0.000000E+00    
 +4.188790E+00 +6.108652E-01 +0.000000E+00     +3.577925E+00 +1.047198E+00 +0.000000E+00     +2.792527E+00 +9.599311E-01 +0.000000E+00     +1.047198E+00 +5.235988E-01 +0.000000E+00     +6.981317E-01 +1.570796E+00 +0.000000E+00     +2.007129E+00 +1.745329E-01 +0.000000E+00     +2.181662E+00 +1.047198E+00 +0.000000E+00    
 +9.599311E-01 +6.108652E-01 +0.000000E+00     +5.148721E+00 +1.745329E-01 +0.000000E+00     +3.752458E+00 +1.570796E+00 +0.000000E+00     +2.356194E+00 +1.745329E-01 +0.000000E+00     +2.356194E+00 +1.396263E+00 +0.000000E+00     +2.705260E+00 +6.108652E-01 +0.000000E+00     +2.879793E+00 +6.981317E-01 +0.000000E+00    
 +1.308997E+00 +1.570796E+00 +0.000000E+00     +6.108652E+00 +1.221730E+00 +0.000000E+00     +5.323254E+00 +1.483530E+00 +0.000000E+00     +2.443461E+00 +1.483530E+00 +0.000000E+00     +6.021386E+00 +4.363323E-01 +0.000000E+00     +2.967060E+00 +2.617994E-01 +0.000000E+00     +2.181662E+00 +8.726646E-01 +0.000000E+00    
 +1.745329E+00 +2.617994E-01 +0.000000E+00     +3.054326E+00 +1.308997E+00 +0.000000E+00     +2.181662E+00 +1.308997E+00 +0.000000E+00     +1.134464E+00 +1.308997E+00 +0.000000E+00     +4.712389E+00 +1.221730E+00 +0.000000E+00     +2.181662E+00 +1.745329E-01 +0.000000E+00     +6.108652E+00 +9.599311E-01 +0.000000E+00    
 +3.926991E+00 +6.981317E-01 +0.000000E+00     +7.853982E-01 +6.981317E-01 +0.000000E+00     +5.759587E+00 +1.047198E+00 +0.000000E+00     +2.705260E+00 +6.108652E-01 +0.000000E+00     +2.181662E+00 +1.308997E+00 +0.000000E+00     +2.705260E+00 +7.853982E-01 +0.000000E+00     +7.853982E-01 +1.483530E+00 +0.000000E+00    
 +5.672320E+00 +1.221730E+00 +0.000000E+00     +6.021386E+00 +3.490659E-01 +0.000000E+00     +4.886922E+00 +6.108652E-01 +0.000000E+00     +4.886922E+00 +7.853982E-01 +0.000000E+00     +4.450590E+00 +2.617994E-01 +0.000000E+00     +3.665191E+00 +3.490659E-01 +0.000000E+00     +2.094395E+00 +5.235988E-01 +0.000000E+00    
 +6.195919E+00 +4.363323E-01 +0.000000E+00     +7.853982E-01 +1.570796E+00 +0.000000E+00     +4.101524E+00 +1.134464E+00 +0.000000E+00     +8.726646E-01 +1.396263E+00 +0.000000E+00     +5.672320E+00 +1.221730E+00 +0.000000E+00     +2.094395E+00 +6.981317E-01 +0.000000E+00     +7.853982E-01 +2.617994E-01 +0.000000E+00    
 +5.235988E-01 +1.570796E+00 +0.000000E+00     +1.570796E+00 +9.599311E-01 +0.000000E+00     +2.268928E+00 +6.981317E-01 +0.000000E+00     +3.316126E+00 +1.221730E+00 +0.000000E+00     +5.323254E+00 +6.108652E-01 +0.000000E+00     +2.443461E+00 +9.599311E-01 +0.000000E+00     +3.490659E-01 +8.726646E-01 +0.000000E+00    
 +1.832596E+00 +8.726646E-02 +0.000000E+00     +1.658063E+00 +7.853982E-01 +0.000000E+00     +4.886922E+00 +1.570796E+00 +0.000000E+00     +2.967060E+00 +9.599311E-01 +0.000000E+00     +4.625123E+00 +1.570796E+00 +0.000000E+00     +5.846853E+00 +2.617994E-01 +0.000000E+00     +4.363323E-01 +1.396263E+00 +0.000000E+00    
 +4.363323E+00 +1.221730E+00 +0.000000E+00     +4.625123E+00 +8.726646E-01 +0.000000E+00     +1.483530E+00 +7.853982E-01 +0.000000E+00     +4.537856E+00 +1.396263E+00 +0.000000E+00     +5.846853E+00 +6.981317E-01 +0.000000E+00     +5.323254E+00 +9.599311E-01 +0.000000E+00     +6.981317E-01 +6.108652E-01 +0.000000E+00    
 +5.061455E+00 +1.221730E+00 +0.000000E+00     +6.108652E-01 +3.490659E-01 +0.000000E+00     +5.235988E+00 +6.108652E-01 +0.000000E+00     +5.148721E+00 +1.308997E+00 +0.000000E+00     +2.007129E+00 +1.308997E+00 +0.000000E+00     +6.195919E+00 +1.221730E+00 +0.000000E+00     +3.926991E+00 +1.745329E-01 +0.000000E+00    
 +1.134464E+00 +1.483530E+00 +0.000000E+00     +4.799655E+00 +2.617994E-01 +0.000000E+00     +1.745329E+00 +2.617994E-01 +0.000000E+00     +1.483530E+00 +4.363323E-01 +0.000000E+00     +3.577925E+00 +2.617994E-01 +0.000000E+00     +1.483530E+00 +3.490659E-01 +0.000000E+00     +4.974188E+00 +1.134464E+00 +0.000000E+00    
 +3.054326E+00 +1.396263E+00 +0.000000E+00     +5.846853E+00 +2.617994E-01 +0.000000E+00     +4.537856E+00 +9.599311E-01 +0.000000E+00     +5.410521E+00 +9.599311E-01 +0.000000E+00     +2.617994E+00 +6.981317E-01 +0.000000E+00     +3.490659E+00 +5.235988E-01 +0.000000E+00     +2.443461E+00 +1.221730E+00 +0.000000E+00    
 +4.363323E-01 +9.599311E-01 +0.000000E+00     +1.483530E+00 +1.745329E-01 +0.000000E+00     +2.443461E+00 +3.490659E-01 +0.000000E+00     +6.108652E+00 +6.108652E-01 +0.000000E+00     +1.396263E+00 +8.726646E-02 +0.000000E+00     +1.919862E+00 +8.726646E-01 +0.000000E+00     +4.014257E+00 +1.308997E+00 +0.000000E+00    
 +4.188790E+00 +6.108652E-01 +0.000000E+00     +1.396263E+00 +1.396263E+00 +0.000000E+00     +3.228859E+00 +9.599311E-01 +0.000000E+00     +2.443461E+00 +1.570796E+00 +0.000000E+00     +1.396263E+00 +6.108652E-01 +0.000000E+00     +3.926991E+00 +8.726646E-02 +0.000000E+00     +1.483530E+00 +8.726646E-02 +0.000000E+00    
 +8.726646E-02 +1.570796E+00 +0.000000E+00     +1.832596E+00 +1.221730E+00 +0.000000E+00     +1.745329E+00 +6.981317E-01 +0.000000E+00     +5.235988E+00 +6.108652E-01 +0.000000E+00     +4.014257E+00 +6.108652E-01 +0.000000E+00     +4.363323E-01 +5.235988E-01 +0.000000E+00     +2.181662E+00 +2.617994E-01 +0.000000E+00    
 +3.054326E+00 +1.221730E+00 +0.000000E+00     +3.839724E+00 +7.853982E-01 +0.000000E+00     +2.967060E+00 +1.483530E+00 +0.000000E+00     +2.443461E+00 +1.221730E+00 +0.000000E+00     +2.617994E-01 +1.308997E+00 +0.000000E+00     +2.617994E+00 +6.981317E-01 +0.000000E+00     +4.101524E+00 +1.745329E-01 +0.000000E+00    
 +4.014257E+00 +1.483530E+00 +0.000000E+00     +5.061455E+00 +3.490659E-01 +0.000000E+00     +6.981317E-01 +5.235988E-01 +0.000000E+00     +8.726646E-01 +6.981317E-01 +0.000000E+00     +2.967060E+00 +1.396263E+00 +0.000000E+00     +8.726646E-01 +8.726646E-02 +0.000000E+00     +2.268928E+00 +1.396263E+00 +0.000000E+00    
 +3.141593E+00 +1.745329E-01 +0.000000E+00     +6.021386E+00 +1.047198E+00 +0.000000E+00     +2.530727E+00 +1.396263E+00 +0.000000E+00     +2.094395E+00 +4.363323E-01 +0.000000E+00     +1.745329E-01 +1.134464E+00 +0.000000E+00     +1.658063E+00 +1.745329E-01 +0.000000E+00     +1.919862E+00 +1.570796E+00 +0.000000E+00    
 +1.745329E-01 +1.570796E+00 +0.000000E+00     +1.308997E+00 +3.490659E-01 +0.000000E+00     +4.712389E+00 +6.981317E-01 +0.000000E+00     +2.705260E+00 +1.134464E+00 +0.000000E+00     +1.745329E-01 +1.308997E+00 +0.000000E+00     +2.443461E+00 +1.134464E+00 +0.000000E+00     +4.101524E+00 +1.396263E+00 +0.000000E+00    
 +2.792527E+00 +2.617994E-01 +0.000000E+00     +2.879793E+00 +1.396263E+00 +0.000000E+00     +3.665191E+00 +1.745329E-01 +0.000000E+00     +4.712389E+00 +2.617994E-01 +0.000000E+00     +3.577925E+00 +1.134464E+00 +0.000000E+00     +5.672320E+00 +8.726646E-02 +0.000000E+00     +4.188790E+00 +9.599311E-01 +0.000000E+00    
 +2.792527E+00 +6.108652E-01 +0.000000E+00     +2.967060E+00 +1.745329E-01 +0.000000E+00     +1.745329E+00 +4.363323E-01 +0.000000E+00     +5.672320E+00 +1.221730E+00 +0.000000E+00     +4.537856E+00 +5.235988E-01 +0.000000E+00     +2.967060E+00 +1.745329E-01 +0.000000E+00     +5.846853E+00 +6.981317E-01 +0.000000E+00    
 +2.443461E+00 +1.047198E+00 +0.000000E+00     +5.585054E+00 +5.235988E-01 +0.000000E+00     +3.316126E+00 +8.726646E-01 +0.000000E+00     +6.108652E-01 +2.617994E-01 +0.000000E+00     +6.021386E+00 +1.134464E+00 +0.000000E+00     +8.726646E-02 +6.981317E-01 +0.000000E+00     +1.745329E-01 +4.363323E-01 +0.000000E+00    
 +5.672320E+00 +4.363323E-01 +0.000000E+00     +2.530727E+00 +1.745329E-01 +0.000000E+00     +5.846853E+00 +1.221730E+00 +0.000000E+00     +4.799655E+00 +6.108652E-01 +0.000000E+00     +3.316126E+00 +9.599311E-01 +0.000000E+00     +2.356194E+00 +1.134464E+00 +0.000000E+00     +8.726646E-02 +1.047198E+00 +0.000000E+00    
 +3.577925E+00 +1.745329E-01 +0.000000E+00     +4.625123E+00 +6.981317E-01 +0.000000E+00     +5.235988E+00 +1.745329E-01 +0.000000E+00     +2.967060E+00 +6.981317E-01 +0.000000E+00     +4.974188E+00 +1.570796E+00 +0.000000E+00     +3.054326E+00 +1.134464E+00 +0.000000E+00     +3.752458E+00 +1.308997E+00 +0.000000E+00    
 +2.530727E+00 +2.617994E-01 +0.000000E+00     +4.101524E+00 +3.490659E-01 +0.000000E+00     +2.530727E+00 +8.726646E-02 +0.000000E+00     +1.221730E+00 +9.599311E-01 +0.000000E+00     +3.490659E-01 +3.490659E-01 +0.000000E+00     +1.658063E+00 +1.308997E+00 +0.000000E+00     +2.967060E+00 +1.745329E-01 +0.000000E+00    
 +4.886922E+00 +7.853982E-01 +0.000000E+00     +1.919862E+00 +6.981317E-01 +0.000000E+00     +3.054326E+00 +7.853982E-01 +0.000000E+00     +2.443461E+00 +4.363323E-01 +0.000000E+00     +4.537856E+00 +8.726646E-01 +0.000000E+00     +4.625123E+00 +2.617994E-01 +0.000000E+00     +2.617994E+00 +8.726646E-02 +0.000000E+00    
 +3.141593E+00 +1.308997E+00 +0.000000E+00     +3.141593E+00 +1.047198E+00 +0.000000E+00     +6.108652E-01 +4.363323E-01 +0.000000E+00     +2.530727E+00 +3.490659E-01 +0.000000E+00     +4.101524E+00 +6.981317E-01 +0.000000E+00     +2.617994E+00 +6.108652E-01 +0.000000E+00     +4.101524E+00 +4.363323E-01 +0.000000E+00    
 +2.181662E+00 +1.221730E+00 +0.000000E+00     +3.926991E+00 +5.235988E-01 +0.000000E+00     +3.228859E+00 +9.599311E-01 +0.000000E+00     +5.934119E+00 +5.235988E-01 +0.000000E+00     +3.839724E+00 +6.108652E-01 +0.000000E+00     +4.537856E+00 +3.490659E-01 +0.000000E+00     +5.672320E+00 +9.599311E-01 +0.000000E+00    
 +3.665191E+00 +1.134464E+00 +0.000000E+00     +3.490659E+00 +1.570796E+00 +0.000000E+00     +2.181662E+00 +6.108652E-01 +0.000000E+00     +5.497787E+00 +1.396263E+00 +0.000000E+00     +2.617994E+00 +8.726646E-01 +0.000000E+00     +2.007129E+00 +1.745329E-01 +0.000000E+00     +5.235988E-01 +9.599311E-01 +0.000000E+00    
 +4.101524E+00 +7.853982E-01 +0.000000E+00     +4.363323E-01 +3.490659E-01 +0.000000E+00     +3.665191E+00 +1.745329E-01 +0.000000E+00     +5.759587E+00 +4.363323E-01 +0.000000E+00     +5.585054E+00 +9.599311E-01 +0.000000E+00     +2.268928E+00 +1.221730E+00 +0.000000E+00     +1.745329E-01 +1.570796E+00 +0.000000E+00    
 +5.585054E+00 +1.134464E+00 +0.000000E+00     +3.490659E-01 +7.853982E-01 +0.000000E+00     +1.919862E+00 +1.483530E+00 +0.000000E+00     +2.705260E+00 +5.235988E-01 +0.000000E+00     +4.363323E-01 +1.134464E+00 +0.000000E+00     +1.134464E+00 +4.363323E-01 +0.000000E+00     +1.047198E+00 +4.363323E-01 +0.000000E+00    
 +3.665191E+00 +4.363323E-01 +0.000000E+00     +2.617994E-01 +5.235988E-01 +0.000000E+00     +2.268928E+00 +1.047198E+00 +0.000000E+00     +4.974188E+00 +4.363323E-01 +0.000000E+00     +7.853982E-01 +1.483530E+00 +0.000000E+00     +2.356194E+00 +7.853982E-01 +0.000000E+00     +5.323254E+00 +8.726646E-02 +0.000000E+00    
 +3.665191E+00 +1.570796E+00 +0.000000E+00     +5.585054E+00 +9.599311E-01 +0.000000E+00     +1.570796E+00 +1.745329E-01 +0.000000E+00     +3.490659E+00 +7.853982E-01 +0.000000E+00     +5.410521E+00 +8.726646E-01 +0.000000E+00     +9.599311E-01 +9.599311E-01 +0.000000E+00     +4.450590E+00 +1.570796E+00 +0.000000E+00    
 +1.745329E-01 +1.134464E+00 +0.000000E+00     +3.490659E-01 +2.617994E-01 +0.000000E+00     +5.235988E+00 +1.221730E+00 +0.000000E+00     +4.799655E+00 +2.617994E-01 +0.000000E+00     +5.846853E+00 +1.483530E+00 +0.000000E+00     +2.007129E+00 +1.396263E+00 +0.000000E+00     +5.846853E+00 +4.363323E-01 +0.000000E+00    
 +3.926991E+00 +1.134464E+00 +0.000000E+00     +5.672320E+00 +7.853982E-01 +0.000000E+00     +6.981317E-01 +7.853982E-01 +0.000000E+00     +5.934119E+00 +1.134464E+00 +0.000000E+00     +5.323254E+00 +8.726646E-02 +0.000000E+00     +1.221730E+00 +7.853982E-01 +0.000000E+00     +2.181662E+00 +1.134464E+00 +0.000000E+00    
 +4.101524E+00 +9.599311E-01 +0.000000E+00     +5.323254E+00 +1.483530E+00 +0.000000E+00     +4.188790E+00 +1.483530E+00 +0.000000E+00     +2.879793E+00 +1.047198E+00 +0.000000E+00     +1.134464E+00 +1.221730E+00 +0.000000E+00     +2.879793E+00 +1.308997E+00 +0.000000E+00     +6.021386E+00 +1.134464E+00 +0.000000E+00    
 +1.134464E+00 +1.396263E+00 +0.000000E+00     +5.323254E+00 +4.363323E-01 +0.000000E+00     +5.235988E+00 +4.363323E-01 +0.000000E+00     +2.705260E+00 +6.981317E-01 +0.000000E+00     +4.276057E+00 +8.726646E-01 +0.000000E+00     +3.665191E+00 +1.308997E+00 +0.000000E+00     +4.363323E+00 +1.483530E+00 +0.000000E+00    
 +1.483530E+00 +1.221730E+00 +0.000000E+00     +1.919862E+00 +1.483530E+00 +0.000000E+00     +5.672320E+00 +4.363323E-01 +0.000000E+00     +5.235988E-01 +5.235988E-01 +0.000000E+00     +1.396263E+00 +1.396263E+00 +0.000000E+00     +4.886922E+00 +8.726646E-02 +0.000000E+00     +5.585054E+00 +5.235988E-01 +0.000000E+00    
 +3.490659E+00 +1.134464E+00 +0.000000E+00     +2.181662E+00 +2.617994E-01 +0.000000E+00     +5.846853E+00 +1.308997E+00 +0.000000E+00     +1.047198E+00 +1.745329E-01 +0.000000E+00     +1.134464E+00 +3.490659E-01 +0.000000E+00     +1.745329E-01 +5.235988E-01 +0.000000E+00     +5.323254E+00 +6.108652E-01 +0.000000E+00    
 +6.021386E+00 +6.108652E-01 +0.000000E+00     +5.846853E+00 +6.108652E-01 +0.000000E+00     +8.726646E-02 +1.483530E+00 +0.000000E+00     +5.235988E-01 +6.108652E-01 +0.000000E+00     +2.792527E+00 +3.490659E-01 +0.000000E+00     +5.585054E+00 +1.745329E-01 +0.000000E+00     +1.221730E+00 +1.570796E+00 +0.000000E+00    
 +2.967060E+00 +8.726646E-01 +0.000000E+00     +5.323254E+00 +9.599311E-01 +0.000000E+00     +2.443461E+00 +1.308997E+00 +0.000000E+00     +2.181662E+00 +1.570796E+00 +0.000000E+00     +4.363323E+00 +4.363323E-01 +0.000000E+00     +6.283185E+00 +1.134464E+00 +0.000000E+00     +3.665191E+00 +1.396263E+00 +0.000000E+00    
 +2.443461E+00 +1.047198E+00 +0.000000E+00     +4.974188E+00 +1.745329E-01 +0.000000E+00     +7.853982E-01 +6.108652E-01 +0.000000E+00     +2.181662E+00 +2.617994E-01 +0.000000E+00     +2.879793E+00 +8.726646E-01 +0.000000E+00     +2.617994E-01 +1.570796E+00 +0.000000E+00     +3.665191E+00 +8.726646E-01 +0.000000E+00    
 +4.014257E+00 +1.483530E+00 +0.000000E+00     +3.403392E+00 +8.726646E-02 +0.000000E+00     +3.839724E+00 +6.108652E-01 +0.000000E+00     +2.094395E+00 +1.483530E+00 +0.000000E+00     +6.108652E-01 +3.490659E-01 +0.000000E+00     +1.832596E+00 +3.490659E-01 +0.000000E+00     +3.752458E+00 +1.134464E+00 +0.000000E+00    
 +9.599311E-01 +1.483530E+00 +0.000000E+00     +2.007129E+00 +8.726646E-02 +0.000000E+00     +9.599311E-01 +9.599311E-01 +0.000000E+00     +6.108652E+00 +2.617994E-01 +0.000000E+00     +2.007129E+00 +1.483530E+00 +0.000000E+00     +3.316126E+00 +5.235988E-01 +0.000000E+00     +6.108652E+00 +1.570796E+00 +0.000000E+00    
 +5.235988E+00 +1.396263E+00 +0.000000E+00     +2.530727E+00 +4.363323E-01 +0.000000E+00     +3.403392E+00 +7.853982E-01 +0.000000E+00     +2.356194E+00 +9.599311E-01 +0.000000E+00     +4.450590E+00 +1.483530E+00 +0.000000E+00     +4.625123E+00 +1.570796E+00 +0.000000E+00     +1.308997E+00 +1.745329E-01 +0.000000E+00    
 +4.450590E+00 +1.483530E+00 +0.000000E+00     +4.276057E+00 +6.108652E-01 +0.000000E+00     +1.745329E-01 +7.853982E-01 +0.000000E+00     +5.934119E+00 +8.726646E-01 +0.000000E+00     +1.745329E-01 +1.308997E+00 +0.000000E+00     +4.974188E+00 +9.599311E-01 +0.000000E+00     +6.195919E+00 +8.726646E-01 +0.000000E+00    
 +4.101524E+00 +3.490659E-01 +0.000000E+00     +4.974188E+00 +6.981317E-01 +0.000000E+00     +1.919862E+00 +5.235988E-01 +0.000000E+00     +5.497787E+00 +3.490659E-01 +0.000000E+00     +2.530727E+00 +7.853982E-01 +0.000000E+00     +3.577925E+00 +3.490659E-01 +0.000000E+00     +4.799655E+00 +6.981317E-01 +0.000000E+00    
 +2.181662E+00 +3.490659E-01 +0.000000E+00     +5.323254E+00 +3.490659E-01 +0.000000E+00     +2.879793E+00 +4.363323E-01 +0.000000E+00     +8.726646E-01 +4.363323E-01 +0.000000E+00     +9.599311E-01 +1.483530E+00 +0.000000E+00     +7.853982E-01 +7.853982E-01 +0.000000E+00     +3.141593E+00 +1.134464E+00 +0.000000E+00    
 +8.726646E-02 +1.221730E+00 +0.000000E+00     +4.363323E+00 +1.134464E+00 +0.000000E+00     +2.705260E+00 +1.396263E+00 +0.000000E+00     +4.363323E+00 +8.726646E-01 +0.000000E+00     +1.308997E+00 +1.745329E-01 +0.000000E+00     +6.981317E-01 +6.981317E-01 +0.000000E+00     +7.853982E-01 +1.483530E+00 +0.000000E+00    
 +6.108652E+00 +1.308997E+00 +0.000000E+00     +5.323254E+00 +1.483530E+00 +0.000000E+00     +1.919862E+00 +1.396263E+00 +0.000000E+00     +2.181662E+00 +1.570796E+00 +0.000000E+00     +6.283185E+00 +1.745329E-01 +0.000000E+00     +2.007129E+00 +4.363323E-01 +0.000000E+00     +5.497787E+00 +1.221730E+00 +0.000000E+00    
 +6.283185E+00 +1.570796E+00 +0.000000E+00     +3.403392E+00 +2.617994E-01 +0.000000E+00     +3.228859E+00 +5.235988E-01 +0.000000E+00     +3.839724E+00 +1.134464E+00 +0.000000E+00     +6.108652E+00 +7.853982E-01 +0.000000E+00     +6.108652E+00 +9.599311E-01 +0.000000E+00     +1.832596E+00 +5.235988E-01 +0.000000E+00    
 +6.283185E+00 +1.396263E+00 +0.000000E+00     +4.625123E+00 +8.726646E-02 +0.000000E+00     +4.625123E+00 +1.483530E+00 +0.000000E+00     +1.047198E+00 +8.726646E-01 +0.000000E+00     +1.483530E+00 +8.726646E-02 +0.000000E+00     +5.585054E+00 +8.726646E-02 +0.000000E+00     +2.268928E+00 +5.235988E-01 +0.000000E+00    
 +6.283185E+00 +1.308997E+00 +0.000000E+00     +2.443461E+00 +2.617994E-01 +0.000000E+00     +5.672320E+00 +8.726646E-02 +0.000000E+00     +1.396263E+00 +1.308997E+00 +0.000000E+00     +2.356194E+00 +6.981317E-01 +0.000000E+00     +3.490659E-01 +9.599311E-01 +0.000000E+00     +4.101524E+00 +6.981317E-01 +0.000000E+00    
 +5.148721E+00 +1.396263E+00 +0.000000E+00     +1.745329E-01 +6.981317E-01 +0.000000E+00     +3.926991E+00 +2.617994E-01 +0.000000E+00     +2.094395E+00 +7.853982E-01 +0.000000E+00     +1.396263E+00 +1.134464E+00 +0.000000E+00     +5.235988E-01 +2.617994E-01 +0.000000E+00     +2.443461E+00 +1.134464E+00 +0.000000E+00    
 +5.497787E+00 +9.599311E-01 +0.000000E+00     +1.570796E+00 +2.617994E-01 +0.000000E+00     +4.974188E+00 +2.617994E-01 +0.000000E+00     +4.886922E+00 +1.221730E+00 +0.000000E+00     +3.665191E+00 +9.599311E-01 +0.000000E+00     +6.283185E+00 +1.221730E+00 +0.000000E+00     +2.356194E+00 +1.483530E+00 +0.000000E+00    
 +1.047198E+00 +1.308997E+00 +0.000000E+00     +2.007129E+00 +8.726646E-02 +0.000000E+00     +2.268928E+00 +7.853982E-01 +0.000000E+00     +1.745329E+00 +6.108652E-01 +0.000000E+00     +2.356194E+00 +8.726646E-02 +0.000000E+00     +5.061455E+00 +1.396263E+00 +0.000000E+00     +1.832596E+00 +6.981317E-01 +0.000000E+00    
 +3.577925E+00 +1.308997E+00 +0.000000E+00     +4.537856E+00 +2.617994E-01 +0.000000E+00     +5.846853E+00 +1.047198E+00 +0.000000E+00     +1.396263E+00 +8.726646E-01 +0.000000E+00     +2.356194E+00 +6.981317E-01 +0.000000E+00     +7.853982E-01 +5.235988E-01 +0.000000E+00     +2.879793E+00 +1.745329E-01 +0.000000E+00    
 +2.094395E+00 +1.570796E+00 +0.000000E+00     +2.007129E+00 +1.570796E+00 +0.000000E+00     +1.483530E+00 +2.617994E-01 +0.000000E+00     +5.846853E+00 +1.483530E+00 +0.000000E+00     +4.974188E+00 +4.363323E-01 +0.000000E+00     +5.235988E-01 +1.745329E-01 +0.000000E+00     +2.181662E+00 +1.396263E+00 +0.000000E+00    
 +4.450590E+00 +6.981317E-01 +0.000000E+00     +5.497787E+00 +1.396263E+00 +0.000000E+00     +2.705260E+00 +7.853982E-01 +0.000000E+00     +3.665191E+00 +1.745329E-01 +0.000000E+00     +1.745329E-01 +4.363323E-01 +0.000000E+00     +3.577925E+00 +1.570796E+00 +0.000000E+00     +9.599311E-01 +2.617994E-01 +0.000000E+00    
 +3.054326E+00 +2.617994E-01 +0.000000E+00     +3.403392E+00 +9.599311E-01 +0.000000E+00     +4.276057E+00 +6.108652E-01 +0.000000E+00     +1.919862E+00 +3.490659E-01 +0.000000E+00     +8.726646E-02 +7.853982E-01 +0.000000E+00     +2.181662E+00 +9.599311E-01 +0.000000E+00     +3.141593E+00 +6.981317E-01 +0.000000E+00    
 +3.054326E+00 +1.570796E+00 +0.000000E+00     +1.221730E+00 +1.221730E+00 +0.000000E+00     +5.323254E+00 +6.981317E-01 +0.000000E+00     +6.283185E+00 +9.599311E-01 +0.000000E+00     +1.483530E+00 +1.745329E-01 +0.000000E+00     +5.585054E+00 +1.570796E+00 +0.000000E+00     +3.490659E+00 +3.490659E-01 +0.000000E+00    
 +3.752458E+00 +1.745329E-01 +0.000000E+00     +2.181662E+00 +5.235988E-01 +0.000000E+00     +4.625123E+00 +1.396263E+00 +0.000000E+00     +1.570796E+00 +8.726646E-01 +0.000000E+00     +4.188790E+00 +3.490659E-01 +0.000000E+00     +2.268928E+00 +1.570796E+00 +0.000000E+00     +2.268928E+00 +1.396263E+00 +0.000000E+00    
 +6.021386E+00 +1.308997E+00 +0.000000E+00     +4.276057E+00 +2.617994E-01 +0.000000E+00     +4.886922E+00 +1.745329E-01 +0.000000E+00     +2.181662E+00 +3.490659E-01 +0.000000E+00     +5.235988E-01 +1.570796E+00 +0.000000E+00     +4.799655E+00 +6.981317E-01 +0.000000E+00     +2.879793E+00 +4.363323E-01 +0.000000E+00    
 +2.356194E+00 +3.490659E-01 +0.000000E+00     +3.490659E-01 +2.617994E-01 +0.000000E+00     +2.617994E-01 +8.726646E-02 +0.000000E+00     +5.235988E-01 +2.617994E-01 +0.000000E+00     +5.410521E+00 +1.047198E+00 +0.000000E+00     +5.061455E+00 +1.134464E+00 +0.000000E+00     +4.886922E+00 +1.745329E-01 +0.000000E+00    
 +4.450590E+00 +2.617994E-01 +0.000000E+00     +2.879793E+00 +1.396263E+00 +0.000000E+00     +7.853982E-01 +6.108652E-01 +0.000000E+00     +5.235988E-01 +8.726646E-02 +0.000000E+00     +4.625123E+00 +9.599311E-01 +0.000000E+00     +1.134464E+00 +2.617994E-01 +0.000000E+00     +5.585054E+00 +4.363323E-01 +0.000000E+00    
 +1.047198E+00 +1.396263E+00 +0.000000E+00     +5.846853E+00 +1.570796E+00 +0.000000E+00     +4.188790E+00 +3.490659E-01 +0.000000E+00     +4.363323E-01 +1.483530E+00 +0.000000E+00     +1.308997E+00 +2.617994E-01 +0.000000E+00     +1.745329E+00 +2.617994E-01 +0.000000E+00     +5.235988E+00 +3.490659E-01 +0.000000E+00    
 +5.497787E+00 +9.599311E-01 +0.000000E+00     +4.537856E+00 +8.726646E-02 +0.000000E+00     +2.705260E+00 +8.726646E-02 +0.000000E+00     +5.934119E+00 +1.570796E+00 +0.000000E+00     +1.919862E+00 +1.396263E+00 +0.000000E+00     +6.108652E+00 +4.363323E-01 +0.000000E+00     +6.283185E+00 +1.047198E+00 +0.000000E+00    
 +1.570796E+00 +1.221730E+00 +0.000000E+00     +5.148721E+00 +5.235988E-01 +0.000000E+00     +9.599311E-01 +8.726646E-02 +0.000000E+00     +1.570796E+00 +6.981317E-01 +0.000000E+00     +5.846853E+00 +1.396263E+00 +0.000000E+00     +2.268928E+00 +6.108652E-01 +0.000000E+00     +2.705260E+00 +4.363323E-01 +0.000000E+00    
 +2.617994E+00 +6.108652E-01 +0.000000E+00     +5.846853E+00 +1.745329E-01 +0.000000E+00     +2.356194E+00 +1.570796E+00 +0.000000E+00     +1.134464E+00 +1.308997E+00 +0.000000E+00     +5.061455E+00 +7.853982E-01 +0.000000E+00     +8.726646E-02 +6.981317E-01 +0.000000E+00     +1.745329E+00 +8.726646E-01 +0.000000E+00    
 +5.759587E+00 +6.981317E-01 +0.000000E+00     +5.323254E+00 +3.490659E-01 +0.000000E+00     +4.014257E+00 +6.981317E-01 +0.000000E+00     +4.712389E+00 +4.363323E-01 +0.000000E+00     +3.490659E+00 +6.108652E-01 +0.000000E+00     +3.403392E+00 +6.981317E-01 +0.000000E+00     +1.047198E+00 +7.853982E-01 +0.000000E+00    
 +6.108652E+00 +1.396263E+00 +0.000000E+00     +3.665191E+00 +8.726646E-02 +0.000000E+00     +4.712389E+00 +5.235988E-01 +0.000000E+00     +5.672320E+00 +1.308997E+00 +0.000000E+00     +6.283185E+00 +1.308997E+00 +0.000000E+00     +2.705260E+00 +8.726646E-02 +0.000000E+00     +3.141593E+00 +4.363323E-01 +0.000000E+00    
 +6.108652E-01 +1.483530E+00 +0.000000E+00     +1.396263E+00 +1.047198E+00 +0.000000E+00     +1.483530E+00 +8.726646E-02 +0.000000E+00     +2.443461E+00 +1.134464E+00 +0.000000E+00     +3.839724E+00 +1.483530E+00 +0.000000E+00     +6.981317E-01 +1.134464E+00 +0.000000E+00     +3.577925E+00 +9.599311E-01 +0.000000E+00    
 +2.443461E+00 +1.221730E+00 +0.000000E+00     +9.599311E-01 +1.134464E+00 +0.000000E+00     +2.356194E+00 +7.853982E-01 +0.000000E+00     +2.879793E+00 +5.235988E-01 +0.000000E+00     +4.974188E+00 +4.363323E-01 +0.000000E+00     +1.396263E+00 +1.483530E+00 +0.000000E+00     +6.108652E+00 +4.363323E-01 +0.000000E+00    
 +2.530727E+00 +1.483530E+00 +0.000000E+00     +3.926991E+00 +7.853982E-01 +0.000000E+00     +1.658063E+00 +1.134464E+00 +0.000000E+00     +6.021386E+00 +2.617994E-01 +0.000000E+00     +1.745329E+00 +6.981317E-01 +0.000000E+00     +2.094395E+00 +6.108652E-01 +0.000000E+00     +5.323254E+00 +6.981317E-01 +0.000000E+00    
 +2.356194E+00 +1.221730E+00 +0.000000E+00     +7.853982E-01 +1.570796E+00 +0.000000E+00     +4.625123E+00 +6.108652E-01 +0.000000E+00     +1.832596E+00 +1.483530E+00 +0.000000E+00     +3.490659E-01 +1.396263E+00 +0.000000E+00     +5.497787E+00 +8.726646E-01 +0.000000E+00     +7.853982E-01 +6.108652E-01 +0.000000E+00    
 +6.195919E+00 +1.745329E-01 +0.000000E+00     +1.919862E+00 +1.308997E+00 +0.000000E+00     +1.832596E+00 +6.981317E-01 +0.000000E+00     +5.846853E+00 +9.599311E-01 +0.000000E+00     +4.712389E+00 +2.617994E-01 +0.000000E+00     +2.181662E+00 +1.396263E+00 +0.000000E+00     +4.363323E+00 +4.363323E-01 +0.000000E+00    
 +4.974188E+00 +1.134464E+00 +0.000000E+00     +2.443461E+00 +3.490659E-01 +0.000000E+00     +4.974188E+00 +8.726646E-02 +0.000000E+00     +3.926991E+00 +8.726646E-02 +0.000000E+00     +1.570796E+00 +2.617994E-01 +0.000000E+00     +5.323254E+00 +3.490659E-01 +0.000000E+00     +2.181662E+00 +1.745329E-01 +0.000000E+00    
 +5.410521E+00 +7.853982E-01 +0.000000E+00     +5.323254E+00 +1.134464E+00 +0.000000E+00     +6.021386E+00 +1.134464E+00 +0.000000E+00     +6.108652E+00 +1.745329E-01 +0.000000E+00     +5.497787E+00 +3.490659E-01 +0.000000E+00     +3.316126E+00 +1.047198E+00 +0.000000E+00     +5.846853E+00 +1.396263E+00 +0.000000E+00    
 +1.308997E+00 +1.483530E+00 +0.000000E+00     +6.108652E+00 +8.726646E-02 +0.000000E+00     +2.967060E+00 +5.235988E-01 +0.000000E+00     +8.726646E-02 +7.853982E-01 +0.000000E+00     +5.235988E-01 +7.853982E-01 +0.000000E+00     +3.577925E+00 +3.490659E-01 +0.000000E+00     +4.188790E+00 +1.134464E+00 +0.000000E+00    
 +3.490659E+00 +6.108652E-01 +0.000000E+00     +5.410521E+00 +1.047198E+00 +0.000000E+00     +4.014257E+00 +1.745329E-01 +0.000000E+00     +2.879793E+00 +2.617994E-01 +0.000000E+00     +5.846853E+00 +5.235988E-01 +0.000000E+00     +3.490659E-01 +1.047198E+00 +0.000000E+00     +2.181662E+00 +1.570796E+00 +0.000000E+00    
 +5.410521E+00 +1.483530E+00 +0.000000E+00     +2.356194E+00 +6.108652E-01 +0.000000E+00     +2.705260E+00 +1.483530E+00 +0.000000E+00     +2.705260E+00 +9.599311E-01 +0.000000E+00     +3.926991E+00 +7.853982E-01 +0.000000E+00     +3.490659E+00 +1.221730E+00 +0.000000E+00     +5.235988E+00 +3.490659E-01 +0.000000E+00    
 +3.228859E+00 +1.308997E+00 +0.000000E+00     +4.101524E+00 +1.483530E+00 +0.000000E+00     +4.363323E-01 +1.134464E+00 +0.000000E+00     +6.195919E+00 +1.483530E+00 +0.000000E+00     +2.879793E+00 +1.570796E+00 +0.000000E+00     +5.410521E+00 +2.617994E-01 +0.000000E+00     +5.410521E+00 +6.981317E-01 +0.000000E+00    
 +4.450590E+00 +7.853982E-01 +0.000000E+00     +5.323254E+00 +4.363323E-01 +0.000000E+00     +3.054326E+00 +2.617994E-01 +0.000000E+00     +3.316126E+00 +3.490659E-01 +0.000000E+00     +1.483530E+00 +3.490659E-01 +0.000000E+00     +3.839724E+00 +1.483530E+00 +0.000000E+00     +3.665191E+00 +2.617994E-01 +0.000000E+00    
 +1.483530E+00 +6.108652E-01 +0.000000E+00     +7.853982E-01 +6.981317E-01 +0.000000E+00     +5.061455E+00 +1.570796E+00 +0.000000E+00     +6.021386E+00 +8.726646E-01 +0.000000E+00     +4.712389E+00 +8.726646E-01 +0.000000E+00     +5.410521E+00 +1.570796E+00 +0.000000E+00     +3.577925E+00 +1.483530E+00 +0.000000E+00    
 +8.726646E-01 +1.570796E+00 +0.000000E+00     +4.537856E+00 +1.570796E+00 +0.000000E+00     +4.450590E+00 +2.617994E-01 +0.000000E+00     +3.228859E+00 +1.396263E+00 +0.000000E+00     +1.396263E+00 +1.134464E+00 +0.000000E+00     +5.323254E+00 +1.396263E+00 +0.000000E+00     +2.705260E+00 +1.134464E+00 +0.000000E+00    
 +3.926991E+00 +4.363323E-01 +0.000000E+00     +1.047198E+00 +3.490659E-01 +0.000000E+00     +5.235988E+00 +9.599311E-01 +0.000000E+00     +5.934119E+00 +1.745329E-01 +0.000000E+00     +4.625123E+00 +1.483530E+00 +0.000000E+00     +1.745329E-01 +3.490659E-01 +0.000000E+00     +3.141593E+00 +3.490659E-01 +0.000000E+00    
 +3.228859E+00 +1.134464E+00 +0.000000E+00     +3.577925E+00 +1.134464E+00 +0.000000E+00     +1.396263E+00 +2.617994E-01 +0.000000E+00     +3.403392E+00 +2.617994E-01 +0.000000E+00     +2.007129E+00 +1.134464E+00 +0.000000E+00     +1.919862E+00 +2.617994E-01 +0.000000E+00     +5.235988E+00 +1.047198E+00 +0.000000E+00    
 +4.537856E+00 +5.235988E-01 +0.000000E+00     +4.886922E+00 +2.617994E-01 +0.000000E+00     +2.879793E+00 +2.617994E-01 +0.000000E+00     +8.726646E-01 +1.745329E-01 +0.000000E+00     +4.363323E-01 +1.221730E+00 +0.000000E+00     +5.846853E+00 +1.483530E+00 +0.000000E+00     +4.712389E+00 +8.726646E-02 +0.000000E+00    
 +3.839724E+00 +1.047198E+00 +0.000000E+00     +6.108652E-01 +1.396263E+00 +0.000000E+00     +4.974188E+00 +1.221730E+00 +0.000000E+00     +3.141593E+00 +1.308997E+00 +0.000000E+00     +5.934119E+00 +3.490659E-01 +0.000000E+00     +3.490659E+00 +3.490659E-01 +0.000000E+00     +3.665191E+00 +1.308997E+00 +0.000000E+00    
 +3.316126E+00 +4.363323E-01 +0.000000E+00     +3.665191E+00 +3.490659E-01 +0.000000E+00     +3.141593E+00 +4.363323E-01 +0.000000E+00     +3.316126E+00 +2.617994E-01 +0.000000E+00     +7.853982E-01 +6.108652E-01 +0.000000E+00     +6.981317E-01 +9.599311E-01 +0.000000E+00     +2.967060E+00 +8.726646E-02 +0.000000E+00    
 +3.490659E-01 +8.726646E-02 +0.000000E+00     +3.316126E+00 +8.726646E-01 +0.000000E+00     +5.934119E+00 +2.617994E-01 +0.000000E+00     +5.323254E+00 +4.363323E-01 +0.000000E+00     +8.726646E-01 +1.047198E+00 +0.000000E+00     +5.323254E+00 +1.483530E+00 +0.000000E+00     +1.745329E-01 +1.134464E+00 +0.000000E+00    
 +5.672320E+00 +1.483530E+00 +0.000000E+00     +2.268928E+00 +4.363323E-01 +0.000000E+00     +1.745329E-01 +9.599311E-01 +0.000000E+00     +5.148721E+00 +1.396263E+00 +0.000000E+00     +2.792527E+00 +3.490659E-01 +0.000000E+00     +2.617994E+00 +6.108652E-01 +0.000000E+00     +5.846853E+00 +1.483530E+00 +0.000000E+00    
 +5.934119E+00 +6.981317E-01 +0.000000E+00     +1.221730E+00 +6.108652E-01 +0.000000E+00     +4.625123E+00 +1.745329E-01 +0.000000E+00     +5.235988E-01 +1.134464E+00 +0.000000E+00     +2.967060E+00 +5.235988E-01 +0.000000E+00     +6.108652E-01 +6.981317E-01 +0.000000E+00     +2.617994E-01 +1.396263E+00 +0.000000E+00    
 +6.108652E-01 +1.745329E-01 +0.000000E+00     +2.007129E+00 +8.726646E-01 +0.000000E+00     +5.934119E+00 +7.853982E-01 +0.000000E+00     +5.061455E+00 +3.490659E-01 +0.000000E+00     +1.745329E-01 +1.483530E+00 +0.000000E+00     +5.410521E+00 +6.981317E-01 +0.000000E+00     +4.014257E+00 +1.396263E+00 +0.000000E+00    
 +1.570796E+00 +8.726646E-01 +0.000000E+00     +6.108652E+00 +1.047198E+00 +0.000000E+00     +2.268928E+00 +2.617994E-01 +0.000000E+00     +1.745329E+00 +1.047198E+00 +0.000000E+00     +5.585054E+00 +8.726646E-02 +0.000000E+00     +5.759587E+00 +1.745329E-01 +0.000000E+00     +4.450590E+00 +6.108652E-01 +0.000000E+00    
 +1.745329E+00 +2.617994E-01 +0.000000E+00     +5.497787E+00 +6.108652E-01 +0.000000E+00     +1.134464E+00 +1.570796E+00 +0.000000E+00     +2.792527E+00 +9.599311E-01 +0.000000E+00     +7.853982E-01 +1.134464E+00 +0.000000E+00     +6.283185E+00 +1.047198E+00 +0.000000E+00     +4.101524E+00 +6.108652E-01 +0.000000E+00    
 +4.014257E+00 +4.363323E-01 +0.000000E+00     +2.617994E-01 +1.745329E-01 +0.000000E+00     +5.410521E+00 +1.221730E+00 +0.000000E+00     +6.108652E+00 +5.235988E-01 +0.000000E+00     +3.490659E+00 +8.726646E-02 +0.000000E+00     +6.108652E-01 +6.108652E-01 +0.000000E+00     +2.792527E+00 +1.570796E+00 +0.000000E+00    
 +2.617994E+00 +5.235988E-01 +0.000000E+00     +4.625123E+00 +1.396263E+00 +0.000000E+00     +4.712389E+00 +6.108652E-01 +0.000000E+00     +3.054326E+00 +1.570796E+00 +0.000000E+00     +2.443461E+00 +1.134464E+00 +0.000000E+00     +2.617994E-01 +1.483530E+00 +0.000000E+00     +5.934119E+00 +1.396263E+00 +0.000000E+00    
 +3.403392E+00 +1.483530E+00 +0.000000E+00     +1.745329E+00 +5.235988E-01 +0.000000E+00     +1.221730E+00 +8.726646E-02 +0.000000E+00     +2.967060E+00 +1.134464E+00 +0.000000E+00     +3.054326E+00 +1.483530E+00 +0.000000E+00     +4.014257E+00 +1.570796E+00 +0.000000E+00     +4.276057E+00 +7.853982E-01 +0.000000E+00    
 +4.014257E+00 +6.108652E-01 +0.000000E+00     +3.054326E+00 +1.745329E-01 +0.000000E+00     +2.356194E+00 +5.235988E-01 +0.000000E+00     +5.235988E+00 +4.363323E-01 +0.000000E+00     +1.658063E+00 +1.396263E+00 +0.000000E+00     +5.410521E+00 +1.308997E+00 +0.000000E+00     +4.712389E+00 +2.617994E-01 +0.000000E+00    
 +4.886922E+00 +8.726646E-01 +0.000000E+00     +5.585054E+00 +3.490659E-01 +0.000000E+00     +6.021386E+00 +3.490659E-01 +0.000000E+00     +3.316126E+00 +2.617994E-01 +0.000000E+00     +2.268928E+00 +6.108652E-01 +0.000000E+00     +4.886922E+00 +8.726646E-02 +0.000000E+00     +1.221730E+00 +6.108652E-01 +0.000000E+00    
 +2.879793E+00 +1.745329E-01 +0.000000E+00     +2.967060E+00 +1.396263E+00 +0.000000E+00     +3.577925E+00 +1.396263E+00 +0.000000E+00     +4.363323E+00 +1.221730E+00 +0.000000E+00     +2.705260E+00 +8.726646E-01 +0.000000E+00     +1.919862E+00 +1.134464E+00 +0.000000E+00     +2.181662E+00 +1.047198E+00 +0.000000E+00    
 +4.974188E+00 +1.745329E-01 +0.000000E+00     +7.853982E-01 +8.726646E-02 +0.000000E+00     +1.483530E+00 +1.570796E+00 +0.000000E+00     +2.530727E+00 +5.235988E-01 +0.000000E+00     +2.879793E+00 +5.235988E-01 +0.000000E+00     +1.308997E+00 +8.726646E-01 +0.000000E+00     +5.846853E+00 +1.745329E-01 +0.000000E+00    
 +4.799655E+00 +7.853982E-01 +0.000000E+00     +4.799655E+00 +6.981317E-01 +0.000000E+00     +4.625123E+00 +4.363323E-01 +0.000000E+00     +1.658063E+00 +1.221730E+00 +0.000000E+00     +4.974188E+00 +1.134464E+00 +0.000000E+00     +1.570796E+00 +1.745329E-01 +0.000000E+00     +2.007129E+00 +1.308997E+00 +0.000000E+00    
 +2.879793E+00 +1.745329E-01 +0.000000E+00     +4.450590E+00 +1.396263E+00 +0.000000E+00     +3.665191E+00 +1.134464E+00 +0.000000E+00     +1.745329E+00 +8.726646E-01 +0.000000E+00     +4.450590E+00 +1.745329E-01 +0.000000E+00     +5.235988E+00 +8.726646E-02 +0.000000E+00     +4.276057E+00 +8.726646E-02 +0.000000E+00    
 +2.530727E+00 +7.853982E-01 +0.000000E+00     +1.134464E+00 +1.745329E-01 +0.000000E+00     +4.276057E+00 +7.853982E-01 +0.000000E+00     +6.021386E+00 +6.108652E-01 +0.000000E+00     +9.599311E-01 +1.745329E-01 +0.000000E+00     +3.752458E+00 +5.235988E-01 +0.000000E+00     +4.625123E+00 +2.617994E-01 +0.000000E+00    
 +5.148721E+00 +1.745329E-01 +0.000000E+00     +3.054326E+00 +5.235988E-01 +0.000000E+00     +1.570796E+00 +5.235988E-01 +0.000000E+00     +6.021386E+00 +3.490659E-01 +0.000000E+00     +4.101524E+00 +8.726646E-01 +0.000000E+00     +5.585054E+00 +4.363323E-01 +0.000000E+00     +1.658063E+00 +1.221730E+00 +0.000000E+00    
 +1.832596E+00 +1.483530E+00 +0.000000E+00     +5.235988E-01 +1.745329E-01 +0.000000E+00     +2.792527E+00 +1.396263E+00 +0.000000E+00     +6.981317E-01 +1.396263E+00 +0.000000E+00     +1.134464E+00 +3.490659E-01 +0.000000E+00     +5.759587E+00 +1.221730E+00 +0.000000E+00     +1.308997E+00 +9.599311E-01 +0.000000E+00    
 +3.490659E-01 +1.483530E+00 +0.000000E+00     +7.853982E-01 +1.221730E+00 +0.000000E+00     +3.054326E+00 +1.570796E+00 +0.000000E+00     +1.396263E+00 +1.308997E+00 +0.000000E+00     +4.101524E+00 +3.490659E-01 +0.000000E+00     +2.530727E+00 +1.221730E+00 +0.000000E+00     +9.599311E-01 +1.745329E-01 +0.000000E+00    
 +1.745329E-01 +9.599311E-01 +0.000000E+00     +5.585054E+00 +8.726646E-02 +0.000000E+00     +5.934119E+00 +8.726646E-02 +0.000000E+00     +4.974188E+00 +5.235988E-01 +0.000000E+00     +2.879793E+00 +1.134464E+00 +0.000000E+00     +4.886922E+00 +1.308997E+00 +0.000000E+00     +4.363323E-01 +7.853982E-01 +0.000000E+00    
 +5.934119E+00 +2.617994E-01 +0.000000E+00     +9.599311E-01 +8.726646E-02 +0.000000E+00     +2.530727E+00 +1.134464E+00 +0.000000E+00     +1.745329E-01 +1.570796E+00 +0.000000E+00     +1.745329E+00 +6.108652E-01 +0.000000E+00     +1.570796E+00 +1.047198E+00 +0.000000E+00     +2.007129E+00 +4.363323E-01 +0.000000E+00    
 +5.061455E+00 +1.483530E+00 +0.000000E+00     +5.410521E+00 +2.617994E-01 +0.000000E+00     +1.745329E-01 +8.726646E-02 +0.000000E+00     +6.195919E+00 +1.570796E+00 +0.000000E+00     +3.926991E+00 +8.726646E-01 +0.000000E+00     +1.745329E-01 +3.490659E-01 +0.000000E+00     +4.974188E+00 +1.396263E+00 +0.000000E+00    
 +3.577925E+00 +7.853982E-01 +0.000000E+00     +2.094395E+00 +8.726646E-01 +0.000000E+00     +1.745329E+00 +1.308997E+00 +0.000000E+00     +3.054326E+00 +7.853982E-01 +0.000000E+00     +4.625123E+00 +1.047198E+00 +0.000000E+00     +3.665191E+00 +6.108652E-01 +0.000000E+00     +4.625123E+00 +9.599311E-01 +0.000000E+00    
 +5.148721E+00 +2.617994E-01 +0.000000E+00     +6.108652E-01 +2.617994E-01 +0.000000E+00     +3.316126E+00 +7.853982E-01 +0.000000E+00     +3.926991E+00 +1.134464E+00 +0.000000E+00     +6.195919E+00 +1.134464E+00 +0.000000E+00     +7.853982E-01 +6.108652E-01 +0.000000E+00     +1.570796E+00 +6.108652E-01 +0.000000E+00    
 +1.745329E+00 +5.235988E-01 +0.000000E+00     +6.108652E+00 +4.363323E-01 +0.000000E+00     +6.283185E+00 +1.570796E+00 +0.000000E+00     +3.403392E+00 +2.617994E-01 +0.000000E+00     +3.316126E+00 +6.108652E-01 +0.000000E+00     +4.363323E-01 +1.047198E+00 +0.000000E+00     +1.919862E+00 +4.363323E-01 +0.000000E+00    
 +6.108652E+00 +8.726646E-02 +0.000000E+00     +2.967060E+00 +1.396263E+00 +0.000000E+00     +4.276057E+00 +1.134464E+00 +0.000000E+00     +6.021386E+00 +1.221730E+00 +0.000000E+00     +4.014257E+00 +1.047198E+00 +0.000000E+00     +6.021386E+00 +1.483530E+00 +0.000000E+00     +5.846853E+00 +3.490659E-01 +0.000000E+00    
 +3.054326E+00 +8.726646E-02 +0.000000E+00     +3.490659E+00 +2.617994E-01 +0.000000E+00     +3.752458E+00 +3.490659E-01 +0.000000E+00     +1.832596E+00 +2.617994E-01 +0.000000E+00     +4.188790E+00 +1.570796E+00 +0.000000E+00     +1.308997E+00 +1.221730E+00 +0.000000E+00     +1.396263E+00 +1.134464E+00 +0.000000E+00    
 +4.799655E+00 +1.221730E+00 +0.000000E+00     +3.577925E+00 +9.599311E-01 +0.000000E+00     +5.846853E+00 +6.981317E-01 +0.000000E+00     +4.450590E+00 +8.726646E-01 +0.000000E+00     +5.846853E+00 +6.981317E-01 +0.000000E+00     +1.308997E+00 +7.853982E-01 +0.000000E+00     +1.832596E+00 +2.617994E-01 +0.000000E+00    
 +1.047198E+00 +8.726646E-02 +0.000000E+00     +4.712389E+00 +6.981317E-01 +0.000000E+00     +5.672320E+00 +4.363323E-01 +0.000000E+00     +3.752458E+00 +8.726646E-02 +0.000000E+00     +4.014257E+00 +1.047198E+00 +0.000000E+00     +1.832596E+00 +1.745329E-01 +0.000000E+00     +7.853982E-01 +1.745329E-01 +0.000000E+00    
 +4.537856E+00 +1.745329E-01 +0.000000E+00     +2.617994E+00 +4.363323E-01 +0.000000E+00     +2.617994E+00 +9.599311E-01 +0.000000E+00     +1.221730E+00 +3.490659E-01 +0.000000E+00     +6.195919E+00 +8.726646E-01 +0.000000E+00     +4.537856E+00 +1.221730E+00 +0.000000E+00     +5.934119E+00 +1.221730E+00 +0.000000E+00    
 +4.537856E+00 +1.570796E+00 +0.000000E+00     +3.316126E+00 +6.108652E-01 +0.000000E+00     +2.967060E+00 +1.221730E+00 +0.000000E+00     +2.617994E+00 +2.617994E-01 +0.000000E+00     +1.745329E-01 +1.570796E+00 +0.000000E+00     +2.007129E+00 +6.108652E-01 +0.000000E+00     +5.759587E+00 +1.483530E+00 +0.000000E+00    
 +2.705260E+00 +8.726646E-01 +0.000000E+00     +2.617994E-01 +9.599311E-01 +0.000000E+00     +5.934119E+00 +3.490659E-01 +0.000000E+00     +3.403392E+00 +1.396263E+00 +0.000000E+00     +6.108652E+00 +1.221730E+00 +0.000000E+00     +4.363323E+00 +1.745329E-01 +0.000000E+00     +4.101524E+00 +1.396263E+00 +0.000000E+00    
 +5.410521E+00 +1.047198E+00 +0.000000E+00     +3.403392E+00 +3.490659E-01 +0.000000E+00     +5.585054E+00 +1.134464E+00 +0.000000E+00     +1.919862E+00 +1.221730E+00 +0.000000E+00     +6.283185E+00 +1.745329E-01 +0.000000E+00     +3.316126E+00 +6.108652E-01 +0.000000E+00     +3.839724E+00 +1.745329E-01 +0.000000E+00    
 +2.967060E+00 +3.490659E-01 +0.000000E+00     +1.047198E+00 +2.617994E-01 +0.000000E+00     +3.752458E+00 +9.599311E-01 +0.000000E+00     +1.919862E+00 +1.134464E+00 +0.000000E+00     +8.726646E-01 +1.570796E+00 +0.000000E+00     +5.235988E-01 +3.490659E-01 +0.000000E+00     +2.617994E+00 +5.235988E-01 +0.000000E+00    
 +9.599311E-01 +5.235988E-01 +0.000000E+00     +3.926991E+00 +4.363323E-01 +0.000000E+00     +2.967060E+00 +1.308997E+00 +0.000000E+00     +3.839724E+00 +6.981317E-01 +0.000000E+00     +1.483530E+00 +1.483530E+00 +0.000000E+00     +3.577925E+00 +6.981317E-01 +0.000000E+00     +4.276057E+00 +1.134464E+00 +0.000000E+00    
 +1.832596E+00 +4.363323E-01 +0.000000E+00     +3.665191E+00 +5.235988E-01 +0.000000E+00     +5.672320E+00 +8.726646E-01 +0.000000E+00     +6.195919E+00 +1.308997E+00 +0.000000E+00     +1.134464E+00 +1.221730E+00 +0.000000E+00     +3.839724E+00 +1.308997E+00 +0.000000E+00     +4.101524E+00 +1.745329E-01 +0.000000E+00    
 +2.530727E+00 +9.599311E-01 +0.000000E+00     +5.672320E+00 +1.483530E+00 +0.000000E+00     +5.148721E+00 +1.745329E-01 +0.000000E+00     +2.617994E+00 +7.853982E-01 +0.000000E+00     +2.967060E+00 +1.221730E+00 +0.000000E+00     +1.221730E+00 +8.726646E-01 +0.000000E+00     +3.054326E+00 +1.396263E+00 +0.000000E+00    
 +4.363323E-01 +1.047198E+00 +0.000000E+00     +3.839724E+00 +1.308997E+00 +0.000000E+00     +6.981317E-01 +1.396263E+00 +0.000000E+00     +4.276057E+00 +8.726646E-01 +0.000000E+00     +3.926991E+00 +7.853982E-01 +0.000000E+00     +1.832596E+00 +6.981317E-01 +0.000000E+00     +4.974188E+00 +8.726646E-02 +0.000000E+00    
 +2.443461E+00 +9.599311E-01 +0.000000E+00     +2.792527E+00 +1.570796E+00 +0.000000E+00     +5.497787E+00 +5.235988E-01 +0.000000E+00     +5.323254E+00 +7.853982E-01 +0.000000E+00     +5.585054E+00 +8.726646E-02 +0.000000E+00     +5.410521E+00 +3.490659E-01 +0.000000E+00     +1.570796E+00 +4.363323E-01 +0.000000E+00    
 +5.846853E+00 +1.221730E+00 +0.000000E+00     +3.490659E-01 +5.235988E-01 +0.000000E+00     +6.195919E+00 +5.235988E-01 +0.000000E+00     +4.014257E+00 +1.047198E+00 +0.000000E+00     +3.228859E+00 +1.745329E-01 +0.000000E+00     +7.853982E-01 +5.235988E-01 +0.000000E+00     +2.967060E+00 +1.308997E+00 +0.000000E+00    
 +3.403392E+00 +1.308997E+00 +0.000000E+00     +6.283185E+00 +1.134464E+00 +0.000000E+00     +4.537856E+00 +7.853982E-01 +0.000000E+00     +1.047198E+00 +1.134464E+00 +0.000000E+00     +4.799655E+00 +8.726646E-02 +0.000000E+00     +4.799655E+00 +1.745329E-01 +0.000000E+00     +2.617994E+00 +6.108652E-01 +0.000000E+00    
 +2.617994E-01 +5.235988E-01 +0.000000E+00     +3.752458E+00 +5.235988E-01 +0.000000E+00     +1.396263E+00 +5.235988E-01 +0.000000E+00     +4.276057E+00 +1.483530E+00 +0.000000E+00     +3.403392E+00 +7.853982E-01 +0.000000E+00     +2.007129E+00 +1.221730E+00 +0.000000E+00     +2.705260E+00 +1.134464E+00 +0.000000E+00    
 +1.919862E+00 +1.134464E+00 +0.000000E+00     +5.235988E-01 +1.396263E+00 +0.000000E+00     +1.745329E-01 +8.726646E-02 +0.000000E+00     +6.283185E+00 +1.308997E+00 +0.000000E+00     +2.094395E+00 +1.483530E+00 +0.000000E+00     +3.054326E+00 +8.726646E-02 +0.000000E+00     +3.490659E-01 +6.981317E-01 +0.000000E+00    
 +2.879793E+00 +1.483530E+00 +0.000000E+00     +5.585054E+00 +7.853982E-01 +0.000000E+00     +5.323254E+00 +1.570796E+00 +0.000000E+00     +1.832596E+00 +8.726646E-02 +0.000000E+00     +3.490659E-01 +3.490659E-01 +0.000000E+00     +3.316126E+00 +1.396263E+00 +0.000000E+00     +5.323254E+00 +4.363323E-01 +0.000000E+00    
 +3.403392E+00 +7.853982E-01 +0.000000E+00     +2.356194E+00 +4.363323E-01 +0.000000E+00     +4.537856E+00 +1.396263E+00 +0.000000E+00     +4.363323E+00 +6.108652E-01 +0.000000E+00     +3.752458E+00 +8.726646E-02 +0.000000E+00     +3.752458E+00 +1.134464E+00 +0.000000E+00     +6.108652E+00 +8.726646E-01 +0.000000E+00    
 +3.054326E+00 +1.745329E-01 +0.000000E+00     +5.061455E+00 +1.745329E-01 +0.000000E+00     +2.967060E+00 +2.617994E-01 +0.000000E+00     +5.235988E-01 +1.047198E+00 +0.000000E+00     +3.490659E-01 +2.617994E-01 +0.000000E+00     +3.490659E+00 +1.396263E+00 +0.000000E+00     +4.886922E+00 +6.981317E-01 +0.000000E+00    
 +5.235988E+00 +1.221730E+00 +0.000000E+00     +1.745329E-01 +4.363323E-01 +0.000000E+00     +3.577925E+00 +8.726646E-01 +0.000000E+00     +6.283185E+00 +1.047198E+00 +0.000000E+00     +3.752458E+00 +1.047198E+00 +0.000000E+00     +1.396263E+00 +1.221730E+00 +0.000000E+00     +1.919862E+00 +9.599311E-01 +0.000000E+00    
 +6.981317E-01 +1.221730E+00 +0.000000E+00     +5.235988E-01 +9.599311E-01 +0.000000E+00     +3.577925E+00 +1.308997E+00 +0.000000E+00     +2.617994E-01 +1.745329E-01 +0.000000E+00     +5.061455E+00 +6.108652E-01 +0.000000E+00     +2.356194E+00 +4.363323E-01 +0.000000E+00     +4.712389E+00 +8.726646E-02 +0.000000E+00    
 +3.228859E+00 +9.599311E-01 +0.000000E+00     +3.490659E-01 +6.981317E-01 +0.000000E+00     +6.195919E+00 +6.981317E-01 +0.000000E+00     +1.745329E+00 +4.363323E-01 +0.000000E+00     +2.181662E+00 +8.726646E-01 +0.000000E+00     +3.228859E+00 +1.308997E+00 +0.000000E+00     +6.108652E-01 +7.853982E-01 +0.000000E+00    
 +4.712389E+00 +2.617994E-01 +0.000000E+00     +5.148721E+00 +1.745329E-01 +0.000000E+00     +1.658063E+00 +2.617994E-01 +0.000000E+00     +5.061455E+00 +6.108652E-01 +0.000000E+00     +5.934119E+00 +2.617994E-01 +0.000000E+00     +5.759587E+00 +7.853982E-01 +0.000000E+00     +2.181662E+00 +1.047198E+00 +0.000000E+00    
 +3.752458E+00 +6.981317E-01 +0.000000E+00     +2.356194E+00 +3.490659E-01 +0.000000E+00     +4.450590E+00 +6.981317E-01 +0.000000E+00     +7.853982E-01 +2.617994E-01 +0.000000E+00     +1.221730E+00 +9.599311E-01 +0.000000E+00     +8.726646E-02 +1.221730E+00 +0.000000E+00     +2.443461E+00 +8.726646E-01 +0.000000E+00    
 +4.188790E+00 +1.396263E+00 +0.000000E+00     +4.625123E+00 +8.726646E-01 +0.000000E+00     +5.235988E+00 +3.490659E-01 +0.000000E+00     +3.577925E+00 +5.235988E-01 +0.000000E+00     +3.490659E+00 +3.490659E-01 +0.000000E+00     +1.047198E+00 +7.853982E-01 +0.000000E+00     +2.530727E+00 +7.853982E-01 +0.000000E+00    
 +2.181662E+00 +9.599311E-01 +0.000000E+00     +2.443461E+00 +8.726646E-02 +0.000000E+00     +1.745329E+00 +4.363323E-01 +0.000000E+00     +2.443461E+00 +1.745329E-01 +0.000000E+00     +3.665191E+00 +6.108652E-01 +0.000000E+00     +1.658063E+00 +1.745329E-01 +0.000000E+00     +4.101524E+00 +1.483530E+00 +0.000000E+00    
 +4.712389E+00 +9.599311E-01 +0.000000E+00     +2.617994E-01 +5.235988E-01 +0.000000E+00     +1.221730E+00 +1.396263E+00 +0.000000E+00     +6.021386E+00 +1.570796E+00 +0.000000E+00     +9.599311E-01 +6.981317E-01 +0.000000E+00     +1.134464E+00 +7.853982E-01 +0.000000E+00     +1.308997E+00 +1.483530E+00 +0.000000E+00    
 +2.268928E+00 +4.363323E-01 +0.000000E+00     +1.658063E+00 +8.726646E-01 +0.000000E+00     +6.283185E+00 +1.308997E+00 +0.000000E+00     +3.926991E+00 +1.221730E+00 +0.000000E+00     +5.410521E+00 +2.617994E-01 +0.000000E+00     +2.181662E+00 +2.617994E-01 +0.000000E+00     +4.799655E+00 +4.363323E-01 +0.000000E+00    
 +4.188790E+00 +9.599311E-01 +0.000000E+00     +3.141593E+00 +1.221730E+00 +0.000000E+00     +5.061455E+00 +1.221730E+00 +0.000000E+00     +3.054326E+00 +6.108652E-01 +0.000000E+00     +5.148721E+00 +3.490659E-01 +0.000000E+00     +2.443461E+00 +1.745329E-01 +0.000000E+00     +1.658063E+00 +6.108652E-01 +0.000000E+00    
 +3.490659E-01 +7.853982E-01 +0.000000E+00     +4.450590E+00 +1.483530E+00 +0.000000E+00     +1.832596E+00 +1.047198E+00 +0.000000E+00     +3.403392E+00 +8.726646E-01 +0.000000E+00     +4.363323E+00 +1.483530E+00 +0.000000E+00     +2.617994E+00 +1.396263E+00 +0.000000E+00     +2.705260E+00 +1.396263E+00 +0.000000E+00    
 +7.853982E-01 +4.363323E-01 +0.000000E+00     +1.745329E-01 +1.047198E+00 +0.000000E+00     +5.846853E+00 +1.570796E+00 +0.000000E+00     +3.141593E+00 +6.108652E-01 +0.000000E+00     +5.410521E+00 +1.570796E+00 +0.000000E+00     +8.726646E-01 +8.726646E-01 +0.000000E+00     +9.599311E-01 +1.396263E+00 +0.000000E+00    
 +4.974188E+00 +3.490659E-01 +0.000000E+00     +5.585054E+00 +1.396263E+00 +0.000000E+00     +2.617994E-01 +7.853982E-01 +0.000000E+00     +2.007129E+00 +1.308997E+00 +0.000000E+00     +2.356194E+00 +1.745329E-01 +0.000000E+00     +8.726646E-02 +1.308997E+00 +0.000000E+00     +2.879793E+00 +4.363323E-01 +0.000000E+00    
 +4.188790E+00 +5.235988E-01 +0.000000E+00     +3.054326E+00 +2.617994E-01 +0.000000E+00     +5.672320E+00 +9.599311E-01 +0.000000E+00     +5.846853E+00 +4.363323E-01 +0.000000E+00     +2.705260E+00 +1.483530E+00 +0.000000E+00     +9.599311E-01 +1.308997E+00 +0.000000E+00     +5.323254E+00 +1.483530E+00 +0.000000E+00    
 +1.919862E+00 +8.726646E-01 +0.000000E+00     +3.054326E+00 +8.726646E-02 +0.000000E+00     +4.014257E+00 +6.981317E-01 +0.000000E+00     +5.759587E+00 +6.981317E-01 +0.000000E+00     +5.585054E+00 +6.108652E-01 +0.000000E+00     +3.926991E+00 +4.363323E-01 +0.000000E+00     +9.599311E-01 +1.745329E-01 +0.000000E+00    
 +2.268928E+00 +1.483530E+00 +0.000000E+00     +3.665191E+00 +3.490659E-01 +0.000000E+00     +3.752458E+00 +1.134464E+00 +0.000000E+00     +5.235988E+00 +5.235988E-01 +0.000000E+00     +5.846853E+00 +6.981317E-01 +0.000000E+00     +2.617994E-01 +1.396263E+00 +0.000000E+00     +6.108652E-01 +4.363323E-01 +0.000000E+00    
 +6.108652E-01 +1.483530E+00 +0.000000E+00     +4.014257E+00 +8.726646E-02 +0.000000E+00     +5.672320E+00 +5.235988E-01 +0.000000E+00     +1.134464E+00 +1.396263E+00 +0.000000E+00     +2.007129E+00 +4.363323E-01 +0.000000E+00     +4.363323E+00 +1.308997E+00 +0.000000E+00     +6.195919E+00 +1.308997E+00 +0.000000E+00    
 +1.745329E+00 +1.047198E+00 +0.000000E+00     +2.094395E+00 +4.363323E-01 +0.000000E+00     +1.396263E+00 +1.047198E+00 +0.000000E+00     +4.101524E+00 +9.599311E-01 +0.000000E+00     +5.323254E+00 +1.047198E+00 +0.000000E+00     +3.141593E+00 +1.134464E+00 +0.000000E+00     +5.235988E-01 +1.308997E+00 +0.000000E+00    
 +5.235988E+00 +6.108652E-01 +0.000000E+00     +4.188790E+00 +3.490659E-01 +0.000000E+00     +3.228859E+00 +7.853982E-01 +0.000000E+00     +5.061455E+00 +1.047198E+00 +0.000000E+00     +3.490659E-01 +7.853982E-01 +0.000000E+00     +1.134464E+00 +1.134464E+00 +0.000000E+00     +1.919862E+00 +1.570796E+00 +0.000000E+00    
 +8.726646E-02 +6.981317E-01 +0.000000E+00     +6.195919E+00 +6.981317E-01 +0.000000E+00     +4.537856E+00 +1.134464E+00 +0.000000E+00     +9.599311E-01 +1.483530E+00 +0.000000E+00     +9.599311E-01 +1.134464E+00 +0.000000E+00     +1.658063E+00 +1.396263E+00 +0.000000E+00     +6.108652E+00 +1.308997E+00 +0.000000E+00    
 +5.759587E+00 +9.599311E-01 +0.000000E+00     +2.705260E+00 +1.483530E+00 +0.000000E+00     +2.879793E+00 +2.617994E-01 +0.000000E+00     +3.665191E+00 +1.308997E+00 +0.000000E+00     +3.141593E+00 +1.047198E+00 +0.000000E+00     +5.585054E+00 +1.134464E+00 +0.000000E+00     +1.745329E-01 +2.617994E-01 +0.000000E+00    
 +1.047198E+00 +1.483530E+00 +0.000000E+00     +2.094395E+00 +1.134464E+00 +0.000000E+00     +5.148721E+00 +3.490659E-01 +0.000000E+00     +5.148721E+00 +1.570796E+00 +0.000000E+00     +5.061455E+00 +1.221730E+00 +0.000000E+00     +4.014257E+00 +7.853982E-01 +0.000000E+00     +4.537856E+00 +1.221730E+00 +0.000000E+00    
 +3.577925E+00 +1.745329E-01 +0.000000E+00     +3.665191E+00 +8.726646E-02 +0.000000E+00     +3.490659E-01 +1.134464E+00 +0.000000E+00     +2.705260E+00 +1.221730E+00 +0.000000E+00     +5.934119E+00 +1.221730E+00 +0.000000E+00     +3.577925E+00 +6.981317E-01 +0.000000E+00     +3.228859E+00 +1.570796E+00 +0.000000E+00    
 +5.235988E+00 +1.134464E+00 +0.000000E+00     +4.886922E+00 +1.308997E+00 +0.000000E+00     +1.483530E+00 +4.363323E-01 +0.000000E+00     +3.490659E+00 +9.599311E-01 +0.000000E+00     +3.926991E+00 +4.363323E-01 +0.000000E+00     +4.276057E+00 +8.726646E-02 +0.000000E+00     +1.832596E+00 +1.396263E+00 +0.000000E+00    
 +1.745329E-01 +8.726646E-02 +0.000000E+00     +5.585054E+00 +1.221730E+00 +0.000000E+00     +2.268928E+00 +1.221730E+00 +0.000000E+00     +4.974188E+00 +1.134464E+00 +0.000000E+00     +5.323254E+00 +1.396263E+00 +0.000000E+00     +6.108652E+00 +2.617994E-01 +0.000000E+00     +3.490659E+00 +8.726646E-02 +0.000000E+00    
 +2.967060E+00 +1.396263E+00 +0.000000E+00     +2.268928E+00 +1.047198E+00 +0.000000E+00     +5.497787E+00 +5.235988E-01 +0.000000E+00     +1.221730E+00 +6.981317E-01 +0.000000E+00     +8.726646E-02 +1.308997E+00 +0.000000E+00     +4.886922E+00 +3.490659E-01 +0.000000E+00     +2.705260E+00 +9.599311E-01 +0.000000E+00    
 +5.497787E+00 +1.221730E+00 +0.000000E+00     +1.658063E+00 +5.235988E-01 +0.000000E+00     +1.221730E+00 +1.221730E+00 +0.000000E+00     +1.308997E+00 +1.396263E+00 +0.000000E+00     +5.759587E+00 +6.981317E-01 +0.000000E+00     +4.799655E+00 +8.726646E-01 +0.000000E+00     +5.672320E+00 +1.134464E+00 +0.000000E+00    
 +1.745329E-01 +8.726646E-01 +0.000000E+00     +1.745329E+00 +8.726646E-02 +0.000000E+00     +2.094395E+00 +5.235988E-01 +0.000000E+00     +3.316126E+00 +1.047198E+00 +0.000000E+00     +5.846853E+00 +1.134464E+00 +0.000000E+00     +5.846853E+00 +8.726646E-01 +0.000000E+00     +2.268928E+00 +1.396263E+00 +0.000000E+00    
 +2.530727E+00 +1.396263E+00 +0.000000E+00     +5.410521E+00 +1.483530E+00 +0.000000E+00     +2.530727E+00 +4.363323E-01 +0.000000E+00     +4.886922E+00 +2.617994E-01 +0.000000E+00     +4.712389E+00 +1.221730E+00 +0.000000E+00     +3.490659E+00 +6.981317E-01 +0.000000E+00     +3.228859E+00 +6.981317E-01 +0.000000E+00    
 +6.981317E-01 +1.134464E+00 +0.000000E+00     +6.195919E+00 +1.308997E+00 +0.000000E+00     +5.497787E+00 +6.108652E-01 +0.000000E+00     +4.625123E+00 +7.853982E-01 +0.000000E+00     +9.599311E-01 +7.853982E-01 +0.000000E+00     +8.726646E-01 +1.308997E+00 +0.000000E+00     +1.483530E+00 +6.981317E-01 +0.000000E+00    
 +6.021386E+00 +9.599311E-01 +0.000000E+00     +6.981317E-01 +1.396263E+00 +0.000000E+00     +3.054326E+00 +9.599311E-01 +0.000000E+00     +1.483530E+00 +8.726646E-01 +0.000000E+00     +2.617994E+00 +1.483530E+00 +0.000000E+00     +5.235988E+00 +7.853982E-01 +0.000000E+00     +4.014257E+00 +7.853982E-01 +0.000000E+00    
 +1.658063E+00 +1.745329E-01 +0.000000E+00     +6.021386E+00 +1.134464E+00 +0.000000E+00     +2.617994E-01 +1.570796E+00 +0.000000E+00     +4.363323E-01 +9.599311E-01 +0.000000E+00     +9.599311E-01 +4.363323E-01 +0.000000E+00     +1.745329E+00 +3.490659E-01 +0.000000E+00     +3.228859E+00 +8.726646E-01 +0.000000E+00    
 +2.007129E+00 +2.617994E-01 +0.000000E+00     +5.061455E+00 +1.570796E+00 +0.000000E+00     +3.403392E+00 +5.235988E-01 +0.000000E+00     +5.410521E+00 +4.363323E-01 +0.000000E+00     +5.846853E+00 +3.490659E-01 +0.000000E+00     +5.061455E+00 +7.853982E-01 +0.000000E+00     +3.316126E+00 +6.981317E-01 +0.000000E+00    
 +4.712389E+00 +1.745329E-01 +0.000000E+00     +4.537856E+00 +2.617994E-01 +0.000000E+00     +2.443461E+00 +8.726646E-02 +0.000000E+00     +1.047198E+00 +6.981317E-01 +0.000000E+00     +5.672320E+00 +1.308997E+00 +0.000000E+00     +1.047198E+00 +1.221730E+00 +0.000000E+00     +2.007129E+00 +5.235988E-01 +0.000000E+00    
 +5.323254E+00 +8.726646E-02 +0.000000E+00     +3.665191E+00 +1.134464E+00 +0.000000E+00     +3.403392E+00 +1.483530E+00 +0.000000E+00     +5.235988E+00 +6.981317E-01 +0.000000E+00     +1.919862E+00 +6.981317E-01 +0.000000E+00     +1.919862E+00 +2.617994E-01 +0.000000E+00     +4.974188E+00 +1.221730E+00 +0.000000E+00    
 +1.134464E+00 +1.745329E-01 +0.000000E+00     +3.403392E+00 +1.308997E+00 +0.000000E+00     +6.195919E+00 +8.726646E-02 +0.000000E+00     +5.497787E+00 +3.490659E-01 +0.000000E+00     +5.148721E+00 +1.308997E+00 +0.000000E+00     +5.759587E+00 +1.396263E+00 +0.000000E+00     +5.846853E+00 +1.221730E+00 +0.000000E+00    
 +8.726646E-02 +1.221730E+00 +0.000000E+00     +8.726646E-02 +3.490659E-01 +0.000000E+00     +3.228859E+00 +6.108652E-01 +0.000000E+00     +1.832596E+00 +5.235988E-01 +0.000000E+00     +5.934119E+00 +1.221730E+00 +0.000000E+00     +5.497787E+00 +5.235988E-01 +0.000000E+00     +2.792527E+00 +6.981317E-01 +0.000000E+00    
 +8.726646E-02 +9.599311E-01 +0.000000E+00     +1.047198E+00 +9.599311E-01 +0.000000E+00     +5.759587E+00 +1.308997E+00 +0.000000E+00     +2.094395E+00 +4.363323E-01 +0.000000E+00     +1.658063E+00 +1.047198E+00 +0.000000E+00     +6.195919E+00 +5.235988E-01 +0.000000E+00     +1.919862E+00 +9.599311E-01 +0.000000E+00    
 +6.283185E+00 +6.108652E-01 +0.000000E+00     +4.799655E+00 +1.221730E+00 +0.000000E+00     +5.672320E+00 +1.134464E+00 +0.000000E+00     +3.926991E+00 +2.617994E-01 +0.000000E+00     +4.799655E+00 +6.108652E-01 +0.000000E+00     +5.846853E+00 +1.134464E+00 +0.000000E+00     +5.410521E+00 +3.490659E-01 +0.000000E+00    
 +2.879793E+00 +7.853982E-01 +0.000000E+00     +1.047198E+00 +6.108652E-01 +0.000000E+00     +4.799655E+00 +1.221730E+00 +0.000000E+00     +3.490659E+00 +1.745329E-01 +0.000000E+00     +1.308997E+00 +1.483530E+00 +0.000000E+00     +6.108652E-01 +4.363323E-01 +0.000000E+00     +2.705260E+00 +2.617994E-01 +0.000000E+00    
 +2.792527E+00 +7.853982E-01 +0.000000E+00     +2.530727E+00 +1.134464E+00 +0.000000E+00     +2.007129E+00 +2.617994E-01 +0.000000E+00     +1.483530E+00 +1.221730E+00 +0.000000E+00     +2.617994E+00 +4.363323E-01 +0.000000E+00     +5.672320E+00 +1.396263E+00 +0.000000E+00     +6.283185E+00 +1.308997E+00 +0.000000E+00    
 +6.108652E-01 +1.396263E+00 +0.000000E+00     +7.853982E-01 +1.134464E+00 +0.000000E+00     +6.195919E+00 +1.221730E+00 +0.000000E+00     +1.658063E+00 +9.599311E-01 +0.000000E+00     +4.101524E+00 +8.726646E-02 +0.000000E+00     +5.235988E-01 +4.363323E-01 +0.000000E+00     +5.934119E+00 +4.363323E-01 +0.000000E+00    
 +4.450590E+00 +8.726646E-01 +0.000000E+00     +2.879793E+00 +1.221730E+00 +0.000000E+00     +6.283185E+00 +1.221730E+00 +0.000000E+00     +2.007129E+00 +3.490659E-01 +0.000000E+00     +3.403392E+00 +8.726646E-01 +0.000000E+00     +4.276057E+00 +1.483530E+00 +0.000000E+00     +2.268928E+00 +6.981317E-01 +0.000000E+00    
 +1.221730E+00 +6.981317E-01 +0.000000E+00     +3.141593E+00 +1.570796E+00 +0.000000E+00     +2.792527E+00 +9.599311E-01 +0.000000E+00     +3.752458E+00 +1.396263E+00 +0.000000E+00     +1.745329E-01 +1.221730E+00 +0.000000E+00     +6.021386E+00 +9.599311E-01 +0.000000E+00     +4.974188E+00 +7.853982E-01 +0.000000E+00    
 +3.054326E+00 +7.853982E-01 +0.000000E+00     +3.926991E+00 +5.235988E-01 +0.000000E+00     +3.665191E+00 +7.853982E-01 +0.000000E+00     +2.705260E+00 +2.617994E-01 +0.000000E+00     +1.919862E+00 +6.108652E-01 +0.000000E+00     +3.316126E+00 +1.745329E-01 +0.000000E+00     +1.047198E+00 +1.221730E+00 +0.000000E+00    
 +4.712389E+00 +1.134464E+00 +0.000000E+00     +2.007129E+00 +5.235988E-01 +0.000000E+00     +4.799655E+00 +1.483530E+00 +0.000000E+00     +3.839724E+00 +6.981317E-01 +0.000000E+00     +4.363323E-01 +6.108652E-01 +0.000000E+00     +5.497787E+00 +1.308997E+00 +0.000000E+00     +5.846853E+00 +1.047198E+00 +0.000000E+00    
 +6.981317E-01 +4.363323E-01 +0.000000E+00     +8.726646E-02 +3.490659E-01 +0.000000E+00     +6.108652E+00 +8.726646E-02 +0.000000E+00     +9.599311E-01 +1.134464E+00 +0.000000E+00     +3.403392E+00 +1.134464E+00 +0.000000E+00     +3.752458E+00 +9.599311E-01 +0.000000E+00     +5.410521E+00 +1.396263E+00 +0.000000E+00    
 +2.530727E+00 +1.134464E+00 +0.000000E+00     +6.283185E+00 +1.483530E+00 +0.000000E+00     +5.759587E+00 +2.617994E-01 +0.000000E+00     +1.483530E+00 +1.396263E+00 +0.000000E+00     +1.134464E+00 +1.570796E+00 +0.000000E+00     +3.926991E+00 +1.047198E+00 +0.000000E+00     +3.490659E+00 +1.396263E+00 +0.000000E+00    
 +6.195919E+00 +5.235988E-01 +0.000000E+00     +5.061455E+00 +1.047198E+00 +0.000000E+00     +1.308997E+00 +1.047198E+00 +0.000000E+00     +1.134464E+00 +8.726646E-02 +0.000000E+00     +1.745329E+00 +7.853982E-01 +0.000000E+00     +1.047198E+00 +6.981317E-01 +0.000000E+00     +4.014257E+00 +6.981317E-01 +0.000000E+00    
 +2.617994E+00 +1.396263E+00 +0.000000E+00     +1.308997E+00 +1.308997E+00 +0.000000E+00     +5.148721E+00 +1.745329E-01 +0.000000E+00     +5.585054E+00 +1.570796E+00 +0.000000E+00     +4.886922E+00 +8.726646E-01 +0.000000E+00     +6.108652E+00 +4.363323E-01 +0.000000E+00     +4.974188E+00 +1.221730E+00 +0.000000E+00    
 +2.007129E+00 +6.108652E-01 +0.000000E+00     +5.323254E+00 +7.853982E-01 +0.000000E+00     +6.108652E+00 +1.745329E-01 +0.000000E+00     +5.235988E-01 +7.853982E-01 +0.000000E+00     +3.490659E+00 +9.599311E-01 +0.000000E+00     +2.617994E-01 +6.981317E-01 +0.000000E+00     +1.745329E+00 +2.617994E-01 +0.000000E+00    
 +1.308997E+00 +4.363323E-01 +0.000000E+00     +5.585054E+00 +1.308997E+00 +0.000000E+00     +1.745329E+00 +6.108652E-01 +0.000000E+00     +6.195919E+00 +8.726646E-01 +0.000000E+00     +1.308997E+00 +1.483530E+00 +0.000000E+00     +5.934119E+00 +1.134464E+00 +0.000000E+00     +2.617994E+00 +4.363323E-01 +0.000000E+00    
 +9.599311E-01 +3.490659E-01 +0.000000E+00     +2.268928E+00 +4.363323E-01 +0.000000E+00     +3.316126E+00 +1.308997E+00 +0.000000E+00     +3.141593E+00 +7.853982E-01 +0.000000E+00     +5.148721E+00 +5.235988E-01 +0.000000E+00     +3.316126E+00 +1.047198E+00 +0.000000E+00     +9.599311E-01 +1.396263E+00 +0.000000E+00    
 +2.007129E+00 +1.745329E-01 +0.000000E+00     +5.235988E+00 +1.745329E-01 +0.000000E+00     +1.919862E+00 +1.308997E+00 +0.000000E+00     +1.047198E+00 +1.308997E+00 +0.000000E+00     +3.054326E+00 +6.981317E-01 +0.000000E+00     +2.181662E+00 +5.235988E-01 +0.000000E+00     +6.195919E+00 +9.599311E-01 +0.000000E+00    
 +3.839724E+00 +4.363323E-01 +0.000000E+00     +2.007129E+00 +8.726646E-02 +0.000000E+00     +4.276057E+00 +8.726646E-01 +0.000000E+00     +1.396263E+00 +4.363323E-01 +0.000000E+00     +2.792527E+00 +5.235988E-01 +0.000000E+00     +4.450590E+00 +2.617994E-01 +0.000000E+00     +1.047198E+00 +8.726646E-01 +0.000000E+00    
 +7.853982E-01 +1.221730E+00 +0.000000E+00     +5.585054E+00 +2.617994E-01 +0.000000E+00     +2.705260E+00 +1.570796E+00 +0.000000E+00     +4.974188E+00 +1.483530E+00 +0.000000E+00     +2.617994E-01 +1.221730E+00 +0.000000E+00     +6.195919E+00 +6.108652E-01 +0.000000E+00     +5.235988E-01 +1.047198E+00 +0.000000E+00    
 +2.181662E+00 +9.599311E-01 +0.000000E+00     +2.443461E+00 +1.570796E+00 +0.000000E+00     +1.919862E+00 +8.726646E-02 +0.000000E+00     +3.228859E+00 +1.134464E+00 +0.000000E+00     +3.577925E+00 +6.981317E-01 +0.000000E+00     +3.141593E+00 +5.235988E-01 +0.000000E+00     +9.599311E-01 +1.134464E+00 +0.000000E+00    
 +1.221730E+00 +3.490659E-01 +0.000000E+00     +3.490659E+00 +1.047198E+00 +0.000000E+00     +7.853982E-01 +1.396263E+00 +0.000000E+00     +2.879793E+00 +1.745329E-01 +0.000000E+00     +8.726646E-02 +1.483530E+00 +0.000000E+00     +4.537856E+00 +1.570796E+00 +0.000000E+00     +2.792527E+00 +1.308997E+00 +0.000000E+00    
 +3.490659E+00 +4.363323E-01 +0.000000E+00     +1.919862E+00 +1.308997E+00 +0.000000E+00     +6.195919E+00 +1.483530E+00 +0.000000E+00     +4.188790E+00 +5.235988E-01 +0.000000E+00     +3.403392E+00 +8.726646E-01 +0.000000E+00     +2.617994E-01 +8.726646E-02 +0.000000E+00     +5.061455E+00 +2.617994E-01 +0.000000E+00    
 +1.832596E+00 +4.363323E-01 +0.000000E+00     +2.530727E+00 +4.363323E-01 +0.000000E+00     +4.014257E+00 +5.235988E-01 +0.000000E+00     +2.617994E-01 +1.745329E-01 +0.000000E+00     +4.363323E+00 +8.726646E-01 +0.000000E+00     +1.483530E+00 +1.745329E-01 +0.000000E+00     +2.792527E+00 +1.134464E+00 +0.000000E+00    
 +3.403392E+00 +4.363323E-01 +0.000000E+00     +3.141593E+00 +1.570796E+00 +0.000000E+00     +1.570796E+00 +5.235988E-01 +0.000000E+00     +5.846853E+00 +1.745329E-01 +0.000000E+00     +4.101524E+00 +7.853982E-01 +0.000000E+00     +5.235988E+00 +8.726646E-01 +0.000000E+00     +1.658063E+00 +1.047198E+00 +0.000000E+00    
 +4.363323E+00 +1.396263E+00 +0.000000E+00     +4.450590E+00 +1.396263E+00 +0.000000E+00     +5.846853E+00 +5.235988E-01 +0.000000E+00     +3.577925E+00 +1.396263E+00 +0.000000E+00     +3.926991E+00 +9.599311E-01 +0.000000E+00     +5.323254E+00 +1.308997E+00 +0.000000E+00     +5.323254E+00 +3.490659E-01 +0.000000E+00    
 +1.919862E+00 +1.308997E+00 +0.000000E+00     +4.712389E+00 +7.853982E-01 +0.000000E+00     +1.745329E+00 +1.396263E+00 +0.000000E+00     +2.268928E+00 +1.483530E+00 +0.000000E+00     +2.705260E+00 +1.221730E+00 +0.000000E+00     +6.108652E-01 +6.981317E-01 +0.000000E+00     +9.599311E-01 +4.363323E-01 +0.000000E+00    
 +5.846853E+00 +1.221730E+00 +0.000000E+00     +4.101524E+00 +1.745329E-01 +0.000000E+00     +4.886922E+00 +1.134464E+00 +0.000000E+00     +2.617994E+00 +1.483530E+00 +0.000000E+00     +4.537856E+00 +6.108652E-01 +0.000000E+00     +1.745329E-01 +2.617994E-01 +0.000000E+00     +6.981317E-01 +1.396263E+00 +0.000000E+00    
 +3.665191E+00 +8.726646E-01 +0.000000E+00     +6.108652E+00 +9.599311E-01 +0.000000E+00     +3.665191E+00 +8.726646E-02 +0.000000E+00     +5.846853E+00 +1.396263E+00 +0.000000E+00     +1.308997E+00 +5.235988E-01 +0.000000E+00     +3.403392E+00 +4.363323E-01 +0.000000E+00     +5.846853E+00 +1.308997E+00 +0.000000E+00    
 +4.188790E+00 +4.363323E-01 +0.000000E+00     +4.363323E-01 +6.108652E-01 +0.000000E+00     +4.363323E-01 +3.490659E-01 +0.000000E+00     +5.585054E+00 +5.235988E-01 +0.000000E+00     +5.672320E+00 +7.853982E-01 +0.000000E+00     +3.316126E+00 +8.726646E-02 +0.000000E+00     +5.235988E+00 +1.134464E+00 +0.000000E+00    
 +5.235988E+00 +8.726646E-02 +0.000000E+00     +4.014257E+00 +5.235988E-01 +0.000000E+00     +2.617994E+00 +1.483530E+00 +0.000000E+00     +1.745329E+00 +1.396263E+00 +0.000000E+00     +4.363323E+00 +1.483530E+00 +0.000000E+00     +1.221730E+00 +1.483530E+00 +0.000000E+00     +2.617994E-01 +9.599311E-01 +0.000000E+00    
 +3.752458E+00 +6.108652E-01 +0.000000E+00     +4.450590E+00 +2.617994E-01 +0.000000E+00     +2.617994E+00 +8.726646E-01 +0.000000E+00     +1.745329E-01 +6.981317E-01 +0.000000E+00     +6.981317E-01 +3.490659E-01 +0.000000E+00     +6.981317E-01 +1.134464E+00 +0.000000E+00     +4.188790E+00 +8.726646E-01 +0.000000E+00    
 +2.443461E+00 +6.981317E-01 +0.000000E+00     +5.410521E+00 +1.396263E+00 +0.000000E+00     +6.283185E+00 +1.308997E+00 +0.000000E+00     +2.792527E+00 +7.853982E-01 +0.000000E+00     +5.497787E+00 +1.221730E+00 +0.000000E+00     +4.799655E+00 +1.047198E+00 +0.000000E+00     +2.530727E+00 +1.221730E+00 +0.000000E+00    
 +2.617994E+00 +1.308997E+00 +0.000000E+00     +6.108652E-01 +1.134464E+00 +0.000000E+00     +8.726646E-02 +6.981317E-01 +0.000000E+00     +3.490659E-01 +3.490659E-01 +0.000000E+00     +5.235988E-01 +1.570796E+00 +0.000000E+00     +1.308997E+00 +8.726646E-02 +0.000000E+00     +5.934119E+00 +6.108652E-01 +0.000000E+00    
 +1.745329E+00 +6.981317E-01 +0.000000E+00     +1.047198E+00 +2.617994E-01 +0.000000E+00     +2.356194E+00 +6.981317E-01 +0.000000E+00     +2.617994E-01 +8.726646E-01 +0.000000E+00     +5.410521E+00 +1.134464E+00 +0.000000E+00     +1.047198E+00 +8.726646E-02 +0.000000E+00     +3.403392E+00 +5.235988E-01 +0.000000E+00    
 +4.188790E+00 +2.617994E-01 +0.000000E+00     +3.577925E+00 +4.363323E-01 +0.000000E+00     +6.108652E-01 +1.483530E+00 +0.000000E+00     +5.235988E-01 +4.363323E-01 +0.000000E+00     +4.799655E+00 +2.617994E-01 +0.000000E+00     +1.221730E+00 +6.981317E-01 +0.000000E+00     +3.490659E-01 +5.235988E-01 +0.000000E+00    
 +1.745329E-01 +4.363323E-01 +0.000000E+00     +3.926991E+00 +2.617994E-01 +0.000000E+00     +2.879793E+00 +1.047198E+00 +0.000000E+00     +3.665191E+00 +1.308997E+00 +0.000000E+00     +1.832596E+00 +1.745329E-01 +0.000000E+00     +1.134464E+00 +1.221730E+00 +0.000000E+00     +5.846853E+00 +1.221730E+00 +0.000000E+00    
 +1.308997E+00 +9.599311E-01 +0.000000E+00     +4.014257E+00 +1.308997E+00 +0.000000E+00     +3.054326E+00 +9.599311E-01 +0.000000E+00     +6.283185E+00 +8.726646E-02 +0.000000E+00     +6.981317E-01 +1.396263E+00 +0.000000E+00     +3.839724E+00 +1.396263E+00 +0.000000E+00     +2.879793E+00 +1.134464E+00 +0.000000E+00    
 +4.625123E+00 +1.134464E+00 +0.000000E+00     +3.577925E+00 +1.745329E-01 +0.000000E+00     +7.853982E-01 +1.047198E+00 +0.000000E+00     +3.316126E+00 +1.570796E+00 +0.000000E+00     +5.672320E+00 +1.570796E+00 +0.000000E+00     +4.363323E+00 +8.726646E-01 +0.000000E+00     +2.356194E+00 +6.981317E-01 +0.000000E+00    
 +1.919862E+00 +1.221730E+00 +0.000000E+00     +2.617994E-01 +1.047198E+00 +0.000000E+00     +6.981317E-01 +1.396263E+00 +0.000000E+00     +5.672320E+00 +9.599311E-01 +0.000000E+00     +3.839724E+00 +7.853982E-01 +0.000000E+00     +6.108652E-01 +1.047198E+00 +0.000000E+00     +1.134464E+00 +8.726646E-01 +0.000000E+00    
 +1.047198E+00 +1.308997E+00 +0.000000E+00     +2.530727E+00 +6.981317E-01 +0.000000E+00     +5.497787E+00 +1.308997E+00 +0.000000E+00     +3.490659E-01 +4.363323E-01 +0.000000E+00     +4.101524E+00 +9.599311E-01 +0.000000E+00     +8.726646E-02 +1.308997E+00 +0.000000E+00     +6.108652E-01 +1.308997E+00 +0.000000E+00    
 +7.853982E-01 +1.047198E+00 +0.000000E+00     +3.141593E+00 +7.853982E-01 +0.000000E+00     +5.235988E-01 +3.490659E-01 +0.000000E+00     +2.356194E+00 +1.570796E+00 +0.000000E+00     +2.530727E+00 +7.853982E-01 +0.000000E+00     +1.570796E+00 +9.599311E-01 +0.000000E+00     +1.221730E+00 +9.599311E-01 +0.000000E+00    
 +5.497787E+00 +1.483530E+00 +0.000000E+00     +7.853982E-01 +2.617994E-01 +0.000000E+00     +9.599311E-01 +1.221730E+00 +0.000000E+00     +5.410521E+00 +8.726646E-02 +0.000000E+00     +3.228859E+00 +1.745329E-01 +0.000000E+00     +1.658063E+00 +1.483530E+00 +0.000000E+00     +4.537856E+00 +5.235988E-01 +0.000000E+00    
 +4.712389E+00 +1.570796E+00 +0.000000E+00     +2.967060E+00 +1.570796E+00 +0.000000E+00     +2.617994E-01 +3.490659E-01 +0.000000E+00     +3.490659E-01 +4.363323E-01 +0.000000E+00     +3.490659E-01 +1.570796E+00 +0.000000E+00     +1.047198E+00 +1.483530E+00 +0.000000E+00     +1.483530E+00 +6.108652E-01 +0.000000E+00    
 +4.799655E+00 +3.490659E-01 +0.000000E+00     +8.726646E-02 +6.981317E-01 +0.000000E+00     +3.577925E+00 +8.726646E-01 +0.000000E+00     +2.181662E+00 +8.726646E-01 +0.000000E+00     +4.537856E+00 +4.363323E-01 +0.000000E+00     +3.054326E+00 +1.745329E-01 +0.000000E+00     +4.014257E+00 +1.483530E+00 +0.000000E+00    
 +1.047198E+00 +1.221730E+00 +0.000000E+00     +1.047198E+00 +1.221730E+00 +0.000000E+00     +3.490659E+00 +6.981317E-01 +0.000000E+00     +5.934119E+00 +4.363323E-01 +0.000000E+00     +2.705260E+00 +1.047198E+00 +0.000000E+00     +2.094395E+00 +7.853982E-01 +0.000000E+00     +3.490659E+00 +1.396263E+00 +0.000000E+00    
 +5.934119E+00 +9.599311E-01 +0.000000E+00     +3.665191E+00 +2.617994E-01 +0.000000E+00     +6.021386E+00 +1.047198E+00 +0.000000E+00     +9.599311E-01 +1.134464E+00 +0.000000E+00     +1.134464E+00 +3.490659E-01 +0.000000E+00     +5.235988E-01 +1.134464E+00 +0.000000E+00     +4.450590E+00 +1.483530E+00 +0.000000E+00    
 +2.705260E+00 +6.981317E-01 +0.000000E+00     +5.846853E+00 +3.490659E-01 +0.000000E+00     +2.879793E+00 +1.483530E+00 +0.000000E+00     +4.712389E+00 +1.134464E+00 +0.000000E+00     +5.934119E+00 +1.134464E+00 +0.000000E+00     +3.054326E+00 +8.726646E-01 +0.000000E+00     +6.981317E-01 +6.108652E-01 +0.000000E+00    
 +6.108652E+00 +1.308997E+00 +0.000000E+00     +5.759587E+00 +1.745329E-01 +0.000000E+00     +6.195919E+00 +6.108652E-01 +0.000000E+00     +3.490659E-01 +8.726646E-02 +0.000000E+00     +5.497787E+00 +1.047198E+00 +0.000000E+00     +4.450590E+00 +6.981317E-01 +0.000000E+00     +4.101524E+00 +1.396263E+00 +0.000000E+00    
 +2.007129E+00 +8.726646E-01 +0.000000E+00     +3.490659E+00 +6.108652E-01 +0.000000E+00     +1.570796E+00 +7.853982E-01 +0.000000E+00     +1.134464E+00 +3.490659E-01 +0.000000E+00     +4.363323E-01 +1.483530E+00 +0.000000E+00     +2.007129E+00 +1.396263E+00 +0.000000E+00     +5.585054E+00 +3.490659E-01 +0.000000E+00    
 +5.061455E+00 +8.726646E-01 +0.000000E+00     +5.585054E+00 +3.490659E-01 +0.000000E+00     +2.792527E+00 +1.047198E+00 +0.000000E+00     +5.148721E+00 +6.108652E-01 +0.000000E+00     +2.094395E+00 +9.599311E-01 +0.000000E+00     +6.108652E-01 +9.599311E-01 +0.000000E+00     +1.919862E+00 +1.047198E+00 +0.000000E+00    
 +5.323254E+00 +8.726646E-01 +0.000000E+00     +1.134464E+00 +1.047198E+00 +0.000000E+00     +3.839724E+00 +9.599311E-01 +0.000000E+00     +6.021386E+00 +1.047198E+00 +0.000000E+00     +5.235988E+00 +7.853982E-01 +0.000000E+00     +6.195919E+00 +1.745329E-01 +0.000000E+00     +9.599311E-01 +9.599311E-01 +0.000000E+00    
 +2.705260E+00 +1.134464E+00 +0.000000E+00     +6.195919E+00 +8.726646E-01 +0.000000E+00     +3.577925E+00 +1.483530E+00 +0.000000E+00     +2.617994E+00 +2.617994E-01 +0.000000E+00     +1.483530E+00 +1.221730E+00 +0.000000E+00     +2.356194E+00 +5.235988E-01 +0.000000E+00     +2.967060E+00 +6.108652E-01 +0.000000E+00    
 +4.188790E+00 +6.108652E-01 +0.000000E+00     +3.141593E+00 +1.134464E+00 +0.000000E+00     +4.363323E-01 +1.308997E+00 +0.000000E+00     +4.974188E+00 +1.570796E+00 +0.000000E+00     +5.672320E+00 +7.853982E-01 +0.000000E+00     +4.886922E+00 +3.490659E-01 +0.000000E+00     +5.759587E+00 +1.047198E+00 +0.000000E+00    
 +4.188790E+00 +4.363323E-01 +0.000000E+00     +4.450590E+00 +7.853982E-01 +0.000000E+00     +4.799655E+00 +6.981317E-01 +0.000000E+00     +1.396263E+00 +8.726646E-02 +0.000000E+00     +3.141593E+00 +3.490659E-01 +0.000000E+00     +2.792527E+00 +9.599311E-01 +0.000000E+00     +8.726646E-02 +6.108652E-01 +0.000000E+00    
 +1.221730E+00 +1.047198E+00 +0.000000E+00     +3.228859E+00 +6.108652E-01 +0.000000E+00     +4.886922E+00 +9.599311E-01 +0.000000E+00     +5.148721E+00 +9.599311E-01 +0.000000E+00     +2.181662E+00 +9.599311E-01 +0.000000E+00     +1.745329E-01 +1.221730E+00 +0.000000E+00     +3.316126E+00 +3.490659E-01 +0.000000E+00    
 +4.450590E+00 +8.726646E-01 +0.000000E+00     +1.134464E+00 +2.617994E-01 +0.000000E+00     +9.599311E-01 +1.221730E+00 +0.000000E+00     +2.879793E+00 +7.853982E-01 +0.000000E+00     +2.792527E+00 +1.745329E-01 +0.000000E+00     +3.839724E+00 +3.490659E-01 +0.000000E+00     +6.283185E+00 +9.599311E-01 +0.000000E+00    
 +4.014257E+00 +8.726646E-01 +0.000000E+00     +8.726646E-02 +4.363323E-01 +0.000000E+00     +5.323254E+00 +1.483530E+00 +0.000000E+00     +1.919862E+00 +3.490659E-01 +0.000000E+00     +5.846853E+00 +9.599311E-01 +0.000000E+00     +2.181662E+00 +6.981317E-01 +0.000000E+00     +1.832596E+00 +1.745329E-01 +0.000000E+00    
 +1.047198E+00 +1.483530E+00 +0.000000E+00     +1.832596E+00 +6.108652E-01 +0.000000E+00     +5.061455E+00 +9.599311E-01 +0.000000E+00     +3.665191E+00 +9.599311E-01 +0.000000E+00     +5.410521E+00 +1.221730E+00 +0.000000E+00     +5.148721E+00 +7.853982E-01 +0.000000E+00     +5.235988E-01 +1.570796E+00 +0.000000E+00    
 +1.047198E+00 +4.363323E-01 +0.000000E+00     +6.981317E-01 +1.221730E+00 +0.000000E+00     +2.181662E+00 +8.726646E-01 +0.000000E+00     +3.752458E+00 +2.617994E-01 +0.000000E+00     +1.221730E+00 +1.745329E-01 +0.000000E+00     +3.490659E-01 +1.047198E+00 +0.000000E+00     +2.268928E+00 +8.726646E-01 +0.000000E+00    
 +4.363323E-01 +3.490659E-01 +0.000000E+00     +6.283185E+00 +1.308997E+00 +0.000000E+00     +1.134464E+00 +1.308997E+00 +0.000000E+00     +2.181662E+00 +7.853982E-01 +0.000000E+00     +7.853982E-01 +1.047198E+00 +0.000000E+00     +3.926991E+00 +2.617994E-01 +0.000000E+00     +4.974188E+00 +1.570796E+00 +0.000000E+00    
 +1.134464E+00 +9.599311E-01 +0.000000E+00     +5.410521E+00 +1.570796E+00 +0.000000E+00     +4.101524E+00 +6.108652E-01 +0.000000E+00     +1.308997E+00 +8.726646E-02 +0.000000E+00     +5.410521E+00 +1.308997E+00 +0.000000E+00     +3.839724E+00 +1.396263E+00 +0.000000E+00     +5.148721E+00 +3.490659E-01 +0.000000E+00    
 +5.497787E+00 +7.853982E-01 +0.000000E+00     +6.981317E-01 +8.726646E-01 +0.000000E+00     +1.221730E+00 +2.617994E-01 +0.000000E+00     +1.221730E+00 +1.221730E+00 +0.000000E+00     +1.134464E+00 +1.221730E+00 +0.000000E+00     +2.094395E+00 +1.745329E-01 +0.000000E+00     +5.148721E+00 +1.047198E+00 +0.000000E+00    
 +3.665191E+00 +5.235988E-01 +0.000000E+00     +1.134464E+00 +1.396263E+00 +0.000000E+00     +3.054326E+00 +1.745329E-01 +0.000000E+00     +4.799655E+00 +2.617994E-01 +0.000000E+00     +5.846853E+00 +1.221730E+00 +0.000000E+00     +8.726646E-02 +3.490659E-01 +0.000000E+00     +3.665191E+00 +8.726646E-02 +0.000000E+00    
 +1.483530E+00 +1.570796E+00 +0.000000E+00     +6.108652E-01 +6.981317E-01 +0.000000E+00     +2.705260E+00 +3.490659E-01 +0.000000E+00     +5.497787E+00 +7.853982E-01 +0.000000E+00     +2.443461E+00 +1.483530E+00 +0.000000E+00     +1.047198E+00 +1.396263E+00 +0.000000E+00     +2.705260E+00 +9.599311E-01 +0.000000E+00    
 +6.981317E-01 +1.134464E+00 +0.000000E+00     +2.617994E-01 +9.599311E-01 +0.000000E+00     +6.195919E+00 +6.981317E-01 +0.000000E+00     +2.094395E+00 +1.483530E+00 +0.000000E+00     +7.853982E-01 +2.617994E-01 +0.000000E+00     +3.577925E+00 +1.221730E+00 +0.000000E+00     +6.021386E+00 +2.617994E-01 +0.000000E+00    
 +3.577925E+00 +1.308997E+00 +0.000000E+00     +4.712389E+00 +4.363323E-01 +0.000000E+00     +3.665191E+00 +1.047198E+00 +0.000000E+00     +2.094395E+00 +1.483530E+00 +0.000000E+00     +4.625123E+00 +1.745329E-01 +0.000000E+00     +2.879793E+00 +5.235988E-01 +0.000000E+00     +6.195919E+00 +1.483530E+00 +0.000000E+00    
 +1.047198E+00 +1.745329E-01 +0.000000E+00     +1.570796E+00 +2.617994E-01 +0.000000E+00     +4.886922E+00 +1.134464E+00 +0.000000E+00     +1.570796E+00 +4.363323E-01 +0.000000E+00     +4.276057E+00 +1.570796E+00 +0.000000E+00     +2.879793E+00 +5.235988E-01 +0.000000E+00     +5.323254E+00 +6.108652E-01 +0.000000E+00    
 +5.497787E+00 +8.726646E-01 +0.000000E+00     +8.726646E-02 +4.363323E-01 +0.000000E+00     +6.021386E+00 +1.570796E+00 +0.000000E+00     +1.745329E-01 +6.981317E-01 +0.000000E+00     +3.490659E+00 +8.726646E-01 +0.000000E+00     +3.141593E+00 +9.599311E-01 +0.000000E+00     +9.599311E-01 +1.396263E+00 +0.000000E+00    
 +4.537856E+00 +6.108652E-01 +0.000000E+00     +6.021386E+00 +5.235988E-01 +0.000000E+00     +9.599311E-01 +1.221730E+00 +0.000000E+00     +3.577925E+00 +2.617994E-01 +0.000000E+00     +7.853982E-01 +6.981317E-01 +0.000000E+00     +5.672320E+00 +7.853982E-01 +0.000000E+00     +8.726646E-02 +2.617994E-01 +0.000000E+00    
 +1.919862E+00 +8.726646E-02 +0.000000E+00     +6.108652E+00 +1.134464E+00 +0.000000E+00     +5.759587E+00 +8.726646E-01 +0.000000E+00     +1.745329E+00 +1.483530E+00 +0.000000E+00     +6.981317E-01 +1.047198E+00 +0.000000E+00     +5.846853E+00 +7.853982E-01 +0.000000E+00     +5.061455E+00 +1.570796E+00 +0.000000E+00    
 +5.759587E+00 +8.726646E-02 +0.000000E+00     +1.221730E+00 +1.396263E+00 +0.000000E+00     +6.021386E+00 +1.745329E-01 +0.000000E+00     +1.483530E+00 +7.853982E-01 +0.000000E+00     +3.490659E+00 +9.599311E-01 +0.000000E+00     +4.014257E+00 +7.853982E-01 +0.000000E+00     +8.726646E-01 +1.570796E+00 +0.000000E+00    
 +4.712389E+00 +5.235988E-01 +0.000000E+00     +3.316126E+00 +8.726646E-01 +0.000000E+00     +3.577925E+00 +1.221730E+00 +0.000000E+00     +6.108652E+00 +8.726646E-01 +0.000000E+00     +6.195919E+00 +1.047198E+00 +0.000000E+00     +4.712389E+00 +5.235988E-01 +0.000000E+00     +2.356194E+00 +9.599311E-01 +0.000000E+00    
 +3.228859E+00 +3.490659E-01 +0.000000E+00     +6.021386E+00 +8.726646E-02 +0.000000E+00     +1.308997E+00 +1.396263E+00 +0.000000E+00     +3.141593E+00 +6.108652E-01 +0.000000E+00     +5.672320E+00 +1.483530E+00 +0.000000E+00     +1.919862E+00 +6.108652E-01 +0.000000E+00     +6.021386E+00 +6.981317E-01 +0.000000E+00    
 +6.981317E-01 +7.853982E-01 +0.000000E+00     +5.672320E+00 +4.363323E-01 +0.000000E+00     +3.403392E+00 +6.108652E-01 +0.000000E+00     +2.705260E+00 +1.134464E+00 +0.000000E+00     +3.316126E+00 +1.396263E+00 +0.000000E+00     +1.396263E+00 +6.981317E-01 +0.000000E+00     +4.537856E+00 +7.853982E-01 +0.000000E+00    
 +2.094395E+00 +1.134464E+00 +0.000000E+00     +5.410521E+00 +1.047198E+00 +0.000000E+00     +5.846853E+00 +1.483530E+00 +0.000000E+00     +3.926991E+00 +4.363323E-01 +0.000000E+00     +1.832596E+00 +1.047198E+00 +0.000000E+00     +5.759587E+00 +4.363323E-01 +0.000000E+00     +2.879793E+00 +1.134464E+00 +0.000000E+00    
 +2.181662E+00 +1.745329E-01 +0.000000E+00     +2.617994E-01 +1.221730E+00 +0.000000E+00     +6.108652E-01 +1.483530E+00 +0.000000E+00     +5.497787E+00 +1.134464E+00 +0.000000E+00     +5.410521E+00 +9.599311E-01 +0.000000E+00     +2.356194E+00 +1.483530E+00 +0.000000E+00     +2.617994E-01 +1.745329E-01 +0.000000E+00    
 +3.490659E-01 +1.745329E-01 +0.000000E+00     +5.235988E+00 +3.490659E-01 +0.000000E+00     +5.934119E+00 +1.570796E+00 +0.000000E+00     +6.108652E+00 +4.363323E-01 +0.000000E+00     +2.356194E+00 +1.483530E+00 +0.000000E+00     +3.228859E+00 +9.599311E-01 +0.000000E+00     +3.228859E+00 +8.726646E-01 +0.000000E+00    
 +2.617994E-01 +1.134464E+00 +0.000000E+00     +2.792527E+00 +4.363323E-01 +0.000000E+00     +1.396263E+00 +1.483530E+00 +0.000000E+00     +5.759587E+00 +1.745329E-01 +0.000000E+00     +1.134464E+00 +1.745329E-01 +0.000000E+00     +6.108652E-01 +1.483530E+00 +0.000000E+00     +5.410521E+00 +3.490659E-01 +0.000000E+00    
 +3.839724E+00 +8.726646E-02 +0.000000E+00     +6.981317E-01 +3.490659E-01 +0.000000E+00     +2.879793E+00 +1.134464E+00 +0.000000E+00     +6.108652E+00 +6.981317E-01 +0.000000E+00     +3.141593E+00 +1.221730E+00 +0.000000E+00     +5.410521E+00 +1.483530E+00 +0.000000E+00     +3.839724E+00 +1.134464E+00 +0.000000E+00    
 +1.134464E+00 +1.308997E+00 +0.000000E+00     +4.188790E+00 +8.726646E-02 +0.000000E+00     +2.530727E+00 +2.617994E-01 +0.000000E+00     +5.235988E-01 +5.235988E-01 +0.000000E+00     +4.363323E+00 +7.853982E-01 +0.000000E+00     +6.021386E+00 +6.981317E-01 +0.000000E+00     +2.705260E+00 +1.134464E+00 +0.000000E+00    
 +6.108652E-01 +1.483530E+00 +0.000000E+00     +4.974188E+00 +1.308997E+00 +0.000000E+00     +2.268928E+00 +6.981317E-01 +0.000000E+00     +2.268928E+00 +8.726646E-01 +0.000000E+00     +4.974188E+00 +1.221730E+00 +0.000000E+00     +1.570796E+00 +1.483530E+00 +0.000000E+00     +2.268928E+00 +6.108652E-01 +0.000000E+00    
 +4.974188E+00 +9.599311E-01 +0.000000E+00     +6.108652E-01 +5.235988E-01 +0.000000E+00     +1.745329E+00 +1.396263E+00 +0.000000E+00     +1.483530E+00 +8.726646E-01 +0.000000E+00     +2.007129E+00 +3.490659E-01 +0.000000E+00     +5.934119E+00 +1.047198E+00 +0.000000E+00     +5.061455E+00 +8.726646E-02 +0.000000E+00    
 +1.570796E+00 +4.363323E-01 +0.000000E+00     +5.061455E+00 +1.396263E+00 +0.000000E+00     +2.879793E+00 +5.235988E-01 +0.000000E+00     +5.846853E+00 +1.134464E+00 +0.000000E+00     +3.577925E+00 +9.599311E-01 +0.000000E+00     +4.188790E+00 +8.726646E-01 +0.000000E+00     +4.799655E+00 +1.483530E+00 +0.000000E+00    
 +4.363323E-01 +9.599311E-01 +0.000000E+00     +1.396263E+00 +3.490659E-01 +0.000000E+00     +8.726646E-02 +1.134464E+00 +0.000000E+00     +3.316126E+00 +6.981317E-01 +0.000000E+00     +1.919862E+00 +1.308997E+00 +0.000000E+00     +4.101524E+00 +1.570796E+00 +0.000000E+00     +4.974188E+00 +8.726646E-01 +0.000000E+00    
 +6.108652E+00 +2.617994E-01 +0.000000E+00     +5.235988E+00 +2.617994E-01 +0.000000E+00     +1.745329E+00 +1.134464E+00 +0.000000E+00     +4.276057E+00 +7.853982E-01 +0.000000E+00     +4.276057E+00 +1.570796E+00 +0.000000E+00     +2.356194E+00 +1.221730E+00 +0.000000E+00     +2.617994E-01 +4.363323E-01 +0.000000E+00    
 +1.745329E+00 +1.396263E+00 +0.000000E+00     +8.726646E-01 +2.617994E-01 +0.000000E+00     +1.658063E+00 +8.726646E-02 +0.000000E+00     +1.832596E+00 +6.108652E-01 +0.000000E+00     +9.599311E-01 +6.108652E-01 +0.000000E+00     +5.235988E-01 +1.396263E+00 +0.000000E+00     +6.108652E+00 +6.108652E-01 +0.000000E+00    
 +3.665191E+00 +1.308997E+00 +0.000000E+00     +5.235988E-01 +3.490659E-01 +0.000000E+00     +9.599311E-01 +6.108652E-01 +0.000000E+00     +5.585054E+00 +1.570796E+00 +0.000000E+00     +3.316126E+00 +8.726646E-02 +0.000000E+00     +4.363323E+00 +1.483530E+00 +0.000000E+00     +1.308997E+00 +3.490659E-01 +0.000000E+00    
 +1.919862E+00 +1.483530E+00 +0.000000E+00     +4.014257E+00 +1.308997E+00 +0.000000E+00     +6.021386E+00 +1.308997E+00 +0.000000E+00     +3.228859E+00 +7.853982E-01 +0.000000E+00     +1.308997E+00 +1.134464E+00 +0.000000E+00     +9.599311E-01 +1.570796E+00 +0.000000E+00     +4.188790E+00 +1.483530E+00 +0.000000E+00    
 +6.283185E+00 +1.483530E+00 +0.000000E+00     +1.570796E+00 +4.363323E-01 +0.000000E+00     +5.934119E+00 +2.617994E-01 +0.000000E+00     +4.537856E+00 +2.617994E-01 +0.000000E+00     +5.846853E+00 +8.726646E-01 +0.000000E+00     +2.356194E+00 +2.617994E-01 +0.000000E+00     +4.712389E+00 +9.599311E-01 +0.000000E+00    
 +3.054326E+00 +1.570796E+00 +0.000000E+00     +2.268928E+00 +5.235988E-01 +0.000000E+00     +5.323254E+00 +6.108652E-01 +0.000000E+00     +2.181662E+00 +1.745329E-01 +0.000000E+00     +2.705260E+00 +9.599311E-01 +0.000000E+00     +2.967060E+00 +5.235988E-01 +0.000000E+00     +8.726646E-02 +3.490659E-01 +0.000000E+00    
 +4.101524E+00 +9.599311E-01 +0.000000E+00     +5.148721E+00 +1.308997E+00 +0.000000E+00     +3.752458E+00 +3.490659E-01 +0.000000E+00     +4.188790E+00 +1.745329E-01 +0.000000E+00     +3.141593E+00 +4.363323E-01 +0.000000E+00     +5.410521E+00 +1.483530E+00 +0.000000E+00     +1.745329E+00 +1.745329E-01 +0.000000E+00    
 +4.363323E+00 +1.221730E+00 +0.000000E+00     +2.356194E+00 +1.483530E+00 +0.000000E+00     +4.974188E+00 +1.308997E+00 +0.000000E+00     +4.276057E+00 +6.981317E-01 +0.000000E+00     +5.759587E+00 +1.047198E+00 +0.000000E+00     +2.617994E+00 +7.853982E-01 +0.000000E+00     +1.134464E+00 +7.853982E-01 +0.000000E+00    
 +5.759587E+00 +1.221730E+00 +0.000000E+00     +4.101524E+00 +7.853982E-01 +0.000000E+00     +5.846853E+00 +1.396263E+00 +0.000000E+00     +2.530727E+00 +2.617994E-01 +0.000000E+00     +1.745329E+00 +6.108652E-01 +0.000000E+00     +2.792527E+00 +1.745329E-01 +0.000000E+00     +2.705260E+00 +7.853982E-01 +0.000000E+00    
 +4.276057E+00 +2.617994E-01 +0.000000E+00     +5.235988E+00 +2.617994E-01 +0.000000E+00     +1.658063E+00 +1.483530E+00 +0.000000E+00     +1.483530E+00 +1.396263E+00 +0.000000E+00     +3.490659E+00 +1.047198E+00 +0.000000E+00     +4.799655E+00 +3.490659E-01 +0.000000E+00     +1.832596E+00 +1.134464E+00 +0.000000E+00    
 +4.450590E+00 +9.599311E-01 +0.000000E+00     +1.745329E-01 +1.745329E-01 +0.000000E+00     +4.014257E+00 +1.134464E+00 +0.000000E+00     +4.537856E+00 +6.981317E-01 +0.000000E+00     +6.283185E+00 +2.617994E-01 +0.000000E+00     +5.672320E+00 +8.726646E-02 +0.000000E+00     +1.483530E+00 +2.617994E-01 +0.000000E+00    
 +1.570796E+00 +4.363323E-01 +0.000000E+00     +3.490659E-01 +8.726646E-02 +0.000000E+00     +1.570796E+00 +3.490659E-01 +0.000000E+00     +5.846853E+00 +1.221730E+00 +0.000000E+00     +5.846853E+00 +1.570796E+00 +0.000000E+00     +5.497787E+00 +4.363323E-01 +0.000000E+00     +2.617994E+00 +1.221730E+00 +0.000000E+00    
 +4.363323E-01 +6.981317E-01 +0.000000E+00     +1.134464E+00 +7.853982E-01 +0.000000E+00     +3.839724E+00 +1.745329E-01 +0.000000E+00     +5.235988E-01 +6.981317E-01 +0.000000E+00     +4.974188E+00 +1.745329E-01 +0.000000E+00     +5.410521E+00 +6.981317E-01 +0.000000E+00     +1.047198E+00 +1.134464E+00 +0.000000E+00    
 +2.181662E+00 +9.599311E-01 +0.000000E+00     +3.316126E+00 +1.308997E+00 +0.000000E+00     +6.021386E+00 +8.726646E-02 +0.000000E+00     +1.308997E+00 +1.134464E+00 +0.000000E+00     +5.672320E+00 +1.308997E+00 +0.000000E+00     +2.967060E+00 +1.483530E+00 +0.000000E+00     +4.101524E+00 +6.981317E-01 +0.000000E+00    
 +5.323254E+00 +7.853982E-01 +0.000000E+00     +4.712389E+00 +5.235988E-01 +0.000000E+00     +1.570796E+00 +4.363323E-01 +0.000000E+00     +1.483530E+00 +1.483530E+00 +0.000000E+00     +9.599311E-01 +8.726646E-02 +0.000000E+00     +4.799655E+00 +1.570796E+00 +0.000000E+00     +5.934119E+00 +1.396263E+00 +0.000000E+00    
 +1.658063E+00 +1.221730E+00 +0.000000E+00     +2.268928E+00 +1.745329E-01 +0.000000E+00     +1.221730E+00 +8.726646E-01 +0.000000E+00     +5.235988E-01 +4.363323E-01 +0.000000E+00     +1.134464E+00 +1.483530E+00 +0.000000E+00     +9.599311E-01 +3.490659E-01 +0.000000E+00     +5.323254E+00 +1.308997E+00 +0.000000E+00    
 +3.490659E+00 +6.981317E-01 +0.000000E+00     +4.974188E+00 +3.490659E-01 +0.000000E+00     +4.886922E+00 +2.617994E-01 +0.000000E+00     +1.221730E+00 +6.981317E-01 +0.000000E+00     +2.967060E+00 +1.134464E+00 +0.000000E+00     +4.276057E+00 +3.490659E-01 +0.000000E+00     +6.283185E+00 +1.483530E+00 +0.000000E+00    
 +2.617994E-01 +8.726646E-01 +0.000000E+00     +1.658063E+00 +1.047198E+00 +0.000000E+00     +9.599311E-01 +1.047198E+00 +0.000000E+00     +4.537856E+00 +9.599311E-01 +0.000000E+00     +4.625123E+00 +7.853982E-01 +0.000000E+00     +5.934119E+00 +8.726646E-01 +0.000000E+00     +2.356194E+00 +3.490659E-01 +0.000000E+00    
 +6.195919E+00 +9.599311E-01 +0.000000E+00     +1.134464E+00 +3.490659E-01 +0.000000E+00     +4.537856E+00 +5.235988E-01 +0.000000E+00     +3.752458E+00 +6.981317E-01 +0.000000E+00     +3.752458E+00 +1.134464E+00 +0.000000E+00     +5.585054E+00 +9.599311E-01 +0.000000E+00     +6.981317E-01 +1.134464E+00 +0.000000E+00    
 +1.832596E+00 +7.853982E-01 +0.000000E+00     +4.450590E+00 +1.483530E+00 +0.000000E+00     +2.530727E+00 +9.599311E-01 +0.000000E+00     +4.363323E+00 +1.570796E+00 +0.000000E+00     +3.839724E+00 +1.047198E+00 +0.000000E+00     +4.363323E+00 +9.599311E-01 +0.000000E+00     +6.283185E+00 +9.599311E-01 +0.000000E+00    
 +5.672320E+00 +9.599311E-01 +0.000000E+00     +4.537856E+00 +1.483530E+00 +0.000000E+00     +5.759587E+00 +7.853982E-01 +0.000000E+00     +8.726646E-02 +1.570796E+00 +0.000000E+00     +3.926991E+00 +9.599311E-01 +0.000000E+00     +3.490659E+00 +1.396263E+00 +0.000000E+00     +2.181662E+00 +3.490659E-01 +0.000000E+00    
 +5.235988E-01 +1.570796E+00 +0.000000E+00     +6.981317E-01 +1.396263E+00 +0.000000E+00     +2.356194E+00 +8.726646E-01 +0.000000E+00     +3.141593E+00 +7.853982E-01 +0.000000E+00     +2.181662E+00 +3.490659E-01 +0.000000E+00     +3.926991E+00 +2.617994E-01 +0.000000E+00     +5.061455E+00 +2.617994E-01 +0.000000E+00    
 +1.570796E+00 +3.490659E-01 +0.000000E+00     +8.726646E-02 +2.617994E-01 +0.000000E+00     +3.054326E+00 +5.235988E-01 +0.000000E+00     +4.014257E+00 +3.490659E-01 +0.000000E+00     +5.672320E+00 +5.235988E-01 +0.000000E+00     +2.356194E+00 +7.853982E-01 +0.000000E+00     +2.617994E-01 +7.853982E-01 +0.000000E+00    
 +1.308997E+00 +8.726646E-02 +0.000000E+00     +5.323254E+00 +6.981317E-01 +0.000000E+00     +1.483530E+00 +1.745329E-01 +0.000000E+00     +3.839724E+00 +5.235988E-01 +0.000000E+00     +1.221730E+00 +8.726646E-01 +0.000000E+00     +2.617994E-01 +6.108652E-01 +0.000000E+00     +4.537856E+00 +1.396263E+00 +0.000000E+00    
 +2.792527E+00 +8.726646E-01 +0.000000E+00     +5.323254E+00 +1.570796E+00 +0.000000E+00     +5.323254E+00 +1.308997E+00 +0.000000E+00     +2.443461E+00 +8.726646E-01 +0.000000E+00     +2.617994E-01 +3.490659E-01 +0.000000E+00     +6.283185E+00 +1.745329E-01 +0.000000E+00     +4.886922E+00 +6.981317E-01 +0.000000E+00    
 +4.537856E+00 +1.047198E+00 +0.000000E+00     +4.276057E+00 +9.599311E-01 +0.000000E+00     +2.879793E+00 +1.134464E+00 +0.000000E+00     +1.134464E+00 +5.235988E-01 +0.000000E+00     +5.061455E+00 +1.134464E+00 +0.000000E+00     +1.483530E+00 +3.490659E-01 +0.000000E+00     +4.276057E+00 +8.726646E-01 +0.000000E+00    
 +1.570796E+00 +8.726646E-02 +0.000000E+00     +4.974188E+00 +6.108652E-01 +0.000000E+00     +1.570796E+00 +9.599311E-01 +0.000000E+00     +4.712389E+00 +1.134464E+00 +0.000000E+00     +3.054326E+00 +4.363323E-01 +0.000000E+00     +4.799655E+00 +1.221730E+00 +0.000000E+00     +4.537856E+00 +3.490659E-01 +0.000000E+00    
 +5.061455E+00 +1.047198E+00 +0.000000E+00     +6.981317E-01 +1.308997E+00 +0.000000E+00     +1.658063E+00 +1.134464E+00 +0.000000E+00     +5.497787E+00 +6.108652E-01 +0.000000E+00     +5.759587E+00 +1.396263E+00 +0.000000E+00     +3.490659E+00 +3.490659E-01 +0.000000E+00     +5.410521E+00 +1.221730E+00 +0.000000E+00    
 +2.967060E+00 +1.483530E+00 +0.000000E+00     +4.974188E+00 +6.108652E-01 +0.000000E+00     +4.363323E+00 +9.599311E-01 +0.000000E+00     +5.235988E-01 +8.726646E-01 +0.000000E+00     +3.141593E+00 +6.108652E-01 +0.000000E+00     +5.934119E+00 +1.570796E+00 +0.000000E+00     +3.490659E-01 +9.599311E-01 +0.000000E+00    
 +2.094395E+00 +6.981317E-01 +0.000000E+00     +1.396263E+00 +3.490659E-01 +0.000000E+00     +1.221730E+00 +1.047198E+00 +0.000000E+00     +5.846853E+00 +8.726646E-02 +0.000000E+00     +5.410521E+00 +4.363323E-01 +0.000000E+00     +2.443461E+00 +1.308997E+00 +0.000000E+00     +1.745329E-01 +8.726646E-02 +0.000000E+00    
 +4.625123E+00 +1.745329E-01 +0.000000E+00     +4.799655E+00 +1.221730E+00 +0.000000E+00     +5.934119E+00 +1.047198E+00 +0.000000E+00     +2.617994E-01 +1.396263E+00 +0.000000E+00     +3.665191E+00 +9.599311E-01 +0.000000E+00     +1.658063E+00 +1.483530E+00 +0.000000E+00     +4.974188E+00 +1.221730E+00 +0.000000E+00    
 +5.148721E+00 +2.617994E-01 +0.000000E+00     +2.967060E+00 +1.396263E+00 +0.000000E+00     +2.617994E-01 +3.490659E-01 +0.000000E+00     +3.839724E+00 +4.363323E-01 +0.000000E+00     +3.141593E+00 +2.617994E-01 +0.000000E+00     +1.832596E+00 +1.047198E+00 +0.000000E+00     +2.617994E+00 +3.490659E-01 +0.000000E+00    
 +3.228859E+00 +5.235988E-01 +0.000000E+00     +6.021386E+00 +8.726646E-02 +0.000000E+00     +2.617994E+00 +7.853982E-01 +0.000000E+00     +1.658063E+00 +1.308997E+00 +0.000000E+00     +4.188790E+00 +1.396263E+00 +0.000000E+00     +2.443461E+00 +1.047198E+00 +0.000000E+00     +3.228859E+00 +1.221730E+00 +0.000000E+00    
 +5.585054E+00 +6.981317E-01 +0.000000E+00     +2.617994E+00 +8.726646E-02 +0.000000E+00     +4.101524E+00 +3.490659E-01 +0.000000E+00     +3.228859E+00 +5.235988E-01 +0.000000E+00     +3.490659E-01 +1.047198E+00 +0.000000E+00     +4.974188E+00 +1.745329E-01 +0.000000E+00     +2.007129E+00 +7.853982E-01 +0.000000E+00    
 +3.403392E+00 +6.108652E-01 +0.000000E+00     +1.134464E+00 +3.490659E-01 +0.000000E+00     +3.141593E+00 +8.726646E-02 +0.000000E+00     +4.101524E+00 +7.853982E-01 +0.000000E+00     +6.108652E-01 +2.617994E-01 +0.000000E+00     +2.443461E+00 +1.745329E-01 +0.000000E+00     +4.886922E+00 +8.726646E-02 +0.000000E+00    
 +2.443461E+00 +7.853982E-01 +0.000000E+00     +4.101524E+00 +3.490659E-01 +0.000000E+00     +8.726646E-01 +1.134464E+00 +0.000000E+00     +1.396263E+00 +5.235988E-01 +0.000000E+00     +2.967060E+00 +6.108652E-01 +0.000000E+00     +3.228859E+00 +5.235988E-01 +0.000000E+00     +6.108652E-01 +1.570796E+00 +0.000000E+00    
 +5.061455E+00 +1.221730E+00 +0.000000E+00     +2.705260E+00 +8.726646E-02 +0.000000E+00     +3.665191E+00 +1.745329E-01 +0.000000E+00     +6.195919E+00 +1.134464E+00 +0.000000E+00     +6.283185E+00 +1.134464E+00 +0.000000E+00     +3.752458E+00 +3.490659E-01 +0.000000E+00     +1.134464E+00 +8.726646E-01 +0.000000E+00    
 +4.886922E+00 +8.726646E-01 +0.000000E+00     +2.530727E+00 +1.396263E+00 +0.000000E+00     +1.396263E+00 +1.308997E+00 +0.000000E+00     +4.537856E+00 +9.599311E-01 +0.000000E+00     +4.799655E+00 +8.726646E-01 +0.000000E+00     +2.967060E+00 +7.853982E-01 +0.000000E+00     +2.007129E+00 +1.047198E+00 +0.000000E+00    
 +5.323254E+00 +1.483530E+00 +0.000000E+00     +4.625123E+00 +3.490659E-01 +0.000000E+00     +1.658063E+00 +5.235988E-01 +0.000000E+00     +2.792527E+00 +4.363323E-01 +0.000000E+00     +3.839724E+00 +6.108652E-01 +0.000000E+00     +4.450590E+00 +1.745329E-01 +0.000000E+00     +5.148721E+00 +1.570796E+00 +0.000000E+00    
 +3.228859E+00 +6.981317E-01 +0.000000E+00     +5.934119E+00 +1.221730E+00 +0.000000E+00     +4.014257E+00 +1.308997E+00 +0.000000E+00     +6.283185E+00 +2.617994E-01 +0.000000E+00     +2.879793E+00 +1.570796E+00 +0.000000E+00     +3.577925E+00 +1.396263E+00 +0.000000E+00     +2.530727E+00 +1.221730E+00 +0.000000E+00    
 +1.745329E-01 +6.108652E-01 +0.000000E+00     +6.283185E+00 +5.235988E-01 +0.000000E+00     +1.134464E+00 +2.617994E-01 +0.000000E+00     +4.101524E+00 +1.396263E+00 +0.000000E+00     +1.745329E-01 +8.726646E-02 +0.000000E+00     +4.363323E+00 +1.047198E+00 +0.000000E+00     +8.726646E-01 +2.617994E-01 +0.000000E+00    
 +5.672320E+00 +1.483530E+00 +0.000000E+00     +3.490659E-01 +1.745329E-01 +0.000000E+00     +2.268928E+00 +1.396263E+00 +0.000000E+00     +3.577925E+00 +1.396263E+00 +0.000000E+00     +1.919862E+00 +5.235988E-01 +0.000000E+00     +1.832596E+00 +1.221730E+00 +0.000000E+00     +3.665191E+00 +1.134464E+00 +0.000000E+00    
 +4.625123E+00 +4.363323E-01 +0.000000E+00     +4.799655E+00 +1.047198E+00 +0.000000E+00     +4.625123E+00 +3.490659E-01 +0.000000E+00     +5.497787E+00 +4.363323E-01 +0.000000E+00     +6.108652E+00 +4.363323E-01 +0.000000E+00     +5.846853E+00 +1.396263E+00 +0.000000E+00     +6.108652E+00 +2.617994E-01 +0.000000E+00    
 +6.283185E+00 +1.047198E+00 +0.000000E+00     +3.490659E+00 +7.853982E-01 +0.000000E+00     +5.934119E+00 +2.617994E-01 +0.000000E+00     +4.712389E+00 +1.745329E-01 +0.000000E+00     +5.148721E+00 +1.396263E+00 +0.000000E+00     +3.228859E+00 +9.599311E-01 +0.000000E+00     +5.846853E+00 +1.570796E+00 +0.000000E+00    
 +1.308997E+00 +7.853982E-01 +0.000000E+00     +3.316126E+00 +1.570796E+00 +0.000000E+00     +1.745329E+00 +1.134464E+00 +0.000000E+00     +2.094395E+00 +1.570796E+00 +0.000000E+00     +4.974188E+00 +6.108652E-01 +0.000000E+00     +2.268928E+00 +1.221730E+00 +0.000000E+00     +6.283185E+00 +3.490659E-01 +0.000000E+00    
 +8.726646E-01 +1.745329E-01 +0.000000E+00     +4.014257E+00 +1.134464E+00 +0.000000E+00     +2.530727E+00 +1.221730E+00 +0.000000E+00     +5.846853E+00 +1.047198E+00 +0.000000E+00     +4.188790E+00 +8.726646E-01 +0.000000E+00     +2.094395E+00 +2.617994E-01 +0.000000E+00     +4.799655E+00 +9.599311E-01 +0.000000E+00    
 +2.443461E+00 +1.047198E+00 +0.000000E+00     +4.799655E+00 +1.483530E+00 +0.000000E+00     +1.658063E+00 +8.726646E-02 +0.000000E+00     +3.490659E+00 +7.853982E-01 +0.000000E+00     +1.745329E-01 +5.235988E-01 +0.000000E+00     +8.726646E-02 +1.483530E+00 +0.000000E+00     +1.047198E+00 +1.221730E+00 +0.000000E+00    
 +1.832596E+00 +1.483530E+00 +0.000000E+00     +4.712389E+00 +4.363323E-01 +0.000000E+00     +3.839724E+00 +6.981317E-01 +0.000000E+00     +5.759587E+00 +3.490659E-01 +0.000000E+00     +1.483530E+00 +1.047198E+00 +0.000000E+00     +3.228859E+00 +6.108652E-01 +0.000000E+00     +7.853982E-01 +1.396263E+00 +0.000000E+00    
 +5.148721E+00 +1.308997E+00 +0.000000E+00     +6.108652E-01 +1.483530E+00 +0.000000E+00     +6.021386E+00 +5.235988E-01 +0.000000E+00     +4.886922E+00 +1.221730E+00 +0.000000E+00     +5.148721E+00 +8.726646E-02 +0.000000E+00     +3.403392E+00 +1.483530E+00 +0.000000E+00     +3.403392E+00 +1.483530E+00 +0.000000E+00    
 +1.134464E+00 +7.853982E-01 +0.000000E+00     +1.658063E+00 +1.308997E+00 +0.000000E+00     +7.853982E-01 +5.235988E-01 +0.000000E+00     +3.054326E+00 +6.981317E-01 +0.000000E+00     +4.101524E+00 +1.570796E+00 +0.000000E+00     +2.530727E+00 +1.308997E+00 +0.000000E+00     +4.625123E+00 +4.363323E-01 +0.000000E+00    
 +4.537856E+00 +8.726646E-02 +0.000000E+00     +1.396263E+00 +1.745329E-01 +0.000000E+00     +3.752458E+00 +6.108652E-01 +0.000000E+00     +5.934119E+00 +1.221730E+00 +0.000000E+00     +3.316126E+00 +4.363323E-01 +0.000000E+00     +3.403392E+00 +1.134464E+00 +0.000000E+00     +5.235988E-01 +8.726646E-01 +0.000000E+00    
 +3.926991E+00 +1.308997E+00 +0.000000E+00     +4.974188E+00 +9.599311E-01 +0.000000E+00     +5.410521E+00 +6.108652E-01 +0.000000E+00     +2.268928E+00 +1.483530E+00 +0.000000E+00     +4.886922E+00 +1.134464E+00 +0.000000E+00     +1.221730E+00 +6.108652E-01 +0.000000E+00     +7.853982E-01 +6.981317E-01 +0.000000E+00    
 +4.450590E+00 +1.745329E-01 +0.000000E+00     +5.235988E-01 +5.235988E-01 +0.000000E+00     +6.021386E+00 +1.396263E+00 +0.000000E+00     +4.363323E+00 +1.047198E+00 +0.000000E+00     +8.726646E-02 +2.617994E-01 +0.000000E+00     +8.726646E-02 +1.047198E+00 +0.000000E+00     +1.919862E+00 +3.490659E-01 +0.000000E+00    
 +5.235988E+00 +1.134464E+00 +0.000000E+00     +5.235988E-01 +6.108652E-01 +0.000000E+00     +4.886922E+00 +2.617994E-01 +0.000000E+00     +5.323254E+00 +1.221730E+00 +0.000000E+00     +1.396263E+00 +1.134464E+00 +0.000000E+00     +5.410521E+00 +6.108652E-01 +0.000000E+00     +4.363323E-01 +1.047198E+00 +0.000000E+00    
 +2.356194E+00 +4.363323E-01 +0.000000E+00     +4.188790E+00 +1.745329E-01 +0.000000E+00     +1.832596E+00 +1.745329E-01 +0.000000E+00     +5.759587E+00 +1.221730E+00 +0.000000E+00     +1.745329E+00 +8.726646E-01 +0.000000E+00     +3.228859E+00 +8.726646E-02 +0.000000E+00     +3.228859E+00 +6.981317E-01 +0.000000E+00    
 +5.410521E+00 +6.108652E-01 +0.000000E+00     +4.450590E+00 +1.221730E+00 +0.000000E+00     +5.846853E+00 +5.235988E-01 +0.000000E+00     +5.410521E+00 +9.599311E-01 +0.000000E+00     +1.658063E+00 +1.308997E+00 +0.000000E+00     +6.108652E-01 +1.221730E+00 +0.000000E+00     +3.752458E+00 +3.490659E-01 +0.000000E+00    
 +5.235988E-01 +8.726646E-02 +0.000000E+00     +4.276057E+00 +4.363323E-01 +0.000000E+00     +2.094395E+00 +6.108652E-01 +0.000000E+00     +6.981317E-01 +9.599311E-01 +0.000000E+00     +8.726646E-02 +5.235988E-01 +0.000000E+00     +3.403392E+00 +8.726646E-02 +0.000000E+00     +5.323254E+00 +2.617994E-01 +0.000000E+00    
 +1.396263E+00 +7.853982E-01 +0.000000E+00     +4.974188E+00 +1.396263E+00 +0.000000E+00     +6.108652E+00 +1.047198E+00 +0.000000E+00     +4.014257E+00 +1.570796E+00 +0.000000E+00     +2.879793E+00 +1.570796E+00 +0.000000E+00     +4.450590E+00 +5.235988E-01 +0.000000E+00     +4.450590E+00 +1.570796E+00 +0.000000E+00    
 +6.108652E+00 +1.396263E+00 +0.000000E+00     +2.007129E+00 +1.745329E-01 +0.000000E+00     +3.490659E+00 +1.308997E+00 +0.000000E+00     +3.141593E+00 +1.308997E+00 +0.000000E+00     +2.268928E+00 +1.396263E+00 +0.000000E+00     +8.726646E-02 +1.134464E+00 +0.000000E+00     +3.752458E+00 +4.363323E-01 +0.000000E+00    
 +9.599311E-01 +1.047198E+00 +0.000000E+00     +1.919862E+00 +1.221730E+00 +0.000000E+00     +1.745329E+00 +9.599311E-01 +0.000000E+00     +6.283185E+00 +1.308997E+00 +0.000000E+00     +3.228859E+00 +4.363323E-01 +0.000000E+00     +1.134464E+00 +1.047198E+00 +0.000000E+00     +4.014257E+00 +8.726646E-01 +0.000000E+00    
 +5.497787E+00 +3.490659E-01 +0.000000E+00     +2.705260E+00 +8.726646E-02 +0.000000E+00     +3.228859E+00 +2.617994E-01 +0.000000E+00     +5.497787E+00 +1.134464E+00 +0.000000E+00     +8.726646E-02 +1.745329E-01 +0.000000E+00     +3.926991E+00 +6.108652E-01 +0.000000E+00     +5.235988E-01 +1.483530E+00 +0.000000E+00    
 +2.007129E+00 +4.363323E-01 +0.000000E+00     +4.363323E-01 +5.235988E-01 +0.000000E+00     +2.356194E+00 +4.363323E-01 +0.000000E+00     +2.007129E+00 +4.363323E-01 +0.000000E+00     +5.585054E+00 +8.726646E-02 +0.000000E+00     +1.308997E+00 +7.853982E-01 +0.000000E+00     +3.839724E+00 +1.134464E+00 +0.000000E+00    
 +2.356194E+00 +1.396263E+00 +0.000000E+00     +1.134464E+00 +1.745329E-01 +0.000000E+00     +5.759587E+00 +6.981317E-01 +0.000000E+00     +1.483530E+00 +1.047198E+00 +0.000000E+00     +1.134464E+00 +5.235988E-01 +0.000000E+00     +3.490659E+00 +1.570796E+00 +0.000000E+00     +6.108652E+00 +1.396263E+00 +0.000000E+00    
 +5.148721E+00 +2.617994E-01 +0.000000E+00     +4.799655E+00 +1.745329E-01 +0.000000E+00     +2.094395E+00 +4.363323E-01 +0.000000E+00     +6.021386E+00 +7.853982E-01 +0.000000E+00     +5.759587E+00 +8.726646E-01 +0.000000E+00     +4.450590E+00 +1.308997E+00 +0.000000E+00     +3.490659E-01 +1.483530E+00 +0.000000E+00    
 +2.268928E+00 +1.308997E+00 +0.000000E+00     +1.047198E+00 +1.134464E+00 +0.000000E+00     +4.886922E+00 +1.047198E+00 +0.000000E+00     +1.483530E+00 +1.308997E+00 +0.000000E+00     +3.752458E+00 +2.617994E-01 +0.000000E+00     +5.585054E+00 +1.134464E+00 +0.000000E+00     +4.712389E+00 +1.221730E+00 +0.000000E+00    
 +2.617994E+00 +5.235988E-01 +0.000000E+00     +1.308997E+00 +5.235988E-01 +0.000000E+00     +5.235988E+00 +4.363323E-01 +0.000000E+00     +4.712389E+00 +3.490659E-01 +0.000000E+00     +2.007129E+00 +8.726646E-01 +0.000000E+00     +4.974188E+00 +7.853982E-01 +0.000000E+00     +3.665191E+00 +1.221730E+00 +0.000000E+00    
 +3.665191E+00 +7.853982E-01 +0.000000E+00     +4.799655E+00 +4.363323E-01 +0.000000E+00     +1.570796E+00 +1.570796E+00 +0.000000E+00     +2.181662E+00 +1.308997E+00 +0.000000E+00     +3.403392E+00 +6.981317E-01 +0.000000E+00     +6.981317E-01 +8.726646E-02 +0.000000E+00     +2.792527E+00 +9.599311E-01 +0.000000E+00    
 +6.195919E+00 +2.617994E-01 +0.000000E+00     +5.061455E+00 +8.726646E-01 +0.000000E+00     +3.490659E+00 +8.726646E-01 +0.000000E+00     +9.599311E-01 +1.396263E+00 +0.000000E+00     +1.570796E+00 +8.726646E-02 +0.000000E+00     +3.577925E+00 +9.599311E-01 +0.000000E+00     +3.665191E+00 +1.134464E+00 +0.000000E+00    
 +3.839724E+00 +9.599311E-01 +0.000000E+00     +5.846853E+00 +8.726646E-01 +0.000000E+00     +5.323254E+00 +4.363323E-01 +0.000000E+00     +1.047198E+00 +8.726646E-02 +0.000000E+00     +5.061455E+00 +1.570796E+00 +0.000000E+00     +4.014257E+00 +3.490659E-01 +0.000000E+00     +4.188790E+00 +1.483530E+00 +0.000000E+00    
 +2.356194E+00 +1.221730E+00 +0.000000E+00     +1.745329E+00 +7.853982E-01 +0.000000E+00     +4.625123E+00 +1.047198E+00 +0.000000E+00     +5.323254E+00 +5.235988E-01 +0.000000E+00     +3.054326E+00 +3.490659E-01 +0.000000E+00     +2.268928E+00 +4.363323E-01 +0.000000E+00     +3.316126E+00 +1.221730E+00 +0.000000E+00    
 +4.974188E+00 +8.726646E-02 +0.000000E+00     +1.134464E+00 +2.617994E-01 +0.000000E+00     +4.363323E-01 +8.726646E-02 +0.000000E+00     +1.221730E+00 +7.853982E-01 +0.000000E+00     +5.497787E+00 +1.047198E+00 +0.000000E+00     +5.148721E+00 +1.483530E+00 +0.000000E+00     +6.108652E-01 +3.490659E-01 +0.000000E+00    
 +3.752458E+00 +1.308997E+00 +0.000000E+00     +2.617994E-01 +2.617994E-01 +0.000000E+00     +3.403392E+00 +1.570796E+00 +0.000000E+00     +4.363323E+00 +6.108652E-01 +0.000000E+00     +4.363323E+00 +4.363323E-01 +0.000000E+00     +5.323254E+00 +1.745329E-01 +0.000000E+00     +3.316126E+00 +1.396263E+00 +0.000000E+00    
 +1.745329E+00 +1.396263E+00 +0.000000E+00     +8.726646E-01 +8.726646E-01 +0.000000E+00     +2.268928E+00 +1.308997E+00 +0.000000E+00     +3.054326E+00 +1.396263E+00 +0.000000E+00     +1.047198E+00 +5.235988E-01 +0.000000E+00     +2.967060E+00 +8.726646E-01 +0.000000E+00     +2.705260E+00 +1.221730E+00 +0.000000E+00    
 +1.919862E+00 +7.853982E-01 +0.000000E+00     +3.403392E+00 +3.490659E-01 +0.000000E+00     +4.799655E+00 +8.726646E-02 +0.000000E+00     +3.839724E+00 +1.308997E+00 +0.000000E+00     +5.410521E+00 +6.981317E-01 +0.000000E+00     +3.490659E-01 +8.726646E-02 +0.000000E+00     +2.705260E+00 +3.490659E-01 +0.000000E+00    
 +4.101524E+00 +1.570796E+00 +0.000000E+00     +2.967060E+00 +6.981317E-01 +0.000000E+00     +4.712389E+00 +4.363323E-01 +0.000000E+00     +5.846853E+00 +6.981317E-01 +0.000000E+00     +1.396263E+00 +4.363323E-01 +0.000000E+00     +4.363323E-01 +1.570796E+00 +0.000000E+00     +4.450590E+00 +8.726646E-01 +0.000000E+00    
 +2.792527E+00 +3.490659E-01 +0.000000E+00     +4.712389E+00 +8.726646E-01 +0.000000E+00     +1.658063E+00 +1.047198E+00 +0.000000E+00     +2.094395E+00 +8.726646E-02 +0.000000E+00     +2.094395E+00 +6.108652E-01 +0.000000E+00     +5.410521E+00 +1.221730E+00 +0.000000E+00     +3.141593E+00 +1.308997E+00 +0.000000E+00    
 +2.530727E+00 +1.483530E+00 +0.000000E+00     +1.570796E+00 +5.235988E-01 +0.000000E+00     +3.752458E+00 +1.570796E+00 +0.000000E+00     +3.403392E+00 +1.308997E+00 +0.000000E+00     +4.450590E+00 +1.047198E+00 +0.000000E+00     +2.007129E+00 +8.726646E-02 +0.000000E+00     +3.839724E+00 +1.047198E+00 +0.000000E+00    
 +5.235988E-01 +7.853982E-01 +0.000000E+00     +1.658063E+00 +1.134464E+00 +0.000000E+00     +2.879793E+00 +1.483530E+00 +0.000000E+00     +1.483530E+00 +1.745329E-01 +0.000000E+00     +1.745329E+00 +1.308997E+00 +0.000000E+00     +5.672320E+00 +1.308997E+00 +0.000000E+00     +2.967060E+00 +1.570796E+00 +0.000000E+00    
 +5.323254E+00 +1.134464E+00 +0.000000E+00     +2.181662E+00 +8.726646E-02 +0.000000E+00     +1.658063E+00 +1.047198E+00 +0.000000E+00     +7.853982E-01 +9.599311E-01 +0.000000E+00     +1.745329E-01 +3.490659E-01 +0.000000E+00     +3.577925E+00 +1.308997E+00 +0.000000E+00     +5.410521E+00 +6.981317E-01 +0.000000E+00    
 +1.832596E+00 +1.570796E+00 +0.000000E+00     +5.235988E+00 +3.490659E-01 +0.000000E+00     +2.617994E-01 +1.396263E+00 +0.000000E+00     +1.221730E+00 +8.726646E-02 +0.000000E+00     +1.745329E+00 +2.617994E-01 +0.000000E+00     +1.832596E+00 +1.308997E+00 +0.000000E+00     +3.839724E+00 +6.108652E-01 +0.000000E+00    
 +1.745329E-01 +5.235988E-01 +0.000000E+00     +2.617994E+00 +2.617994E-01 +0.000000E+00     +3.141593E+00 +1.047198E+00 +0.000000E+00     +4.188790E+00 +1.134464E+00 +0.000000E+00     +4.974188E+00 +1.396263E+00 +0.000000E+00     +1.396263E+00 +1.570796E+00 +0.000000E+00     +5.061455E+00 +8.726646E-02 +0.000000E+00    
 +5.934119E+00 +2.617994E-01 +0.000000E+00     +4.712389E+00 +7.853982E-01 +0.000000E+00     +5.235988E+00 +3.490659E-01 +0.000000E+00     +1.047198E+00 +2.617994E-01 +0.000000E+00     +3.316126E+00 +1.047198E+00 +0.000000E+00     +1.919862E+00 +2.617994E-01 +0.000000E+00     +1.745329E+00 +1.745329E-01 +0.000000E+00    
 +5.148721E+00 +1.221730E+00 +0.000000E+00     +2.094395E+00 +1.221730E+00 +0.000000E+00     +1.919862E+00 +2.617994E-01 +0.000000E+00     +5.323254E+00 +5.235988E-01 +0.000000E+00     +5.061455E+00 +8.726646E-02 +0.000000E+00     +1.570796E+00 +8.726646E-01 +0.000000E+00     +1.047198E+00 +1.483530E+00 +0.000000E+00    
 +3.839724E+00 +1.745329E-01 +0.000000E+00     +5.061455E+00 +1.745329E-01 +0.000000E+00     +1.396263E+00 +7.853982E-01 +0.000000E+00     +1.919862E+00 +1.570796E+00 +0.000000E+00     +6.981317E-01 +8.726646E-01 +0.000000E+00     +2.443461E+00 +2.617994E-01 +0.000000E+00     +2.268928E+00 +8.726646E-02 +0.000000E+00    
 +1.308997E+00 +1.221730E+00 +0.000000E+00     +2.443461E+00 +3.490659E-01 +0.000000E+00     +5.323254E+00 +2.617994E-01 +0.000000E+00     +2.530727E+00 +7.853982E-01 +0.000000E+00     +5.585054E+00 +1.134464E+00 +0.000000E+00     +1.396263E+00 +1.483530E+00 +0.000000E+00     +8.726646E-01 +1.396263E+00 +0.000000E+00    
 +4.625123E+00 +1.047198E+00 +0.000000E+00     +1.396263E+00 +1.134464E+00 +0.000000E+00     +5.497787E+00 +6.981317E-01 +0.000000E+00     +1.221730E+00 +6.981317E-01 +0.000000E+00     +6.195919E+00 +3.490659E-01 +0.000000E+00     +2.879793E+00 +1.570796E+00 +0.000000E+00     +4.363323E+00 +8.726646E-02 +0.000000E+00    
 +9.599311E-01 +6.108652E-01 +0.000000E+00     +7.853982E-01 +5.235988E-01 +0.000000E+00     +6.195919E+00 +5.235988E-01 +0.000000E+00     +6.021386E+00 +1.483530E+00 +0.000000E+00     +2.617994E-01 +3.490659E-01 +0.000000E+00     +4.276057E+00 +2.617994E-01 +0.000000E+00     +2.705260E+00 +7.853982E-01 +0.000000E+00    
 +2.617994E-01 +1.221730E+00 +0.000000E+00     +3.839724E+00 +1.745329E-01 +0.000000E+00     +2.967060E+00 +1.308997E+00 +0.000000E+00     +1.047198E+00 +6.981317E-01 +0.000000E+00     +4.188790E+00 +6.108652E-01 +0.000000E+00     +2.792527E+00 +1.483530E+00 +0.000000E+00     +5.235988E+00 +1.570796E+00 +0.000000E+00    
 +5.235988E+00 +1.570796E+00 +0.000000E+00     +1.658063E+00 +1.308997E+00 +0.000000E+00     +3.839724E+00 +9.599311E-01 +0.000000E+00     +8.726646E-01 +8.726646E-01 +0.000000E+00     +1.745329E-01 +1.047198E+00 +0.000000E+00     +4.537856E+00 +4.363323E-01 +0.000000E+00     +4.363323E+00 +5.235988E-01 +0.000000E+00    
 +4.276057E+00 +1.134464E+00 +0.000000E+00     +6.108652E-01 +8.726646E-01 +0.000000E+00     +6.108652E+00 +1.745329E-01 +0.000000E+00     +6.195919E+00 +1.221730E+00 +0.000000E+00     +4.799655E+00 +4.363323E-01 +0.000000E+00     +4.625123E+00 +8.726646E-01 +0.000000E+00     +5.323254E+00 +1.483530E+00 +0.000000E+00    
 +6.108652E-01 +8.726646E-02 +0.000000E+00     +2.617994E+00 +1.396263E+00 +0.000000E+00     +6.195919E+00 +8.726646E-01 +0.000000E+00     +8.726646E-01 +7.853982E-01 +0.000000E+00     +2.705260E+00 +1.221730E+00 +0.000000E+00     +5.846853E+00 +8.726646E-02 +0.000000E+00     +2.792527E+00 +7.853982E-01 +0.000000E+00    
 +5.846853E+00 +7.853982E-01 +0.000000E+00     +3.054326E+00 +8.726646E-02 +0.000000E+00     +2.181662E+00 +4.363323E-01 +0.000000E+00     +5.759587E+00 +6.981317E-01 +0.000000E+00     +4.363323E-01 +1.570796E+00 +0.000000E+00     +1.832596E+00 +3.490659E-01 +0.000000E+00     +1.745329E-01 +9.599311E-01 +0.000000E+00    
 +2.181662E+00 +6.108652E-01 +0.000000E+00     +1.919862E+00 +2.617994E-01 +0.000000E+00     +6.195919E+00 +1.745329E-01 +0.000000E+00     +1.832596E+00 +1.221730E+00 +0.000000E+00     +4.188790E+00 +4.363323E-01 +0.000000E+00     +5.672320E+00 +6.108652E-01 +0.000000E+00     +4.625123E+00 +7.853982E-01 +0.000000E+00    
 +5.323254E+00 +6.981317E-01 +0.000000E+00     +2.181662E+00 +2.617994E-01 +0.000000E+00     +4.712389E+00 +1.745329E-01 +0.000000E+00     +3.228859E+00 +8.726646E-02 +0.000000E+00     +3.839724E+00 +6.108652E-01 +0.000000E+00     +4.886922E+00 +6.108652E-01 +0.000000E+00     +1.745329E-01 +1.221730E+00 +0.000000E+00    
 +5.148721E+00 +4.363323E-01 +0.000000E+00     +2.879793E+00 +3.490659E-01 +0.000000E+00     +7.853982E-01 +4.363323E-01 +0.000000E+00     +2.792527E+00 +1.047198E+00 +0.000000E+00     +6.108652E-01 +1.134464E+00 +0.000000E+00     +3.490659E-01 +6.981317E-01 +0.000000E+00     +4.363323E-01 +2.617994E-01 +0.000000E+00    
 +3.316126E+00 +5.235988E-01 +0.000000E+00     +3.665191E+00 +8.726646E-01 +0.000000E+00     +1.047198E+00 +9.599311E-01 +0.000000E+00     +2.443461E+00 +1.047198E+00 +0.000000E+00     +3.228859E+00 +1.396263E+00 +0.000000E+00     +4.276057E+00 +1.047198E+00 +0.000000E+00     +5.235988E+00 +1.047198E+00 +0.000000E+00    
 +5.148721E+00 +2.617994E-01 +0.000000E+00     +1.134464E+00 +9.599311E-01 +0.000000E+00     +2.792527E+00 +4.363323E-01 +0.000000E+00     +6.981317E-01 +4.363323E-01 +0.000000E+00     +5.672320E+00 +6.981317E-01 +0.000000E+00     +3.752458E+00 +5.235988E-01 +0.000000E+00     +5.148721E+00 +1.047198E+00 +0.000000E+00    
 +3.054326E+00 +1.047198E+00 +0.000000E+00     +2.617994E-01 +7.853982E-01 +0.000000E+00     +5.235988E-01 +5.235988E-01 +0.000000E+00     +1.919862E+00 +4.363323E-01 +0.000000E+00     +5.585054E+00 +1.745329E-01 +0.000000E+00     +2.617994E+00 +2.617994E-01 +0.000000E+00     +3.665191E+00 +5.235988E-01 +0.000000E+00    
 +4.363323E-01 +2.617994E-01 +0.000000E+00     +4.276057E+00 +1.396263E+00 +0.000000E+00     +2.792527E+00 +6.108652E-01 +0.000000E+00     +8.726646E-01 +1.396263E+00 +0.000000E+00     +4.450590E+00 +9.599311E-01 +0.000000E+00     +4.974188E+00 +9.599311E-01 +0.000000E+00     +4.799655E+00 +1.483530E+00 +0.000000E+00    
 +3.403392E+00 +1.483530E+00 +0.000000E+00     +6.108652E-01 +1.221730E+00 +0.000000E+00     +1.396263E+00 +1.396263E+00 +0.000000E+00     +1.745329E-01 +6.108652E-01 +0.000000E+00     +3.926991E+00 +8.726646E-01 +0.000000E+00     +1.832596E+00 +1.047198E+00 +0.000000E+00     +2.617994E+00 +5.235988E-01 +0.000000E+00    
 +5.497787E+00 +3.490659E-01 +0.000000E+00     +2.268928E+00 +1.483530E+00 +0.000000E+00     +6.108652E-01 +1.483530E+00 +0.000000E+00     +2.967060E+00 +1.134464E+00 +0.000000E+00     +5.148721E+00 +5.235988E-01 +0.000000E+00     +2.007129E+00 +1.570796E+00 +0.000000E+00     +4.712389E+00 +9.599311E-01 +0.000000E+00    
 +1.308997E+00 +3.490659E-01 +0.000000E+00     +5.672320E+00 +6.108652E-01 +0.000000E+00     +4.799655E+00 +8.726646E-02 +0.000000E+00     +4.363323E-01 +6.108652E-01 +0.000000E+00     +2.967060E+00 +1.221730E+00 +0.000000E+00     +3.054326E+00 +1.047198E+00 +0.000000E+00     +1.134464E+00 +7.853982E-01 +0.000000E+00    
 +1.483530E+00 +8.726646E-01 +0.000000E+00     +4.188790E+00 +9.599311E-01 +0.000000E+00     +6.195919E+00 +4.363323E-01 +0.000000E+00     +8.726646E-02 +4.363323E-01 +0.000000E+00     +4.363323E+00 +6.981317E-01 +0.000000E+00     +5.323254E+00 +7.853982E-01 +0.000000E+00     +4.101524E+00 +1.134464E+00 +0.000000E+00    
 +2.617994E+00 +6.108652E-01 +0.000000E+00     +1.570796E+00 +8.726646E-01 +0.000000E+00     +1.308997E+00 +8.726646E-02 +0.000000E+00     +4.712389E+00 +4.363323E-01 +0.000000E+00     +3.403392E+00 +1.570796E+00 +0.000000E+00     +5.846853E+00 +8.726646E-01 +0.000000E+00     +5.585054E+00 +8.726646E-02 +0.000000E+00    
 +1.483530E+00 +9.599311E-01 +0.000000E+00     +3.228859E+00 +7.853982E-01 +0.000000E+00     +6.981317E-01 +6.108652E-01 +0.000000E+00     +1.745329E-01 +1.308997E+00 +0.000000E+00     +6.021386E+00 +1.221730E+00 +0.000000E+00     +6.021386E+00 +8.726646E-02 +0.000000E+00     +4.625123E+00 +8.726646E-02 +0.000000E+00    
 +1.570796E+00 +3.490659E-01 +0.000000E+00     +4.363323E+00 +1.396263E+00 +0.000000E+00     +8.726646E-01 +2.617994E-01 +0.000000E+00     +1.047198E+00 +4.363323E-01 +0.000000E+00     +5.672320E+00 +4.363323E-01 +0.000000E+00     +4.276057E+00 +7.853982E-01 +0.000000E+00     +5.672320E+00 +1.396263E+00 +0.000000E+00    
 +4.014257E+00 +1.396263E+00 +0.000000E+00     +2.792527E+00 +7.853982E-01 +0.000000E+00     +4.974188E+00 +1.483530E+00 +0.000000E+00     +4.974188E+00 +1.221730E+00 +0.000000E+00     +1.396263E+00 +7.853982E-01 +0.000000E+00     +4.188790E+00 +6.108652E-01 +0.000000E+00     +3.490659E+00 +2.617994E-01 +0.000000E+00    
 +5.148721E+00 +3.490659E-01 +0.000000E+00     +4.799655E+00 +4.363323E-01 +0.000000E+00     +5.497787E+00 +2.617994E-01 +0.000000E+00     +2.705260E+00 +1.308997E+00 +0.000000E+00     +6.283185E+00 +8.726646E-02 +0.000000E+00     +2.268928E+00 +2.617994E-01 +0.000000E+00     +4.712389E+00 +1.221730E+00 +0.000000E+00    
 +5.323254E+00 +1.570796E+00 +0.000000E+00     +5.235988E-01 +1.396263E+00 +0.000000E+00     +3.228859E+00 +2.617994E-01 +0.000000E+00     +2.181662E+00 +1.570796E+00 +0.000000E+00     +2.705260E+00 +7.853982E-01 +0.000000E+00     +2.967060E+00 +6.108652E-01 +0.000000E+00     +2.443461E+00 +8.726646E-02 +0.000000E+00    
 +1.745329E+00 +8.726646E-01 +0.000000E+00     +2.705260E+00 +1.396263E+00 +0.000000E+00     +4.188790E+00 +3.490659E-01 +0.000000E+00     +1.308997E+00 +5.235988E-01 +0.000000E+00     +2.094395E+00 +1.221730E+00 +0.000000E+00     +2.792527E+00 +1.308997E+00 +0.000000E+00     +5.846853E+00 +1.134464E+00 +0.000000E+00    
 +2.617994E-01 +1.047198E+00 +0.000000E+00     +1.745329E-01 +8.726646E-01 +0.000000E+00     +3.490659E-01 +8.726646E-01 +0.000000E+00     +4.712389E+00 +1.047198E+00 +0.000000E+00     +5.410521E+00 +1.570796E+00 +0.000000E+00     +8.726646E-02 +6.108652E-01 +0.000000E+00     +5.061455E+00 +3.490659E-01 +0.000000E+00    
 +2.705260E+00 +9.599311E-01 +0.000000E+00     +4.625123E+00 +6.108652E-01 +0.000000E+00     +2.967060E+00 +8.726646E-02 +0.000000E+00     +6.021386E+00 +8.726646E-02 +0.000000E+00     +1.919862E+00 +1.221730E+00 +0.000000E+00     +3.054326E+00 +1.221730E+00 +0.000000E+00     +1.570796E+00 +1.221730E+00 +0.000000E+00    
 +2.268928E+00 +6.981317E-01 +0.000000E+00     +4.188790E+00 +1.396263E+00 +0.000000E+00     +3.577925E+00 +1.570796E+00 +0.000000E+00     +4.450590E+00 +4.363323E-01 +0.000000E+00     +1.832596E+00 +7.853982E-01 +0.000000E+00     +5.323254E+00 +1.047198E+00 +0.000000E+00     +3.490659E-01 +2.617994E-01 +0.000000E+00    
 +3.228859E+00 +1.308997E+00 +0.000000E+00     +3.490659E+00 +1.047198E+00 +0.000000E+00     +4.886922E+00 +1.570796E+00 +0.000000E+00     +3.665191E+00 +1.308997E+00 +0.000000E+00     +4.537856E+00 +1.745329E-01 +0.000000E+00     +4.886922E+00 +1.308997E+00 +0.000000E+00     +2.879793E+00 +3.490659E-01 +0.000000E+00    
 +8.726646E-02 +1.745329E-01 +0.000000E+00     +1.658063E+00 +1.396263E+00 +0.000000E+00     +2.705260E+00 +9.599311E-01 +0.000000E+00     +1.396263E+00 +3.490659E-01 +0.000000E+00     +7.853982E-01 +1.745329E-01 +0.000000E+00     +5.585054E+00 +7.853982E-01 +0.000000E+00     +1.832596E+00 +8.726646E-01 +0.000000E+00    
 +3.839724E+00 +8.726646E-02 +0.000000E+00     +6.021386E+00 +4.363323E-01 +0.000000E+00     +5.846853E+00 +8.726646E-02 +0.000000E+00     +4.537856E+00 +8.726646E-02 +0.000000E+00     +2.443461E+00 +1.745329E-01 +0.000000E+00     +4.625123E+00 +6.108652E-01 +0.000000E+00     +3.490659E-01 +1.308997E+00 +0.000000E+00    
 +4.363323E-01 +1.308997E+00 +0.000000E+00     +5.235988E-01 +1.570796E+00 +0.000000E+00     +6.195919E+00 +1.221730E+00 +0.000000E+00     +4.537856E+00 +6.108652E-01 +0.000000E+00     +1.745329E-01 +1.483530E+00 +0.000000E+00     +4.799655E+00 +5.235988E-01 +0.000000E+00     +6.195919E+00 +1.570796E+00 +0.000000E+00    
 +2.356194E+00 +5.235988E-01 +0.000000E+00     +3.665191E+00 +1.745329E-01 +0.000000E+00     +3.490659E+00 +2.617994E-01 +0.000000E+00     +8.726646E-01 +8.726646E-01 +0.000000E+00     +4.712389E+00 +9.599311E-01 +0.000000E+00     +6.981317E-01 +1.134464E+00 +0.000000E+00     +3.316126E+00 +9.599311E-01 +0.000000E+00    
 +6.195919E+00 +1.483530E+00 +0.000000E+00     +4.101524E+00 +1.308997E+00 +0.000000E+00     +4.276057E+00 +5.235988E-01 +0.000000E+00     +5.410521E+00 +6.108652E-01 +0.000000E+00     +6.021386E+00 +1.570796E+00 +0.000000E+00     +3.490659E+00 +5.235988E-01 +0.000000E+00     +3.752458E+00 +1.134464E+00 +0.000000E+00    
 +1.396263E+00 +8.726646E-02 +0.000000E+00     +1.919862E+00 +1.047198E+00 +0.000000E+00     +1.832596E+00 +1.396263E+00 +0.000000E+00     +2.181662E+00 +2.617994E-01 +0.000000E+00     +8.726646E-01 +5.235988E-01 +0.000000E+00     +3.490659E+00 +1.396263E+00 +0.000000E+00     +5.061455E+00 +6.108652E-01 +0.000000E+00    
 +1.047198E+00 +1.308997E+00 +0.000000E+00     +5.410521E+00 +6.981317E-01 +0.000000E+00     +2.617994E-01 +6.981317E-01 +0.000000E+00     +2.094395E+00 +5.235988E-01 +0.000000E+00     +5.585054E+00 +8.726646E-02 +0.000000E+00     +5.235988E-01 +1.396263E+00 +0.000000E+00     +1.483530E+00 +2.617994E-01 +0.000000E+00    
 +1.832596E+00 +8.726646E-02 +0.000000E+00     +6.108652E-01 +8.726646E-02 +0.000000E+00     +3.228859E+00 +8.726646E-01 +0.000000E+00     +5.061455E+00 +8.726646E-01 +0.000000E+00     +2.530727E+00 +1.396263E+00 +0.000000E+00     +4.363323E+00 +1.221730E+00 +0.000000E+00     +3.665191E+00 +3.490659E-01 +0.000000E+00    
 +5.061455E+00 +1.308997E+00 +0.000000E+00     +3.577925E+00 +1.745329E-01 +0.000000E+00     +5.235988E+00 +1.134464E+00 +0.000000E+00     +4.363323E+00 +7.853982E-01 +0.000000E+00     +1.745329E-01 +1.047198E+00 +0.000000E+00     +5.672320E+00 +1.745329E-01 +0.000000E+00     +4.886922E+00 +5.235988E-01 +0.000000E+00    
 +3.839724E+00 +9.599311E-01 +0.000000E+00     +4.363323E-01 +4.363323E-01 +0.000000E+00     +1.308997E+00 +1.221730E+00 +0.000000E+00     +3.490659E+00 +6.981317E-01 +0.000000E+00     +1.832596E+00 +1.047198E+00 +0.000000E+00     +1.483530E+00 +1.396263E+00 +0.000000E+00     +1.396263E+00 +1.221730E+00 +0.000000E+00    
 +2.617994E-01 +8.726646E-01 +0.000000E+00     +4.014257E+00 +6.108652E-01 +0.000000E+00     +1.483530E+00 +1.134464E+00 +0.000000E+00     +1.919862E+00 +8.726646E-01 +0.000000E+00     +1.832596E+00 +8.726646E-01 +0.000000E+00     +4.363323E-01 +5.235988E-01 +0.000000E+00     +4.188790E+00 +9.599311E-01 +0.000000E+00    
 +1.308997E+00 +2.617994E-01 +0.000000E+00     +3.665191E+00 +1.308997E+00 +0.000000E+00     +4.625123E+00 +5.235988E-01 +0.000000E+00     +6.108652E-01 +6.108652E-01 +0.000000E+00     +1.832596E+00 +1.396263E+00 +0.000000E+00     +5.148721E+00 +7.853982E-01 +0.000000E+00     +2.617994E-01 +1.221730E+00 +0.000000E+00    
 +1.134464E+00 +9.599311E-01 +0.000000E+00     +5.672320E+00 +1.570796E+00 +0.000000E+00     +1.308997E+00 +1.308997E+00 +0.000000E+00     +2.792527E+00 +5.235988E-01 +0.000000E+00     +5.148721E+00 +6.108652E-01 +0.000000E+00     +1.396263E+00 +1.221730E+00 +0.000000E+00     +5.497787E+00 +1.483530E+00 +0.000000E+00    
 +2.530727E+00 +5.235988E-01 +0.000000E+00     +3.839724E+00 +4.363323E-01 +0.000000E+00     +3.577925E+00 +1.221730E+00 +0.000000E+00     +4.276057E+00 +1.308997E+00 +0.000000E+00     +6.981317E-01 +7.853982E-01 +0.000000E+00     +3.839724E+00 +1.570796E+00 +0.000000E+00     +5.585054E+00 +1.483530E+00 +0.000000E+00    
 +2.007129E+00 +1.308997E+00 +0.000000E+00     +1.396263E+00 +1.745329E-01 +0.000000E+00     +3.577925E+00 +1.745329E-01 +0.000000E+00     +2.967060E+00 +3.490659E-01 +0.000000E+00     +5.323254E+00 +7.853982E-01 +0.000000E+00     +2.792527E+00 +3.490659E-01 +0.000000E+00     +6.981317E-01 +1.396263E+00 +0.000000E+00    
 +1.221730E+00 +1.483530E+00 +0.000000E+00     +4.014257E+00 +1.396263E+00 +0.000000E+00     +5.759587E+00 +1.396263E+00 +0.000000E+00     +8.726646E-02 +4.363323E-01 +0.000000E+00     +5.497787E+00 +1.221730E+00 +0.000000E+00     +1.221730E+00 +5.235988E-01 +0.000000E+00     +5.934119E+00 +1.134464E+00 +0.000000E+00    
 +3.403392E+00 +1.047198E+00 +0.000000E+00     +4.276057E+00 +9.599311E-01 +0.000000E+00     +2.094395E+00 +1.047198E+00 +0.000000E+00     +6.283185E+00 +1.396263E+00 +0.000000E+00     +8.726646E-02 +1.047198E+00 +0.000000E+00     +2.530727E+00 +3.490659E-01 +0.000000E+00     +4.537856E+00 +1.134464E+00 +0.000000E+00    
 +5.235988E-01 +3.490659E-01 +0.000000E+00     +2.443461E+00 +6.108652E-01 +0.000000E+00     +3.577925E+00 +1.483530E+00 +0.000000E+00     +2.181662E+00 +8.726646E-01 +0.000000E+00     +2.356194E+00 +1.308997E+00 +0.000000E+00     +1.134464E+00 +2.617994E-01 +0.000000E+00     +4.014257E+00 +1.570796E+00 +0.000000E+00    
 +1.658063E+00 +6.108652E-01 +0.000000E+00     +2.530727E+00 +1.134464E+00 +0.000000E+00     +1.570796E+00 +1.134464E+00 +0.000000E+00     +1.134464E+00 +5.235988E-01 +0.000000E+00     +2.705260E+00 +7.853982E-01 +0.000000E+00     +3.490659E-01 +6.981317E-01 +0.000000E+00     +6.195919E+00 +5.235988E-01 +0.000000E+00    
 +4.537856E+00 +1.047198E+00 +0.000000E+00     +1.570796E+00 +8.726646E-02 +0.000000E+00     +8.726646E-01 +6.108652E-01 +0.000000E+00     +3.054326E+00 +1.047198E+00 +0.000000E+00     +1.308997E+00 +3.490659E-01 +0.000000E+00     +2.617994E+00 +1.308997E+00 +0.000000E+00     +3.665191E+00 +1.483530E+00 +0.000000E+00    
 +4.276057E+00 +1.570796E+00 +0.000000E+00     +4.886922E+00 +1.047198E+00 +0.000000E+00     +4.014257E+00 +1.221730E+00 +0.000000E+00     +4.537856E+00 +8.726646E-02 +0.000000E+00     +4.450590E+00 +9.599311E-01 +0.000000E+00     +8.726646E-02 +1.308997E+00 +0.000000E+00     +3.926991E+00 +1.047198E+00 +0.000000E+00    
 +2.094395E+00 +1.396263E+00 +0.000000E+00     +1.658063E+00 +1.570796E+00 +0.000000E+00     +9.599311E-01 +9.599311E-01 +0.000000E+00     +5.061455E+00 +1.483530E+00 +0.000000E+00     +6.981317E-01 +7.853982E-01 +0.000000E+00     +4.799655E+00 +1.745329E-01 +0.000000E+00     +5.759587E+00 +7.853982E-01 +0.000000E+00    
 +2.268928E+00 +3.490659E-01 +0.000000E+00     +2.617994E+00 +1.047198E+00 +0.000000E+00     +2.530727E+00 +9.599311E-01 +0.000000E+00     +3.316126E+00 +7.853982E-01 +0.000000E+00     +4.625123E+00 +6.981317E-01 +0.000000E+00     +4.363323E+00 +1.134464E+00 +0.000000E+00     +3.839724E+00 +1.570796E+00 +0.000000E+00    
 +2.792527E+00 +1.308997E+00 +0.000000E+00     +3.926991E+00 +1.047198E+00 +0.000000E+00     +2.007129E+00 +3.490659E-01 +0.000000E+00     +6.108652E-01 +1.134464E+00 +0.000000E+00     +4.101524E+00 +1.745329E-01 +0.000000E+00     +3.752458E+00 +2.617994E-01 +0.000000E+00     +2.268928E+00 +1.396263E+00 +0.000000E+00    
 +1.134464E+00 +7.853982E-01 +0.000000E+00     +5.410521E+00 +1.570796E+00 +0.000000E+00     +3.839724E+00 +1.047198E+00 +0.000000E+00     +1.832596E+00 +2.617994E-01 +0.000000E+00     +2.617994E+00 +1.483530E+00 +0.000000E+00     +3.752458E+00 +7.853982E-01 +0.000000E+00     +6.283185E+00 +2.617994E-01 +0.000000E+00    
 +4.014257E+00 +1.396263E+00 +0.000000E+00     +8.726646E-02 +1.047198E+00 +0.000000E+00     +3.316126E+00 +2.617994E-01 +0.000000E+00     +1.745329E-01 +4.363323E-01 +0.000000E+00     +5.235988E+00 +1.396263E+00 +0.000000E+00     +2.530727E+00 +6.981317E-01 +0.000000E+00     +4.363323E-01 +8.726646E-01 +0.000000E+00    
 +4.712389E+00 +1.047198E+00 +0.000000E+00     +2.617994E+00 +1.047198E+00 +0.000000E+00     +5.148721E+00 +1.570796E+00 +0.000000E+00     +4.974188E+00 +1.134464E+00 +0.000000E+00     +2.967060E+00 +4.363323E-01 +0.000000E+00     +6.981317E-01 +5.235988E-01 +0.000000E+00     +2.443461E+00 +3.490659E-01 +0.000000E+00    
 +1.047198E+00 +1.745329E-01 +0.000000E+00     +5.235988E+00 +1.483530E+00 +0.000000E+00     +4.974188E+00 +1.745329E-01 +0.000000E+00     +5.672320E+00 +9.599311E-01 +0.000000E+00     +1.745329E+00 +1.308997E+00 +0.000000E+00     +4.450590E+00 +1.745329E-01 +0.000000E+00     +4.625123E+00 +1.047198E+00 +0.000000E+00    
 +2.879793E+00 +8.726646E-01 +0.000000E+00     +4.886922E+00 +1.134464E+00 +0.000000E+00     +3.141593E+00 +8.726646E-01 +0.000000E+00     +2.879793E+00 +5.235988E-01 +0.000000E+00     +1.745329E+00 +8.726646E-02 +0.000000E+00     +3.752458E+00 +1.308997E+00 +0.000000E+00     +4.101524E+00 +1.134464E+00 +0.000000E+00    
 +3.577925E+00 +1.221730E+00 +0.000000E+00     +5.410521E+00 +1.396263E+00 +0.000000E+00     +3.403392E+00 +9.599311E-01 +0.000000E+00     +6.108652E-01 +1.221730E+00 +0.000000E+00     +5.323254E+00 +1.134464E+00 +0.000000E+00     +1.134464E+00 +1.134464E+00 +0.000000E+00     +6.021386E+00 +1.570796E+00 +0.000000E+00    
 +4.450590E+00 +9.599311E-01 +0.000000E+00     +2.443461E+00 +1.396263E+00 +0.000000E+00     +5.759587E+00 +6.108652E-01 +0.000000E+00     +9.599311E-01 +2.617994E-01 +0.000000E+00     +6.021386E+00 +1.745329E-01 +0.000000E+00     +5.934119E+00 +8.726646E-02 +0.000000E+00     +2.705260E+00 +2.617994E-01 +0.000000E+00    
 +3.054326E+00 +9.599311E-01 +0.000000E+00     +3.228859E+00 +7.853982E-01 +0.000000E+00     +4.886922E+00 +9.599311E-01 +0.000000E+00     +4.014257E+00 +1.483530E+00 +0.000000E+00     +6.108652E+00 +1.221730E+00 +0.000000E+00     +3.054326E+00 +6.108652E-01 +0.000000E+00     +3.316126E+00 +9.599311E-01 +0.000000E+00    
 +2.007129E+00 +1.745329E-01 +0.000000E+00     +3.490659E-01 +8.726646E-01 +0.000000E+00     +5.061455E+00 +9.599311E-01 +0.000000E+00     +3.926991E+00 +4.363323E-01 +0.000000E+00     +5.410521E+00 +1.221730E+00 +0.000000E+00     +3.665191E+00 +8.726646E-02 +0.000000E+00     +6.981317E-01 +1.308997E+00 +0.000000E+00    
 +2.617994E-01 +1.134464E+00 +0.000000E+00     +9.599311E-01 +2.617994E-01 +0.000000E+00     +5.672320E+00 +3.490659E-01 +0.000000E+00     +2.443461E+00 +8.726646E-02 +0.000000E+00     +2.792527E+00 +3.490659E-01 +0.000000E+00     +5.235988E-01 +8.726646E-02 +0.000000E+00     +5.148721E+00 +2.617994E-01 +0.000000E+00    
 +5.148721E+00 +1.308997E+00 +0.000000E+00     +4.974188E+00 +8.726646E-02 +0.000000E+00     +2.792527E+00 +1.134464E+00 +0.000000E+00     +5.410521E+00 +8.726646E-02 +0.000000E+00     +1.047198E+00 +1.308997E+00 +0.000000E+00     +5.061455E+00 +1.221730E+00 +0.000000E+00     +5.235988E+00 +1.745329E-01 +0.000000E+00    
 +1.745329E-01 +1.047198E+00 +0.000000E+00     +3.490659E+00 +9.599311E-01 +0.000000E+00     +2.268928E+00 +6.108652E-01 +0.000000E+00     +4.799655E+00 +1.221730E+00 +0.000000E+00     +1.832596E+00 +6.981317E-01 +0.000000E+00     +5.585054E+00 +6.981317E-01 +0.000000E+00     +2.617994E+00 +1.745329E-01 +0.000000E+00    
 +2.879793E+00 +7.853982E-01 +0.000000E+00     +5.235988E-01 +6.108652E-01 +0.000000E+00     +4.188790E+00 +9.599311E-01 +0.000000E+00     +5.148721E+00 +1.745329E-01 +0.000000E+00     +2.879793E+00 +4.363323E-01 +0.000000E+00     +4.712389E+00 +6.981317E-01 +0.000000E+00     +5.235988E+00 +1.570796E+00 +0.000000E+00    
 +4.276057E+00 +1.570796E+00 +0.000000E+00     +8.726646E-01 +2.617994E-01 +0.000000E+00     +4.101524E+00 +6.981317E-01 +0.000000E+00     +5.061455E+00 +3.490659E-01 +0.000000E+00     +6.108652E-01 +7.853982E-01 +0.000000E+00     +6.108652E-01 +8.726646E-01 +0.000000E+00     +2.443461E+00 +9.599311E-01 +0.000000E+00    
 +5.235988E+00 +1.483530E+00 +0.000000E+00     +2.094395E+00 +1.396263E+00 +0.000000E+00     +3.228859E+00 +4.363323E-01 +0.000000E+00     +5.410521E+00 +1.134464E+00 +0.000000E+00     +4.188790E+00 +7.853982E-01 +0.000000E+00     +4.974188E+00 +1.396263E+00 +0.000000E+00     +8.726646E-01 +8.726646E-02 +0.000000E+00    
 +3.926991E+00 +6.108652E-01 +0.000000E+00     +7.853982E-01 +4.363323E-01 +0.000000E+00     +2.967060E+00 +1.570796E+00 +0.000000E+00     +7.853982E-01 +1.396263E+00 +0.000000E+00     +5.672320E+00 +4.363323E-01 +0.000000E+00     +1.221730E+00 +6.981317E-01 +0.000000E+00     +8.726646E-01 +1.483530E+00 +0.000000E+00    
 +6.108652E+00 +5.235988E-01 +0.000000E+00     +2.879793E+00 +1.047198E+00 +0.000000E+00     +8.726646E-02 +3.490659E-01 +0.000000E+00     +2.268928E+00 +1.396263E+00 +0.000000E+00     +5.759587E+00 +4.363323E-01 +0.000000E+00     +2.879793E+00 +1.047198E+00 +0.000000E+00     +5.934119E+00 +8.726646E-02 +0.000000E+00    
 +5.672320E+00 +1.570796E+00 +0.000000E+00     +4.974188E+00 +3.490659E-01 +0.000000E+00     +1.483530E+00 +7.853982E-01 +0.000000E+00     +5.497787E+00 +4.363323E-01 +0.000000E+00     +3.403392E+00 +1.047198E+00 +0.000000E+00     +6.108652E+00 +6.981317E-01 +0.000000E+00     +1.308997E+00 +1.221730E+00 +0.000000E+00    
 +6.108652E+00 +5.235988E-01 +0.000000E+00     +4.188790E+00 +7.853982E-01 +0.000000E+00     +5.585054E+00 +8.726646E-02 +0.000000E+00     +3.926991E+00 +1.134464E+00 +0.000000E+00     +2.443461E+00 +8.726646E-02 +0.000000E+00     +1.221730E+00 +7.853982E-01 +0.000000E+00     +5.846853E+00 +9.599311E-01 +0.000000E+00    
 +5.410521E+00 +4.363323E-01 +0.000000E+00     +1.483530E+00 +3.490659E-01 +0.000000E+00     +3.054326E+00 +1.134464E+00 +0.000000E+00     +2.268928E+00 +1.134464E+00 +0.000000E+00     +6.195919E+00 +1.047198E+00 +0.000000E+00     +5.410521E+00 +4.363323E-01 +0.000000E+00     +5.759587E+00 +1.396263E+00 +0.000000E+00    
 +3.752458E+00 +1.134464E+00 +0.000000E+00     +1.483530E+00 +3.490659E-01 +0.000000E+00     +2.617994E-01 +6.108652E-01 +0.000000E+00     +2.268928E+00 +4.363323E-01 +0.000000E+00     +5.846853E+00 +8.726646E-01 +0.000000E+00     +1.832596E+00 +1.221730E+00 +0.000000E+00     +2.181662E+00 +1.570796E+00 +0.000000E+00    
 +5.323254E+00 +4.363323E-01 +0.000000E+00     +6.108652E-01 +6.108652E-01 +0.000000E+00     +4.014257E+00 +8.726646E-01 +0.000000E+00     +2.617994E-01 +1.483530E+00 +0.000000E+00     +1.919862E+00 +1.570796E+00 +0.000000E+00     +8.726646E-01 +8.726646E-02 +0.000000E+00     +5.235988E+00 +1.308997E+00 +0.000000E+00    
 +2.705260E+00 +1.221730E+00 +0.000000E+00     +1.396263E+00 +6.981317E-01 +0.000000E+00     +7.853982E-01 +2.617994E-01 +0.000000E+00     +2.007129E+00 +1.396263E+00 +0.000000E+00     +9.599311E-01 +8.726646E-02 +0.000000E+00     +4.363323E+00 +6.981317E-01 +0.000000E+00     +3.403392E+00 +8.726646E-01 +0.000000E+00    
 +4.188790E+00 +1.570796E+00 +0.000000E+00     +4.886922E+00 +9.599311E-01 +0.000000E+00     +2.181662E+00 +1.745329E-01 +0.000000E+00     +2.094395E+00 +1.396263E+00 +0.000000E+00     +3.228859E+00 +1.570796E+00 +0.000000E+00     +5.061455E+00 +6.981317E-01 +0.000000E+00     +6.195919E+00 +7.853982E-01 +0.000000E+00    
 +2.879793E+00 +7.853982E-01 +0.000000E+00     +6.283185E+00 +1.396263E+00 +0.000000E+00     +2.356194E+00 +1.047198E+00 +0.000000E+00     +2.530727E+00 +1.483530E+00 +0.000000E+00     +4.712389E+00 +8.726646E-02 +0.000000E+00     +1.483530E+00 +8.726646E-02 +0.000000E+00     +5.235988E-01 +5.235988E-01 +0.000000E+00    
 +5.410521E+00 +9.599311E-01 +0.000000E+00     +2.967060E+00 +1.221730E+00 +0.000000E+00     +4.276057E+00 +1.570796E+00 +0.000000E+00     +5.497787E+00 +1.221730E+00 +0.000000E+00     +5.585054E+00 +3.490659E-01 +0.000000E+00     +4.363323E+00 +9.599311E-01 +0.000000E+00     +1.745329E+00 +4.363323E-01 +0.000000E+00    
 +3.752458E+00 +6.108652E-01 +0.000000E+00     +5.061455E+00 +3.490659E-01 +0.000000E+00     +6.108652E+00 +6.981317E-01 +0.000000E+00     +2.617994E+00 +7.853982E-01 +0.000000E+00     +3.316126E+00 +6.981317E-01 +0.000000E+00     +3.665191E+00 +2.617994E-01 +0.000000E+00     +3.490659E-01 +2.617994E-01 +0.000000E+00    
 +6.283185E+00 +6.108652E-01 +0.000000E+00     +2.967060E+00 +1.483530E+00 +0.000000E+00     +3.926991E+00 +1.134464E+00 +0.000000E+00     +1.745329E-01 +7.853982E-01 +0.000000E+00     +3.228859E+00 +1.308997E+00 +0.000000E+00     +1.396263E+00 +6.108652E-01 +0.000000E+00     +5.410521E+00 +7.853982E-01 +0.000000E+00    
 +6.283185E+00 +1.308997E+00 +0.000000E+00     +5.148721E+00 +6.108652E-01 +0.000000E+00     +5.585054E+00 +4.363323E-01 +0.000000E+00     +1.308997E+00 +1.483530E+00 +0.000000E+00     +5.410521E+00 +3.490659E-01 +0.000000E+00     +4.712389E+00 +1.483530E+00 +0.000000E+00     +8.726646E-01 +3.490659E-01 +0.000000E+00    
 +5.235988E-01 +1.483530E+00 +0.000000E+00     +5.235988E-01 +8.726646E-01 +0.000000E+00     +1.570796E+00 +1.047198E+00 +0.000000E+00     +5.323254E+00 +8.726646E-01 +0.000000E+00     +4.712389E+00 +1.221730E+00 +0.000000E+00     +5.323254E+00 +1.221730E+00 +0.000000E+00     +5.410521E+00 +8.726646E-01 +0.000000E+00    
 +4.886922E+00 +5.235988E-01 +0.000000E+00     +4.014257E+00 +1.134464E+00 +0.000000E+00     +5.323254E+00 +3.490659E-01 +0.000000E+00     +4.712389E+00 +2.617994E-01 +0.000000E+00     +3.228859E+00 +6.981317E-01 +0.000000E+00     +4.363323E+00 +6.108652E-01 +0.000000E+00     +4.188790E+00 +8.726646E-02 +0.000000E+00    
 +2.967060E+00 +1.483530E+00 +0.000000E+00     +6.108652E-01 +1.221730E+00 +0.000000E+00     +2.530727E+00 +5.235988E-01 +0.000000E+00     +4.450590E+00 +5.235988E-01 +0.000000E+00     +2.617994E-01 +8.726646E-02 +0.000000E+00     +4.537856E+00 +1.308997E+00 +0.000000E+00     +2.879793E+00 +1.221730E+00 +0.000000E+00    
 +4.101524E+00 +1.745329E-01 +0.000000E+00     +3.490659E-01 +1.047198E+00 +0.000000E+00     +6.108652E-01 +5.235988E-01 +0.000000E+00     +6.108652E-01 +6.108652E-01 +0.000000E+00     +4.886922E+00 +1.570796E+00 +0.000000E+00     +1.570796E+00 +6.981317E-01 +0.000000E+00     +1.570796E+00 +8.726646E-02 +0.000000E+00    
 +4.276057E+00 +1.396263E+00 +0.000000E+00     +1.221730E+00 +6.981317E-01 +0.000000E+00     +3.839724E+00 +1.134464E+00 +0.000000E+00     +4.363323E-01 +1.483530E+00 +0.000000E+00     +5.846853E+00 +1.745329E-01 +0.000000E+00     +2.530727E+00 +7.853982E-01 +0.000000E+00     +5.061455E+00 +6.108652E-01 +0.000000E+00    
 +4.363323E-01 +5.235988E-01 +0.000000E+00     +6.108652E+00 +7.853982E-01 +0.000000E+00     +5.148721E+00 +9.599311E-01 +0.000000E+00     +4.974188E+00 +3.490659E-01 +0.000000E+00     +1.134464E+00 +3.490659E-01 +0.000000E+00     +2.617994E-01 +6.108652E-01 +0.000000E+00     +1.483530E+00 +2.617994E-01 +0.000000E+00    
 +7.853982E-01 +5.235988E-01 +0.000000E+00     +6.108652E-01 +1.047198E+00 +0.000000E+00     +3.228859E+00 +9.599311E-01 +0.000000E+00     +4.799655E+00 +1.570796E+00 +0.000000E+00     +3.228859E+00 +4.363323E-01 +0.000000E+00     +4.886922E+00 +4.363323E-01 +0.000000E+00     +3.926991E+00 +1.483530E+00 +0.000000E+00    
 +4.537856E+00 +1.047198E+00 +0.000000E+00     +3.403392E+00 +1.745329E-01 +0.000000E+00     +2.356194E+00 +6.108652E-01 +0.000000E+00     +1.919862E+00 +5.235988E-01 +0.000000E+00     +5.148721E+00 +5.235988E-01 +0.000000E+00     +8.726646E-01 +5.235988E-01 +0.000000E+00     +5.672320E+00 +8.726646E-01 +0.000000E+00    
 +1.047198E+00 +2.617994E-01 +0.000000E+00     +4.712389E+00 +4.363323E-01 +0.000000E+00     +7.853982E-01 +6.981317E-01 +0.000000E+00     +2.007129E+00 +1.396263E+00 +0.000000E+00     +6.108652E-01 +1.396263E+00 +0.000000E+00     +4.886922E+00 +1.483530E+00 +0.000000E+00     +2.617994E-01 +1.047198E+00 +0.000000E+00    
 +2.617994E-01 +1.221730E+00 +0.000000E+00     +2.268928E+00 +1.221730E+00 +0.000000E+00     +4.363323E+00 +1.134464E+00 +0.000000E+00     +2.443461E+00 +6.981317E-01 +0.000000E+00     +5.235988E-01 +4.363323E-01 +0.000000E+00     +4.712389E+00 +3.490659E-01 +0.000000E+00     +8.726646E-02 +2.617994E-01 +0.000000E+00    
 +2.181662E+00 +6.981317E-01 +0.000000E+00     +4.537856E+00 +6.108652E-01 +0.000000E+00     +3.141593E+00 +1.134464E+00 +0.000000E+00     +2.181662E+00 +2.617994E-01 +0.000000E+00     +7.853982E-01 +1.483530E+00 +0.000000E+00     +1.832596E+00 +7.853982E-01 +0.000000E+00     +3.490659E-01 +5.235988E-01 +0.000000E+00    
 +6.021386E+00 +6.108652E-01 +0.000000E+00     +5.235988E-01 +6.108652E-01 +0.000000E+00     +4.014257E+00 +1.483530E+00 +0.000000E+00     +2.181662E+00 +1.745329E-01 +0.000000E+00     +2.530727E+00 +8.726646E-01 +0.000000E+00     +6.108652E+00 +1.570796E+00 +0.000000E+00     +6.283185E+00 +1.047198E+00 +0.000000E+00    
 +3.926991E+00 +1.047198E+00 +0.000000E+00     +2.443461E+00 +1.134464E+00 +0.000000E+00     +1.134464E+00 +1.396263E+00 +0.000000E+00     +3.490659E-01 +9.599311E-01 +0.000000E+00     +4.101524E+00 +1.221730E+00 +0.000000E+00     +4.625123E+00 +1.483530E+00 +0.000000E+00     +5.934119E+00 +6.108652E-01 +0.000000E+00    
 +1.832596E+00 +1.134464E+00 +0.000000E+00     +1.832596E+00 +1.047198E+00 +0.000000E+00     +9.599311E-01 +5.235988E-01 +0.000000E+00     +4.625123E+00 +7.853982E-01 +0.000000E+00     +2.007129E+00 +3.490659E-01 +0.000000E+00     +1.483530E+00 +1.047198E+00 +0.000000E+00     +3.228859E+00 +1.134464E+00 +0.000000E+00    
 +5.148721E+00 +5.235988E-01 +0.000000E+00     +3.577925E+00 +1.047198E+00 +0.000000E+00     +7.853982E-01 +6.981317E-01 +0.000000E+00     +4.363323E-01 +5.235988E-01 +0.000000E+00     +6.108652E+00 +4.363323E-01 +0.000000E+00     +1.134464E+00 +1.396263E+00 +0.000000E+00     +1.658063E+00 +8.726646E-02 +0.000000E+00    
 +3.752458E+00 +1.308997E+00 +0.000000E+00     +3.228859E+00 +1.221730E+00 +0.000000E+00     +1.221730E+00 +2.617994E-01 +0.000000E+00     +3.665191E+00 +1.047198E+00 +0.000000E+00     +3.665191E+00 +1.396263E+00 +0.000000E+00     +6.195919E+00 +1.396263E+00 +0.000000E+00     +3.490659E-01 +1.047198E+00 +0.000000E+00    
 +2.356194E+00 +1.308997E+00 +0.000000E+00     +5.235988E-01 +4.363323E-01 +0.000000E+00     +4.188790E+00 +7.853982E-01 +0.000000E+00     +4.014257E+00 +1.047198E+00 +0.000000E+00     +5.672320E+00 +4.363323E-01 +0.000000E+00     +4.625123E+00 +6.108652E-01 +0.000000E+00     +3.141593E+00 +8.726646E-01 +0.000000E+00    
 +4.886922E+00 +5.235988E-01 +0.000000E+00     +3.577925E+00 +5.235988E-01 +0.000000E+00     +1.745329E+00 +3.490659E-01 +0.000000E+00     +9.599311E-01 +1.483530E+00 +0.000000E+00     +4.276057E+00 +4.363323E-01 +0.000000E+00     +3.490659E-01 +4.363323E-01 +0.000000E+00     +1.570796E+00 +9.599311E-01 +0.000000E+00    
 +5.235988E-01 +1.570796E+00 +0.000000E+00     +5.410521E+00 +1.221730E+00 +0.000000E+00     +5.323254E+00 +1.483530E+00 +0.000000E+00     +2.007129E+00 +8.726646E-02 +0.000000E+00     +6.195919E+00 +6.981317E-01 +0.000000E+00     +4.014257E+00 +1.308997E+00 +0.000000E+00     +2.967060E+00 +2.617994E-01 +0.000000E+00    
 +2.705260E+00 +5.235988E-01 +0.000000E+00     +6.108652E+00 +5.235988E-01 +0.000000E+00     +4.712389E+00 +1.308997E+00 +0.000000E+00     +3.316126E+00 +5.235988E-01 +0.000000E+00     +2.181662E+00 +5.235988E-01 +0.000000E+00     +1.658063E+00 +9.599311E-01 +0.000000E+00     +3.752458E+00 +1.396263E+00 +0.000000E+00    
 +1.745329E+00 +1.308997E+00 +0.000000E+00     +6.108652E+00 +1.745329E-01 +0.000000E+00     +1.658063E+00 +1.221730E+00 +0.000000E+00     +1.047198E+00 +1.483530E+00 +0.000000E+00     +4.276057E+00 +8.726646E-01 +0.000000E+00     +3.403392E+00 +1.570796E+00 +0.000000E+00     +5.235988E+00 +8.726646E-02 +0.000000E+00    
 +8.726646E-02 +6.108652E-01 +0.000000E+00     +3.403392E+00 +1.134464E+00 +0.000000E+00     +4.537856E+00 +9.599311E-01 +0.000000E+00     +4.101524E+00 +4.363323E-01 +0.000000E+00     +4.014257E+00 +1.134464E+00 +0.000000E+00     +2.617994E+00 +9.599311E-01 +0.000000E+00     +2.530727E+00 +1.483530E+00 +0.000000E+00    
 +3.054326E+00 +2.617994E-01 +0.000000E+00     +5.672320E+00 +1.396263E+00 +0.000000E+00     +5.061455E+00 +1.308997E+00 +0.000000E+00     +3.403392E+00 +1.134464E+00 +0.000000E+00     +1.919862E+00 +9.599311E-01 +0.000000E+00     +1.483530E+00 +1.308997E+00 +0.000000E+00     +2.530727E+00 +2.617994E-01 +0.000000E+00    
 +5.061455E+00 +8.726646E-01 +0.000000E+00     +4.450590E+00 +8.726646E-02 +0.000000E+00     +3.490659E-01 +8.726646E-02 +0.000000E+00     +5.759587E+00 +6.981317E-01 +0.000000E+00     +2.268928E+00 +6.108652E-01 +0.000000E+00     +2.879793E+00 +8.726646E-01 +0.000000E+00     +6.981317E-01 +9.599311E-01 +0.000000E+00    
 +6.283185E+00 +9.599311E-01 +0.000000E+00     +2.879793E+00 +1.396263E+00 +0.000000E+00     +5.235988E+00 +1.221730E+00 +0.000000E+00     +4.450590E+00 +1.134464E+00 +0.000000E+00     +4.799655E+00 +4.363323E-01 +0.000000E+00     +6.108652E-01 +2.617994E-01 +0.000000E+00     +8.726646E-02 +1.483530E+00 +0.000000E+00    
 +6.195919E+00 +7.853982E-01 +0.000000E+00     +7.853982E-01 +5.235988E-01 +0.000000E+00     +4.363323E-01 +1.570796E+00 +0.000000E+00     +5.235988E-01 +1.134464E+00 +0.000000E+00     +5.061455E+00 +6.108652E-01 +0.000000E+00     +5.934119E+00 +8.726646E-02 +0.000000E+00     +4.188790E+00 +9.599311E-01 +0.000000E+00    
 +4.276057E+00 +1.570796E+00 +0.000000E+00     +3.490659E-01 +8.726646E-02 +0.000000E+00     +3.316126E+00 +5.235988E-01 +0.000000E+00     +5.497787E+00 +7.853982E-01 +0.000000E+00     +4.799655E+00 +5.235988E-01 +0.000000E+00     +3.316126E+00 +7.853982E-01 +0.000000E+00     +7.853982E-01 +4.363323E-01 +0.000000E+00    
 +2.007129E+00 +2.617994E-01 +0.000000E+00     +5.672320E+00 +1.308997E+00 +0.000000E+00     +2.792527E+00 +1.483530E+00 +0.000000E+00     +5.148721E+00 +1.308997E+00 +0.000000E+00     +8.726646E-01 +8.726646E-02 +0.000000E+00     +5.934119E+00 +9.599311E-01 +0.000000E+00     +1.658063E+00 +1.570796E+00 +0.000000E+00    
 +5.497787E+00 +7.853982E-01 +0.000000E+00     +5.061455E+00 +5.235988E-01 +0.000000E+00     +1.308997E+00 +6.981317E-01 +0.000000E+00     +4.712389E+00 +7.853982E-01 +0.000000E+00     +5.061455E+00 +2.617994E-01 +0.000000E+00     +2.617994E-01 +5.235988E-01 +0.000000E+00     +1.745329E+00 +6.981317E-01 +0.000000E+00    
 +3.926991E+00 +1.134464E+00 +0.000000E+00     +4.188790E+00 +5.235988E-01 +0.000000E+00     +1.483530E+00 +1.396263E+00 +0.000000E+00     +3.577925E+00 +9.599311E-01 +0.000000E+00     +1.134464E+00 +1.308997E+00 +0.000000E+00     +2.443461E+00 +2.617994E-01 +0.000000E+00     +1.047198E+00 +1.308997E+00 +0.000000E+00    
 +5.585054E+00 +1.483530E+00 +0.000000E+00     +5.934119E+00 +1.570796E+00 +0.000000E+00     +4.799655E+00 +9.599311E-01 +0.000000E+00     +6.108652E+00 +6.981317E-01 +0.000000E+00     +1.047198E+00 +4.363323E-01 +0.000000E+00     +2.967060E+00 +4.363323E-01 +0.000000E+00     +5.061455E+00 +6.108652E-01 +0.000000E+00    
 +3.665191E+00 +9.599311E-01 +0.000000E+00     +5.585054E+00 +5.235988E-01 +0.000000E+00     +5.672320E+00 +3.490659E-01 +0.000000E+00     +5.497787E+00 +5.235988E-01 +0.000000E+00     +1.221730E+00 +4.363323E-01 +0.000000E+00     +3.228859E+00 +7.853982E-01 +0.000000E+00     +9.599311E-01 +1.396263E+00 +0.000000E+00    
 +7.853982E-01 +6.108652E-01 +0.000000E+00     +4.188790E+00 +1.134464E+00 +0.000000E+00     +3.403392E+00 +4.363323E-01 +0.000000E+00     +9.599311E-01 +1.396263E+00 +0.000000E+00     +2.617994E-01 +6.108652E-01 +0.000000E+00     +7.853982E-01 +1.745329E-01 +0.000000E+00     +4.363323E+00 +2.617994E-01 +0.000000E+00    
 +9.599311E-01 +1.483530E+00 +0.000000E+00     +3.228859E+00 +1.396263E+00 +0.000000E+00     +8.726646E-02 +8.726646E-02 +0.000000E+00     +5.061455E+00 +3.490659E-01 +0.000000E+00     +4.276057E+00 +1.570796E+00 +0.000000E+00     +5.759587E+00 +6.108652E-01 +0.000000E+00     +2.792527E+00 +1.308997E+00 +0.000000E+00    
 +8.726646E-02 +1.134464E+00 +0.000000E+00     +3.839724E+00 +8.726646E-02 +0.000000E+00     +1.221730E+00 +6.981317E-01 +0.000000E+00     +1.919862E+00 +1.308997E+00 +0.000000E+00     +1.221730E+00 +1.047198E+00 +0.000000E+00     +1.919862E+00 +6.108652E-01 +0.000000E+00     +6.021386E+00 +1.483530E+00 +0.000000E+00    
 +2.007129E+00 +1.483530E+00 +0.000000E+00     +6.981317E-01 +1.483530E+00 +0.000000E+00     +5.235988E+00 +1.134464E+00 +0.000000E+00     +5.846853E+00 +1.047198E+00 +0.000000E+00     +2.530727E+00 +8.726646E-02 +0.000000E+00     +2.443461E+00 +9.599311E-01 +0.000000E+00     +2.007129E+00 +6.108652E-01 +0.000000E+00    
 +2.705260E+00 +1.396263E+00 +0.000000E+00     +5.235988E-01 +2.617994E-01 +0.000000E+00     +6.981317E-01 +9.599311E-01 +0.000000E+00     +5.759587E+00 +1.308997E+00 +0.000000E+00     +2.705260E+00 +8.726646E-01 +0.000000E+00     +1.221730E+00 +1.483530E+00 +0.000000E+00     +1.832596E+00 +8.726646E-01 +0.000000E+00    
 +6.195919E+00 +1.396263E+00 +0.000000E+00     +2.792527E+00 +1.483530E+00 +0.000000E+00     +4.537856E+00 +1.221730E+00 +0.000000E+00     +6.195919E+00 +8.726646E-02 +0.000000E+00     +3.141593E+00 +1.134464E+00 +0.000000E+00     +6.021386E+00 +6.108652E-01 +0.000000E+00     +6.021386E+00 +8.726646E-01 +0.000000E+00    
 +3.141593E+00 +1.570796E+00 +0.000000E+00     +5.235988E-01 +6.981317E-01 +0.000000E+00     +8.726646E-01 +8.726646E-02 +0.000000E+00     +1.570796E+00 +1.308997E+00 +0.000000E+00     +4.799655E+00 +3.490659E-01 +0.000000E+00     +3.228859E+00 +8.726646E-01 +0.000000E+00     +3.752458E+00 +1.745329E-01 +0.000000E+00    
 +4.886922E+00 +1.745329E-01 +0.000000E+00     +8.726646E-02 +1.308997E+00 +0.000000E+00     +1.745329E-01 +1.570796E+00 +0.000000E+00     +6.108652E-01 +6.981317E-01 +0.000000E+00     +4.712389E+00 +8.726646E-01 +0.000000E+00     +4.799655E+00 +6.981317E-01 +0.000000E+00     +3.752458E+00 +3.490659E-01 +0.000000E+00    
 +5.410521E+00 +1.570796E+00 +0.000000E+00     +2.705260E+00 +3.490659E-01 +0.000000E+00     +4.537856E+00 +1.570796E+00 +0.000000E+00     +4.101524E+00 +7.853982E-01 +0.000000E+00     +4.363323E+00 +8.726646E-01 +0.000000E+00     +4.363323E-01 +2.617994E-01 +0.000000E+00     +3.839724E+00 +1.570796E+00 +0.000000E+00    
 +4.363323E+00 +6.108652E-01 +0.000000E+00     +5.846853E+00 +1.221730E+00 +0.000000E+00     +3.316126E+00 +6.981317E-01 +0.000000E+00     +4.886922E+00 +1.570796E+00 +0.000000E+00     +6.021386E+00 +5.235988E-01 +0.000000E+00     +4.712389E+00 +6.981317E-01 +0.000000E+00     +6.195919E+00 +8.726646E-02 +0.000000E+00    
 +4.101524E+00 +7.853982E-01 +0.000000E+00     +4.712389E+00 +8.726646E-02 +0.000000E+00     +5.148721E+00 +1.134464E+00 +0.000000E+00     +1.396263E+00 +1.134464E+00 +0.000000E+00     +4.625123E+00 +6.108652E-01 +0.000000E+00     +4.537856E+00 +1.570796E+00 +0.000000E+00     +5.934119E+00 +8.726646E-01 +0.000000E+00    
 +1.832596E+00 +1.483530E+00 +0.000000E+00     +1.396263E+00 +6.108652E-01 +0.000000E+00     +4.276057E+00 +6.108652E-01 +0.000000E+00     +5.585054E+00 +9.599311E-01 +0.000000E+00     +5.585054E+00 +6.108652E-01 +0.000000E+00     +2.617994E+00 +1.221730E+00 +0.000000E+00     +4.450590E+00 +6.981317E-01 +0.000000E+00    
 +1.745329E-01 +6.981317E-01 +0.000000E+00     +5.148721E+00 +8.726646E-01 +0.000000E+00     +4.625123E+00 +1.396263E+00 +0.000000E+00     +2.007129E+00 +8.726646E-02 +0.000000E+00     +7.853982E-01 +2.617994E-01 +0.000000E+00     +3.228859E+00 +6.981317E-01 +0.000000E+00     +4.974188E+00 +1.396263E+00 +0.000000E+00    
 +5.410521E+00 +1.745329E-01 +0.000000E+00     +5.934119E+00 +1.221730E+00 +0.000000E+00     +5.846853E+00 +7.853982E-01 +0.000000E+00     +1.221730E+00 +3.490659E-01 +0.000000E+00     +1.832596E+00 +9.599311E-01 +0.000000E+00     +6.021386E+00 +5.235988E-01 +0.000000E+00     +6.195919E+00 +1.308997E+00 +0.000000E+00    
 +1.308997E+00 +6.108652E-01 +0.000000E+00     +4.537856E+00 +6.108652E-01 +0.000000E+00     +1.134464E+00 +1.745329E-01 +0.000000E+00     +2.181662E+00 +6.981317E-01 +0.000000E+00     +5.934119E+00 +1.134464E+00 +0.000000E+00     +3.054326E+00 +2.617994E-01 +0.000000E+00     +4.101524E+00 +6.108652E-01 +0.000000E+00    
 +4.363323E-01 +1.745329E-01 +0.000000E+00     +5.061455E+00 +1.570796E+00 +0.000000E+00     +1.047198E+00 +3.490659E-01 +0.000000E+00     +3.926991E+00 +7.853982E-01 +0.000000E+00     +3.665191E+00 +3.490659E-01 +0.000000E+00     +2.356194E+00 +7.853982E-01 +0.000000E+00     +3.054326E+00 +1.745329E-01 +0.000000E+00    
 +6.195919E+00 +1.483530E+00 +0.000000E+00     +2.268928E+00 +6.108652E-01 +0.000000E+00     +6.108652E+00 +1.047198E+00 +0.000000E+00     +7.853982E-01 +1.570796E+00 +0.000000E+00     +6.981317E-01 +6.981317E-01 +0.000000E+00     +2.530727E+00 +3.490659E-01 +0.000000E+00     +5.759587E+00 +9.599311E-01 +0.000000E+00    
 +5.410521E+00 +1.221730E+00 +0.000000E+00     +1.745329E+00 +1.221730E+00 +0.000000E+00     +9.599311E-01 +1.308997E+00 +0.000000E+00     +3.926991E+00 +3.490659E-01 +0.000000E+00     +5.759587E+00 +1.047198E+00 +0.000000E+00     +6.981317E-01 +1.483530E+00 +0.000000E+00     +1.396263E+00 +1.570796E+00 +0.000000E+00    
 +3.490659E-01 +2.617994E-01 +0.000000E+00     +5.061455E+00 +1.396263E+00 +0.000000E+00     +5.235988E-01 +9.599311E-01 +0.000000E+00     +5.235988E-01 +6.981317E-01 +0.000000E+00     +2.705260E+00 +1.134464E+00 +0.000000E+00     +4.101524E+00 +1.047198E+00 +0.000000E+00     +5.235988E+00 +1.483530E+00 +0.000000E+00    
 +1.483530E+00 +6.108652E-01 +0.000000E+00     +4.101524E+00 +9.599311E-01 +0.000000E+00     +4.537856E+00 +1.570796E+00 +0.000000E+00     +5.235988E+00 +1.134464E+00 +0.000000E+00     +4.886922E+00 +6.108652E-01 +0.000000E+00     +3.926991E+00 +1.134464E+00 +0.000000E+00     +3.054326E+00 +6.981317E-01 +0.000000E+00    
 +8.726646E-02 +9.599311E-01 +0.000000E+00     +5.410521E+00 +8.726646E-01 +0.000000E+00     +4.276057E+00 +1.047198E+00 +0.000000E+00     +8.726646E-02 +9.599311E-01 +0.000000E+00     +4.625123E+00 +1.308997E+00 +0.000000E+00     +3.316126E+00 +1.308997E+00 +0.000000E+00     +1.745329E+00 +1.047198E+00 +0.000000E+00    
 +2.967060E+00 +8.726646E-01 +0.000000E+00     +5.497787E+00 +3.490659E-01 +0.000000E+00     +2.181662E+00 +1.570796E+00 +0.000000E+00     +6.108652E-01 +8.726646E-01 +0.000000E+00     +5.759587E+00 +1.483530E+00 +0.000000E+00     +4.363323E-01 +1.396263E+00 +0.000000E+00     +6.108652E+00 +1.221730E+00 +0.000000E+00    
 +1.745329E-01 +1.745329E-01 +0.000000E+00     +3.839724E+00 +2.617994E-01 +0.000000E+00     +2.705260E+00 +1.570796E+00 +0.000000E+00     +5.672320E+00 +1.047198E+00 +0.000000E+00     +2.705260E+00 +1.483530E+00 +0.000000E+00     +4.101524E+00 +1.047198E+00 +0.000000E+00     +3.141593E+00 +9.599311E-01 +0.000000E+00    
 +2.094395E+00 +1.221730E+00 +0.000000E+00     +2.879793E+00 +1.745329E-01 +0.000000E+00     +3.665191E+00 +8.726646E-02 +0.000000E+00     +5.497787E+00 +8.726646E-01 +0.000000E+00     +3.665191E+00 +8.726646E-02 +0.000000E+00     +4.014257E+00 +2.617994E-01 +0.000000E+00     +3.752458E+00 +9.599311E-01 +0.000000E+00    
 +4.188790E+00 +4.363323E-01 +0.000000E+00     +5.410521E+00 +1.308997E+00 +0.000000E+00     +1.919862E+00 +1.745329E-01 +0.000000E+00     +3.316126E+00 +9.599311E-01 +0.000000E+00     +3.054326E+00 +8.726646E-01 +0.000000E+00     +2.530727E+00 +1.308997E+00 +0.000000E+00     +4.363323E+00 +1.134464E+00 +0.000000E+00    
 +8.726646E-02 +6.981317E-01 +0.000000E+00     +3.839724E+00 +8.726646E-01 +0.000000E+00     +6.108652E-01 +7.853982E-01 +0.000000E+00     +2.094395E+00 +2.617994E-01 +0.000000E+00     +1.483530E+00 +8.726646E-01 +0.000000E+00     +3.577925E+00 +9.599311E-01 +0.000000E+00     +5.759587E+00 +8.726646E-02 +0.000000E+00    
 +3.490659E-01 +1.221730E+00 +0.000000E+00     +5.672320E+00 +3.490659E-01 +0.000000E+00     +5.672320E+00 +1.134464E+00 +0.000000E+00     +3.926991E+00 +1.396263E+00 +0.000000E+00     +5.759587E+00 +1.396263E+00 +0.000000E+00     +3.665191E+00 +5.235988E-01 +0.000000E+00     +5.672320E+00 +5.235988E-01 +0.000000E+00    
 +8.726646E-01 +1.745329E-01 +0.000000E+00     +1.396263E+00 +3.490659E-01 +0.000000E+00     +2.268928E+00 +1.047198E+00 +0.000000E+00     +1.919862E+00 +1.047198E+00 +0.000000E+00     +4.101524E+00 +6.981317E-01 +0.000000E+00     +4.014257E+00 +1.745329E-01 +0.000000E+00     +4.450590E+00 +8.726646E-02 +0.000000E+00    
 +4.625123E+00 +9.599311E-01 +0.000000E+00     +3.926991E+00 +2.617994E-01 +0.000000E+00     +3.752458E+00 +1.483530E+00 +0.000000E+00     +7.853982E-01 +1.047198E+00 +0.000000E+00     +5.235988E+00 +9.599311E-01 +0.000000E+00     +7.853982E-01 +6.981317E-01 +0.000000E+00     +5.846853E+00 +1.047198E+00 +0.000000E+00    
 +3.752458E+00 +1.745329E-01 +0.000000E+00     +3.490659E-01 +7.853982E-01 +0.000000E+00     +4.799655E+00 +1.396263E+00 +0.000000E+00     +2.530727E+00 +2.617994E-01 +0.000000E+00     +9.599311E-01 +8.726646E-01 +0.000000E+00     +3.054326E+00 +6.108652E-01 +0.000000E+00     +4.101524E+00 +1.396263E+00 +0.000000E+00    
 +5.585054E+00 +3.490659E-01 +0.000000E+00     +5.497787E+00 +2.617994E-01 +0.000000E+00     +1.745329E-01 +1.570796E+00 +0.000000E+00     +4.537856E+00 +8.726646E-01 +0.000000E+00     +2.007129E+00 +6.981317E-01 +0.000000E+00     +2.705260E+00 +1.134464E+00 +0.000000E+00     +2.181662E+00 +1.308997E+00 +0.000000E+00    
 +1.570796E+00 +4.363323E-01 +0.000000E+00     +2.268928E+00 +1.745329E-01 +0.000000E+00     +1.745329E+00 +1.570796E+00 +0.000000E+00     +3.665191E+00 +6.108652E-01 +0.000000E+00     +3.316126E+00 +1.396263E+00 +0.000000E+00     +1.483530E+00 +6.981317E-01 +0.000000E+00     +2.879793E+00 +1.570796E+00 +0.000000E+00    
 +2.967060E+00 +1.396263E+00 +0.000000E+00     +6.981317E-01 +3.490659E-01 +0.000000E+00     +1.047198E+00 +9.599311E-01 +0.000000E+00     +3.490659E+00 +4.363323E-01 +0.000000E+00     +3.490659E-01 +1.047198E+00 +0.000000E+00     +4.363323E+00 +1.134464E+00 +0.000000E+00     +3.490659E+00 +6.108652E-01 +0.000000E+00    
 +5.759587E+00 +6.981317E-01 +0.000000E+00     +5.148721E+00 +2.617994E-01 +0.000000E+00     +5.061455E+00 +4.363323E-01 +0.000000E+00     +8.726646E-01 +5.235988E-01 +0.000000E+00     +2.356194E+00 +2.617994E-01 +0.000000E+00     +1.832596E+00 +2.617994E-01 +0.000000E+00     +3.054326E+00 +4.363323E-01 +0.000000E+00    
 +8.726646E-02 +1.134464E+00 +0.000000E+00     +2.094395E+00 +3.490659E-01 +0.000000E+00     +1.570796E+00 +1.483530E+00 +0.000000E+00     +6.981317E-01 +3.490659E-01 +0.000000E+00     +6.981317E-01 +1.483530E+00 +0.000000E+00     +8.726646E-01 +4.363323E-01 +0.000000E+00     +6.108652E-01 +6.981317E-01 +0.000000E+00    
 +2.617994E+00 +1.308997E+00 +0.000000E+00     +5.846853E+00 +2.617994E-01 +0.000000E+00     +1.745329E+00 +1.047198E+00 +0.000000E+00     +2.879793E+00 +1.483530E+00 +0.000000E+00     +1.308997E+00 +2.617994E-01 +0.000000E+00     +4.188790E+00 +1.047198E+00 +0.000000E+00     +4.537856E+00 +2.617994E-01 +0.000000E+00    
 +1.919862E+00 +1.308997E+00 +0.000000E+00     +6.108652E-01 +1.134464E+00 +0.000000E+00     +3.752458E+00 +1.745329E-01 +0.000000E+00     +5.585054E+00 +1.396263E+00 +0.000000E+00     +6.021386E+00 +5.235988E-01 +0.000000E+00     +1.745329E-01 +6.981317E-01 +0.000000E+00     +1.047198E+00 +1.745329E-01 +0.000000E+00    
 +4.712389E+00 +1.308997E+00 +0.000000E+00     +3.403392E+00 +6.108652E-01 +0.000000E+00     +4.363323E-01 +1.134464E+00 +0.000000E+00     +4.363323E+00 +1.570796E+00 +0.000000E+00     +2.792527E+00 +1.308997E+00 +0.000000E+00     +5.323254E+00 +7.853982E-01 +0.000000E+00     +9.599311E-01 +1.047198E+00 +0.000000E+00    
 +2.879793E+00 +1.047198E+00 +0.000000E+00     +6.283185E+00 +1.570796E+00 +0.000000E+00     +5.934119E+00 +8.726646E-01 +0.000000E+00     +2.268928E+00 +1.047198E+00 +0.000000E+00     +1.745329E-01 +2.617994E-01 +0.000000E+00     +1.396263E+00 +1.396263E+00 +0.000000E+00     +4.014257E+00 +1.483530E+00 +0.000000E+00    
 +7.853982E-01 +7.853982E-01 +0.000000E+00     +1.745329E-01 +8.726646E-02 +0.000000E+00     +4.537856E+00 +1.134464E+00 +0.000000E+00     +2.356194E+00 +1.047198E+00 +0.000000E+00     +2.181662E+00 +6.108652E-01 +0.000000E+00     +3.054326E+00 +2.617994E-01 +0.000000E+00     +1.396263E+00 +8.726646E-01 +0.000000E+00    
 +6.195919E+00 +1.745329E-01 +0.000000E+00     +1.658063E+00 +3.490659E-01 +0.000000E+00     +5.672320E+00 +1.134464E+00 +0.000000E+00     +3.665191E+00 +1.221730E+00 +0.000000E+00     +4.974188E+00 +1.134464E+00 +0.000000E+00     +2.705260E+00 +1.221730E+00 +0.000000E+00     +1.919862E+00 +2.617994E-01 +0.000000E+00    
 +2.530727E+00 +1.745329E-01 +0.000000E+00     +2.268928E+00 +1.221730E+00 +0.000000E+00     +4.276057E+00 +1.308997E+00 +0.000000E+00     +2.181662E+00 +7.853982E-01 +0.000000E+00     +5.235988E-01 +7.853982E-01 +0.000000E+00     +2.530727E+00 +5.235988E-01 +0.000000E+00     +2.617994E-01 +6.108652E-01 +0.000000E+00    
 +1.396263E+00 +4.363323E-01 +0.000000E+00     +5.846853E+00 +6.108652E-01 +0.000000E+00     +6.195919E+00 +1.570796E+00 +0.000000E+00     +3.316126E+00 +9.599311E-01 +0.000000E+00     +1.745329E-01 +1.308997E+00 +0.000000E+00     +2.967060E+00 +1.570796E+00 +0.000000E+00     +4.363323E+00 +6.981317E-01 +0.000000E+00    
 +2.617994E+00 +9.599311E-01 +0.000000E+00     +2.443461E+00 +8.726646E-01 +0.000000E+00     +1.658063E+00 +1.134464E+00 +0.000000E+00     +4.799655E+00 +3.490659E-01 +0.000000E+00     +3.926991E+00 +5.235988E-01 +0.000000E+00     +2.356194E+00 +1.134464E+00 +0.000000E+00     +1.308997E+00 +2.617994E-01 +0.000000E+00    
 +5.934119E+00 +8.726646E-02 +0.000000E+00     +3.403392E+00 +7.853982E-01 +0.000000E+00     +4.363323E+00 +1.221730E+00 +0.000000E+00     +5.235988E-01 +8.726646E-01 +0.000000E+00     +5.497787E+00 +4.363323E-01 +0.000000E+00     +4.886922E+00 +1.221730E+00 +0.000000E+00     +2.443461E+00 +6.981317E-01 +0.000000E+00    
 +2.705260E+00 +5.235988E-01 +0.000000E+00     +4.014257E+00 +6.108652E-01 +0.000000E+00     +2.356194E+00 +1.047198E+00 +0.000000E+00     +4.276057E+00 +9.599311E-01 +0.000000E+00     +5.846853E+00 +6.108652E-01 +0.000000E+00     +5.410521E+00 +1.745329E-01 +0.000000E+00     +2.617994E+00 +1.745329E-01 +0.000000E+00    
 +5.934119E+00 +8.726646E-02 +0.000000E+00     +5.148721E+00 +1.047198E+00 +0.000000E+00     +5.235988E+00 +7.853982E-01 +0.000000E+00     +5.235988E+00 +6.981317E-01 +0.000000E+00     +4.363323E+00 +8.726646E-01 +0.000000E+00     +3.316126E+00 +8.726646E-01 +0.000000E+00     +3.054326E+00 +3.490659E-01 +0.000000E+00    
 +3.752458E+00 +1.047198E+00 +0.000000E+00     +1.919862E+00 +8.726646E-01 +0.000000E+00     +4.974188E+00 +7.853982E-01 +0.000000E+00     +1.745329E+00 +3.490659E-01 +0.000000E+00     +4.450590E+00 +2.617994E-01 +0.000000E+00     +4.886922E+00 +8.726646E-01 +0.000000E+00     +4.363323E+00 +8.726646E-02 +0.000000E+00    
 +3.752458E+00 +6.981317E-01 +0.000000E+00     +2.443461E+00 +6.108652E-01 +0.000000E+00     +1.745329E-01 +1.221730E+00 +0.000000E+00     +2.530727E+00 +3.490659E-01 +0.000000E+00     +9.599311E-01 +1.396263E+00 +0.000000E+00     +5.846853E+00 +1.570796E+00 +0.000000E+00     +2.530727E+00 +1.047198E+00 +0.000000E+00    
 +4.450590E+00 +2.617994E-01 +0.000000E+00     +8.726646E-01 +6.108652E-01 +0.000000E+00     +2.879793E+00 +1.396263E+00 +0.000000E+00     +5.148721E+00 +8.726646E-01 +0.000000E+00     +3.490659E+00 +1.221730E+00 +0.000000E+00     +6.283185E+00 +1.221730E+00 +0.000000E+00     +4.712389E+00 +6.981317E-01 +0.000000E+00    
 +6.981317E-01 +1.308997E+00 +0.000000E+00     +6.108652E-01 +8.726646E-01 +0.000000E+00     +4.276057E+00 +1.396263E+00 +0.000000E+00     +3.141593E+00 +2.617994E-01 +0.000000E+00     +4.450590E+00 +1.221730E+00 +0.000000E+00     +6.981317E-01 +1.134464E+00 +0.000000E+00     +5.497787E+00 +1.134464E+00 +0.000000E+00    
 +4.799655E+00 +1.396263E+00 +0.000000E+00     +1.047198E+00 +9.599311E-01 +0.000000E+00     +2.792527E+00 +1.483530E+00 +0.000000E+00     +5.323254E+00 +1.396263E+00 +0.000000E+00     +3.490659E-01 +1.570796E+00 +0.000000E+00     +2.530727E+00 +1.570796E+00 +0.000000E+00     +1.658063E+00 +9.599311E-01 +0.000000E+00    
 +4.188790E+00 +6.981317E-01 +0.000000E+00     +1.745329E-01 +1.483530E+00 +0.000000E+00     +2.792527E+00 +6.108652E-01 +0.000000E+00     +5.759587E+00 +1.047198E+00 +0.000000E+00     +5.672320E+00 +1.047198E+00 +0.000000E+00     +2.530727E+00 +4.363323E-01 +0.000000E+00     +1.745329E-01 +2.617994E-01 +0.000000E+00    
 +1.919862E+00 +9.599311E-01 +0.000000E+00     +2.792527E+00 +1.308997E+00 +0.000000E+00     +4.537856E+00 +8.726646E-01 +0.000000E+00     +8.726646E-02 +1.047198E+00 +0.000000E+00     +6.108652E+00 +1.570796E+00 +0.000000E+00     +2.007129E+00 +1.308997E+00 +0.000000E+00     +1.221730E+00 +1.221730E+00 +0.000000E+00    
 +3.054326E+00 +3.490659E-01 +0.000000E+00     +2.879793E+00 +1.047198E+00 +0.000000E+00     +1.570796E+00 +6.981317E-01 +0.000000E+00     +3.490659E+00 +8.726646E-02 +0.000000E+00     +1.396263E+00 +8.726646E-02 +0.000000E+00     +5.148721E+00 +3.490659E-01 +0.000000E+00     +1.047198E+00 +1.483530E+00 +0.000000E+00    
 +5.235988E+00 +8.726646E-01 +0.000000E+00     +5.934119E+00 +9.599311E-01 +0.000000E+00     +1.919862E+00 +1.308997E+00 +0.000000E+00     +4.450590E+00 +1.047198E+00 +0.000000E+00     +6.108652E+00 +1.396263E+00 +0.000000E+00     +2.879793E+00 +1.221730E+00 +0.000000E+00     +5.497787E+00 +4.363323E-01 +0.000000E+00    
 +1.396263E+00 +1.047198E+00 +0.000000E+00     +5.497787E+00 +1.483530E+00 +0.000000E+00     +4.276057E+00 +8.726646E-01 +0.000000E+00     +2.268928E+00 +8.726646E-01 +0.000000E+00     +2.617994E+00 +9.599311E-01 +0.000000E+00     +6.981317E-01 +1.483530E+00 +0.000000E+00     +1.483530E+00 +2.617994E-01 +0.000000E+00    
 +2.268928E+00 +1.308997E+00 +0.000000E+00     +3.752458E+00 +1.396263E+00 +0.000000E+00     +5.235988E+00 +1.483530E+00 +0.000000E+00     +1.658063E+00 +1.396263E+00 +0.000000E+00     +4.886922E+00 +7.853982E-01 +0.000000E+00     +3.403392E+00 +5.235988E-01 +0.000000E+00     +8.726646E-01 +1.396263E+00 +0.000000E+00    
 +8.726646E-02 +3.490659E-01 +0.000000E+00     +5.759587E+00 +1.483530E+00 +0.000000E+00     +6.108652E-01 +6.981317E-01 +0.000000E+00     +2.617994E+00 +9.599311E-01 +0.000000E+00     +4.276057E+00 +4.363323E-01 +0.000000E+00     +3.665191E+00 +1.570796E+00 +0.000000E+00     +5.235988E+00 +1.570796E+00 +0.000000E+00    
 +2.443461E+00 +8.726646E-01 +0.000000E+00     +3.926991E+00 +4.363323E-01 +0.000000E+00     +1.745329E+00 +1.745329E-01 +0.000000E+00     +5.846853E+00 +1.483530E+00 +0.000000E+00     +1.396263E+00 +5.235988E-01 +0.000000E+00     +5.759587E+00 +4.363323E-01 +0.000000E+00     +4.799655E+00 +8.726646E-02 +0.000000E+00    
 +2.530727E+00 +7.853982E-01 +0.000000E+00     +4.276057E+00 +1.308997E+00 +0.000000E+00     +5.235988E+00 +1.570796E+00 +0.000000E+00     +2.967060E+00 +1.745329E-01 +0.000000E+00     +3.054326E+00 +1.570796E+00 +0.000000E+00     +5.759587E+00 +9.599311E-01 +0.000000E+00     +4.363323E+00 +1.483530E+00 +0.000000E+00    
 +5.585054E+00 +1.134464E+00 +0.000000E+00     +5.672320E+00 +8.726646E-02 +0.000000E+00     +2.879793E+00 +4.363323E-01 +0.000000E+00     +4.363323E+00 +4.363323E-01 +0.000000E+00     +4.974188E+00 +7.853982E-01 +0.000000E+00     +6.981317E-01 +1.396263E+00 +0.000000E+00     +2.443461E+00 +1.047198E+00 +0.000000E+00    
 +3.926991E+00 +9.599311E-01 +0.000000E+00     +3.141593E+00 +6.108652E-01 +0.000000E+00     +3.839724E+00 +2.617994E-01 +0.000000E+00     +5.235988E-01 +1.047198E+00 +0.000000E+00     +1.832596E+00 +1.483530E+00 +0.000000E+00     +5.672320E+00 +6.108652E-01 +0.000000E+00     +3.577925E+00 +2.617994E-01 +0.000000E+00    
 +5.235988E-01 +8.726646E-01 +0.000000E+00     +7.853982E-01 +9.599311E-01 +0.000000E+00     +4.537856E+00 +9.599311E-01 +0.000000E+00     +4.450590E+00 +1.134464E+00 +0.000000E+00     +6.021386E+00 +6.981317E-01 +0.000000E+00     +1.396263E+00 +3.490659E-01 +0.000000E+00     +3.316126E+00 +1.570796E+00 +0.000000E+00    
 +1.745329E+00 +7.853982E-01 +0.000000E+00     +2.181662E+00 +6.981317E-01 +0.000000E+00     +2.705260E+00 +1.483530E+00 +0.000000E+00     +2.268928E+00 +1.745329E-01 +0.000000E+00     +8.726646E-01 +4.363323E-01 +0.000000E+00     +6.021386E+00 +7.853982E-01 +0.000000E+00     +5.235988E-01 +9.599311E-01 +0.000000E+00    
 +4.886922E+00 +9.599311E-01 +0.000000E+00     +2.181662E+00 +2.617994E-01 +0.000000E+00     +5.410521E+00 +1.308997E+00 +0.000000E+00     +4.101524E+00 +1.745329E-01 +0.000000E+00     +6.108652E-01 +5.235988E-01 +0.000000E+00     +4.188790E+00 +1.047198E+00 +0.000000E+00     +3.490659E+00 +1.396263E+00 +0.000000E+00    
 +3.665191E+00 +1.396263E+00 +0.000000E+00     +5.235988E-01 +1.221730E+00 +0.000000E+00     +3.403392E+00 +4.363323E-01 +0.000000E+00     +5.323254E+00 +7.853982E-01 +0.000000E+00     +1.832596E+00 +1.745329E-01 +0.000000E+00     +1.396263E+00 +7.853982E-01 +0.000000E+00     +3.577925E+00 +3.490659E-01 +0.000000E+00    
 +6.195919E+00 +8.726646E-01 +0.000000E+00     +2.181662E+00 +5.235988E-01 +0.000000E+00     +2.879793E+00 +6.981317E-01 +0.000000E+00     +5.846853E+00 +1.483530E+00 +0.000000E+00     +7.853982E-01 +6.981317E-01 +0.000000E+00     +5.759587E+00 +1.134464E+00 +0.000000E+00     +2.356194E+00 +3.490659E-01 +0.000000E+00    
 +4.276057E+00 +4.363323E-01 +0.000000E+00     +4.537856E+00 +4.363323E-01 +0.000000E+00     +4.276057E+00 +8.726646E-01 +0.000000E+00     +4.014257E+00 +1.483530E+00 +0.000000E+00     +2.617994E+00 +1.396263E+00 +0.000000E+00     +1.745329E-01 +1.396263E+00 +0.000000E+00     +1.745329E-01 +3.490659E-01 +0.000000E+00    
 +1.047198E+00 +6.981317E-01 +0.000000E+00     +6.981317E-01 +1.570796E+00 +0.000000E+00     +3.839724E+00 +1.047198E+00 +0.000000E+00     +1.396263E+00 +7.853982E-01 +0.000000E+00     +7.853982E-01 +1.221730E+00 +0.000000E+00     +4.363323E-01 +1.483530E+00 +0.000000E+00     +2.356194E+00 +1.483530E+00 +0.000000E+00    
 +6.108652E-01 +8.726646E-01 +0.000000E+00     +4.974188E+00 +8.726646E-02 +0.000000E+00     +2.443461E+00 +7.853982E-01 +0.000000E+00     +4.712389E+00 +1.483530E+00 +0.000000E+00     +1.483530E+00 +1.308997E+00 +0.000000E+00     +6.108652E+00 +1.396263E+00 +0.000000E+00     +5.061455E+00 +3.490659E-01 +0.000000E+00    
 +6.021386E+00 +6.981317E-01 +0.000000E+00     +2.007129E+00 +1.570796E+00 +0.000000E+00     +7.853982E-01 +9.599311E-01 +0.000000E+00     +8.726646E-01 +8.726646E-01 +0.000000E+00     +5.585054E+00 +3.490659E-01 +0.000000E+00     +4.014257E+00 +9.599311E-01 +0.000000E+00     +7.853982E-01 +1.396263E+00 +0.000000E+00    
 +2.007129E+00 +1.745329E-01 +0.000000E+00     +6.981317E-01 +6.108652E-01 +0.000000E+00     +1.396263E+00 +1.570796E+00 +0.000000E+00     +4.014257E+00 +2.617994E-01 +0.000000E+00     +2.792527E+00 +1.483530E+00 +0.000000E+00     +5.323254E+00 +5.235988E-01 +0.000000E+00     +4.188790E+00 +1.134464E+00 +0.000000E+00    
 +6.021386E+00 +9.599311E-01 +0.000000E+00     +5.235988E-01 +8.726646E-01 +0.000000E+00     +1.919862E+00 +8.726646E-01 +0.000000E+00     +6.283185E+00 +8.726646E-02 +0.000000E+00     +1.745329E-01 +7.853982E-01 +0.000000E+00     +2.356194E+00 +1.308997E+00 +0.000000E+00     +1.483530E+00 +8.726646E-01 +0.000000E+00    
 +5.497787E+00 +1.308997E+00 +0.000000E+00     +4.537856E+00 +1.483530E+00 +0.000000E+00     +2.879793E+00 +8.726646E-01 +0.000000E+00     +5.148721E+00 +1.221730E+00 +0.000000E+00     +4.625123E+00 +1.745329E-01 +0.000000E+00     +2.356194E+00 +1.134464E+00 +0.000000E+00     +5.759587E+00 +9.599311E-01 +0.000000E+00    
 +1.745329E+00 +1.047198E+00 +0.000000E+00     +2.356194E+00 +1.221730E+00 +0.000000E+00     +2.705260E+00 +1.483530E+00 +0.000000E+00     +1.134464E+00 +8.726646E-01 +0.000000E+00     +2.094395E+00 +5.235988E-01 +0.000000E+00     +1.221730E+00 +9.599311E-01 +0.000000E+00     +5.497787E+00 +1.483530E+00 +0.000000E+00    
 +2.356194E+00 +1.308997E+00 +0.000000E+00     +3.490659E-01 +1.570796E+00 +0.000000E+00     +2.094395E+00 +9.599311E-01 +0.000000E+00     +3.141593E+00 +1.047198E+00 +0.000000E+00     +1.745329E-01 +6.981317E-01 +0.000000E+00     +4.974188E+00 +8.726646E-01 +0.000000E+00     +3.403392E+00 +3.490659E-01 +0.000000E+00    
 +6.108652E-01 +9.599311E-01 +0.000000E+00     +3.316126E+00 +4.363323E-01 +0.000000E+00     +3.577925E+00 +1.047198E+00 +0.000000E+00     +2.705260E+00 +3.490659E-01 +0.000000E+00     +6.981317E-01 +8.726646E-01 +0.000000E+00     +2.094395E+00 +7.853982E-01 +0.000000E+00     +3.228859E+00 +2.617994E-01 +0.000000E+00    
 +4.886922E+00 +1.745329E-01 +0.000000E+00     +4.450590E+00 +1.483530E+00 +0.000000E+00     +2.268928E+00 +6.981317E-01 +0.000000E+00     +2.617994E-01 +1.483530E+00 +0.000000E+00     +3.316126E+00 +1.308997E+00 +0.000000E+00     +8.726646E-02 +1.396263E+00 +0.000000E+00     +1.221730E+00 +6.981317E-01 +0.000000E+00    
 +3.490659E+00 +1.483530E+00 +0.000000E+00     +6.108652E-01 +1.308997E+00 +0.000000E+00     +4.188790E+00 +8.726646E-01 +0.000000E+00     +5.672320E+00 +5.235988E-01 +0.000000E+00     +2.094395E+00 +2.617994E-01 +0.000000E+00     +1.745329E+00 +1.745329E-01 +0.000000E+00     +5.061455E+00 +5.235988E-01 +0.000000E+00    
 +6.283185E+00 +1.570796E+00 +0.000000E+00     +6.195919E+00 +1.745329E-01 +0.000000E+00     +1.745329E+00 +2.617994E-01 +0.000000E+00     +6.021386E+00 +4.363323E-01 +0.000000E+00     +2.530727E+00 +8.726646E-02 +0.000000E+00     +5.759587E+00 +6.108652E-01 +0.000000E+00     +4.974188E+00 +7.853982E-01 +0.000000E+00    
 +6.021386E+00 +8.726646E-02 +0.000000E+00     +1.745329E+00 +1.047198E+00 +0.000000E+00     +2.094395E+00 +1.396263E+00 +0.000000E+00     +7.853982E-01 +1.483530E+00 +0.000000E+00     +5.235988E+00 +8.726646E-02 +0.000000E+00     +3.490659E+00 +8.726646E-01 +0.000000E+00     +6.283185E+00 +7.853982E-01 +0.000000E+00    
 +6.021386E+00 +1.134464E+00 +0.000000E+00     +9.599311E-01 +8.726646E-02 +0.000000E+00     +5.323254E+00 +1.047198E+00 +0.000000E+00     +2.792527E+00 +8.726646E-02 +0.000000E+00     +3.752458E+00 +2.617994E-01 +0.000000E+00     +8.726646E-01 +2.617994E-01 +0.000000E+00     +5.934119E+00 +9.599311E-01 +0.000000E+00    
 +1.221730E+00 +1.745329E-01 +0.000000E+00     +3.316126E+00 +9.599311E-01 +0.000000E+00     +3.577925E+00 +8.726646E-02 +0.000000E+00     +4.712389E+00 +2.617994E-01 +0.000000E+00     +3.141593E+00 +5.235988E-01 +0.000000E+00     +4.101524E+00 +1.483530E+00 +0.000000E+00     +4.886922E+00 +1.221730E+00 +0.000000E+00    
 +3.141593E+00 +1.483530E+00 +0.000000E+00     +1.658063E+00 +9.599311E-01 +0.000000E+00     +5.410521E+00 +1.047198E+00 +0.000000E+00     +4.625123E+00 +1.134464E+00 +0.000000E+00     +2.792527E+00 +8.726646E-01 +0.000000E+00     +8.726646E-02 +2.617994E-01 +0.000000E+00     +1.221730E+00 +1.221730E+00 +0.000000E+00    
 +2.356194E+00 +1.745329E-01 +0.000000E+00     +3.490659E+00 +1.221730E+00 +0.000000E+00     +4.363323E+00 +6.108652E-01 +0.000000E+00     +5.148721E+00 +1.134464E+00 +0.000000E+00     +4.712389E+00 +1.396263E+00 +0.000000E+00     +5.323254E+00 +1.570796E+00 +0.000000E+00     +4.537856E+00 +6.981317E-01 +0.000000E+00    
 +1.919862E+00 +6.981317E-01 +0.000000E+00     +3.490659E+00 +1.570796E+00 +0.000000E+00     +4.799655E+00 +6.108652E-01 +0.000000E+00     +2.967060E+00 +1.396263E+00 +0.000000E+00     +1.047198E+00 +1.483530E+00 +0.000000E+00     +1.832596E+00 +1.221730E+00 +0.000000E+00     +6.021386E+00 +8.726646E-02 +0.000000E+00    
 +1.396263E+00 +1.308997E+00 +0.000000E+00     +1.570796E+00 +6.981317E-01 +0.000000E+00     +4.625123E+00 +8.726646E-01 +0.000000E+00     +3.839724E+00 +1.570796E+00 +0.000000E+00     +1.483530E+00 +4.363323E-01 +0.000000E+00     +1.832596E+00 +4.363323E-01 +0.000000E+00     +6.283185E+00 +5.235988E-01 +0.000000E+00    
 +4.450590E+00 +4.363323E-01 +0.000000E+00     +1.047198E+00 +9.599311E-01 +0.000000E+00     +1.483530E+00 +6.981317E-01 +0.000000E+00     +1.658063E+00 +1.745329E-01 +0.000000E+00     +2.268928E+00 +1.396263E+00 +0.000000E+00     +1.396263E+00 +6.981317E-01 +0.000000E+00     +1.047198E+00 +8.726646E-01 +0.000000E+00    
 +1.832596E+00 +5.235988E-01 +0.000000E+00     +2.094395E+00 +2.617994E-01 +0.000000E+00     +1.134464E+00 +7.853982E-01 +0.000000E+00     +1.658063E+00 +8.726646E-02 +0.000000E+00     +8.726646E-02 +1.570796E+00 +0.000000E+00     +4.537856E+00 +8.726646E-01 +0.000000E+00     +5.846853E+00 +1.047198E+00 +0.000000E+00    
 +6.021386E+00 +1.047198E+00 +0.000000E+00     +5.934119E+00 +1.396263E+00 +0.000000E+00     +5.235988E-01 +5.235988E-01 +0.000000E+00     +5.061455E+00 +4.363323E-01 +0.000000E+00     +4.363323E+00 +8.726646E-02 +0.000000E+00     +3.228859E+00 +1.134464E+00 +0.000000E+00     +2.007129E+00 +2.617994E-01 +0.000000E+00    
 +1.134464E+00 +1.308997E+00 +0.000000E+00     +3.577925E+00 +1.047198E+00 +0.000000E+00     +2.530727E+00 +1.047198E+00 +0.000000E+00     +4.014257E+00 +7.853982E-01 +0.000000E+00     +1.134464E+00 +1.745329E-01 +0.000000E+00     +6.283185E+00 +4.363323E-01 +0.000000E+00     +1.832596E+00 +1.570796E+00 +0.000000E+00    
 +3.839724E+00 +3.490659E-01 +0.000000E+00     +1.047198E+00 +2.617994E-01 +0.000000E+00     +1.570796E+00 +1.221730E+00 +0.000000E+00     +1.134464E+00 +5.235988E-01 +0.000000E+00     +1.832596E+00 +3.490659E-01 +0.000000E+00     +4.450590E+00 +6.981317E-01 +0.000000E+00     +1.745329E-01 +1.047198E+00 +0.000000E+00    
 +5.759587E+00 +4.363323E-01 +0.000000E+00     +3.141593E+00 +1.221730E+00 +0.000000E+00     +8.726646E-02 +1.221730E+00 +0.000000E+00     +3.316126E+00 +6.108652E-01 +0.000000E+00     +4.188790E+00 +1.047198E+00 +0.000000E+00     +8.726646E-01 +1.396263E+00 +0.000000E+00     +1.658063E+00 +1.396263E+00 +0.000000E+00    
 +3.403392E+00 +4.363323E-01 +0.000000E+00     +3.926991E+00 +4.363323E-01 +0.000000E+00     +3.403392E+00 +1.570796E+00 +0.000000E+00     +1.221730E+00 +1.745329E-01 +0.000000E+00     +1.483530E+00 +1.047198E+00 +0.000000E+00     +3.665191E+00 +1.134464E+00 +0.000000E+00     +4.799655E+00 +8.726646E-02 +0.000000E+00    
 +1.745329E-01 +1.396263E+00 +0.000000E+00     +5.846853E+00 +3.490659E-01 +0.000000E+00     +3.316126E+00 +8.726646E-02 +0.000000E+00     +4.537856E+00 +1.134464E+00 +0.000000E+00     +6.108652E-01 +8.726646E-02 +0.000000E+00     +3.490659E-01 +6.108652E-01 +0.000000E+00     +5.235988E-01 +1.134464E+00 +0.000000E+00    
 +2.967060E+00 +1.483530E+00 +0.000000E+00     +3.926991E+00 +1.308997E+00 +0.000000E+00     +2.617994E-01 +1.308997E+00 +0.000000E+00     +5.497787E+00 +1.221730E+00 +0.000000E+00     +5.585054E+00 +1.047198E+00 +0.000000E+00     +2.094395E+00 +5.235988E-01 +0.000000E+00     +2.705260E+00 +3.490659E-01 +0.000000E+00    
 +2.705260E+00 +4.363323E-01 +0.000000E+00     +4.188790E+00 +1.047198E+00 +0.000000E+00     +3.403392E+00 +1.396263E+00 +0.000000E+00     +5.585054E+00 +1.483530E+00 +0.000000E+00     +4.712389E+00 +1.308997E+00 +0.000000E+00     +5.148721E+00 +6.981317E-01 +0.000000E+00     +4.188790E+00 +1.221730E+00 +0.000000E+00    
 +4.974188E+00 +2.617994E-01 +0.000000E+00     +2.530727E+00 +1.396263E+00 +0.000000E+00     +2.356194E+00 +8.726646E-01 +0.000000E+00     +5.672320E+00 +1.483530E+00 +0.000000E+00     +7.853982E-01 +1.396263E+00 +0.000000E+00     +6.283185E+00 +4.363323E-01 +0.000000E+00     +4.363323E-01 +1.308997E+00 +0.000000E+00    
 +2.530727E+00 +9.599311E-01 +0.000000E+00     +6.195919E+00 +2.617994E-01 +0.000000E+00     +5.061455E+00 +1.570796E+00 +0.000000E+00     +4.363323E-01 +2.617994E-01 +0.000000E+00     +5.148721E+00 +6.108652E-01 +0.000000E+00     +9.599311E-01 +1.308997E+00 +0.000000E+00     +3.490659E-01 +1.221730E+00 +0.000000E+00    
 +4.712389E+00 +1.570796E+00 +0.000000E+00     +4.450590E+00 +2.617994E-01 +0.000000E+00     +6.108652E+00 +1.570796E+00 +0.000000E+00     +4.363323E-01 +1.745329E-01 +0.000000E+00     +3.577925E+00 +1.221730E+00 +0.000000E+00     +4.101524E+00 +2.617994E-01 +0.000000E+00     +5.410521E+00 +1.483530E+00 +0.000000E+00    
 +1.832596E+00 +6.108652E-01 +0.000000E+00     +8.726646E-02 +9.599311E-01 +0.000000E+00     +2.356194E+00 +9.599311E-01 +0.000000E+00     +1.308997E+00 +1.745329E-01 +0.000000E+00     +1.832596E+00 +1.221730E+00 +0.000000E+00     +1.221730E+00 +8.726646E-02 +0.000000E+00     +3.752458E+00 +6.108652E-01 +0.000000E+00    
 +1.396263E+00 +4.363323E-01 +0.000000E+00     +5.061455E+00 +1.745329E-01 +0.000000E+00     +3.752458E+00 +1.745329E-01 +0.000000E+00     +3.316126E+00 +6.981317E-01 +0.000000E+00     +5.934119E+00 +3.490659E-01 +0.000000E+00     +1.308997E+00 +4.363323E-01 +0.000000E+00     +3.752458E+00 +1.483530E+00 +0.000000E+00    
 +2.356194E+00 +8.726646E-02 +0.000000E+00     +2.268928E+00 +8.726646E-02 +0.000000E+00     +1.483530E+00 +6.981317E-01 +0.000000E+00     +4.625123E+00 +1.134464E+00 +0.000000E+00     +6.021386E+00 +1.134464E+00 +0.000000E+00     +5.235988E-01 +4.363323E-01 +0.000000E+00     +2.530727E+00 +1.047198E+00 +0.000000E+00    
 +2.792527E+00 +9.599311E-01 +0.000000E+00     +1.221730E+00 +1.396263E+00 +0.000000E+00     +4.712389E+00 +4.363323E-01 +0.000000E+00     +2.617994E-01 +1.047198E+00 +0.000000E+00     +4.625123E+00 +4.363323E-01 +0.000000E+00     +8.726646E-02 +1.745329E-01 +0.000000E+00     +3.403392E+00 +6.981317E-01 +0.000000E+00    
 +5.235988E-01 +3.490659E-01 +0.000000E+00     +1.919862E+00 +1.483530E+00 +0.000000E+00     +6.021386E+00 +1.308997E+00 +0.000000E+00     +4.014257E+00 +6.108652E-01 +0.000000E+00     +6.981317E-01 +3.490659E-01 +0.000000E+00     +3.228859E+00 +5.235988E-01 +0.000000E+00     +8.726646E-02 +1.483530E+00 +0.000000E+00    
 +3.926991E+00 +3.490659E-01 +0.000000E+00     +5.672320E+00 +1.221730E+00 +0.000000E+00     +3.228859E+00 +1.221730E+00 +0.000000E+00     +2.617994E-01 +1.745329E-01 +0.000000E+00     +8.726646E-01 +1.221730E+00 +0.000000E+00     +5.759587E+00 +1.221730E+00 +0.000000E+00     +6.283185E+00 +7.853982E-01 +0.000000E+00    
 +4.101524E+00 +8.726646E-01 +0.000000E+00     +3.752458E+00 +1.134464E+00 +0.000000E+00     +4.363323E+00 +2.617994E-01 +0.000000E+00     +4.450590E+00 +1.221730E+00 +0.000000E+00     +2.705260E+00 +8.726646E-02 +0.000000E+00     +3.316126E+00 +7.853982E-01 +0.000000E+00     +6.021386E+00 +1.570796E+00 +0.000000E+00    
 +3.054326E+00 +1.483530E+00 +0.000000E+00     +4.363323E+00 +1.134464E+00 +0.000000E+00     +2.879793E+00 +1.134464E+00 +0.000000E+00     +2.181662E+00 +2.617994E-01 +0.000000E+00     +4.450590E+00 +1.396263E+00 +0.000000E+00     +3.490659E+00 +4.363323E-01 +0.000000E+00     +6.195919E+00 +6.981317E-01 +0.000000E+00    
 +4.625123E+00 +7.853982E-01 +0.000000E+00     +3.490659E+00 +1.396263E+00 +0.000000E+00     +6.981317E-01 +1.396263E+00 +0.000000E+00     +5.497787E+00 +3.490659E-01 +0.000000E+00     +3.054326E+00 +3.490659E-01 +0.000000E+00     +6.108652E-01 +6.108652E-01 +0.000000E+00     +2.268928E+00 +3.490659E-01 +0.000000E+00    
 +2.617994E-01 +1.396263E+00 +0.000000E+00     +5.235988E-01 +6.108652E-01 +0.000000E+00     +4.886922E+00 +6.108652E-01 +0.000000E+00     +8.726646E-02 +2.617994E-01 +0.000000E+00     +1.832596E+00 +1.396263E+00 +0.000000E+00     +4.974188E+00 +1.570796E+00 +0.000000E+00     +5.934119E+00 +1.221730E+00 +0.000000E+00    
 +8.726646E-01 +3.490659E-01 +0.000000E+00     +6.108652E-01 +9.599311E-01 +0.000000E+00     +1.745329E-01 +8.726646E-01 +0.000000E+00     +3.752458E+00 +1.047198E+00 +0.000000E+00     +1.221730E+00 +7.853982E-01 +0.000000E+00     +2.705260E+00 +9.599311E-01 +0.000000E+00     +4.101524E+00 +4.363323E-01 +0.000000E+00    
 +5.061455E+00 +1.134464E+00 +0.000000E+00     +4.014257E+00 +1.396263E+00 +0.000000E+00     +3.665191E+00 +2.617994E-01 +0.000000E+00     +8.726646E-02 +1.221730E+00 +0.000000E+00     +6.283185E+00 +6.108652E-01 +0.000000E+00     +6.108652E-01 +9.599311E-01 +0.000000E+00     +2.007129E+00 +1.134464E+00 +0.000000E+00    
 +3.054326E+00 +1.047198E+00 +0.000000E+00     +1.396263E+00 +1.396263E+00 +0.000000E+00     +1.745329E-01 +5.235988E-01 +0.000000E+00     +5.410521E+00 +1.047198E+00 +0.000000E+00     +2.443461E+00 +8.726646E-01 +0.000000E+00     +5.934119E+00 +1.396263E+00 +0.000000E+00     +2.356194E+00 +1.047198E+00 +0.000000E+00    
 +1.134464E+00 +1.047198E+00 +0.000000E+00     +3.490659E+00 +1.396263E+00 +0.000000E+00     +6.021386E+00 +9.599311E-01 +0.000000E+00     +4.276057E+00 +1.396263E+00 +0.000000E+00     +1.134464E+00 +1.221730E+00 +0.000000E+00     +3.490659E-01 +6.981317E-01 +0.000000E+00     +1.308997E+00 +2.617994E-01 +0.000000E+00    
 +3.926991E+00 +1.047198E+00 +0.000000E+00     +5.323254E+00 +6.981317E-01 +0.000000E+00     +5.235988E-01 +8.726646E-02 +0.000000E+00     +7.853982E-01 +5.235988E-01 +0.000000E+00     +2.705260E+00 +3.490659E-01 +0.000000E+00     +2.268928E+00 +2.617994E-01 +0.000000E+00     +4.188790E+00 +9.599311E-01 +0.000000E+00    
 +3.490659E+00 +9.599311E-01 +0.000000E+00     +8.726646E-02 +1.396263E+00 +0.000000E+00     +1.308997E+00 +8.726646E-02 +0.000000E+00     +5.323254E+00 +1.221730E+00 +0.000000E+00     +3.403392E+00 +9.599311E-01 +0.000000E+00     +5.148721E+00 +3.490659E-01 +0.000000E+00     +1.308997E+00 +8.726646E-01 +0.000000E+00    
 +4.101524E+00 +5.235988E-01 +0.000000E+00     +1.832596E+00 +1.134464E+00 +0.000000E+00     +1.308997E+00 +3.490659E-01 +0.000000E+00     +1.919862E+00 +1.221730E+00 +0.000000E+00     +6.283185E+00 +1.047198E+00 +0.000000E+00     +5.148721E+00 +5.235988E-01 +0.000000E+00     +1.658063E+00 +2.617994E-01 +0.000000E+00    
 +1.483530E+00 +2.617994E-01 +0.000000E+00     +2.705260E+00 +1.396263E+00 +0.000000E+00     +5.934119E+00 +1.396263E+00 +0.000000E+00     +4.363323E+00 +1.221730E+00 +0.000000E+00     +1.570796E+00 +6.108652E-01 +0.000000E+00     +4.974188E+00 +1.308997E+00 +0.000000E+00     +1.745329E+00 +1.134464E+00 +0.000000E+00    
 +4.188790E+00 +3.490659E-01 +0.000000E+00     +2.617994E-01 +1.047198E+00 +0.000000E+00     +1.832596E+00 +1.483530E+00 +0.000000E+00     +5.846853E+00 +2.617994E-01 +0.000000E+00     +4.625123E+00 +3.490659E-01 +0.000000E+00     +3.228859E+00 +1.745329E-01 +0.000000E+00     +4.363323E+00 +1.134464E+00 +0.000000E+00    
 +2.094395E+00 +8.726646E-02 +0.000000E+00     +6.108652E+00 +1.134464E+00 +0.000000E+00     +4.276057E+00 +1.396263E+00 +0.000000E+00     +3.665191E+00 +8.726646E-01 +0.000000E+00     +4.537856E+00 +1.570796E+00 +0.000000E+00     +5.934119E+00 +2.617994E-01 +0.000000E+00     +4.450590E+00 +9.599311E-01 +0.000000E+00    
 +2.879793E+00 +5.235988E-01 +0.000000E+00     +5.672320E+00 +1.308997E+00 +0.000000E+00     +3.403392E+00 +9.599311E-01 +0.000000E+00     +3.316126E+00 +5.235988E-01 +0.000000E+00     +6.108652E-01 +6.981317E-01 +0.000000E+00     +3.665191E+00 +9.599311E-01 +0.000000E+00     +3.752458E+00 +1.483530E+00 +0.000000E+00    
 +5.934119E+00 +1.396263E+00 +0.000000E+00     +5.410521E+00 +1.570796E+00 +0.000000E+00     +6.108652E+00 +5.235988E-01 +0.000000E+00     +3.839724E+00 +8.726646E-02 +0.000000E+00     +6.283185E+00 +7.853982E-01 +0.000000E+00     +1.745329E-01 +8.726646E-02 +0.000000E+00     +3.403392E+00 +7.853982E-01 +0.000000E+00    
 +2.530727E+00 +9.599311E-01 +0.000000E+00     +3.752458E+00 +1.134464E+00 +0.000000E+00     +2.705260E+00 +1.308997E+00 +0.000000E+00     +2.356194E+00 +1.570796E+00 +0.000000E+00     +6.195919E+00 +8.726646E-01 +0.000000E+00     +3.403392E+00 +1.483530E+00 +0.000000E+00     +5.235988E-01 +1.047198E+00 +0.000000E+00    
 +1.483530E+00 +4.363323E-01 +0.000000E+00     +2.356194E+00 +1.047198E+00 +0.000000E+00     +4.974188E+00 +1.396263E+00 +0.000000E+00     +4.537856E+00 +4.363323E-01 +0.000000E+00     +2.268928E+00 +1.396263E+00 +0.000000E+00     +4.974188E+00 +1.745329E-01 +0.000000E+00     +1.221730E+00 +6.981317E-01 +0.000000E+00    
 +3.752458E+00 +6.981317E-01 +0.000000E+00     +2.356194E+00 +3.490659E-01 +0.000000E+00     +3.490659E+00 +1.570796E+00 +0.000000E+00     +3.141593E+00 +8.726646E-02 +0.000000E+00     +4.712389E+00 +4.363323E-01 +0.000000E+00     +3.839724E+00 +1.308997E+00 +0.000000E+00     +1.134464E+00 +3.490659E-01 +0.000000E+00    
 +2.530727E+00 +8.726646E-02 +0.000000E+00     +2.617994E+00 +3.490659E-01 +0.000000E+00     +5.323254E+00 +8.726646E-01 +0.000000E+00     +2.705260E+00 +6.981317E-01 +0.000000E+00     +1.308997E+00 +3.490659E-01 +0.000000E+00     +1.134464E+00 +1.221730E+00 +0.000000E+00     +6.283185E+00 +7.853982E-01 +0.000000E+00    
 +3.926991E+00 +9.599311E-01 +0.000000E+00     +5.497787E+00 +1.483530E+00 +0.000000E+00     +1.396263E+00 +1.047198E+00 +0.000000E+00     +3.926991E+00 +1.308997E+00 +0.000000E+00     +4.363323E+00 +4.363323E-01 +0.000000E+00     +1.658063E+00 +5.235988E-01 +0.000000E+00     +3.665191E+00 +5.235988E-01 +0.000000E+00    
 +4.363323E-01 +1.745329E-01 +0.000000E+00     +1.832596E+00 +4.363323E-01 +0.000000E+00     +7.853982E-01 +1.396263E+00 +0.000000E+00     +4.974188E+00 +1.047198E+00 +0.000000E+00     +6.108652E+00 +3.490659E-01 +0.000000E+00     +1.134464E+00 +1.221730E+00 +0.000000E+00     +3.926991E+00 +6.108652E-01 +0.000000E+00    
 +5.672320E+00 +1.570796E+00 +0.000000E+00     +6.021386E+00 +1.396263E+00 +0.000000E+00     +2.007129E+00 +9.599311E-01 +0.000000E+00     +2.356194E+00 +1.047198E+00 +0.000000E+00     +6.021386E+00 +6.981317E-01 +0.000000E+00     +3.403392E+00 +1.483530E+00 +0.000000E+00     +5.148721E+00 +1.134464E+00 +0.000000E+00    
 +6.021386E+00 +2.617994E-01 +0.000000E+00     +2.007129E+00 +2.617994E-01 +0.000000E+00     +7.853982E-01 +3.490659E-01 +0.000000E+00     +3.403392E+00 +3.490659E-01 +0.000000E+00     +3.316126E+00 +1.745329E-01 +0.000000E+00     +5.497787E+00 +3.490659E-01 +0.000000E+00     +3.665191E+00 +9.599311E-01 +0.000000E+00    
 +8.726646E-01 +1.745329E-01 +0.000000E+00     +5.410521E+00 +1.134464E+00 +0.000000E+00     +3.752458E+00 +5.235988E-01 +0.000000E+00     +5.934119E+00 +1.483530E+00 +0.000000E+00     +5.235988E-01 +1.221730E+00 +0.000000E+00     +3.054326E+00 +6.981317E-01 +0.000000E+00     +2.094395E+00 +1.134464E+00 +0.000000E+00    
 +5.410521E+00 +4.363323E-01 +0.000000E+00     +1.483530E+00 +1.047198E+00 +0.000000E+00     +1.047198E+00 +3.490659E-01 +0.000000E+00     +8.726646E-02 +1.221730E+00 +0.000000E+00     +5.323254E+00 +8.726646E-01 +0.000000E+00     +1.221730E+00 +6.108652E-01 +0.000000E+00     +2.007129E+00 +8.726646E-02 +0.000000E+00    
 +3.490659E-01 +1.047198E+00 +0.000000E+00     +2.530727E+00 +1.396263E+00 +0.000000E+00     +4.625123E+00 +6.981317E-01 +0.000000E+00     +1.483530E+00 +1.396263E+00 +0.000000E+00     +4.363323E+00 +7.853982E-01 +0.000000E+00     +4.799655E+00 +8.726646E-01 +0.000000E+00     +6.981317E-01 +4.363323E-01 +0.000000E+00    
 +2.792527E+00 +6.981317E-01 +0.000000E+00     +2.617994E-01 +4.363323E-01 +0.000000E+00     +2.094395E+00 +7.853982E-01 +0.000000E+00     +3.839724E+00 +1.221730E+00 +0.000000E+00     +6.195919E+00 +1.308997E+00 +0.000000E+00     +5.672320E+00 +6.108652E-01 +0.000000E+00     +3.490659E-01 +4.363323E-01 +0.000000E+00    
 +3.490659E+00 +8.726646E-02 +0.000000E+00     +1.396263E+00 +6.108652E-01 +0.000000E+00     +5.585054E+00 +1.308997E+00 +0.000000E+00     +1.658063E+00 +3.490659E-01 +0.000000E+00     +6.108652E+00 +1.134464E+00 +0.000000E+00     +3.054326E+00 +4.363323E-01 +0.000000E+00     +4.363323E-01 +1.483530E+00 +0.000000E+00    
 +3.490659E+00 +7.853982E-01 +0.000000E+00     +4.101524E+00 +8.726646E-01 +0.000000E+00     +4.188790E+00 +6.981317E-01 +0.000000E+00     +6.283185E+00 +1.483530E+00 +0.000000E+00     +3.926991E+00 +5.235988E-01 +0.000000E+00     +2.007129E+00 +1.134464E+00 +0.000000E+00     +3.054326E+00 +1.134464E+00 +0.000000E+00    
 +5.235988E-01 +1.745329E-01 +0.000000E+00     +5.410521E+00 +5.235988E-01 +0.000000E+00     +3.577925E+00 +7.853982E-01 +0.000000E+00     +3.752458E+00 +1.745329E-01 +0.000000E+00     +3.926991E+00 +1.047198E+00 +0.000000E+00     +3.316126E+00 +2.617994E-01 +0.000000E+00     +3.926991E+00 +5.235988E-01 +0.000000E+00    
 +3.141593E+00 +6.981317E-01 +0.000000E+00     +5.410521E+00 +6.981317E-01 +0.000000E+00     +2.094395E+00 +1.047198E+00 +0.000000E+00     +1.396263E+00 +1.221730E+00 +0.000000E+00     +9.599311E-01 +1.308997E+00 +0.000000E+00     +2.181662E+00 +7.853982E-01 +0.000000E+00     +3.228859E+00 +9.599311E-01 +0.000000E+00    
 +6.283185E+00 +6.108652E-01 +0.000000E+00     +2.705260E+00 +1.134464E+00 +0.000000E+00     +8.726646E-02 +1.396263E+00 +0.000000E+00     +5.934119E+00 +1.134464E+00 +0.000000E+00     +1.396263E+00 +1.745329E-01 +0.000000E+00     +6.981317E-01 +7.853982E-01 +0.000000E+00     +4.450590E+00 +1.047198E+00 +0.000000E+00    
 +2.181662E+00 +1.570796E+00 +0.000000E+00     +5.672320E+00 +1.134464E+00 +0.000000E+00     +1.047198E+00 +2.617994E-01 +0.000000E+00     +2.530727E+00 +1.134464E+00 +0.000000E+00     +4.101524E+00 +4.363323E-01 +0.000000E+00     +5.061455E+00 +2.617994E-01 +0.000000E+00     +4.537856E+00 +6.108652E-01 +0.000000E+00    
 +5.672320E+00 +1.570796E+00 +0.000000E+00     +2.792527E+00 +5.235988E-01 +0.000000E+00     +1.483530E+00 +1.047198E+00 +0.000000E+00     +4.537856E+00 +7.853982E-01 +0.000000E+00     +2.007129E+00 +8.726646E-02 +0.000000E+00     +3.054326E+00 +7.853982E-01 +0.000000E+00     +3.403392E+00 +4.363323E-01 +0.000000E+00    
 +5.323254E+00 +5.235988E-01 +0.000000E+00     +1.308997E+00 +3.490659E-01 +0.000000E+00     +4.450590E+00 +4.363323E-01 +0.000000E+00     +3.752458E+00 +1.221730E+00 +0.000000E+00     +3.316126E+00 +1.134464E+00 +0.000000E+00     +1.308997E+00 +4.363323E-01 +0.000000E+00     +1.658063E+00 +1.745329E-01 +0.000000E+00    
 +2.443461E+00 +1.483530E+00 +0.000000E+00     +4.974188E+00 +1.745329E-01 +0.000000E+00     +2.007129E+00 +1.134464E+00 +0.000000E+00     +1.134464E+00 +4.363323E-01 +0.000000E+00     +3.926991E+00 +4.363323E-01 +0.000000E+00     +1.308997E+00 +3.490659E-01 +0.000000E+00     +6.108652E+00 +5.235988E-01 +0.000000E+00    
 +2.007129E+00 +3.490659E-01 +0.000000E+00     +2.617994E+00 +1.745329E-01 +0.000000E+00     +5.934119E+00 +6.981317E-01 +0.000000E+00     +3.054326E+00 +1.396263E+00 +0.000000E+00     +5.672320E+00 +1.483530E+00 +0.000000E+00     +7.853982E-01 +8.726646E-02 +0.000000E+00     +3.228859E+00 +1.483530E+00 +0.000000E+00    
 +4.188790E+00 +9.599311E-01 +0.000000E+00     +1.047198E+00 +1.745329E-01 +0.000000E+00     +5.410521E+00 +1.134464E+00 +0.000000E+00     +5.497787E+00 +7.853982E-01 +0.000000E+00     +1.658063E+00 +2.617994E-01 +0.000000E+00     +2.356194E+00 +6.108652E-01 +0.000000E+00     +1.134464E+00 +5.235988E-01 +0.000000E+00    
 +1.221730E+00 +1.396263E+00 +0.000000E+00     +3.577925E+00 +5.235988E-01 +0.000000E+00     +1.483530E+00 +1.134464E+00 +0.000000E+00     +4.363323E-01 +6.108652E-01 +0.000000E+00     +4.886922E+00 +4.363323E-01 +0.000000E+00     +6.108652E+00 +1.308997E+00 +0.000000E+00     +5.148721E+00 +5.235988E-01 +0.000000E+00    
 +3.490659E-01 +8.726646E-01 +0.000000E+00     +2.617994E+00 +1.745329E-01 +0.000000E+00     +5.846853E+00 +1.570796E+00 +0.000000E+00     +2.181662E+00 +2.617994E-01 +0.000000E+00     +5.323254E+00 +1.745329E-01 +0.000000E+00     +4.537856E+00 +1.221730E+00 +0.000000E+00     +2.181662E+00 +1.396263E+00 +0.000000E+00    
 +1.570796E+00 +1.745329E-01 +0.000000E+00     +2.617994E+00 +1.570796E+00 +0.000000E+00     +3.316126E+00 +5.235988E-01 +0.000000E+00     +3.839724E+00 +2.617994E-01 +0.000000E+00     +7.853982E-01 +6.981317E-01 +0.000000E+00     +2.617994E+00 +1.483530E+00 +0.000000E+00     +6.283185E+00 +1.570796E+00 +0.000000E+00    
 +6.108652E+00 +5.235988E-01 +0.000000E+00     +1.483530E+00 +2.617994E-01 +0.000000E+00     +5.410521E+00 +6.981317E-01 +0.000000E+00     +6.195919E+00 +5.235988E-01 +0.000000E+00     +6.195919E+00 +1.221730E+00 +0.000000E+00     +6.283185E+00 +1.047198E+00 +0.000000E+00     +2.356194E+00 +2.617994E-01 +0.000000E+00    
 +6.108652E-01 +2.617994E-01 +0.000000E+00     +5.759587E+00 +1.570796E+00 +0.000000E+00     +6.108652E+00 +1.308997E+00 +0.000000E+00     +2.967060E+00 +3.490659E-01 +0.000000E+00     +4.188790E+00 +9.599311E-01 +0.000000E+00     +4.363323E-01 +2.617994E-01 +0.000000E+00     +2.094395E+00 +4.363323E-01 +0.000000E+00    
 +3.490659E-01 +7.853982E-01 +0.000000E+00     +1.658063E+00 +1.047198E+00 +0.000000E+00     +4.363323E-01 +4.363323E-01 +0.000000E+00     +4.886922E+00 +4.363323E-01 +0.000000E+00     +1.396263E+00 +9.599311E-01 +0.000000E+00     +5.148721E+00 +7.853982E-01 +0.000000E+00     +3.490659E-01 +1.745329E-01 +0.000000E+00    
 +2.268928E+00 +1.134464E+00 +0.000000E+00     +2.007129E+00 +1.483530E+00 +0.000000E+00     +2.879793E+00 +3.490659E-01 +0.000000E+00     +5.497787E+00 +4.363323E-01 +0.000000E+00     +5.585054E+00 +6.981317E-01 +0.000000E+00     +6.195919E+00 +1.134464E+00 +0.000000E+00     +4.625123E+00 +1.221730E+00 +0.000000E+00    
 +3.839724E+00 +4.363323E-01 +0.000000E+00     +1.308997E+00 +1.483530E+00 +0.000000E+00     +4.363323E-01 +1.308997E+00 +0.000000E+00     +5.759587E+00 +1.570796E+00 +0.000000E+00     +2.443461E+00 +1.047198E+00 +0.000000E+00     +4.625123E+00 +8.726646E-02 +0.000000E+00     +4.537856E+00 +1.047198E+00 +0.000000E+00    
 +1.919862E+00 +1.308997E+00 +0.000000E+00     +4.712389E+00 +5.235988E-01 +0.000000E+00     +2.879793E+00 +1.134464E+00 +0.000000E+00     +4.537856E+00 +7.853982E-01 +0.000000E+00     +2.705260E+00 +1.134464E+00 +0.000000E+00     +4.450590E+00 +1.570796E+00 +0.000000E+00     +2.879793E+00 +1.047198E+00 +0.000000E+00    
 +4.886922E+00 +3.490659E-01 +0.000000E+00     +4.625123E+00 +1.308997E+00 +0.000000E+00     +2.007129E+00 +1.134464E+00 +0.000000E+00     +6.283185E+00 +3.490659E-01 +0.000000E+00     +3.490659E-01 +1.745329E-01 +0.000000E+00     +9.599311E-01 +9.599311E-01 +0.000000E+00     +5.672320E+00 +1.570796E+00 +0.000000E+00    
 +1.745329E+00 +3.490659E-01 +0.000000E+00     +2.007129E+00 +8.726646E-02 +0.000000E+00     +9.599311E-01 +1.221730E+00 +0.000000E+00     +5.323254E+00 +2.617994E-01 +0.000000E+00     +1.658063E+00 +1.483530E+00 +0.000000E+00     +2.181662E+00 +8.726646E-02 +0.000000E+00     +4.014257E+00 +8.726646E-02 +0.000000E+00    
 +2.792527E+00 +4.363323E-01 +0.000000E+00     +3.577925E+00 +8.726646E-01 +0.000000E+00     +6.195919E+00 +1.221730E+00 +0.000000E+00     +3.752458E+00 +6.981317E-01 +0.000000E+00     +1.047198E+00 +2.617994E-01 +0.000000E+00     +4.014257E+00 +1.134464E+00 +0.000000E+00     +4.799655E+00 +1.745329E-01 +0.000000E+00    
 +6.021386E+00 +1.570796E+00 +0.000000E+00     +3.054326E+00 +1.134464E+00 +0.000000E+00     +1.396263E+00 +1.047198E+00 +0.000000E+00     +3.665191E+00 +1.308997E+00 +0.000000E+00     +3.752458E+00 +1.221730E+00 +0.000000E+00     +2.879793E+00 +9.599311E-01 +0.000000E+00     +5.410521E+00 +1.396263E+00 +0.000000E+00    
 +5.497787E+00 +9.599311E-01 +0.000000E+00     +5.323254E+00 +1.483530E+00 +0.000000E+00     +6.108652E-01 +5.235988E-01 +0.000000E+00     +3.752458E+00 +5.235988E-01 +0.000000E+00     +2.007129E+00 +7.853982E-01 +0.000000E+00     +3.141593E+00 +1.221730E+00 +0.000000E+00     +2.094395E+00 +6.981317E-01 +0.000000E+00    
 +5.846853E+00 +1.047198E+00 +0.000000E+00     +5.759587E+00 +1.134464E+00 +0.000000E+00     +4.886922E+00 +1.047198E+00 +0.000000E+00     +5.672320E+00 +1.570796E+00 +0.000000E+00     +3.839724E+00 +6.108652E-01 +0.000000E+00     +3.490659E-01 +8.726646E-02 +0.000000E+00     +3.316126E+00 +3.490659E-01 +0.000000E+00    
 +2.007129E+00 +1.221730E+00 +0.000000E+00     +1.483530E+00 +1.570796E+00 +0.000000E+00     +3.839724E+00 +1.221730E+00 +0.000000E+00     +4.450590E+00 +8.726646E-02 +0.000000E+00     +8.726646E-02 +1.134464E+00 +0.000000E+00     +8.726646E-01 +1.570796E+00 +0.000000E+00     +1.658063E+00 +9.599311E-01 +0.000000E+00    
 +4.101524E+00 +7.853982E-01 +0.000000E+00     +5.061455E+00 +6.981317E-01 +0.000000E+00     +3.926991E+00 +1.308997E+00 +0.000000E+00     +2.705260E+00 +7.853982E-01 +0.000000E+00     +2.617994E-01 +6.108652E-01 +0.000000E+00     +8.726646E-02 +7.853982E-01 +0.000000E+00     +6.108652E+00 +4.363323E-01 +0.000000E+00    
 +5.148721E+00 +6.981317E-01 +0.000000E+00     +6.108652E+00 +1.396263E+00 +0.000000E+00     +2.792527E+00 +6.108652E-01 +0.000000E+00     +5.672320E+00 +5.235988E-01 +0.000000E+00     +2.792527E+00 +1.745329E-01 +0.000000E+00     +5.759587E+00 +1.047198E+00 +0.000000E+00     +1.483530E+00 +8.726646E-01 +0.000000E+00    
 +3.490659E+00 +1.745329E-01 +0.000000E+00     +2.268928E+00 +6.108652E-01 +0.000000E+00     +4.974188E+00 +1.745329E-01 +0.000000E+00     +5.585054E+00 +6.981317E-01 +0.000000E+00     +3.665191E+00 +1.396263E+00 +0.000000E+00     +5.148721E+00 +8.726646E-01 +0.000000E+00     +1.308997E+00 +1.745329E-01 +0.000000E+00    
 +9.599311E-01 +9.599311E-01 +0.000000E+00     +4.974188E+00 +1.483530E+00 +0.000000E+00     +5.323254E+00 +6.108652E-01 +0.000000E+00     +4.537856E+00 +4.363323E-01 +0.000000E+00     +6.283185E+00 +1.221730E+00 +0.000000E+00     +6.108652E+00 +1.570796E+00 +0.000000E+00     +6.021386E+00 +1.396263E+00 +0.000000E+00    
 +4.974188E+00 +2.617994E-01 +0.000000E+00     +6.108652E-01 +6.981317E-01 +0.000000E+00     +5.846853E+00 +1.047198E+00 +0.000000E+00     +6.283185E+00 +6.981317E-01 +0.000000E+00     +3.316126E+00 +1.483530E+00 +0.000000E+00     +4.101524E+00 +2.617994E-01 +0.000000E+00     +2.792527E+00 +1.570796E+00 +0.000000E+00    
 +4.625123E+00 +8.726646E-01 +0.000000E+00     +5.672320E+00 +1.570796E+00 +0.000000E+00     +1.221730E+00 +8.726646E-01 +0.000000E+00     +2.705260E+00 +3.490659E-01 +0.000000E+00     +8.726646E-02 +1.221730E+00 +0.000000E+00     +3.752458E+00 +8.726646E-01 +0.000000E+00     +4.363323E+00 +8.726646E-02 +0.000000E+00    
 +6.021386E+00 +2.617994E-01 +0.000000E+00     +4.537856E+00 +9.599311E-01 +0.000000E+00     +2.617994E-01 +7.853982E-01 +0.000000E+00     +4.014257E+00 +1.134464E+00 +0.000000E+00     +6.283185E+00 +3.490659E-01 +0.000000E+00     +1.919862E+00 +1.221730E+00 +0.000000E+00     +2.094395E+00 +1.570796E+00 +0.000000E+00    
 +4.625123E+00 +1.570796E+00 +0.000000E+00     +2.356194E+00 +4.363323E-01 +0.000000E+00     +2.268928E+00 +1.308997E+00 +0.000000E+00     +6.021386E+00 +6.981317E-01 +0.000000E+00     +3.665191E+00 +1.396263E+00 +0.000000E+00     +2.268928E+00 +1.134464E+00 +0.000000E+00     +3.316126E+00 +6.108652E-01 +0.000000E+00    
 +8.726646E-02 +1.221730E+00 +0.000000E+00     +3.403392E+00 +4.363323E-01 +0.000000E+00     +1.658063E+00 +6.108652E-01 +0.000000E+00     +1.745329E-01 +1.221730E+00 +0.000000E+00     +4.363323E-01 +7.853982E-01 +0.000000E+00     +2.356194E+00 +1.134464E+00 +0.000000E+00     +2.007129E+00 +1.570796E+00 +0.000000E+00    
 +2.705260E+00 +2.617994E-01 +0.000000E+00     +7.853982E-01 +1.570796E+00 +0.000000E+00     +5.148721E+00 +1.134464E+00 +0.000000E+00     +2.268928E+00 +1.221730E+00 +0.000000E+00     +2.967060E+00 +6.981317E-01 +0.000000E+00     +2.705260E+00 +2.617994E-01 +0.000000E+00     +4.014257E+00 +1.483530E+00 +0.000000E+00    
 +4.625123E+00 +2.617994E-01 +0.000000E+00     +4.799655E+00 +1.483530E+00 +0.000000E+00     +5.148721E+00 +8.726646E-02 +0.000000E+00     +1.221730E+00 +1.396263E+00 +0.000000E+00     +5.235988E-01 +7.853982E-01 +0.000000E+00     +4.625123E+00 +5.235988E-01 +0.000000E+00     +4.712389E+00 +2.617994E-01 +0.000000E+00    
 +3.752458E+00 +6.981317E-01 +0.000000E+00     +4.188790E+00 +5.235988E-01 +0.000000E+00     +4.974188E+00 +1.134464E+00 +0.000000E+00     +4.799655E+00 +1.221730E+00 +0.000000E+00     +4.537856E+00 +6.108652E-01 +0.000000E+00     +5.323254E+00 +1.134464E+00 +0.000000E+00     +4.886922E+00 +1.047198E+00 +0.000000E+00    
 +5.323254E+00 +1.396263E+00 +0.000000E+00     +5.061455E+00 +1.047198E+00 +0.000000E+00     +5.846853E+00 +1.134464E+00 +0.000000E+00     +5.672320E+00 +1.308997E+00 +0.000000E+00     +3.839724E+00 +1.483530E+00 +0.000000E+00     +2.967060E+00 +4.363323E-01 +0.000000E+00     +2.705260E+00 +1.570796E+00 +0.000000E+00    
 +6.108652E-01 +1.308997E+00 +0.000000E+00     +3.316126E+00 +1.396263E+00 +0.000000E+00     +1.483530E+00 +8.726646E-02 +0.000000E+00     +4.886922E+00 +1.570796E+00 +0.000000E+00     +1.658063E+00 +8.726646E-01 +0.000000E+00     +4.450590E+00 +3.490659E-01 +0.000000E+00     +3.316126E+00 +1.308997E+00 +0.000000E+00    
 +2.443461E+00 +1.221730E+00 +0.000000E+00     +5.934119E+00 +7.853982E-01 +0.000000E+00     +1.221730E+00 +3.490659E-01 +0.000000E+00     +4.014257E+00 +7.853982E-01 +0.000000E+00     +4.450590E+00 +1.570796E+00 +0.000000E+00     +6.021386E+00 +7.853982E-01 +0.000000E+00     +3.054326E+00 +7.853982E-01 +0.000000E+00    
 +6.981317E-01 +1.221730E+00 +0.000000E+00     +2.268928E+00 +6.981317E-01 +0.000000E+00     +4.363323E+00 +1.308997E+00 +0.000000E+00     +3.490659E+00 +1.745329E-01 +0.000000E+00     +2.268928E+00 +1.308997E+00 +0.000000E+00     +2.007129E+00 +1.396263E+00 +0.000000E+00     +3.490659E-01 +8.726646E-01 +0.000000E+00    
 +3.228859E+00 +1.745329E-01 +0.000000E+00     +1.745329E+00 +4.363323E-01 +0.000000E+00     +5.846853E+00 +1.047198E+00 +0.000000E+00     +3.141593E+00 +1.134464E+00 +0.000000E+00     +1.745329E-01 +1.308997E+00 +0.000000E+00     +4.537856E+00 +1.570796E+00 +0.000000E+00     +8.726646E-01 +8.726646E-01 +0.000000E+00    
 +9.599311E-01 +7.853982E-01 +0.000000E+00     +3.752458E+00 +1.483530E+00 +0.000000E+00     +1.134464E+00 +9.599311E-01 +0.000000E+00     +5.235988E-01 +1.134464E+00 +0.000000E+00     +6.981317E-01 +1.396263E+00 +0.000000E+00     +3.490659E+00 +9.599311E-01 +0.000000E+00     +4.712389E+00 +1.308997E+00 +0.000000E+00    
 +6.981317E-01 +6.981317E-01 +0.000000E+00     +4.886922E+00 +6.108652E-01 +0.000000E+00     +6.195919E+00 +3.490659E-01 +0.000000E+00     +4.625123E+00 +9.599311E-01 +0.000000E+00     +7.853982E-01 +1.221730E+00 +0.000000E+00     +2.007129E+00 +8.726646E-01 +0.000000E+00     +8.726646E-02 +4.363323E-01 +0.000000E+00    
 +2.967060E+00 +1.047198E+00 +0.000000E+00     +6.283185E+00 +7.853982E-01 +0.000000E+00     +2.879793E+00 +5.235988E-01 +0.000000E+00     +6.108652E-01 +2.617994E-01 +0.000000E+00     +4.799655E+00 +2.617994E-01 +0.000000E+00     +9.599311E-01 +1.483530E+00 +0.000000E+00     +1.832596E+00 +3.490659E-01 +0.000000E+00    
 +2.443461E+00 +4.363323E-01 +0.000000E+00     +3.839724E+00 +7.853982E-01 +0.000000E+00     +1.919862E+00 +1.396263E+00 +0.000000E+00     +2.268928E+00 +1.221730E+00 +0.000000E+00     +4.014257E+00 +6.981317E-01 +0.000000E+00     +4.363323E+00 +1.745329E-01 +0.000000E+00     +8.726646E-02 +1.047198E+00 +0.000000E+00    
 +1.483530E+00 +1.745329E-01 +0.000000E+00     +4.276057E+00 +6.981317E-01 +0.000000E+00     +5.934119E+00 +1.396263E+00 +0.000000E+00     +2.617994E-01 +8.726646E-01 +0.000000E+00     +1.745329E-01 +2.617994E-01 +0.000000E+00     +3.490659E-01 +1.047198E+00 +0.000000E+00     +2.356194E+00 +6.108652E-01 +0.000000E+00    
 +6.021386E+00 +1.483530E+00 +0.000000E+00     +4.799655E+00 +1.483530E+00 +0.000000E+00     +3.665191E+00 +8.726646E-01 +0.000000E+00     +6.283185E+00 +6.981317E-01 +0.000000E+00     +5.235988E-01 +7.853982E-01 +0.000000E+00     +6.981317E-01 +3.490659E-01 +0.000000E+00     +4.712389E+00 +3.490659E-01 +0.000000E+00    
 +2.094395E+00 +2.617994E-01 +0.000000E+00     +6.108652E-01 +1.221730E+00 +0.000000E+00     +2.356194E+00 +6.981317E-01 +0.000000E+00     +6.108652E-01 +1.308997E+00 +0.000000E+00     +5.061455E+00 +6.108652E-01 +0.000000E+00     +6.981317E-01 +9.599311E-01 +0.000000E+00     +4.537856E+00 +1.047198E+00 +0.000000E+00    
 +1.658063E+00 +1.396263E+00 +0.000000E+00     +4.974188E+00 +1.308997E+00 +0.000000E+00     +2.705260E+00 +1.745329E-01 +0.000000E+00     +5.934119E+00 +4.363323E-01 +0.000000E+00     +2.443461E+00 +1.483530E+00 +0.000000E+00     +2.705260E+00 +6.108652E-01 +0.000000E+00     +2.617994E+00 +8.726646E-01 +0.000000E+00    
 +1.570796E+00 +7.853982E-01 +0.000000E+00     +2.443461E+00 +8.726646E-02 +0.000000E+00     +1.308997E+00 +3.490659E-01 +0.000000E+00     +4.537856E+00 +1.483530E+00 +0.000000E+00     +4.363323E+00 +1.570796E+00 +0.000000E+00     +4.537856E+00 +1.308997E+00 +0.000000E+00     +6.108652E-01 +5.235988E-01 +0.000000E+00    
 +3.403392E+00 +3.490659E-01 +0.000000E+00     +7.853982E-01 +6.108652E-01 +0.000000E+00     +6.283185E+00 +5.235988E-01 +0.000000E+00     +2.356194E+00 +1.047198E+00 +0.000000E+00     +5.585054E+00 +6.108652E-01 +0.000000E+00     +4.799655E+00 +8.726646E-01 +0.000000E+00     +6.981317E-01 +9.599311E-01 +0.000000E+00    
 +7.853982E-01 +4.363323E-01 +0.000000E+00     +4.625123E+00 +1.134464E+00 +0.000000E+00     +6.283185E+00 +1.745329E-01 +0.000000E+00     +1.570796E+00 +1.483530E+00 +0.000000E+00     +5.759587E+00 +1.047198E+00 +0.000000E+00     +5.061455E+00 +1.396263E+00 +0.000000E+00     +8.726646E-02 +7.853982E-01 +0.000000E+00    
 +1.919862E+00 +6.108652E-01 +0.000000E+00     +1.221730E+00 +1.308997E+00 +0.000000E+00     +1.832596E+00 +9.599311E-01 +0.000000E+00     +3.926991E+00 +1.396263E+00 +0.000000E+00     +1.308997E+00 +9.599311E-01 +0.000000E+00     +1.745329E-01 +7.853982E-01 +0.000000E+00     +4.625123E+00 +1.047198E+00 +0.000000E+00    
 +3.926991E+00 +1.308997E+00 +0.000000E+00     +4.625123E+00 +2.617994E-01 +0.000000E+00     +3.054326E+00 +3.490659E-01 +0.000000E+00     +5.061455E+00 +1.047198E+00 +0.000000E+00     +5.323254E+00 +1.396263E+00 +0.000000E+00     +4.014257E+00 +9.599311E-01 +0.000000E+00     +1.047198E+00 +6.981317E-01 +0.000000E+00    
 +2.268928E+00 +6.108652E-01 +0.000000E+00     +4.276057E+00 +3.490659E-01 +0.000000E+00     +5.235988E-01 +6.981317E-01 +0.000000E+00     +6.283185E+00 +1.570796E+00 +0.000000E+00     +8.726646E-02 +6.981317E-01 +0.000000E+00     +3.403392E+00 +1.047198E+00 +0.000000E+00     +6.108652E-01 +1.047198E+00 +0.000000E+00    
 +1.658063E+00 +1.570796E+00 +0.000000E+00     +1.832596E+00 +3.490659E-01 +0.000000E+00     +6.195919E+00 +6.108652E-01 +0.000000E+00     +2.530727E+00 +8.726646E-01 +0.000000E+00     +4.363323E+00 +1.483530E+00 +0.000000E+00     +2.356194E+00 +9.599311E-01 +0.000000E+00     +2.094395E+00 +1.134464E+00 +0.000000E+00    
 +2.094395E+00 +5.235988E-01 +0.000000E+00     +1.047198E+00 +1.745329E-01 +0.000000E+00     +4.363323E+00 +1.134464E+00 +0.000000E+00     +3.926991E+00 +1.745329E-01 +0.000000E+00     +3.752458E+00 +1.047198E+00 +0.000000E+00     +5.759587E+00 +1.221730E+00 +0.000000E+00     +3.490659E+00 +1.570796E+00 +0.000000E+00    
 +4.014257E+00 +6.981317E-01 +0.000000E+00     +5.235988E+00 +1.570796E+00 +0.000000E+00     +1.919862E+00 +1.483530E+00 +0.000000E+00     +5.585054E+00 +8.726646E-02 +0.000000E+00     +3.228859E+00 +8.726646E-01 +0.000000E+00     +5.585054E+00 +8.726646E-02 +0.000000E+00     +8.726646E-01 +1.745329E-01 +0.000000E+00    
 +5.235988E+00 +5.235988E-01 +0.000000E+00     +6.108652E-01 +5.235988E-01 +0.000000E+00     +3.665191E+00 +1.221730E+00 +0.000000E+00     +2.530727E+00 +1.570796E+00 +0.000000E+00     +5.759587E+00 +6.108652E-01 +0.000000E+00     +2.181662E+00 +7.853982E-01 +0.000000E+00     +5.672320E+00 +6.981317E-01 +0.000000E+00    
 +2.617994E+00 +1.483530E+00 +0.000000E+00     +2.530727E+00 +1.134464E+00 +0.000000E+00     +2.530727E+00 +5.235988E-01 +0.000000E+00     +5.061455E+00 +6.981317E-01 +0.000000E+00     +4.625123E+00 +1.483530E+00 +0.000000E+00     +4.974188E+00 +1.396263E+00 +0.000000E+00     +3.752458E+00 +9.599311E-01 +0.000000E+00    
 +3.054326E+00 +7.853982E-01 +0.000000E+00     +4.799655E+00 +6.981317E-01 +0.000000E+00     +3.665191E+00 +1.745329E-01 +0.000000E+00     +2.443461E+00 +1.308997E+00 +0.000000E+00     +2.443461E+00 +2.617994E-01 +0.000000E+00     +4.363323E+00 +1.308997E+00 +0.000000E+00     +1.308997E+00 +9.599311E-01 +0.000000E+00    
 +2.356194E+00 +1.483530E+00 +0.000000E+00     +4.363323E+00 +4.363323E-01 +0.000000E+00     +1.570796E+00 +1.134464E+00 +0.000000E+00     +1.396263E+00 +8.726646E-01 +0.000000E+00     +6.981317E-01 +1.745329E-01 +0.000000E+00     +3.665191E+00 +1.396263E+00 +0.000000E+00     +1.221730E+00 +8.726646E-01 +0.000000E+00    
 +4.363323E+00 +9.599311E-01 +0.000000E+00     +6.195919E+00 +1.483530E+00 +0.000000E+00     +3.490659E+00 +9.599311E-01 +0.000000E+00     +6.021386E+00 +1.570796E+00 +0.000000E+00     +1.221730E+00 +7.853982E-01 +0.000000E+00     +2.617994E-01 +1.570796E+00 +0.000000E+00     +5.934119E+00 +1.483530E+00 +0.000000E+00    
 +2.530727E+00 +1.308997E+00 +0.000000E+00     +1.308997E+00 +5.235988E-01 +0.000000E+00     +3.926991E+00 +6.981317E-01 +0.000000E+00     +6.021386E+00 +1.221730E+00 +0.000000E+00     +2.617994E+00 +5.235988E-01 +0.000000E+00     +3.577925E+00 +1.570796E+00 +0.000000E+00     +4.363323E-01 +1.308997E+00 +0.000000E+00    
 +2.268928E+00 +1.134464E+00 +0.000000E+00     +5.934119E+00 +7.853982E-01 +0.000000E+00     +4.363323E-01 +1.047198E+00 +0.000000E+00     +8.726646E-02 +8.726646E-02 +0.000000E+00     +2.879793E+00 +1.221730E+00 +0.000000E+00     +3.839724E+00 +5.235988E-01 +0.000000E+00     +5.235988E+00 +1.396263E+00 +0.000000E+00    
 +4.974188E+00 +9.599311E-01 +0.000000E+00     +5.235988E-01 +5.235988E-01 +0.000000E+00     +4.625123E+00 +3.490659E-01 +0.000000E+00     +4.014257E+00 +7.853982E-01 +0.000000E+00     +6.108652E-01 +1.745329E-01 +0.000000E+00     +4.974188E+00 +8.726646E-02 +0.000000E+00     +1.134464E+00 +9.599311E-01 +0.000000E+00    
 +4.014257E+00 +6.108652E-01 +0.000000E+00     +4.363323E+00 +6.981317E-01 +0.000000E+00     +9.599311E-01 +3.490659E-01 +0.000000E+00     +1.134464E+00 +1.570796E+00 +0.000000E+00     +2.356194E+00 +1.134464E+00 +0.000000E+00     +6.195919E+00 +1.221730E+00 +0.000000E+00     +3.490659E+00 +1.134464E+00 +0.000000E+00    
 +5.934119E+00 +4.363323E-01 +0.000000E+00     +2.268928E+00 +2.617994E-01 +0.000000E+00     +4.799655E+00 +8.726646E-02 +0.000000E+00     +2.007129E+00 +1.221730E+00 +0.000000E+00     +3.316126E+00 +1.308997E+00 +0.000000E+00     +4.625123E+00 +6.108652E-01 +0.000000E+00     +1.919862E+00 +9.599311E-01 +0.000000E+00    
 +6.981317E-01 +1.745329E-01 +0.000000E+00     +1.221730E+00 +1.396263E+00 +0.000000E+00     +3.577925E+00 +4.363323E-01 +0.000000E+00     +2.007129E+00 +6.981317E-01 +0.000000E+00     +2.007129E+00 +6.108652E-01 +0.000000E+00     +3.141593E+00 +6.108652E-01 +0.000000E+00     +1.483530E+00 +8.726646E-02 +0.000000E+00    
 +4.188790E+00 +4.363323E-01 +0.000000E+00     +6.021386E+00 +9.599311E-01 +0.000000E+00     +6.283185E+00 +1.570796E+00 +0.000000E+00     +2.268928E+00 +3.490659E-01 +0.000000E+00     +2.356194E+00 +1.308997E+00 +0.000000E+00     +1.308997E+00 +1.570796E+00 +0.000000E+00     +3.577925E+00 +8.726646E-01 +0.000000E+00    
 +2.094395E+00 +1.745329E-01 +0.000000E+00     +2.530727E+00 +1.221730E+00 +0.000000E+00     +3.141593E+00 +5.235988E-01 +0.000000E+00     +4.799655E+00 +8.726646E-01 +0.000000E+00     +8.726646E-01 +3.490659E-01 +0.000000E+00     +3.141593E+00 +1.483530E+00 +0.000000E+00     +6.283185E+00 +1.570796E+00 +0.000000E+00    
 +9.599311E-01 +1.396263E+00 +0.000000E+00     +4.276057E+00 +1.570796E+00 +0.000000E+00     +8.726646E-01 +1.047198E+00 +0.000000E+00     +3.054326E+00 +6.108652E-01 +0.000000E+00     +3.490659E+00 +5.235988E-01 +0.000000E+00     +2.356194E+00 +5.235988E-01 +0.000000E+00     +5.846853E+00 +1.047198E+00 +0.000000E+00    
 +6.283185E+00 +1.308997E+00 +0.000000E+00     +4.101524E+00 +8.726646E-02 +0.000000E+00     +4.450590E+00 +1.483530E+00 +0.000000E+00     +7.853982E-01 +3.490659E-01 +0.000000E+00     +5.672320E+00 +1.221730E+00 +0.000000E+00     +2.007129E+00 +6.108652E-01 +0.000000E+00     +5.410521E+00 +1.570796E+00 +0.000000E+00    
 +6.195919E+00 +1.047198E+00 +0.000000E+00     +5.585054E+00 +8.726646E-02 +0.000000E+00     +5.934119E+00 +8.726646E-01 +0.000000E+00     +1.047198E+00 +6.981317E-01 +0.000000E+00     +5.585054E+00 +3.490659E-01 +0.000000E+00     +1.396263E+00 +6.981317E-01 +0.000000E+00     +4.276057E+00 +1.047198E+00 +0.000000E+00    
 +5.061455E+00 +9.599311E-01 +0.000000E+00     +2.617994E-01 +1.134464E+00 +0.000000E+00     +1.221730E+00 +3.490659E-01 +0.000000E+00     +2.530727E+00 +1.396263E+00 +0.000000E+00     +1.221730E+00 +1.483530E+00 +0.000000E+00     +3.054326E+00 +9.599311E-01 +0.000000E+00     +5.235988E+00 +1.221730E+00 +0.000000E+00    
 +5.323254E+00 +2.617994E-01 +0.000000E+00     +2.967060E+00 +1.570796E+00 +0.000000E+00     +1.047198E+00 +3.490659E-01 +0.000000E+00     +5.672320E+00 +8.726646E-01 +0.000000E+00     +6.195919E+00 +5.235988E-01 +0.000000E+00     +5.235988E-01 +3.490659E-01 +0.000000E+00     +4.014257E+00 +1.221730E+00 +0.000000E+00    
 +3.490659E+00 +1.745329E-01 +0.000000E+00     +1.483530E+00 +4.363323E-01 +0.000000E+00     +6.108652E+00 +1.483530E+00 +0.000000E+00     +4.101524E+00 +8.726646E-02 +0.000000E+00     +3.490659E+00 +8.726646E-02 +0.000000E+00     +9.599311E-01 +6.108652E-01 +0.000000E+00     +6.981317E-01 +6.981317E-01 +0.000000E+00    
 +8.726646E-01 +8.726646E-02 +0.000000E+00     +2.530727E+00 +5.235988E-01 +0.000000E+00     +5.148721E+00 +8.726646E-01 +0.000000E+00     +2.007129E+00 +7.853982E-01 +0.000000E+00     +8.726646E-01 +1.396263E+00 +0.000000E+00     +1.832596E+00 +6.981317E-01 +0.000000E+00     +5.497787E+00 +8.726646E-02 +0.000000E+00    
 +3.228859E+00 +5.235988E-01 +0.000000E+00     +5.497787E+00 +8.726646E-01 +0.000000E+00     +8.726646E-01 +1.047198E+00 +0.000000E+00     +1.308997E+00 +1.308997E+00 +0.000000E+00     +3.665191E+00 +1.396263E+00 +0.000000E+00     +1.134464E+00 +6.108652E-01 +0.000000E+00     +4.450590E+00 +7.853982E-01 +0.000000E+00    
 +3.403392E+00 +8.726646E-02 +0.000000E+00     +6.108652E-01 +6.108652E-01 +0.000000E+00     +5.235988E-01 +1.396263E+00 +0.000000E+00     +2.007129E+00 +1.047198E+00 +0.000000E+00     +4.276057E+00 +3.490659E-01 +0.000000E+00     +2.879793E+00 +9.599311E-01 +0.000000E+00     +1.483530E+00 +2.617994E-01 +0.000000E+00    
 +4.101524E+00 +1.047198E+00 +0.000000E+00     +3.141593E+00 +1.396263E+00 +0.000000E+00     +1.658063E+00 +8.726646E-02 +0.000000E+00     +3.490659E+00 +1.047198E+00 +0.000000E+00     +4.537856E+00 +1.483530E+00 +0.000000E+00     +5.672320E+00 +1.134464E+00 +0.000000E+00     +1.221730E+00 +8.726646E-02 +0.000000E+00    
 +1.832596E+00 +1.483530E+00 +0.000000E+00     +5.235988E-01 +5.235988E-01 +0.000000E+00     +6.021386E+00 +1.483530E+00 +0.000000E+00     +5.061455E+00 +1.396263E+00 +0.000000E+00     +8.726646E-01 +8.726646E-01 +0.000000E+00     +3.054326E+00 +1.047198E+00 +0.000000E+00     +3.577925E+00 +1.047198E+00 +0.000000E+00    
 +4.450590E+00 +1.483530E+00 +0.000000E+00     +3.490659E+00 +1.221730E+00 +0.000000E+00     +3.926991E+00 +6.981317E-01 +0.000000E+00     +2.356194E+00 +1.570796E+00 +0.000000E+00     +6.283185E+00 +6.981317E-01 +0.000000E+00     +1.745329E+00 +1.308997E+00 +0.000000E+00     +5.497787E+00 +6.108652E-01 +0.000000E+00    
 +1.483530E+00 +1.483530E+00 +0.000000E+00     +1.221730E+00 +6.981317E-01 +0.000000E+00     +1.570796E+00 +1.570796E+00 +0.000000E+00     +6.108652E+00 +1.134464E+00 +0.000000E+00     +3.403392E+00 +7.853982E-01 +0.000000E+00     +3.403392E+00 +1.745329E-01 +0.000000E+00     +4.537856E+00 +8.726646E-02 +0.000000E+00    
 +6.195919E+00 +1.308997E+00 +0.000000E+00     +1.221730E+00 +1.134464E+00 +0.000000E+00     +1.221730E+00 +1.134464E+00 +0.000000E+00     +5.410521E+00 +1.221730E+00 +0.000000E+00     +4.014257E+00 +2.617994E-01 +0.000000E+00     +5.672320E+00 +1.483530E+00 +0.000000E+00     +1.832596E+00 +1.483530E+00 +0.000000E+00    
 +4.014257E+00 +1.308997E+00 +0.000000E+00     +5.410521E+00 +7.853982E-01 +0.000000E+00     +3.490659E+00 +1.483530E+00 +0.000000E+00     +5.410521E+00 +1.308997E+00 +0.000000E+00     +5.148721E+00 +1.745329E-01 +0.000000E+00     +4.537856E+00 +1.047198E+00 +0.000000E+00     +3.752458E+00 +4.363323E-01 +0.000000E+00    
 +2.617994E+00 +7.853982E-01 +0.000000E+00     +4.101524E+00 +1.221730E+00 +0.000000E+00     +4.712389E+00 +5.235988E-01 +0.000000E+00     +3.665191E+00 +6.981317E-01 +0.000000E+00     +2.181662E+00 +5.235988E-01 +0.000000E+00     +8.726646E-02 +9.599311E-01 +0.000000E+00     +3.490659E-01 +8.726646E-02 +0.000000E+00    
 +5.323254E+00 +2.617994E-01 +0.000000E+00     +4.276057E+00 +8.726646E-01 +0.000000E+00     +5.672320E+00 +1.308997E+00 +0.000000E+00     +4.625123E+00 +1.047198E+00 +0.000000E+00     +2.094395E+00 +1.570796E+00 +0.000000E+00     +3.926991E+00 +4.363323E-01 +0.000000E+00     +1.396263E+00 +5.235988E-01 +0.000000E+00    
 +9.599311E-01 +1.483530E+00 +0.000000E+00     +6.021386E+00 +2.617994E-01 +0.000000E+00     +4.363323E-01 +8.726646E-02 +0.000000E+00     +3.926991E+00 +2.617994E-01 +0.000000E+00     +4.188790E+00 +6.981317E-01 +0.000000E+00     +8.726646E-02 +1.134464E+00 +0.000000E+00     +5.846853E+00 +1.047198E+00 +0.000000E+00    
 +2.792527E+00 +8.726646E-02 +0.000000E+00     +5.934119E+00 +1.745329E-01 +0.000000E+00     +4.276057E+00 +1.047198E+00 +0.000000E+00     +5.410521E+00 +8.726646E-02 +0.000000E+00     +6.108652E+00 +3.490659E-01 +0.000000E+00     +3.316126E+00 +1.745329E-01 +0.000000E+00     +6.283185E+00 +6.108652E-01 +0.000000E+00    
 +4.276057E+00 +1.134464E+00 +0.000000E+00     +1.221730E+00 +2.617994E-01 +0.000000E+00     +4.537856E+00 +6.981317E-01 +0.000000E+00     +4.712389E+00 +4.363323E-01 +0.000000E+00     +2.617994E+00 +1.134464E+00 +0.000000E+00     +4.799655E+00 +9.599311E-01 +0.000000E+00     +5.148721E+00 +2.617994E-01 +0.000000E+00    
 +1.570796E+00 +8.726646E-02 +0.000000E+00     +2.879793E+00 +8.726646E-02 +0.000000E+00     +4.974188E+00 +6.108652E-01 +0.000000E+00     +1.308997E+00 +1.221730E+00 +0.000000E+00     +2.530727E+00 +9.599311E-01 +0.000000E+00     +3.490659E-01 +1.396263E+00 +0.000000E+00     +4.712389E+00 +1.396263E+00 +0.000000E+00    
 +3.316126E+00 +3.490659E-01 +0.000000E+00     +5.497787E+00 +1.047198E+00 +0.000000E+00     +6.981317E-01 +1.396263E+00 +0.000000E+00     +2.879793E+00 +8.726646E-02 +0.000000E+00     +2.443461E+00 +6.108652E-01 +0.000000E+00     +1.745329E+00 +6.981317E-01 +0.000000E+00     +5.672320E+00 +3.490659E-01 +0.000000E+00    
 +2.617994E+00 +1.570796E+00 +0.000000E+00     +5.235988E-01 +3.490659E-01 +0.000000E+00     +2.617994E-01 +2.617994E-01 +0.000000E+00     +2.181662E+00 +1.221730E+00 +0.000000E+00     +2.530727E+00 +4.363323E-01 +0.000000E+00     +4.450590E+00 +6.981317E-01 +0.000000E+00     +6.108652E+00 +5.235988E-01 +0.000000E+00    
 +2.530727E+00 +8.726646E-02 +0.000000E+00     +2.094395E+00 +1.047198E+00 +0.000000E+00     +6.108652E+00 +1.483530E+00 +0.000000E+00     +4.363323E-01 +6.108652E-01 +0.000000E+00     +3.839724E+00 +1.308997E+00 +0.000000E+00     +3.926991E+00 +7.853982E-01 +0.000000E+00     +3.577925E+00 +7.853982E-01 +0.000000E+00    
 +2.181662E+00 +1.570796E+00 +0.000000E+00     +2.356194E+00 +1.483530E+00 +0.000000E+00     +9.599311E-01 +1.047198E+00 +0.000000E+00     +8.726646E-02 +1.745329E-01 +0.000000E+00     +4.450590E+00 +6.981317E-01 +0.000000E+00     +1.047198E+00 +2.617994E-01 +0.000000E+00     +4.101524E+00 +6.981317E-01 +0.000000E+00    
 +6.195919E+00 +8.726646E-01 +0.000000E+00     +2.705260E+00 +1.570796E+00 +0.000000E+00     +5.323254E+00 +6.108652E-01 +0.000000E+00     +4.276057E+00 +6.981317E-01 +0.000000E+00     +2.967060E+00 +3.490659E-01 +0.000000E+00     +4.188790E+00 +3.490659E-01 +0.000000E+00     +3.316126E+00 +7.853982E-01 +0.000000E+00    
 +5.061455E+00 +1.221730E+00 +0.000000E+00     +4.799655E+00 +1.134464E+00 +0.000000E+00     +1.308997E+00 +3.490659E-01 +0.000000E+00     +6.195919E+00 +5.235988E-01 +0.000000E+00     +4.712389E+00 +1.745329E-01 +0.000000E+00     +6.195919E+00 +3.490659E-01 +0.000000E+00     +2.094395E+00 +9.599311E-01 +0.000000E+00    
 +1.221730E+00 +8.726646E-01 +0.000000E+00     +6.981317E-01 +2.617994E-01 +0.000000E+00     +2.792527E+00 +1.745329E-01 +0.000000E+00     +4.712389E+00 +5.235988E-01 +0.000000E+00     +3.316126E+00 +1.134464E+00 +0.000000E+00     +3.403392E+00 +6.108652E-01 +0.000000E+00     +5.497787E+00 +1.221730E+00 +0.000000E+00    
 +2.268928E+00 +1.570796E+00 +0.000000E+00     +3.490659E-01 +5.235988E-01 +0.000000E+00     +3.577925E+00 +1.570796E+00 +0.000000E+00     +6.195919E+00 +6.981317E-01 +0.000000E+00     +6.108652E+00 +8.726646E-01 +0.000000E+00     +2.007129E+00 +8.726646E-01 +0.000000E+00     +2.268928E+00 +1.570796E+00 +0.000000E+00    
 +3.926991E+00 +1.396263E+00 +0.000000E+00     +2.705260E+00 +9.599311E-01 +0.000000E+00     +3.926991E+00 +1.221730E+00 +0.000000E+00     +5.672320E+00 +6.981317E-01 +0.000000E+00     +6.283185E+00 +1.047198E+00 +0.000000E+00     +5.497787E+00 +1.221730E+00 +0.000000E+00     +5.934119E+00 +3.490659E-01 +0.000000E+00    
 +2.007129E+00 +6.108652E-01 +0.000000E+00     +4.276057E+00 +1.396263E+00 +0.000000E+00     +1.483530E+00 +4.363323E-01 +0.000000E+00     +2.967060E+00 +8.726646E-01 +0.000000E+00     +4.188790E+00 +5.235988E-01 +0.000000E+00     +5.410521E+00 +1.396263E+00 +0.000000E+00     +3.490659E+00 +1.483530E+00 +0.000000E+00    
 +2.443461E+00 +6.981317E-01 +0.000000E+00     +3.490659E-01 +6.981317E-01 +0.000000E+00     +1.832596E+00 +9.599311E-01 +0.000000E+00     +1.396263E+00 +1.570796E+00 +0.000000E+00     +1.745329E+00 +8.726646E-01 +0.000000E+00     +9.599311E-01 +2.617994E-01 +0.000000E+00     +3.141593E+00 +1.396263E+00 +0.000000E+00    
 +6.021386E+00 +5.235988E-01 +0.000000E+00     +4.974188E+00 +4.363323E-01 +0.000000E+00     +5.759587E+00 +8.726646E-01 +0.000000E+00     +1.396263E+00 +1.745329E-01 +0.000000E+00     +1.745329E+00 +1.483530E+00 +0.000000E+00     +6.108652E-01 +1.047198E+00 +0.000000E+00     +8.726646E-02 +1.134464E+00 +0.000000E+00    
 +1.396263E+00 +7.853982E-01 +0.000000E+00     +6.021386E+00 +1.570796E+00 +0.000000E+00     +2.181662E+00 +1.570796E+00 +0.000000E+00     +5.585054E+00 +1.221730E+00 +0.000000E+00     +4.886922E+00 +4.363323E-01 +0.000000E+00     +5.323254E+00 +6.981317E-01 +0.000000E+00     +6.021386E+00 +8.726646E-02 +0.000000E+00    
 +3.926991E+00 +1.745329E-01 +0.000000E+00     +2.007129E+00 +8.726646E-02 +0.000000E+00     +1.483530E+00 +1.483530E+00 +0.000000E+00     +5.323254E+00 +6.108652E-01 +0.000000E+00     +2.792527E+00 +9.599311E-01 +0.000000E+00     +2.007129E+00 +1.308997E+00 +0.000000E+00     +3.141593E+00 +6.108652E-01 +0.000000E+00    
 +6.981317E-01 +6.981317E-01 +0.000000E+00     +1.570796E+00 +4.363323E-01 +0.000000E+00     +2.705260E+00 +1.134464E+00 +0.000000E+00     +1.308997E+00 +8.726646E-01 +0.000000E+00     +1.047198E+00 +6.981317E-01 +0.000000E+00     +3.490659E+00 +8.726646E-02 +0.000000E+00     +4.537856E+00 +5.235988E-01 +0.000000E+00    
 +1.570796E+00 +1.308997E+00 +0.000000E+00     +4.101524E+00 +8.726646E-01 +0.000000E+00     +5.061455E+00 +6.108652E-01 +0.000000E+00     +3.490659E-01 +1.308997E+00 +0.000000E+00     +5.846853E+00 +1.134464E+00 +0.000000E+00     +3.490659E+00 +1.396263E+00 +0.000000E+00     +4.450590E+00 +1.221730E+00 +0.000000E+00    
 +4.886922E+00 +1.483530E+00 +0.000000E+00     +4.625123E+00 +6.108652E-01 +0.000000E+00     +1.047198E+00 +6.108652E-01 +0.000000E+00     +4.014257E+00 +6.108652E-01 +0.000000E+00     +2.879793E+00 +9.599311E-01 +0.000000E+00     +3.403392E+00 +9.599311E-01 +0.000000E+00     +2.443461E+00 +5.235988E-01 +0.000000E+00    
 +2.007129E+00 +8.726646E-02 +0.000000E+00     +4.886922E+00 +2.617994E-01 +0.000000E+00     +1.745329E+00 +1.221730E+00 +0.000000E+00     +2.443461E+00 +1.745329E-01 +0.000000E+00     +1.832596E+00 +1.047198E+00 +0.000000E+00     +1.570796E+00 +2.617994E-01 +0.000000E+00     +4.886922E+00 +7.853982E-01 +0.000000E+00    
 +2.530727E+00 +1.745329E-01 +0.000000E+00     +1.745329E+00 +5.235988E-01 +0.000000E+00     +3.054326E+00 +6.981317E-01 +0.000000E+00     +3.316126E+00 +1.221730E+00 +0.000000E+00     +5.323254E+00 +1.221730E+00 +0.000000E+00     +5.148721E+00 +1.745329E-01 +0.000000E+00     +2.967060E+00 +1.745329E-01 +0.000000E+00    
 +4.450590E+00 +6.981317E-01 +0.000000E+00     +3.577925E+00 +9.599311E-01 +0.000000E+00     +2.007129E+00 +1.745329E-01 +0.000000E+00     +2.705260E+00 +5.235988E-01 +0.000000E+00     +1.832596E+00 +1.134464E+00 +0.000000E+00     +5.934119E+00 +1.308997E+00 +0.000000E+00     +1.570796E+00 +1.396263E+00 +0.000000E+00    
 +1.483530E+00 +1.396263E+00 +0.000000E+00     +1.832596E+00 +2.617994E-01 +0.000000E+00     +6.981317E-01 +2.617994E-01 +0.000000E+00     +4.450590E+00 +1.308997E+00 +0.000000E+00     +2.094395E+00 +1.134464E+00 +0.000000E+00     +2.443461E+00 +1.396263E+00 +0.000000E+00     +4.886922E+00 +1.221730E+00 +0.000000E+00    
 +5.148721E+00 +8.726646E-02 +0.000000E+00     +2.617994E-01 +7.853982E-01 +0.000000E+00     +5.846853E+00 +1.134464E+00 +0.000000E+00     +3.839724E+00 +9.599311E-01 +0.000000E+00     +5.934119E+00 +1.047198E+00 +0.000000E+00     +2.094395E+00 +1.396263E+00 +0.000000E+00     +6.108652E-01 +1.221730E+00 +0.000000E+00    
 +4.014257E+00 +3.490659E-01 +0.000000E+00     +6.108652E+00 +1.396263E+00 +0.000000E+00     +1.570796E+00 +7.853982E-01 +0.000000E+00     +3.926991E+00 +1.745329E-01 +0.000000E+00     +1.221730E+00 +1.308997E+00 +0.000000E+00     +3.490659E+00 +6.108652E-01 +0.000000E+00     +5.323254E+00 +7.853982E-01 +0.000000E+00    
 +2.879793E+00 +1.047198E+00 +0.000000E+00     +1.919862E+00 +9.599311E-01 +0.000000E+00     +5.497787E+00 +1.221730E+00 +0.000000E+00     +1.396263E+00 +4.363323E-01 +0.000000E+00     +1.570796E+00 +6.981317E-01 +0.000000E+00     +4.363323E-01 +9.599311E-01 +0.000000E+00     +1.658063E+00 +4.363323E-01 +0.000000E+00    
 +1.832596E+00 +6.108652E-01 +0.000000E+00     +5.148721E+00 +6.981317E-01 +0.000000E+00     +2.530727E+00 +1.134464E+00 +0.000000E+00     +6.108652E-01 +5.235988E-01 +0.000000E+00     +1.832596E+00 +2.617994E-01 +0.000000E+00     +5.235988E+00 +1.396263E+00 +0.000000E+00     +3.490659E-01 +8.726646E-01 +0.000000E+00    
 +1.221730E+00 +1.483530E+00 +0.000000E+00     +8.726646E-01 +4.363323E-01 +0.000000E+00     +6.108652E+00 +7.853982E-01 +0.000000E+00     +4.014257E+00 +3.490659E-01 +0.000000E+00     +4.625123E+00 +4.363323E-01 +0.000000E+00     +2.617994E-01 +2.617994E-01 +0.000000E+00     +5.235988E+00 +9.599311E-01 +0.000000E+00    
 +5.672320E+00 +1.745329E-01 +0.000000E+00     +8.726646E-01 +9.599311E-01 +0.000000E+00     +4.625123E+00 +1.570796E+00 +0.000000E+00     +3.665191E+00 +1.745329E-01 +0.000000E+00     +1.745329E-01 +1.745329E-01 +0.000000E+00     +3.665191E+00 +7.853982E-01 +0.000000E+00     +5.148721E+00 +1.570796E+00 +0.000000E+00    
 +2.268928E+00 +5.235988E-01 +0.000000E+00     +4.537856E+00 +1.396263E+00 +0.000000E+00     +4.276057E+00 +2.617994E-01 +0.000000E+00     +3.490659E+00 +8.726646E-02 +0.000000E+00     +2.617994E-01 +1.396263E+00 +0.000000E+00     +4.363323E+00 +1.396263E+00 +0.000000E+00     +2.181662E+00 +3.490659E-01 +0.000000E+00    
 +8.726646E-02 +1.308997E+00 +0.000000E+00     +1.745329E-01 +1.047198E+00 +0.000000E+00     +5.235988E+00 +1.396263E+00 +0.000000E+00     +2.356194E+00 +1.483530E+00 +0.000000E+00     +2.443461E+00 +4.363323E-01 +0.000000E+00     +1.483530E+00 +1.134464E+00 +0.000000E+00     +5.585054E+00 +4.363323E-01 +0.000000E+00    
 +5.061455E+00 +1.745329E-01 +0.000000E+00     +2.007129E+00 +8.726646E-01 +0.000000E+00     +1.745329E-01 +6.108652E-01 +0.000000E+00     +3.665191E+00 +1.745329E-01 +0.000000E+00     +2.443461E+00 +1.483530E+00 +0.000000E+00     +2.530727E+00 +5.235988E-01 +0.000000E+00     +1.396263E+00 +1.308997E+00 +0.000000E+00    
 +2.967060E+00 +1.570796E+00 +0.000000E+00     +5.672320E+00 +6.981317E-01 +0.000000E+00     +2.007129E+00 +1.221730E+00 +0.000000E+00     +4.101524E+00 +1.221730E+00 +0.000000E+00     +1.570796E+00 +1.570796E+00 +0.000000E+00     +3.141593E+00 +4.363323E-01 +0.000000E+00     +8.726646E-01 +1.047198E+00 +0.000000E+00    
 +4.014257E+00 +1.396263E+00 +0.000000E+00     +6.195919E+00 +2.617994E-01 +0.000000E+00     +4.188790E+00 +1.745329E-01 +0.000000E+00     +8.726646E-02 +7.853982E-01 +0.000000E+00     +3.316126E+00 +1.134464E+00 +0.000000E+00     +5.410521E+00 +2.617994E-01 +0.000000E+00     +1.832596E+00 +6.981317E-01 +0.000000E+00    
 +6.108652E-01 +4.363323E-01 +0.000000E+00     +3.054326E+00 +8.726646E-01 +0.000000E+00     +1.047198E+00 +1.745329E-01 +0.000000E+00     +1.745329E+00 +3.490659E-01 +0.000000E+00     +5.323254E+00 +1.134464E+00 +0.000000E+00     +1.047198E+00 +1.570796E+00 +0.000000E+00     +2.181662E+00 +1.745329E-01 +0.000000E+00    
 +2.094395E+00 +3.490659E-01 +0.000000E+00     +4.712389E+00 +7.853982E-01 +0.000000E+00     +4.363323E-01 +1.570796E+00 +0.000000E+00     +3.403392E+00 +1.047198E+00 +0.000000E+00     +4.188790E+00 +1.483530E+00 +0.000000E+00     +2.443461E+00 +1.483530E+00 +0.000000E+00     +4.101524E+00 +2.617994E-01 +0.000000E+00    
 +2.967060E+00 +9.599311E-01 +0.000000E+00     +5.061455E+00 +1.221730E+00 +0.000000E+00     +8.726646E-01 +9.599311E-01 +0.000000E+00     +9.599311E-01 +6.981317E-01 +0.000000E+00     +6.981317E-01 +3.490659E-01 +0.000000E+00     +4.188790E+00 +6.108652E-01 +0.000000E+00     +4.188790E+00 +1.483530E+00 +0.000000E+00    
 +4.363323E-01 +1.396263E+00 +0.000000E+00     +1.745329E-01 +1.221730E+00 +0.000000E+00     +1.919862E+00 +6.108652E-01 +0.000000E+00     +2.967060E+00 +1.047198E+00 +0.000000E+00     +4.537856E+00 +1.221730E+00 +0.000000E+00     +5.235988E+00 +1.483530E+00 +0.000000E+00     +5.759587E+00 +3.490659E-01 +0.000000E+00    
 +5.672320E+00 +8.726646E-02 +0.000000E+00     +1.047198E+00 +1.134464E+00 +0.000000E+00     +3.752458E+00 +1.047198E+00 +0.000000E+00     +5.497787E+00 +1.483530E+00 +0.000000E+00     +9.599311E-01 +7.853982E-01 +0.000000E+00     +5.934119E+00 +2.617994E-01 +0.000000E+00     +6.108652E+00 +8.726646E-01 +0.000000E+00    
 +1.134464E+00 +1.221730E+00 +0.000000E+00     +2.268928E+00 +7.853982E-01 +0.000000E+00     +5.235988E+00 +1.483530E+00 +0.000000E+00     +6.195919E+00 +1.396263E+00 +0.000000E+00     +2.967060E+00 +1.396263E+00 +0.000000E+00     +4.450590E+00 +7.853982E-01 +0.000000E+00     +6.108652E-01 +6.981317E-01 +0.000000E+00    
 +5.235988E+00 +1.221730E+00 +0.000000E+00     +3.926991E+00 +3.490659E-01 +0.000000E+00     +3.577925E+00 +6.108652E-01 +0.000000E+00     +4.363323E-01 +1.745329E-01 +0.000000E+00     +4.799655E+00 +5.235988E-01 +0.000000E+00     +1.745329E-01 +8.726646E-01 +0.000000E+00     +2.879793E+00 +8.726646E-02 +0.000000E+00    
 +4.625123E+00 +6.108652E-01 +0.000000E+00     +9.599311E-01 +7.853982E-01 +0.000000E+00     +1.308997E+00 +1.483530E+00 +0.000000E+00     +2.792527E+00 +3.490659E-01 +0.000000E+00     +2.094395E+00 +5.235988E-01 +0.000000E+00     +2.094395E+00 +6.108652E-01 +0.000000E+00     +4.886922E+00 +7.853982E-01 +0.000000E+00    
 +3.839724E+00 +1.396263E+00 +0.000000E+00     +1.745329E-01 +1.396263E+00 +0.000000E+00     +7.853982E-01 +4.363323E-01 +0.000000E+00     +6.108652E-01 +1.221730E+00 +0.000000E+00     +4.450590E+00 +1.396263E+00 +0.000000E+00     +1.483530E+00 +3.490659E-01 +0.000000E+00     +1.308997E+00 +3.490659E-01 +0.000000E+00    
 +5.061455E+00 +1.134464E+00 +0.000000E+00     +4.276057E+00 +2.617994E-01 +0.000000E+00     +1.570796E+00 +5.235988E-01 +0.000000E+00     +1.396263E+00 +9.599311E-01 +0.000000E+00     +3.141593E+00 +8.726646E-01 +0.000000E+00     +1.745329E+00 +1.570796E+00 +0.000000E+00     +4.799655E+00 +8.726646E-02 +0.000000E+00    
 +4.188790E+00 +4.363323E-01 +0.000000E+00     +2.705260E+00 +6.981317E-01 +0.000000E+00     +4.014257E+00 +1.570796E+00 +0.000000E+00     +6.021386E+00 +1.308997E+00 +0.000000E+00     +7.853982E-01 +1.308997E+00 +0.000000E+00     +1.919862E+00 +2.617994E-01 +0.000000E+00     +5.672320E+00 +2.617994E-01 +0.000000E+00    
 +4.363323E+00 +8.726646E-02 +0.000000E+00     +4.712389E+00 +6.108652E-01 +0.000000E+00     +7.853982E-01 +1.308997E+00 +0.000000E+00     +1.658063E+00 +1.483530E+00 +0.000000E+00     +5.323254E+00 +6.981317E-01 +0.000000E+00     +8.726646E-01 +6.981317E-01 +0.000000E+00     +4.886922E+00 +8.726646E-01 +0.000000E+00    
 +2.617994E+00 +1.745329E-01 +0.000000E+00     +2.792527E+00 +1.221730E+00 +0.000000E+00     +1.832596E+00 +1.570796E+00 +0.000000E+00     +9.599311E-01 +1.134464E+00 +0.000000E+00     +4.625123E+00 +3.490659E-01 +0.000000E+00     +2.443461E+00 +1.134464E+00 +0.000000E+00     +8.726646E-02 +1.134464E+00 +0.000000E+00    
 +2.530727E+00 +6.108652E-01 +0.000000E+00     +2.879793E+00 +2.617994E-01 +0.000000E+00     +1.919862E+00 +9.599311E-01 +0.000000E+00     +4.537856E+00 +1.308997E+00 +0.000000E+00     +1.745329E-01 +1.134464E+00 +0.000000E+00     +4.537856E+00 +6.981317E-01 +0.000000E+00     +2.792527E+00 +5.235988E-01 +0.000000E+00    
 +2.792527E+00 +2.617994E-01 +0.000000E+00     +2.967060E+00 +8.726646E-01 +0.000000E+00     +5.846853E+00 +1.308997E+00 +0.000000E+00     +5.497787E+00 +3.490659E-01 +0.000000E+00     +3.577925E+00 +7.853982E-01 +0.000000E+00     +4.101524E+00 +8.726646E-01 +0.000000E+00     +3.665191E+00 +1.047198E+00 +0.000000E+00    
 +1.221730E+00 +1.221730E+00 +0.000000E+00     +3.316126E+00 +1.134464E+00 +0.000000E+00     +3.839724E+00 +1.221730E+00 +0.000000E+00     +3.228859E+00 +8.726646E-02 +0.000000E+00     +4.537856E+00 +1.745329E-01 +0.000000E+00     +4.799655E+00 +8.726646E-01 +0.000000E+00     +4.450590E+00 +5.235988E-01 +0.000000E+00    
 +1.570796E+00 +6.981317E-01 +0.000000E+00     +8.726646E-01 +1.483530E+00 +0.000000E+00     +3.054326E+00 +1.221730E+00 +0.000000E+00     +5.846853E+00 +7.853982E-01 +0.000000E+00     +5.148721E+00 +5.235988E-01 +0.000000E+00     +6.283185E+00 +5.235988E-01 +0.000000E+00     +4.363323E+00 +1.221730E+00 +0.000000E+00    
 +3.228859E+00 +1.745329E-01 +0.000000E+00     +5.323254E+00 +3.490659E-01 +0.000000E+00     +5.672320E+00 +4.363323E-01 +0.000000E+00     +6.283185E+00 +1.308997E+00 +0.000000E+00     +5.148721E+00 +8.726646E-02 +0.000000E+00     +3.577925E+00 +3.490659E-01 +0.000000E+00     +4.450590E+00 +9.599311E-01 +0.000000E+00    
 +4.101524E+00 +2.617994E-01 +0.000000E+00     +6.283185E+00 +1.570796E+00 +0.000000E+00     +2.617994E+00 +3.490659E-01 +0.000000E+00     +1.832596E+00 +3.490659E-01 +0.000000E+00     +1.570796E+00 +3.490659E-01 +0.000000E+00     +5.235988E+00 +1.047198E+00 +0.000000E+00     +5.585054E+00 +9.599311E-01 +0.000000E+00    
 +6.195919E+00 +6.108652E-01 +0.000000E+00     +3.141593E+00 +1.745329E-01 +0.000000E+00     +4.188790E+00 +3.490659E-01 +0.000000E+00     +4.188790E+00 +1.308997E+00 +0.000000E+00     +2.181662E+00 +2.617994E-01 +0.000000E+00     +4.188790E+00 +1.134464E+00 +0.000000E+00     +1.047198E+00 +1.745329E-01 +0.000000E+00    
 +4.363323E-01 +1.745329E-01 +0.000000E+00     +4.014257E+00 +5.235988E-01 +0.000000E+00     +5.759587E+00 +5.235988E-01 +0.000000E+00     +5.148721E+00 +6.108652E-01 +0.000000E+00     +4.799655E+00 +3.490659E-01 +0.000000E+00     +4.363323E-01 +1.047198E+00 +0.000000E+00     +3.490659E-01 +6.108652E-01 +0.000000E+00    
 +1.221730E+00 +1.570796E+00 +0.000000E+00     +1.483530E+00 +6.108652E-01 +0.000000E+00     +4.450590E+00 +1.134464E+00 +0.000000E+00     +7.853982E-01 +1.483530E+00 +0.000000E+00     +4.537856E+00 +5.235988E-01 +0.000000E+00     +3.665191E+00 +8.726646E-02 +0.000000E+00     +1.570796E+00 +6.108652E-01 +0.000000E+00    
 +2.443461E+00 +1.047198E+00 +0.000000E+00     +4.276057E+00 +1.134464E+00 +0.000000E+00     +3.316126E+00 +5.235988E-01 +0.000000E+00     +1.396263E+00 +1.745329E-01 +0.000000E+00     +6.283185E+00 +1.396263E+00 +0.000000E+00     +4.974188E+00 +5.235988E-01 +0.000000E+00     +6.283185E+00 +1.570796E+00 +0.000000E+00    
 +5.235988E+00 +6.981317E-01 +0.000000E+00     +5.323254E+00 +6.981317E-01 +0.000000E+00     +1.745329E-01 +8.726646E-02 +0.000000E+00     +3.228859E+00 +3.490659E-01 +0.000000E+00     +1.483530E+00 +1.745329E-01 +0.000000E+00     +1.658063E+00 +6.981317E-01 +0.000000E+00     +5.235988E+00 +1.047198E+00 +0.000000E+00    
 +5.934119E+00 +1.745329E-01 +0.000000E+00     +2.530727E+00 +9.599311E-01 +0.000000E+00     +6.195919E+00 +1.570796E+00 +0.000000E+00     +1.658063E+00 +8.726646E-02 +0.000000E+00     +8.726646E-01 +3.490659E-01 +0.000000E+00     +4.886922E+00 +1.396263E+00 +0.000000E+00     +6.108652E+00 +8.726646E-01 +0.000000E+00    
 +3.577925E+00 +2.617994E-01 +0.000000E+00     +1.483530E+00 +1.221730E+00 +0.000000E+00     +3.054326E+00 +6.981317E-01 +0.000000E+00     +6.021386E+00 +5.235988E-01 +0.000000E+00     +4.188790E+00 +1.134464E+00 +0.000000E+00     +1.658063E+00 +9.599311E-01 +0.000000E+00     +5.148721E+00 +1.396263E+00 +0.000000E+00    
 +2.356194E+00 +5.235988E-01 +0.000000E+00     +2.792527E+00 +7.853982E-01 +0.000000E+00     +5.235988E-01 +3.490659E-01 +0.000000E+00     +6.021386E+00 +1.745329E-01 +0.000000E+00     +5.323254E+00 +9.599311E-01 +0.000000E+00     +6.195919E+00 +1.396263E+00 +0.000000E+00     +3.054326E+00 +1.483530E+00 +0.000000E+00    
 +1.396263E+00 +1.221730E+00 +0.000000E+00     +3.316126E+00 +1.221730E+00 +0.000000E+00     +1.745329E-01 +1.570796E+00 +0.000000E+00     +2.268928E+00 +1.745329E-01 +0.000000E+00     +3.839724E+00 +6.981317E-01 +0.000000E+00     +3.403392E+00 +1.047198E+00 +0.000000E+00     +4.886922E+00 +8.726646E-02 +0.000000E+00    
 +2.617994E-01 +6.108652E-01 +0.000000E+00     +5.235988E-01 +1.396263E+00 +0.000000E+00     +1.832596E+00 +2.617994E-01 +0.000000E+00     +2.792527E+00 +1.745329E-01 +0.000000E+00     +3.926991E+00 +7.853982E-01 +0.000000E+00     +6.108652E+00 +4.363323E-01 +0.000000E+00     +1.221730E+00 +2.617994E-01 +0.000000E+00    
 +5.148721E+00 +4.363323E-01 +0.000000E+00     +1.570796E+00 +8.726646E-01 +0.000000E+00     +3.316126E+00 +8.726646E-01 +0.000000E+00     +5.672320E+00 +1.221730E+00 +0.000000E+00     +1.308997E+00 +2.617994E-01 +0.000000E+00     +5.672320E+00 +1.308997E+00 +0.000000E+00     +8.726646E-01 +6.108652E-01 +0.000000E+00    
 +2.094395E+00 +6.108652E-01 +0.000000E+00     +2.443461E+00 +9.599311E-01 +0.000000E+00     +4.276057E+00 +8.726646E-02 +0.000000E+00     +1.745329E-01 +1.221730E+00 +0.000000E+00     +4.101524E+00 +1.745329E-01 +0.000000E+00     +1.919862E+00 +7.853982E-01 +0.000000E+00     +3.490659E-01 +1.745329E-01 +0.000000E+00    
 +3.839724E+00 +1.745329E-01 +0.000000E+00     +3.490659E+00 +1.745329E-01 +0.000000E+00     +3.839724E+00 +8.726646E-01 +0.000000E+00     +5.672320E+00 +8.726646E-01 +0.000000E+00     +3.665191E+00 +8.726646E-02 +0.000000E+00     +5.497787E+00 +1.134464E+00 +0.000000E+00     +2.530727E+00 +1.396263E+00 +0.000000E+00    
 +1.396263E+00 +1.221730E+00 +0.000000E+00     +3.665191E+00 +3.490659E-01 +0.000000E+00     +2.617994E+00 +7.853982E-01 +0.000000E+00     +1.221730E+00 +1.483530E+00 +0.000000E+00     +4.625123E+00 +1.308997E+00 +0.000000E+00     +2.007129E+00 +8.726646E-02 +0.000000E+00     +8.726646E-01 +1.308997E+00 +0.000000E+00    
 +3.926991E+00 +1.483530E+00 +0.000000E+00     +2.705260E+00 +6.108652E-01 +0.000000E+00     +4.537856E+00 +1.134464E+00 +0.000000E+00     +3.403392E+00 +6.108652E-01 +0.000000E+00     +1.221730E+00 +6.108652E-01 +0.000000E+00     +1.396263E+00 +9.599311E-01 +0.000000E+00     +2.879793E+00 +8.726646E-01 +0.000000E+00    
 +1.832596E+00 +1.221730E+00 +0.000000E+00     +2.094395E+00 +5.235988E-01 +0.000000E+00     +3.316126E+00 +4.363323E-01 +0.000000E+00     +2.007129E+00 +1.221730E+00 +0.000000E+00     +7.853982E-01 +6.108652E-01 +0.000000E+00     +4.712389E+00 +1.134464E+00 +0.000000E+00     +5.323254E+00 +6.108652E-01 +0.000000E+00    
 +7.853982E-01 +8.726646E-02 +0.000000E+00     +5.672320E+00 +9.599311E-01 +0.000000E+00     +6.195919E+00 +1.221730E+00 +0.000000E+00     +3.577925E+00 +2.617994E-01 +0.000000E+00     +6.108652E+00 +8.726646E-01 +0.000000E+00     +4.886922E+00 +8.726646E-02 +0.000000E+00     +3.665191E+00 +9.599311E-01 +0.000000E+00    
 +5.759587E+00 +1.396263E+00 +0.000000E+00     +1.745329E+00 +1.221730E+00 +0.000000E+00     +4.537856E+00 +1.047198E+00 +0.000000E+00     +4.537856E+00 +6.981317E-01 +0.000000E+00     +2.879793E+00 +1.483530E+00 +0.000000E+00     +8.726646E-01 +1.308997E+00 +0.000000E+00     +4.712389E+00 +1.570796E+00 +0.000000E+00    
 +2.268928E+00 +1.308997E+00 +0.000000E+00     +1.308997E+00 +4.363323E-01 +0.000000E+00     +2.007129E+00 +5.235988E-01 +0.000000E+00     +3.665191E+00 +1.745329E-01 +0.000000E+00     +1.658063E+00 +5.235988E-01 +0.000000E+00     +2.530727E+00 +6.108652E-01 +0.000000E+00     +1.221730E+00 +1.134464E+00 +0.000000E+00    
 +4.014257E+00 +6.108652E-01 +0.000000E+00     +5.235988E-01 +7.853982E-01 +0.000000E+00     +4.886922E+00 +6.981317E-01 +0.000000E+00     +8.726646E-01 +1.483530E+00 +0.000000E+00     +3.577925E+00 +1.308997E+00 +0.000000E+00     +5.235988E+00 +7.853982E-01 +0.000000E+00     +5.585054E+00 +9.599311E-01 +0.000000E+00    
 +8.726646E-01 +1.221730E+00 +0.000000E+00     +5.410521E+00 +1.308997E+00 +0.000000E+00     +9.599311E-01 +9.599311E-01 +0.000000E+00     +1.919862E+00 +1.308997E+00 +0.000000E+00     +2.617994E+00 +1.483530E+00 +0.000000E+00     +5.235988E-01 +4.363323E-01 +0.000000E+00     +3.926991E+00 +6.981317E-01 +0.000000E+00    
 +4.363323E-01 +7.853982E-01 +0.000000E+00     +2.181662E+00 +1.308997E+00 +0.000000E+00     +2.617994E-01 +1.745329E-01 +0.000000E+00     +4.886922E+00 +1.570796E+00 +0.000000E+00     +6.195919E+00 +1.047198E+00 +0.000000E+00     +3.490659E+00 +1.134464E+00 +0.000000E+00     +3.054326E+00 +4.363323E-01 +0.000000E+00    
 +1.570796E+00 +1.570796E+00 +0.000000E+00     +1.396263E+00 +6.981317E-01 +0.000000E+00     +4.537856E+00 +1.134464E+00 +0.000000E+00     +2.617994E-01 +1.308997E+00 +0.000000E+00     +2.617994E+00 +8.726646E-01 +0.000000E+00     +1.134464E+00 +5.235988E-01 +0.000000E+00     +5.934119E+00 +1.134464E+00 +0.000000E+00    
 +3.228859E+00 +6.108652E-01 +0.000000E+00     +4.886922E+00 +5.235988E-01 +0.000000E+00     +3.490659E-01 +7.853982E-01 +0.000000E+00     +1.832596E+00 +8.726646E-01 +0.000000E+00     +5.497787E+00 +5.235988E-01 +0.000000E+00     +3.054326E+00 +1.047198E+00 +0.000000E+00     +5.672320E+00 +7.853982E-01 +0.000000E+00    
 +6.195919E+00 +9.599311E-01 +0.000000E+00     +4.276057E+00 +8.726646E-02 +0.000000E+00     +4.101524E+00 +1.570796E+00 +0.000000E+00     +5.235988E-01 +6.108652E-01 +0.000000E+00     +3.665191E+00 +6.981317E-01 +0.000000E+00     +5.497787E+00 +8.726646E-01 +0.000000E+00     +2.356194E+00 +4.363323E-01 +0.000000E+00    
 +2.443461E+00 +7.853982E-01 +0.000000E+00     +5.148721E+00 +9.599311E-01 +0.000000E+00     +4.712389E+00 +4.363323E-01 +0.000000E+00     +1.221730E+00 +4.363323E-01 +0.000000E+00     +1.134464E+00 +4.363323E-01 +0.000000E+00     +1.745329E-01 +2.617994E-01 +0.000000E+00     +5.846853E+00 +3.490659E-01 +0.000000E+00    
 +1.483530E+00 +1.570796E+00 +0.000000E+00     +3.316126E+00 +9.599311E-01 +0.000000E+00     +5.235988E-01 +3.490659E-01 +0.000000E+00     +3.316126E+00 +1.396263E+00 +0.000000E+00     +1.919862E+00 +1.745329E-01 +0.000000E+00     +4.537856E+00 +6.981317E-01 +0.000000E+00     +2.967060E+00 +3.490659E-01 +0.000000E+00    
 +5.497787E+00 +1.396263E+00 +0.000000E+00     +5.934119E+00 +1.483530E+00 +0.000000E+00     +8.726646E-02 +9.599311E-01 +0.000000E+00     +5.497787E+00 +6.108652E-01 +0.000000E+00     +3.577925E+00 +8.726646E-02 +0.000000E+00     +8.726646E-02 +6.108652E-01 +0.000000E+00     +5.235988E+00 +1.570796E+00 +0.000000E+00    
 +4.712389E+00 +9.599311E-01 +0.000000E+00     +6.283185E+00 +6.108652E-01 +0.000000E+00     +6.108652E+00 +1.570796E+00 +0.000000E+00     +2.268928E+00 +1.745329E-01 +0.000000E+00     +4.625123E+00 +6.981317E-01 +0.000000E+00     +1.745329E+00 +8.726646E-01 +0.000000E+00     +4.712389E+00 +1.221730E+00 +0.000000E+00    
 +2.007129E+00 +2.617994E-01 +0.000000E+00     +2.007129E+00 +1.396263E+00 +0.000000E+00     +5.585054E+00 +1.570796E+00 +0.000000E+00     +5.585054E+00 +9.599311E-01 +0.000000E+00     +8.726646E-02 +8.726646E-02 +0.000000E+00     +4.363323E+00 +1.308997E+00 +0.000000E+00     +4.625123E+00 +2.617994E-01 +0.000000E+00    
 +6.283185E+00 +9.599311E-01 +0.000000E+00     +5.323254E+00 +1.047198E+00 +0.000000E+00     +6.108652E+00 +1.570796E+00 +0.000000E+00     +2.356194E+00 +1.570796E+00 +0.000000E+00     +8.726646E-02 +6.108652E-01 +0.000000E+00     +2.879793E+00 +3.490659E-01 +0.000000E+00     +1.658063E+00 +1.308997E+00 +0.000000E+00    
 +6.283185E+00 +1.221730E+00 +0.000000E+00     +5.497787E+00 +2.617994E-01 +0.000000E+00     +1.919862E+00 +1.483530E+00 +0.000000E+00     +1.745329E+00 +1.745329E-01 +0.000000E+00     +4.886922E+00 +4.363323E-01 +0.000000E+00     +6.981317E-01 +1.745329E-01 +0.000000E+00     +1.919862E+00 +1.221730E+00 +0.000000E+00    
 +2.617994E-01 +1.134464E+00 +0.000000E+00     +3.839724E+00 +4.363323E-01 +0.000000E+00     +5.497787E+00 +1.047198E+00 +0.000000E+00     +2.617994E-01 +9.599311E-01 +0.000000E+00     +3.665191E+00 +1.396263E+00 +0.000000E+00     +2.792527E+00 +1.221730E+00 +0.000000E+00     +4.625123E+00 +5.235988E-01 +0.000000E+00    
 +4.188790E+00 +4.363323E-01 +0.000000E+00     +1.308997E+00 +5.235988E-01 +0.000000E+00     +5.759587E+00 +8.726646E-01 +0.000000E+00     +5.497787E+00 +9.599311E-01 +0.000000E+00     +3.403392E+00 +7.853982E-01 +0.000000E+00     +4.886922E+00 +1.047198E+00 +0.000000E+00     +5.148721E+00 +1.308997E+00 +0.000000E+00    
 +2.617994E+00 +1.221730E+00 +0.000000E+00     +4.799655E+00 +1.483530E+00 +0.000000E+00     +3.839724E+00 +1.745329E-01 +0.000000E+00     +5.497787E+00 +1.483530E+00 +0.000000E+00     +4.537856E+00 +8.726646E-02 +0.000000E+00     +4.188790E+00 +6.981317E-01 +0.000000E+00     +2.967060E+00 +1.134464E+00 +0.000000E+00    
 +3.926991E+00 +1.221730E+00 +0.000000E+00     +2.617994E+00 +6.981317E-01 +0.000000E+00     +2.617994E-01 +6.108652E-01 +0.000000E+00     +6.021386E+00 +6.108652E-01 +0.000000E+00     +6.195919E+00 +6.981317E-01 +0.000000E+00     +2.268928E+00 +9.599311E-01 +0.000000E+00     +5.410521E+00 +1.396263E+00 +0.000000E+00    
 +3.054326E+00 +1.745329E-01 +0.000000E+00     +5.148721E+00 +4.363323E-01 +0.000000E+00     +4.886922E+00 +1.396263E+00 +0.000000E+00     +3.141593E+00 +1.570796E+00 +0.000000E+00     +3.577925E+00 +6.108652E-01 +0.000000E+00     +2.094395E+00 +5.235988E-01 +0.000000E+00     +6.981317E-01 +8.726646E-01 +0.000000E+00    
 +6.108652E+00 +9.599311E-01 +0.000000E+00     +3.490659E+00 +5.235988E-01 +0.000000E+00     +3.752458E+00 +6.108652E-01 +0.000000E+00     +5.410521E+00 +1.047198E+00 +0.000000E+00     +3.490659E+00 +4.363323E-01 +0.000000E+00     +2.617994E+00 +3.490659E-01 +0.000000E+00     +3.054326E+00 +8.726646E-01 +0.000000E+00    
 +6.021386E+00 +1.221730E+00 +0.000000E+00     +2.443461E+00 +6.981317E-01 +0.000000E+00     +3.228859E+00 +4.363323E-01 +0.000000E+00     +4.363323E+00 +7.853982E-01 +0.000000E+00     +3.403392E+00 +1.570796E+00 +0.000000E+00     +3.490659E+00 +1.134464E+00 +0.000000E+00     +4.886922E+00 +1.308997E+00 +0.000000E+00    
 +1.745329E+00 +8.726646E-02 +0.000000E+00     +2.443461E+00 +1.396263E+00 +0.000000E+00     +1.570796E+00 +8.726646E-02 +0.000000E+00     +6.021386E+00 +8.726646E-01 +0.000000E+00     +1.047198E+00 +1.396263E+00 +0.000000E+00     +4.363323E+00 +1.745329E-01 +0.000000E+00     +5.672320E+00 +1.483530E+00 +0.000000E+00    
 +6.283185E+00 +1.396263E+00 +0.000000E+00     +5.585054E+00 +3.490659E-01 +0.000000E+00     +1.832596E+00 +1.483530E+00 +0.000000E+00     +2.617994E+00 +3.490659E-01 +0.000000E+00     +4.625123E+00 +1.221730E+00 +0.000000E+00     +3.752458E+00 +8.726646E-02 +0.000000E+00     +5.148721E+00 +7.853982E-01 +0.000000E+00    
 +1.745329E+00 +6.981317E-01 +0.000000E+00     +3.490659E+00 +1.308997E+00 +0.000000E+00     +1.396263E+00 +1.134464E+00 +0.000000E+00     +6.195919E+00 +1.483530E+00 +0.000000E+00     +3.141593E+00 +8.726646E-01 +0.000000E+00     +2.617994E+00 +1.221730E+00 +0.000000E+00     +8.726646E-02 +1.396263E+00 +0.000000E+00    
 +2.705260E+00 +9.599311E-01 +0.000000E+00     +4.886922E+00 +1.745329E-01 +0.000000E+00     +6.981317E-01 +3.490659E-01 +0.000000E+00     +5.497787E+00 +1.134464E+00 +0.000000E+00     +2.530727E+00 +3.490659E-01 +0.000000E+00     +9.599311E-01 +1.570796E+00 +0.000000E+00     +4.974188E+00 +7.853982E-01 +0.000000E+00    
 +2.705260E+00 +5.235988E-01 +0.000000E+00     +4.712389E+00 +8.726646E-02 +0.000000E+00     +3.141593E+00 +1.134464E+00 +0.000000E+00     +3.316126E+00 +2.617994E-01 +0.000000E+00     +4.886922E+00 +1.308997E+00 +0.000000E+00     +3.490659E-01 +8.726646E-02 +0.000000E+00     +6.981317E-01 +1.745329E-01 +0.000000E+00    
 +5.672320E+00 +8.726646E-02 +0.000000E+00     +4.363323E-01 +6.108652E-01 +0.000000E+00     +2.879793E+00 +1.570796E+00 +0.000000E+00     +6.195919E+00 +3.490659E-01 +0.000000E+00     +4.974188E+00 +7.853982E-01 +0.000000E+00     +7.853982E-01 +1.570796E+00 +0.000000E+00     +4.363323E+00 +5.235988E-01 +0.000000E+00    
 +6.108652E-01 +1.745329E-01 +0.000000E+00     +6.195919E+00 +1.047198E+00 +0.000000E+00     +1.832596E+00 +1.221730E+00 +0.000000E+00     +4.450590E+00 +3.490659E-01 +0.000000E+00     +5.497787E+00 +9.599311E-01 +0.000000E+00     +2.094395E+00 +3.490659E-01 +0.000000E+00     +8.726646E-02 +6.108652E-01 +0.000000E+00    
 +2.879793E+00 +1.308997E+00 +0.000000E+00     +4.363323E+00 +1.396263E+00 +0.000000E+00     +1.745329E-01 +1.308997E+00 +0.000000E+00     +5.235988E+00 +5.235988E-01 +0.000000E+00     +2.792527E+00 +1.047198E+00 +0.000000E+00     +4.276057E+00 +6.108652E-01 +0.000000E+00     +5.148721E+00 +7.853982E-01 +0.000000E+00    
 +4.276057E+00 +8.726646E-02 +0.000000E+00     +5.497787E+00 +8.726646E-01 +0.000000E+00     +5.148721E+00 +1.483530E+00 +0.000000E+00     +5.235988E-01 +8.726646E-01 +0.000000E+00     +5.323254E+00 +4.363323E-01 +0.000000E+00     +1.134464E+00 +1.570796E+00 +0.000000E+00     +4.101524E+00 +3.490659E-01 +0.000000E+00    
 +1.483530E+00 +2.617994E-01 +0.000000E+00     +5.323254E+00 +8.726646E-01 +0.000000E+00     +6.283185E+00 +5.235988E-01 +0.000000E+00     +1.134464E+00 +6.108652E-01 +0.000000E+00     +4.101524E+00 +5.235988E-01 +0.000000E+00     +4.101524E+00 +1.308997E+00 +0.000000E+00     +2.617994E-01 +7.853982E-01 +0.000000E+00    
 +6.981317E-01 +1.047198E+00 +0.000000E+00     +2.094395E+00 +8.726646E-01 +0.000000E+00     +2.094395E+00 +6.981317E-01 +0.000000E+00     +2.007129E+00 +7.853982E-01 +0.000000E+00     +3.926991E+00 +1.308997E+00 +0.000000E+00     +3.665191E+00 +1.396263E+00 +0.000000E+00     +2.792527E+00 +1.396263E+00 +0.000000E+00    
 +2.879793E+00 +8.726646E-02 +0.000000E+00     +3.490659E-01 +4.363323E-01 +0.000000E+00     +5.672320E+00 +1.396263E+00 +0.000000E+00     +1.745329E+00 +1.483530E+00 +0.000000E+00     +3.839724E+00 +1.221730E+00 +0.000000E+00     +4.276057E+00 +1.745329E-01 +0.000000E+00     +1.134464E+00 +1.047198E+00 +0.000000E+00    
 +3.752458E+00 +3.490659E-01 +0.000000E+00     +1.919862E+00 +7.853982E-01 +0.000000E+00     +1.483530E+00 +4.363323E-01 +0.000000E+00     +5.148721E+00 +1.745329E-01 +0.000000E+00     +2.617994E+00 +1.047198E+00 +0.000000E+00     +2.094395E+00 +7.853982E-01 +0.000000E+00     +3.577925E+00 +1.483530E+00 +0.000000E+00    
 +2.967060E+00 +5.235988E-01 +0.000000E+00     +4.974188E+00 +1.308997E+00 +0.000000E+00     +2.617994E+00 +6.981317E-01 +0.000000E+00     +5.846853E+00 +1.745329E-01 +0.000000E+00     +4.799655E+00 +3.490659E-01 +0.000000E+00     +4.799655E+00 +1.745329E-01 +0.000000E+00     +1.483530E+00 +1.134464E+00 +0.000000E+00    
 +4.363323E-01 +1.570796E+00 +0.000000E+00     +1.483530E+00 +1.570796E+00 +0.000000E+00     +4.101524E+00 +1.047198E+00 +0.000000E+00     +4.101524E+00 +1.221730E+00 +0.000000E+00     +6.283185E+00 +4.363323E-01 +0.000000E+00     +1.221730E+00 +1.047198E+00 +0.000000E+00     +2.617994E-01 +7.853982E-01 +0.000000E+00    
 +5.323254E+00 +9.599311E-01 +0.000000E+00     +3.752458E+00 +1.570796E+00 +0.000000E+00     +6.195919E+00 +1.308997E+00 +0.000000E+00     +6.108652E+00 +4.363323E-01 +0.000000E+00     +3.490659E-01 +3.490659E-01 +0.000000E+00     +3.839724E+00 +1.047198E+00 +0.000000E+00     +5.759587E+00 +6.981317E-01 +0.000000E+00    
 +4.276057E+00 +1.221730E+00 +0.000000E+00     +1.047198E+00 +2.617994E-01 +0.000000E+00     +4.886922E+00 +8.726646E-01 +0.000000E+00     +1.221730E+00 +3.490659E-01 +0.000000E+00     +2.792527E+00 +1.221730E+00 +0.000000E+00     +1.570796E+00 +1.308997E+00 +0.000000E+00     +6.283185E+00 +7.853982E-01 +0.000000E+00    
 +3.839724E+00 +1.047198E+00 +0.000000E+00     +5.672320E+00 +1.047198E+00 +0.000000E+00     +1.308997E+00 +1.745329E-01 +0.000000E+00     +1.221730E+00 +6.981317E-01 +0.000000E+00     +4.537856E+00 +1.134464E+00 +0.000000E+00     +8.726646E-01 +4.363323E-01 +0.000000E+00     +6.283185E+00 +1.745329E-01 +0.000000E+00    
 +6.108652E+00 +6.981317E-01 +0.000000E+00     +1.221730E+00 +3.490659E-01 +0.000000E+00     +9.599311E-01 +1.308997E+00 +0.000000E+00     +1.396263E+00 +1.308997E+00 +0.000000E+00     +5.497787E+00 +1.570796E+00 +0.000000E+00     +7.853982E-01 +7.853982E-01 +0.000000E+00     +2.879793E+00 +3.490659E-01 +0.000000E+00    
 +2.879793E+00 +5.235988E-01 +0.000000E+00     +5.672320E+00 +1.483530E+00 +0.000000E+00     +3.228859E+00 +5.235988E-01 +0.000000E+00     +3.665191E+00 +8.726646E-01 +0.000000E+00     +5.846853E+00 +1.047198E+00 +0.000000E+00     +4.712389E+00 +8.726646E-02 +0.000000E+00     +3.752458E+00 +1.570796E+00 +0.000000E+00    
 +2.181662E+00 +1.745329E-01 +0.000000E+00     +3.490659E-01 +7.853982E-01 +0.000000E+00     +5.061455E+00 +8.726646E-02 +0.000000E+00     +3.839724E+00 +8.726646E-01 +0.000000E+00     +6.021386E+00 +3.490659E-01 +0.000000E+00     +2.094395E+00 +8.726646E-02 +0.000000E+00     +4.101524E+00 +1.221730E+00 +0.000000E+00    
 +6.108652E+00 +1.396263E+00 +0.000000E+00     +1.047198E+00 +3.490659E-01 +0.000000E+00     +7.853982E-01 +1.745329E-01 +0.000000E+00     +3.665191E+00 +8.726646E-02 +0.000000E+00     +2.007129E+00 +7.853982E-01 +0.000000E+00     +1.832596E+00 +1.047198E+00 +0.000000E+00     +3.926991E+00 +2.617994E-01 +0.000000E+00    
 +4.188790E+00 +1.221730E+00 +0.000000E+00     +4.188790E+00 +5.235988E-01 +0.000000E+00     +3.403392E+00 +9.599311E-01 +0.000000E+00     +3.665191E+00 +9.599311E-01 +0.000000E+00     +4.188790E+00 +8.726646E-02 +0.000000E+00     +1.745329E+00 +3.490659E-01 +0.000000E+00     +5.061455E+00 +1.221730E+00 +0.000000E+00    
 +3.490659E-01 +6.981317E-01 +0.000000E+00     +4.276057E+00 +8.726646E-02 +0.000000E+00     +1.396263E+00 +6.981317E-01 +0.000000E+00     +4.799655E+00 +5.235988E-01 +0.000000E+00     +1.047198E+00 +3.490659E-01 +0.000000E+00     +1.658063E+00 +1.745329E-01 +0.000000E+00     +5.497787E+00 +6.108652E-01 +0.000000E+00    
 +5.410521E+00 +6.108652E-01 +0.000000E+00     +5.235988E+00 +1.134464E+00 +0.000000E+00     +8.726646E-02 +1.745329E-01 +0.000000E+00     +3.752458E+00 +9.599311E-01 +0.000000E+00     +3.054326E+00 +6.108652E-01 +0.000000E+00     +5.934119E+00 +3.490659E-01 +0.000000E+00     +1.745329E-01 +8.726646E-02 +0.000000E+00    
 +5.672320E+00 +1.308997E+00 +0.000000E+00     +5.759587E+00 +4.363323E-01 +0.000000E+00     +1.832596E+00 +7.853982E-01 +0.000000E+00     +5.148721E+00 +1.308997E+00 +0.000000E+00     +5.148721E+00 +1.308997E+00 +0.000000E+00     +2.617994E-01 +1.570796E+00 +0.000000E+00     +5.061455E+00 +9.599311E-01 +0.000000E+00    
 +6.021386E+00 +1.570796E+00 +0.000000E+00     +1.658063E+00 +1.570796E+00 +0.000000E+00     +4.450590E+00 +3.490659E-01 +0.000000E+00     +3.490659E-01 +1.396263E+00 +0.000000E+00     +5.846853E+00 +7.853982E-01 +0.000000E+00     +1.396263E+00 +1.308997E+00 +0.000000E+00     +1.221730E+00 +1.396263E+00 +0.000000E+00    
 +7.853982E-01 +3.490659E-01 +0.000000E+00     +1.221730E+00 +1.221730E+00 +0.000000E+00     +2.356194E+00 +8.726646E-01 +0.000000E+00     +1.745329E-01 +1.396263E+00 +0.000000E+00     +1.134464E+00 +1.570796E+00 +0.000000E+00     +9.599311E-01 +8.726646E-01 +0.000000E+00     +6.108652E+00 +1.570796E+00 +0.000000E+00    
 +4.974188E+00 +1.134464E+00 +0.000000E+00     +2.007129E+00 +1.221730E+00 +0.000000E+00     +5.061455E+00 +3.490659E-01 +0.000000E+00     +2.181662E+00 +4.363323E-01 +0.000000E+00     +5.934119E+00 +9.599311E-01 +0.000000E+00     +6.195919E+00 +2.617994E-01 +0.000000E+00     +4.974188E+00 +1.308997E+00 +0.000000E+00    
 +9.599311E-01 +1.134464E+00 +0.000000E+00     +1.570796E+00 +1.221730E+00 +0.000000E+00     +3.926991E+00 +2.617994E-01 +0.000000E+00     +8.726646E-01 +4.363323E-01 +0.000000E+00     +6.981317E-01 +1.308997E+00 +0.000000E+00     +2.356194E+00 +1.396263E+00 +0.000000E+00     +4.363323E-01 +5.235988E-01 +0.000000E+00    
 +6.021386E+00 +1.745329E-01 +0.000000E+00     +5.410521E+00 +8.726646E-01 +0.000000E+00     +2.443461E+00 +1.570796E+00 +0.000000E+00     +6.981317E-01 +1.483530E+00 +0.000000E+00     +5.410521E+00 +1.047198E+00 +0.000000E+00     +4.276057E+00 +9.599311E-01 +0.000000E+00     +6.021386E+00 +1.221730E+00 +0.000000E+00    
 +6.021386E+00 +8.726646E-02 +0.000000E+00     +5.497787E+00 +1.745329E-01 +0.000000E+00     +5.497787E+00 +7.853982E-01 +0.000000E+00     +3.752458E+00 +4.363323E-01 +0.000000E+00     +5.934119E+00 +9.599311E-01 +0.000000E+00     +4.799655E+00 +8.726646E-01 +0.000000E+00     +1.396263E+00 +6.108652E-01 +0.000000E+00    
 +2.617994E-01 +6.108652E-01 +0.000000E+00     +3.839724E+00 +7.853982E-01 +0.000000E+00     +6.195919E+00 +6.108652E-01 +0.000000E+00     +1.396263E+00 +1.570796E+00 +0.000000E+00     +4.363323E-01 +1.047198E+00 +0.000000E+00     +2.181662E+00 +8.726646E-02 +0.000000E+00     +3.665191E+00 +1.745329E-01 +0.000000E+00    
 +2.617994E+00 +8.726646E-01 +0.000000E+00     +4.014257E+00 +6.108652E-01 +0.000000E+00     +1.570796E+00 +1.396263E+00 +0.000000E+00     +2.617994E-01 +8.726646E-01 +0.000000E+00     +5.759587E+00 +6.981317E-01 +0.000000E+00     +3.926991E+00 +1.047198E+00 +0.000000E+00     +5.323254E+00 +1.134464E+00 +0.000000E+00    
 +4.101524E+00 +1.745329E-01 +0.000000E+00     +2.181662E+00 +1.221730E+00 +0.000000E+00     +1.134464E+00 +1.483530E+00 +0.000000E+00     +5.235988E+00 +3.490659E-01 +0.000000E+00     +5.846853E+00 +4.363323E-01 +0.000000E+00     +1.919862E+00 +1.745329E-01 +0.000000E+00     +6.108652E-01 +8.726646E-02 +0.000000E+00    
 +5.323254E+00 +1.396263E+00 +0.000000E+00     +2.181662E+00 +8.726646E-01 +0.000000E+00     +2.007129E+00 +1.047198E+00 +0.000000E+00     +2.792527E+00 +6.108652E-01 +0.000000E+00     +5.061455E+00 +5.235988E-01 +0.000000E+00     +6.108652E+00 +5.235988E-01 +0.000000E+00     +1.832596E+00 +1.221730E+00 +0.000000E+00    
 +1.047198E+00 +6.981317E-01 +0.000000E+00     +5.934119E+00 +1.047198E+00 +0.000000E+00     +2.356194E+00 +3.490659E-01 +0.000000E+00     +1.134464E+00 +1.745329E-01 +0.000000E+00     +6.108652E+00 +1.396263E+00 +0.000000E+00     +5.934119E+00 +4.363323E-01 +0.000000E+00     +5.934119E+00 +1.134464E+00 +0.000000E+00    
 +1.919862E+00 +3.490659E-01 +0.000000E+00     +5.323254E+00 +6.981317E-01 +0.000000E+00     +5.585054E+00 +1.483530E+00 +0.000000E+00     +1.134464E+00 +1.221730E+00 +0.000000E+00     +1.047198E+00 +6.108652E-01 +0.000000E+00     +1.483530E+00 +1.745329E-01 +0.000000E+00     +2.792527E+00 +6.108652E-01 +0.000000E+00    
 +2.356194E+00 +6.981317E-01 +0.000000E+00     +5.061455E+00 +7.853982E-01 +0.000000E+00     +4.974188E+00 +4.363323E-01 +0.000000E+00     +9.599311E-01 +1.483530E+00 +0.000000E+00     +5.235988E-01 +6.981317E-01 +0.000000E+00     +4.188790E+00 +8.726646E-02 +0.000000E+00     +2.181662E+00 +1.221730E+00 +0.000000E+00    
 +6.108652E+00 +5.235988E-01 +0.000000E+00     +1.570796E+00 +1.396263E+00 +0.000000E+00     +3.228859E+00 +1.570796E+00 +0.000000E+00     +3.054326E+00 +3.490659E-01 +0.000000E+00     +2.268928E+00 +1.483530E+00 +0.000000E+00     +3.228859E+00 +9.599311E-01 +0.000000E+00     +6.981317E-01 +1.308997E+00 +0.000000E+00    
 +3.316126E+00 +9.599311E-01 +0.000000E+00     +5.235988E-01 +1.308997E+00 +0.000000E+00     +5.148721E+00 +6.108652E-01 +0.000000E+00     +6.108652E+00 +7.853982E-01 +0.000000E+00     +4.799655E+00 +2.617994E-01 +0.000000E+00     +3.054326E+00 +6.981317E-01 +0.000000E+00     +5.497787E+00 +6.981317E-01 +0.000000E+00    
 +4.101524E+00 +9.599311E-01 +0.000000E+00     +5.934119E+00 +1.308997E+00 +0.000000E+00     +6.195919E+00 +1.745329E-01 +0.000000E+00     +2.094395E+00 +2.617994E-01 +0.000000E+00     +1.745329E-01 +1.047198E+00 +0.000000E+00     +5.497787E+00 +1.047198E+00 +0.000000E+00     +3.665191E+00 +6.108652E-01 +0.000000E+00    
 +1.483530E+00 +1.396263E+00 +0.000000E+00     +5.846853E+00 +1.134464E+00 +0.000000E+00     +1.047198E+00 +3.490659E-01 +0.000000E+00     +6.108652E-01 +2.617994E-01 +0.000000E+00     +9.599311E-01 +7.853982E-01 +0.000000E+00     +4.188790E+00 +1.134464E+00 +0.000000E+00     +2.268928E+00 +8.726646E-01 +0.000000E+00    
 +1.745329E-01 +1.570796E+00 +0.000000E+00     +1.658063E+00 +6.108652E-01 +0.000000E+00     +2.617994E+00 +1.483530E+00 +0.000000E+00     +5.672320E+00 +1.745329E-01 +0.000000E+00     +2.530727E+00 +3.490659E-01 +0.000000E+00     +6.108652E+00 +1.221730E+00 +0.000000E+00     +3.228859E+00 +1.047198E+00 +0.000000E+00    
 +5.846853E+00 +8.726646E-01 +0.000000E+00     +2.356194E+00 +8.726646E-01 +0.000000E+00     +4.625123E+00 +1.134464E+00 +0.000000E+00     +4.101524E+00 +1.483530E+00 +0.000000E+00     +4.712389E+00 +3.490659E-01 +0.000000E+00     +3.926991E+00 +5.235988E-01 +0.000000E+00     +4.886922E+00 +1.047198E+00 +0.000000E+00    
 +4.799655E+00 +1.570796E+00 +0.000000E+00     +4.363323E+00 +1.396263E+00 +0.000000E+00     +4.537856E+00 +7.853982E-01 +0.000000E+00     +1.658063E+00 +8.726646E-01 +0.000000E+00     +1.308997E+00 +6.981317E-01 +0.000000E+00     +1.919862E+00 +1.396263E+00 +0.000000E+00     +2.617994E+00 +1.308997E+00 +0.000000E+00    
 +2.094395E+00 +1.134464E+00 +0.000000E+00     +1.396263E+00 +9.599311E-01 +0.000000E+00     +2.356194E+00 +3.490659E-01 +0.000000E+00     +5.672320E+00 +1.483530E+00 +0.000000E+00     +4.799655E+00 +9.599311E-01 +0.000000E+00     +1.745329E+00 +1.745329E-01 +0.000000E+00     +5.410521E+00 +1.483530E+00 +0.000000E+00    
 +2.879793E+00 +5.235988E-01 +0.000000E+00     +8.726646E-02 +3.490659E-01 +0.000000E+00     +4.974188E+00 +1.396263E+00 +0.000000E+00     +1.745329E-01 +2.617994E-01 +0.000000E+00     +2.094395E+00 +2.617994E-01 +0.000000E+00     +3.316126E+00 +1.483530E+00 +0.000000E+00     +2.094395E+00 +8.726646E-02 +0.000000E+00    
 +4.712389E+00 +1.221730E+00 +0.000000E+00     +6.981317E-01 +9.599311E-01 +0.000000E+00     +5.585054E+00 +1.570796E+00 +0.000000E+00     +3.752458E+00 +6.108652E-01 +0.000000E+00     +6.981317E-01 +8.726646E-01 +0.000000E+00     +5.235988E-01 +1.308997E+00 +0.000000E+00     +3.316126E+00 +7.853982E-01 +0.000000E+00    
 +1.134464E+00 +1.570796E+00 +0.000000E+00     +4.188790E+00 +3.490659E-01 +0.000000E+00     +1.483530E+00 +1.745329E-01 +0.000000E+00     +1.221730E+00 +7.853982E-01 +0.000000E+00     +4.101524E+00 +9.599311E-01 +0.000000E+00     +4.625123E+00 +1.221730E+00 +0.000000E+00     +6.981317E-01 +5.235988E-01 +0.000000E+00    
 +1.570796E+00 +1.396263E+00 +0.000000E+00     +3.490659E+00 +1.570796E+00 +0.000000E+00     +1.570796E+00 +2.617994E-01 +0.000000E+00     +4.886922E+00 +1.134464E+00 +0.000000E+00     +4.014257E+00 +1.134464E+00 +0.000000E+00     +5.672320E+00 +1.308997E+00 +0.000000E+00     +1.745329E-01 +1.047198E+00 +0.000000E+00    
 +1.919862E+00 +1.745329E-01 +0.000000E+00     +6.108652E-01 +8.726646E-01 +0.000000E+00     +3.577925E+00 +1.308997E+00 +0.000000E+00     +2.443461E+00 +2.617994E-01 +0.000000E+00     +2.617994E-01 +6.108652E-01 +0.000000E+00     +4.363323E-01 +1.483530E+00 +0.000000E+00     +4.712389E+00 +7.853982E-01 +0.000000E+00    
 +3.316126E+00 +1.047198E+00 +0.000000E+00     +3.665191E+00 +7.853982E-01 +0.000000E+00     +4.101524E+00 +1.570796E+00 +0.000000E+00     +9.599311E-01 +6.108652E-01 +0.000000E+00     +4.276057E+00 +1.134464E+00 +0.000000E+00     +1.134464E+00 +1.308997E+00 +0.000000E+00     +4.450590E+00 +1.047198E+00 +0.000000E+00    
 +2.879793E+00 +1.221730E+00 +0.000000E+00     +2.181662E+00 +1.570796E+00 +0.000000E+00     +5.148721E+00 +1.745329E-01 +0.000000E+00     +4.537856E+00 +1.308997E+00 +0.000000E+00     +3.141593E+00 +6.108652E-01 +0.000000E+00     +1.221730E+00 +1.308997E+00 +0.000000E+00     +1.919862E+00 +1.308997E+00 +0.000000E+00    
 +4.363323E+00 +1.134464E+00 +0.000000E+00     +5.934119E+00 +1.308997E+00 +0.000000E+00     +1.134464E+00 +8.726646E-02 +0.000000E+00     +5.497787E+00 +1.221730E+00 +0.000000E+00     +3.316126E+00 +5.235988E-01 +0.000000E+00     +5.585054E+00 +1.570796E+00 +0.000000E+00     +3.403392E+00 +8.726646E-02 +0.000000E+00    
 +2.181662E+00 +2.617994E-01 +0.000000E+00     +3.141593E+00 +8.726646E-01 +0.000000E+00     +2.705260E+00 +1.308997E+00 +0.000000E+00     +6.283185E+00 +1.745329E-01 +0.000000E+00     +2.967060E+00 +2.617994E-01 +0.000000E+00     +4.974188E+00 +1.134464E+00 +0.000000E+00     +2.181662E+00 +2.617994E-01 +0.000000E+00    
 +5.759587E+00 +4.363323E-01 +0.000000E+00     +6.108652E+00 +1.745329E-01 +0.000000E+00     +3.228859E+00 +2.617994E-01 +0.000000E+00     +3.665191E+00 +1.047198E+00 +0.000000E+00     +2.007129E+00 +1.308997E+00 +0.000000E+00     +5.497787E+00 +7.853982E-01 +0.000000E+00     +3.403392E+00 +1.308997E+00 +0.000000E+00    
 +5.235988E-01 +1.396263E+00 +0.000000E+00     +5.235988E+00 +1.134464E+00 +0.000000E+00     +1.745329E+00 +1.047198E+00 +0.000000E+00     +4.101524E+00 +9.599311E-01 +0.000000E+00     +3.839724E+00 +2.617994E-01 +0.000000E+00     +5.672320E+00 +1.396263E+00 +0.000000E+00     +3.403392E+00 +9.599311E-01 +0.000000E+00    
 +5.497787E+00 +6.981317E-01 +0.000000E+00     +5.410521E+00 +1.047198E+00 +0.000000E+00     +1.483530E+00 +9.599311E-01 +0.000000E+00     +4.188790E+00 +1.221730E+00 +0.000000E+00     +4.537856E+00 +1.396263E+00 +0.000000E+00     +4.974188E+00 +8.726646E-01 +0.000000E+00     +3.752458E+00 +8.726646E-02 +0.000000E+00    
 +1.832596E+00 +8.726646E-01 +0.000000E+00     +7.853982E-01 +3.490659E-01 +0.000000E+00     +8.726646E-02 +1.396263E+00 +0.000000E+00     +3.752458E+00 +7.853982E-01 +0.000000E+00     +3.752458E+00 +1.308997E+00 +0.000000E+00     +5.235988E-01 +1.308997E+00 +0.000000E+00     +3.752458E+00 +1.308997E+00 +0.000000E+00    
 +5.235988E+00 +1.483530E+00 +0.000000E+00     +5.934119E+00 +6.108652E-01 +0.000000E+00     +4.625123E+00 +1.134464E+00 +0.000000E+00     +2.967060E+00 +8.726646E-01 +0.000000E+00     +3.839724E+00 +1.745329E-01 +0.000000E+00     +8.726646E-01 +4.363323E-01 +0.000000E+00     +6.195919E+00 +1.570796E+00 +0.000000E+00    
 +3.490659E-01 +1.483530E+00 +0.000000E+00     +3.839724E+00 +1.221730E+00 +0.000000E+00     +4.363323E-01 +8.726646E-02 +0.000000E+00     +2.007129E+00 +1.396263E+00 +0.000000E+00     +5.148721E+00 +1.134464E+00 +0.000000E+00     +2.617994E-01 +1.134464E+00 +0.000000E+00     +3.490659E-01 +1.221730E+00 +0.000000E+00    
 +7.853982E-01 +1.570796E+00 +0.000000E+00     +1.745329E+00 +2.617994E-01 +0.000000E+00     +1.832596E+00 +9.599311E-01 +0.000000E+00     +1.221730E+00 +2.617994E-01 +0.000000E+00     +5.235988E-01 +2.617994E-01 +0.000000E+00     +5.846853E+00 +2.617994E-01 +0.000000E+00     +2.443461E+00 +1.396263E+00 +0.000000E+00    
 +1.832596E+00 +8.726646E-02 +0.000000E+00     +4.799655E+00 +1.570796E+00 +0.000000E+00     +1.745329E+00 +1.396263E+00 +0.000000E+00     +5.497787E+00 +7.853982E-01 +0.000000E+00     +4.363323E+00 +6.981317E-01 +0.000000E+00     +8.726646E-02 +6.108652E-01 +0.000000E+00     +1.396263E+00 +1.396263E+00 +0.000000E+00    
 +3.490659E-01 +1.396263E+00 +0.000000E+00     +1.396263E+00 +1.221730E+00 +0.000000E+00     +7.853982E-01 +1.134464E+00 +0.000000E+00     +2.268928E+00 +1.308997E+00 +0.000000E+00     +5.061455E+00 +8.726646E-02 +0.000000E+00     +2.268928E+00 +7.853982E-01 +0.000000E+00     +4.014257E+00 +7.853982E-01 +0.000000E+00    
 +1.483530E+00 +1.308997E+00 +0.000000E+00     +2.967060E+00 +1.308997E+00 +0.000000E+00     +3.054326E+00 +6.108652E-01 +0.000000E+00     +6.021386E+00 +1.396263E+00 +0.000000E+00     +8.726646E-01 +2.617994E-01 +0.000000E+00     +5.235988E-01 +1.134464E+00 +0.000000E+00     +5.759587E+00 +8.726646E-02 +0.000000E+00    
 +9.599311E-01 +1.570796E+00 +0.000000E+00     +1.832596E+00 +1.047198E+00 +0.000000E+00     +5.323254E+00 +6.108652E-01 +0.000000E+00     +1.483530E+00 +1.047198E+00 +0.000000E+00     +4.625123E+00 +1.221730E+00 +0.000000E+00     +3.141593E+00 +1.570796E+00 +0.000000E+00     +8.726646E-01 +1.047198E+00 +0.000000E+00    
 +2.879793E+00 +1.308997E+00 +0.000000E+00     +1.047198E+00 +1.483530E+00 +0.000000E+00     +4.625123E+00 +9.599311E-01 +0.000000E+00     +5.235988E-01 +8.726646E-02 +0.000000E+00     +2.705260E+00 +7.853982E-01 +0.000000E+00     +1.308997E+00 +8.726646E-02 +0.000000E+00     +1.134464E+00 +8.726646E-01 +0.000000E+00    
 +3.665191E+00 +1.134464E+00 +0.000000E+00     +2.705260E+00 +6.108652E-01 +0.000000E+00     +2.181662E+00 +3.490659E-01 +0.000000E+00     +3.577925E+00 +1.308997E+00 +0.000000E+00     +3.228859E+00 +6.981317E-01 +0.000000E+00     +4.886922E+00 +6.981317E-01 +0.000000E+00     +6.108652E-01 +6.108652E-01 +0.000000E+00    
 +7.853982E-01 +1.483530E+00 +0.000000E+00     +4.276057E+00 +8.726646E-01 +0.000000E+00     +1.396263E+00 +1.134464E+00 +0.000000E+00     +4.974188E+00 +1.745329E-01 +0.000000E+00     +2.181662E+00 +9.599311E-01 +0.000000E+00     +1.745329E-01 +6.981317E-01 +0.000000E+00     +2.181662E+00 +6.981317E-01 +0.000000E+00    
 +2.617994E+00 +1.221730E+00 +0.000000E+00     +2.268928E+00 +1.134464E+00 +0.000000E+00     +4.712389E+00 +6.108652E-01 +0.000000E+00     +5.934119E+00 +1.483530E+00 +0.000000E+00     +4.625123E+00 +1.047198E+00 +0.000000E+00     +4.974188E+00 +8.726646E-02 +0.000000E+00     +2.181662E+00 +1.396263E+00 +0.000000E+00    
 +8.726646E-01 +7.853982E-01 +0.000000E+00     +5.148721E+00 +3.490659E-01 +0.000000E+00     +3.228859E+00 +1.221730E+00 +0.000000E+00     +2.530727E+00 +5.235988E-01 +0.000000E+00     +5.759587E+00 +8.726646E-02 +0.000000E+00     +4.363323E-01 +1.483530E+00 +0.000000E+00     +8.726646E-01 +1.221730E+00 +0.000000E+00    
 +4.886922E+00 +1.745329E-01 +0.000000E+00     +2.181662E+00 +1.134464E+00 +0.000000E+00     +1.047198E+00 +1.396263E+00 +0.000000E+00     +3.316126E+00 +8.726646E-01 +0.000000E+00     +4.276057E+00 +1.483530E+00 +0.000000E+00     +2.792527E+00 +1.483530E+00 +0.000000E+00     +5.934119E+00 +8.726646E-02 +0.000000E+00    
 +4.276057E+00 +8.726646E-02 +0.000000E+00     +4.101524E+00 +6.981317E-01 +0.000000E+00     +1.134464E+00 +1.396263E+00 +0.000000E+00     +4.974188E+00 +1.134464E+00 +0.000000E+00     +1.658063E+00 +9.599311E-01 +0.000000E+00     +1.745329E+00 +1.483530E+00 +0.000000E+00     +5.759587E+00 +4.363323E-01 +0.000000E+00    
 +4.886922E+00 +1.483530E+00 +0.000000E+00     +1.134464E+00 +5.235988E-01 +0.000000E+00     +4.363323E+00 +8.726646E-02 +0.000000E+00     +1.221730E+00 +2.617994E-01 +0.000000E+00     +2.094395E+00 +3.490659E-01 +0.000000E+00     +2.094395E+00 +1.396263E+00 +0.000000E+00     +4.101524E+00 +1.308997E+00 +0.000000E+00    
 +2.094395E+00 +9.599311E-01 +0.000000E+00     +4.886922E+00 +1.308997E+00 +0.000000E+00     +5.759587E+00 +6.981317E-01 +0.000000E+00     +5.934119E+00 +1.308997E+00 +0.000000E+00     +1.483530E+00 +2.617994E-01 +0.000000E+00     +6.108652E+00 +9.599311E-01 +0.000000E+00     +1.658063E+00 +1.483530E+00 +0.000000E+00    
 +3.316126E+00 +6.108652E-01 +0.000000E+00     +2.007129E+00 +8.726646E-02 +0.000000E+00     +4.101524E+00 +8.726646E-01 +0.000000E+00     +1.745329E+00 +1.570796E+00 +0.000000E+00     +4.974188E+00 +4.363323E-01 +0.000000E+00     +4.974188E+00 +1.047198E+00 +0.000000E+00     +4.625123E+00 +8.726646E-01 +0.000000E+00    
 +1.832596E+00 +1.308997E+00 +0.000000E+00     +3.665191E+00 +1.745329E-01 +0.000000E+00     +1.308997E+00 +1.047198E+00 +0.000000E+00     +1.134464E+00 +8.726646E-01 +0.000000E+00     +4.363323E-01 +1.570796E+00 +0.000000E+00     +2.268928E+00 +1.308997E+00 +0.000000E+00     +1.221730E+00 +4.363323E-01 +0.000000E+00    
 +4.188790E+00 +1.396263E+00 +0.000000E+00     +2.617994E+00 +1.221730E+00 +0.000000E+00     +4.014257E+00 +5.235988E-01 +0.000000E+00     +4.363323E-01 +3.490659E-01 +0.000000E+00     +1.745329E-01 +2.617994E-01 +0.000000E+00     +4.799655E+00 +1.308997E+00 +0.000000E+00     +2.181662E+00 +4.363323E-01 +0.000000E+00    
 +1.658063E+00 +4.363323E-01 +0.000000E+00     +3.054326E+00 +1.221730E+00 +0.000000E+00     +4.537856E+00 +1.483530E+00 +0.000000E+00     +4.363323E-01 +4.363323E-01 +0.000000E+00     +1.047198E+00 +1.745329E-01 +0.000000E+00     +5.323254E+00 +3.490659E-01 +0.000000E+00     +5.934119E+00 +7.853982E-01 +0.000000E+00    
 +4.712389E+00 +1.221730E+00 +0.000000E+00     +4.014257E+00 +1.483530E+00 +0.000000E+00     +3.839724E+00 +1.047198E+00 +0.000000E+00     +2.967060E+00 +1.570796E+00 +0.000000E+00     +9.599311E-01 +4.363323E-01 +0.000000E+00     +4.363323E-01 +1.570796E+00 +0.000000E+00     +3.228859E+00 +8.726646E-02 +0.000000E+00    
 +5.235988E+00 +1.308997E+00 +0.000000E+00     +4.537856E+00 +8.726646E-02 +0.000000E+00     +2.792527E+00 +8.726646E-01 +0.000000E+00     +3.316126E+00 +7.853982E-01 +0.000000E+00     +1.745329E+00 +1.396263E+00 +0.000000E+00     +5.497787E+00 +1.134464E+00 +0.000000E+00     +7.853982E-01 +8.726646E-01 +0.000000E+00    
 +6.108652E-01 +1.047198E+00 +0.000000E+00     +5.759587E+00 +1.745329E-01 +0.000000E+00     +2.967060E+00 +1.396263E+00 +0.000000E+00     +2.967060E+00 +1.396263E+00 +0.000000E+00     +9.599311E-01 +6.981317E-01 +0.000000E+00     +3.665191E+00 +1.308997E+00 +0.000000E+00     +9.599311E-01 +8.726646E-02 +0.000000E+00    
 +6.195919E+00 +2.617994E-01 +0.000000E+00     +5.672320E+00 +1.047198E+00 +0.000000E+00     +3.839724E+00 +8.726646E-02 +0.000000E+00     +5.061455E+00 +2.617994E-01 +0.000000E+00     +1.308997E+00 +1.483530E+00 +0.000000E+00     +4.014257E+00 +1.570796E+00 +0.000000E+00     +8.726646E-01 +1.221730E+00 +0.000000E+00    
 +1.221730E+00 +3.490659E-01 +0.000000E+00     +5.235988E-01 +4.363323E-01 +0.000000E+00     +5.672320E+00 +3.490659E-01 +0.000000E+00     +4.276057E+00 +1.047198E+00 +0.000000E+00     +5.672320E+00 +2.617994E-01 +0.000000E+00     +5.497787E+00 +3.490659E-01 +0.000000E+00     +1.832596E+00 +2.617994E-01 +0.000000E+00    
 +4.974188E+00 +6.108652E-01 +0.000000E+00     +4.188790E+00 +1.308997E+00 +0.000000E+00     +3.577925E+00 +1.308997E+00 +0.000000E+00     +2.967060E+00 +1.483530E+00 +0.000000E+00     +2.094395E+00 +8.726646E-01 +0.000000E+00     +4.188790E+00 +2.617994E-01 +0.000000E+00     +1.483530E+00 +8.726646E-02 +0.000000E+00    
 +2.967060E+00 +6.981317E-01 +0.000000E+00     +8.726646E-01 +6.108652E-01 +0.000000E+00     +1.745329E-01 +5.235988E-01 +0.000000E+00     +5.235988E+00 +5.235988E-01 +0.000000E+00     +3.228859E+00 +7.853982E-01 +0.000000E+00     +2.879793E+00 +1.221730E+00 +0.000000E+00     +4.886922E+00 +9.599311E-01 +0.000000E+00    
 +4.974188E+00 +1.221730E+00 +0.000000E+00     +7.853982E-01 +1.047198E+00 +0.000000E+00     +5.585054E+00 +3.490659E-01 +0.000000E+00     +4.974188E+00 +8.726646E-02 +0.000000E+00     +3.665191E+00 +1.396263E+00 +0.000000E+00     +1.483530E+00 +1.570796E+00 +0.000000E+00     +3.752458E+00 +1.570796E+00 +0.000000E+00    
 +6.283185E+00 +1.134464E+00 +0.000000E+00     +4.625123E+00 +1.221730E+00 +0.000000E+00     +3.926991E+00 +2.617994E-01 +0.000000E+00     +2.617994E-01 +8.726646E-02 +0.000000E+00     +4.276057E+00 +1.483530E+00 +0.000000E+00     +6.108652E-01 +1.047198E+00 +0.000000E+00     +1.396263E+00 +3.490659E-01 +0.000000E+00    
 +1.483530E+00 +8.726646E-01 +0.000000E+00     +5.148721E+00 +6.981317E-01 +0.000000E+00     +6.283185E+00 +4.363323E-01 +0.000000E+00     +4.363323E+00 +7.853982E-01 +0.000000E+00     +3.054326E+00 +1.047198E+00 +0.000000E+00     +4.799655E+00 +1.134464E+00 +0.000000E+00     +2.530727E+00 +1.570796E+00 +0.000000E+00    
 +1.745329E-01 +8.726646E-01 +0.000000E+00     +3.839724E+00 +7.853982E-01 +0.000000E+00     +3.752458E+00 +2.617994E-01 +0.000000E+00     +3.926991E+00 +1.221730E+00 +0.000000E+00     +1.483530E+00 +7.853982E-01 +0.000000E+00     +4.537856E+00 +8.726646E-01 +0.000000E+00     +4.886922E+00 +9.599311E-01 +0.000000E+00    
 +1.047198E+00 +3.490659E-01 +0.000000E+00     +2.967060E+00 +1.745329E-01 +0.000000E+00     +1.745329E-01 +9.599311E-01 +0.000000E+00     +1.221730E+00 +8.726646E-02 +0.000000E+00     +2.530727E+00 +5.235988E-01 +0.000000E+00     +4.276057E+00 +3.490659E-01 +0.000000E+00     +4.712389E+00 +8.726646E-01 +0.000000E+00    
 +5.061455E+00 +6.981317E-01 +0.000000E+00     +3.054326E+00 +8.726646E-01 +0.000000E+00     +2.792527E+00 +1.047198E+00 +0.000000E+00     +3.316126E+00 +1.047198E+00 +0.000000E+00     +3.490659E+00 +1.483530E+00 +0.000000E+00     +3.490659E-01 +1.396263E+00 +0.000000E+00     +2.181662E+00 +1.396263E+00 +0.000000E+00    
 +9.599311E-01 +4.363323E-01 +0.000000E+00     +4.450590E+00 +3.490659E-01 +0.000000E+00     +4.886922E+00 +8.726646E-01 +0.000000E+00     +4.537856E+00 +3.490659E-01 +0.000000E+00     +4.276057E+00 +3.490659E-01 +0.000000E+00     +2.094395E+00 +5.235988E-01 +0.000000E+00     +2.967060E+00 +4.363323E-01 +0.000000E+00    
 +5.759587E+00 +6.108652E-01 +0.000000E+00     +2.443461E+00 +8.726646E-02 +0.000000E+00     +5.846853E+00 +3.490659E-01 +0.000000E+00     +2.268928E+00 +7.853982E-01 +0.000000E+00     +6.021386E+00 +1.308997E+00 +0.000000E+00     +3.316126E+00 +1.570796E+00 +0.000000E+00     +3.665191E+00 +6.108652E-01 +0.000000E+00    
 +2.181662E+00 +1.570796E+00 +0.000000E+00     +2.792527E+00 +8.726646E-02 +0.000000E+00     +3.228859E+00 +1.308997E+00 +0.000000E+00     +2.792527E+00 +1.483530E+00 +0.000000E+00     +3.316126E+00 +8.726646E-01 +0.000000E+00     +2.268928E+00 +1.570796E+00 +0.000000E+00     +6.021386E+00 +1.570796E+00 +0.000000E+00    
 +4.799655E+00 +8.726646E-02 +0.000000E+00     +4.799655E+00 +7.853982E-01 +0.000000E+00     +4.014257E+00 +1.308997E+00 +0.000000E+00     +4.799655E+00 +9.599311E-01 +0.000000E+00     +5.235988E+00 +7.853982E-01 +0.000000E+00     +3.752458E+00 +7.853982E-01 +0.000000E+00     +2.007129E+00 +1.483530E+00 +0.000000E+00    
 +3.926991E+00 +1.134464E+00 +0.000000E+00     +4.799655E+00 +1.221730E+00 +0.000000E+00     +4.363323E-01 +9.599311E-01 +0.000000E+00     +2.007129E+00 +1.396263E+00 +0.000000E+00     +4.101524E+00 +9.599311E-01 +0.000000E+00     +5.235988E+00 +3.490659E-01 +0.000000E+00     +6.108652E+00 +6.108652E-01 +0.000000E+00    
 +3.665191E+00 +1.570796E+00 +0.000000E+00     +6.021386E+00 +8.726646E-02 +0.000000E+00     +1.745329E+00 +4.363323E-01 +0.000000E+00     +4.537856E+00 +4.363323E-01 +0.000000E+00     +5.497787E+00 +9.599311E-01 +0.000000E+00     +4.886922E+00 +7.853982E-01 +0.000000E+00     +5.410521E+00 +1.134464E+00 +0.000000E+00    
 +5.410521E+00 +4.363323E-01 +0.000000E+00     +1.832596E+00 +1.745329E-01 +0.000000E+00     +2.617994E-01 +1.221730E+00 +0.000000E+00     +1.832596E+00 +3.490659E-01 +0.000000E+00     +4.363323E-01 +5.235988E-01 +0.000000E+00     +4.101524E+00 +1.570796E+00 +0.000000E+00     +6.021386E+00 +4.363323E-01 +0.000000E+00    
 +1.570796E+00 +3.490659E-01 +0.000000E+00     +3.577925E+00 +8.726646E-02 +0.000000E+00     +4.276057E+00 +1.396263E+00 +0.000000E+00     +3.490659E+00 +5.235988E-01 +0.000000E+00     +5.934119E+00 +1.221730E+00 +0.000000E+00     +4.188790E+00 +1.745329E-01 +0.000000E+00     +2.617994E+00 +3.490659E-01 +0.000000E+00    
 +5.759587E+00 +1.047198E+00 +0.000000E+00     +3.141593E+00 +1.221730E+00 +0.000000E+00     +6.195919E+00 +3.490659E-01 +0.000000E+00     +3.839724E+00 +6.981317E-01 +0.000000E+00     +3.490659E-01 +1.047198E+00 +0.000000E+00     +5.672320E+00 +1.134464E+00 +0.000000E+00     +2.181662E+00 +3.490659E-01 +0.000000E+00    
 +4.276057E+00 +1.396263E+00 +0.000000E+00     +2.268928E+00 +1.308997E+00 +0.000000E+00     +5.672320E+00 +4.363323E-01 +0.000000E+00     +2.443461E+00 +7.853982E-01 +0.000000E+00     +4.886922E+00 +8.726646E-01 +0.000000E+00     +1.221730E+00 +5.235988E-01 +0.000000E+00     +2.530727E+00 +8.726646E-01 +0.000000E+00    
 +4.276057E+00 +8.726646E-01 +0.000000E+00     +5.846853E+00 +3.490659E-01 +0.000000E+00     +7.853982E-01 +1.308997E+00 +0.000000E+00     +4.188790E+00 +1.221730E+00 +0.000000E+00     +4.450590E+00 +6.981317E-01 +0.000000E+00     +2.268928E+00 +8.726646E-02 +0.000000E+00     +2.268928E+00 +1.308997E+00 +0.000000E+00    
 +5.672320E+00 +7.853982E-01 +0.000000E+00     +3.316126E+00 +1.221730E+00 +0.000000E+00     +2.967060E+00 +1.221730E+00 +0.000000E+00     +3.141593E+00 +1.308997E+00 +0.000000E+00     +3.490659E+00 +1.483530E+00 +0.000000E+00     +6.195919E+00 +1.047198E+00 +0.000000E+00     +4.886922E+00 +1.047198E+00 +0.000000E+00    
 +2.356194E+00 +3.490659E-01 +0.000000E+00     +2.443461E+00 +1.221730E+00 +0.000000E+00     +2.879793E+00 +3.490659E-01 +0.000000E+00     +8.726646E-01 +1.221730E+00 +0.000000E+00     +5.410521E+00 +1.483530E+00 +0.000000E+00     +1.658063E+00 +1.396263E+00 +0.000000E+00     +3.141593E+00 +1.221730E+00 +0.000000E+00    
 +3.054326E+00 +1.483530E+00 +0.000000E+00     +4.014257E+00 +1.570796E+00 +0.000000E+00     +3.316126E+00 +6.981317E-01 +0.000000E+00     +4.363323E+00 +6.108652E-01 +0.000000E+00     +5.934119E+00 +4.363323E-01 +0.000000E+00     +4.363323E-01 +1.047198E+00 +0.000000E+00     +3.490659E+00 +1.570796E+00 +0.000000E+00    
 +3.490659E+00 +1.570796E+00 +0.000000E+00     +6.108652E-01 +5.235988E-01 +0.000000E+00     +2.094395E+00 +4.363323E-01 +0.000000E+00     +2.792527E+00 +4.363323E-01 +0.000000E+00     +5.672320E+00 +1.308997E+00 +0.000000E+00     +5.235988E-01 +3.490659E-01 +0.000000E+00     +1.134464E+00 +3.490659E-01 +0.000000E+00    
 +4.101524E+00 +3.490659E-01 +0.000000E+00     +4.625123E+00 +8.726646E-02 +0.000000E+00     +6.981317E-01 +8.726646E-01 +0.000000E+00     +5.061455E+00 +1.570796E+00 +0.000000E+00     +1.745329E+00 +1.483530E+00 +0.000000E+00     +1.308997E+00 +8.726646E-01 +0.000000E+00     +3.839724E+00 +1.134464E+00 +0.000000E+00    
 +4.363323E+00 +1.047198E+00 +0.000000E+00     +2.007129E+00 +8.726646E-01 +0.000000E+00     +5.585054E+00 +8.726646E-01 +0.000000E+00     +6.195919E+00 +1.570796E+00 +0.000000E+00     +1.396263E+00 +3.490659E-01 +0.000000E+00     +1.134464E+00 +6.108652E-01 +0.000000E+00     +2.181662E+00 +1.134464E+00 +0.000000E+00    
 +4.188790E+00 +3.490659E-01 +0.000000E+00     +4.886922E+00 +1.745329E-01 +0.000000E+00     +6.981317E-01 +7.853982E-01 +0.000000E+00     +2.792527E+00 +8.726646E-02 +0.000000E+00     +4.799655E+00 +1.134464E+00 +0.000000E+00     +2.356194E+00 +1.483530E+00 +0.000000E+00     +5.672320E+00 +1.483530E+00 +0.000000E+00    
 +3.403392E+00 +4.363323E-01 +0.000000E+00     +3.141593E+00 +1.134464E+00 +0.000000E+00     +1.832596E+00 +1.483530E+00 +0.000000E+00     +3.839724E+00 +1.483530E+00 +0.000000E+00     +1.221730E+00 +5.235988E-01 +0.000000E+00     +2.879793E+00 +1.308997E+00 +0.000000E+00     +5.585054E+00 +6.981317E-01 +0.000000E+00    
 +5.759587E+00 +7.853982E-01 +0.000000E+00     +1.134464E+00 +1.396263E+00 +0.000000E+00     +2.443461E+00 +1.745329E-01 +0.000000E+00     +8.726646E-02 +5.235988E-01 +0.000000E+00     +3.490659E-01 +7.853982E-01 +0.000000E+00     +5.061455E+00 +1.134464E+00 +0.000000E+00     +1.745329E-01 +2.617994E-01 +0.000000E+00    
 +3.316126E+00 +3.490659E-01 +0.000000E+00     +5.846853E+00 +1.221730E+00 +0.000000E+00     +3.316126E+00 +1.047198E+00 +0.000000E+00     +4.537856E+00 +1.570796E+00 +0.000000E+00     +1.483530E+00 +1.047198E+00 +0.000000E+00     +6.981317E-01 +1.396263E+00 +0.000000E+00     +8.726646E-02 +1.134464E+00 +0.000000E+00    
 +4.188790E+00 +1.483530E+00 +0.000000E+00     +2.268928E+00 +1.047198E+00 +0.000000E+00     +9.599311E-01 +1.221730E+00 +0.000000E+00     +5.323254E+00 +1.483530E+00 +0.000000E+00     +9.599311E-01 +8.726646E-02 +0.000000E+00     +1.134464E+00 +1.570796E+00 +0.000000E+00     +1.221730E+00 +4.363323E-01 +0.000000E+00    
 +6.021386E+00 +6.108652E-01 +0.000000E+00     +5.585054E+00 +1.745329E-01 +0.000000E+00     +4.537856E+00 +1.483530E+00 +0.000000E+00     +6.981317E-01 +1.308997E+00 +0.000000E+00     +1.745329E-01 +1.483530E+00 +0.000000E+00     +4.101524E+00 +1.745329E-01 +0.000000E+00     +1.745329E+00 +1.221730E+00 +0.000000E+00    
 +1.745329E-01 +6.981317E-01 +0.000000E+00     +5.323254E+00 +8.726646E-02 +0.000000E+00     +1.745329E+00 +9.599311E-01 +0.000000E+00     +6.195919E+00 +3.490659E-01 +0.000000E+00     +4.276057E+00 +5.235988E-01 +0.000000E+00     +5.759587E+00 +1.745329E-01 +0.000000E+00     +1.832596E+00 +8.726646E-01 +0.000000E+00    
 +7.853982E-01 +1.396263E+00 +0.000000E+00     +7.853982E-01 +2.617994E-01 +0.000000E+00     +3.403392E+00 +6.108652E-01 +0.000000E+00     +6.981317E-01 +1.221730E+00 +0.000000E+00     +5.759587E+00 +1.483530E+00 +0.000000E+00     +5.235988E+00 +7.853982E-01 +0.000000E+00     +2.617994E-01 +1.483530E+00 +0.000000E+00    
 +5.235988E-01 +1.745329E-01 +0.000000E+00     +3.490659E+00 +8.726646E-02 +0.000000E+00     +4.450590E+00 +8.726646E-01 +0.000000E+00     +4.363323E+00 +1.221730E+00 +0.000000E+00     +5.061455E+00 +7.853982E-01 +0.000000E+00     +3.926991E+00 +1.221730E+00 +0.000000E+00     +3.141593E+00 +8.726646E-02 +0.000000E+00    
 +1.047198E+00 +1.308997E+00 +0.000000E+00     +2.007129E+00 +2.617994E-01 +0.000000E+00     +1.221730E+00 +1.308997E+00 +0.000000E+00     +4.276057E+00 +1.483530E+00 +0.000000E+00     +1.483530E+00 +1.308997E+00 +0.000000E+00     +1.570796E+00 +1.308997E+00 +0.000000E+00     +2.617994E+00 +1.570796E+00 +0.000000E+00    
 +1.396263E+00 +1.745329E-01 +0.000000E+00     +3.926991E+00 +1.308997E+00 +0.000000E+00     +6.195919E+00 +1.308997E+00 +0.000000E+00     +1.396263E+00 +3.490659E-01 +0.000000E+00     +6.981317E-01 +4.363323E-01 +0.000000E+00     +5.148721E+00 +8.726646E-01 +0.000000E+00     +4.363323E-01 +9.599311E-01 +0.000000E+00    
 +2.530727E+00 +1.134464E+00 +0.000000E+00     +6.108652E+00 +1.396263E+00 +0.000000E+00     +2.007129E+00 +6.108652E-01 +0.000000E+00     +6.283185E+00 +7.853982E-01 +0.000000E+00     +2.443461E+00 +2.617994E-01 +0.000000E+00     +6.108652E+00 +6.981317E-01 +0.000000E+00     +2.181662E+00 +6.981317E-01 +0.000000E+00    
 +3.228859E+00 +1.396263E+00 +0.000000E+00     +6.108652E+00 +1.308997E+00 +0.000000E+00     +2.617994E+00 +6.108652E-01 +0.000000E+00     +8.726646E-01 +2.617994E-01 +0.000000E+00     +5.061455E+00 +7.853982E-01 +0.000000E+00     +5.235988E-01 +7.853982E-01 +0.000000E+00     +4.450590E+00 +8.726646E-01 +0.000000E+00    
 +5.410521E+00 +1.745329E-01 +0.000000E+00     +6.981317E-01 +1.570796E+00 +0.000000E+00     +2.617994E-01 +8.726646E-01 +0.000000E+00     +5.410521E+00 +2.617994E-01 +0.000000E+00     +7.853982E-01 +6.108652E-01 +0.000000E+00     +4.537856E+00 +1.570796E+00 +0.000000E+00     +8.726646E-01 +8.726646E-02 +0.000000E+00    
 +1.919862E+00 +1.308997E+00 +0.000000E+00     +4.101524E+00 +1.047198E+00 +0.000000E+00     +1.134464E+00 +1.134464E+00 +0.000000E+00     +4.450590E+00 +7.853982E-01 +0.000000E+00     +4.886922E+00 +2.617994E-01 +0.000000E+00     +4.450590E+00 +1.570796E+00 +0.000000E+00     +8.726646E-01 +7.853982E-01 +0.000000E+00    
 +6.108652E+00 +7.853982E-01 +0.000000E+00     +2.181662E+00 +1.745329E-01 +0.000000E+00     +4.101524E+00 +1.047198E+00 +0.000000E+00     +1.745329E+00 +4.363323E-01 +0.000000E+00     +6.981317E-01 +2.617994E-01 +0.000000E+00     +4.014257E+00 +1.047198E+00 +0.000000E+00     +1.745329E+00 +3.490659E-01 +0.000000E+00    
 +2.879793E+00 +1.745329E-01 +0.000000E+00     +2.879793E+00 +1.221730E+00 +0.000000E+00     +5.934119E+00 +1.745329E-01 +0.000000E+00     +6.021386E+00 +5.235988E-01 +0.000000E+00     +3.577925E+00 +1.570796E+00 +0.000000E+00     +1.919862E+00 +1.483530E+00 +0.000000E+00     +1.047198E+00 +3.490659E-01 +0.000000E+00    
 +1.047198E+00 +1.396263E+00 +0.000000E+00     +3.839724E+00 +1.745329E-01 +0.000000E+00     +4.363323E-01 +2.617994E-01 +0.000000E+00     +3.752458E+00 +1.570796E+00 +0.000000E+00     +3.141593E+00 +1.396263E+00 +0.000000E+00     +6.981317E-01 +1.308997E+00 +0.000000E+00     +3.403392E+00 +1.134464E+00 +0.000000E+00    
 +5.759587E+00 +5.235988E-01 +0.000000E+00     +1.221730E+00 +9.599311E-01 +0.000000E+00     +4.363323E-01 +6.108652E-01 +0.000000E+00     +3.665191E+00 +6.108652E-01 +0.000000E+00     +2.181662E+00 +3.490659E-01 +0.000000E+00     +2.181662E+00 +1.570796E+00 +0.000000E+00     +3.228859E+00 +6.108652E-01 +0.000000E+00    
 +1.396263E+00 +3.490659E-01 +0.000000E+00     +6.108652E+00 +2.617994E-01 +0.000000E+00     +3.316126E+00 +6.981317E-01 +0.000000E+00     +3.490659E-01 +8.726646E-01 +0.000000E+00     +5.235988E+00 +4.363323E-01 +0.000000E+00     +3.577925E+00 +7.853982E-01 +0.000000E+00     +1.745329E+00 +6.981317E-01 +0.000000E+00    
 +5.235988E+00 +4.363323E-01 +0.000000E+00     +4.101524E+00 +9.599311E-01 +0.000000E+00     +6.108652E-01 +1.047198E+00 +0.000000E+00     +3.316126E+00 +6.981317E-01 +0.000000E+00     +4.974188E+00 +1.570796E+00 +0.000000E+00     +4.363323E-01 +1.570796E+00 +0.000000E+00     +3.141593E+00 +9.599311E-01 +0.000000E+00    
 +1.047198E+00 +1.134464E+00 +0.000000E+00     +5.846853E+00 +7.853982E-01 +0.000000E+00     +6.283185E+00 +1.483530E+00 +0.000000E+00     +1.396263E+00 +2.617994E-01 +0.000000E+00     +4.712389E+00 +5.235988E-01 +0.000000E+00     +6.981317E-01 +1.396263E+00 +0.000000E+00     +3.752458E+00 +3.490659E-01 +0.000000E+00    
 +5.497787E+00 +1.134464E+00 +0.000000E+00     +3.141593E+00 +1.308997E+00 +0.000000E+00     +6.108652E+00 +6.108652E-01 +0.000000E+00     +2.705260E+00 +1.221730E+00 +0.000000E+00     +5.497787E+00 +7.853982E-01 +0.000000E+00     +2.879793E+00 +1.745329E-01 +0.000000E+00     +1.483530E+00 +2.617994E-01 +0.000000E+00    
 +2.268928E+00 +8.726646E-02 +0.000000E+00     +6.283185E+00 +6.981317E-01 +0.000000E+00     +8.726646E-02 +1.221730E+00 +0.000000E+00     +3.403392E+00 +9.599311E-01 +0.000000E+00     +1.658063E+00 +6.981317E-01 +0.000000E+00     +3.665191E+00 +9.599311E-01 +0.000000E+00     +3.141593E+00 +2.617994E-01 +0.000000E+00    
 +5.410521E+00 +5.235988E-01 +0.000000E+00     +1.832596E+00 +8.726646E-01 +0.000000E+00     +2.879793E+00 +4.363323E-01 +0.000000E+00     +5.672320E+00 +1.570796E+00 +0.000000E+00     +2.268928E+00 +8.726646E-02 +0.000000E+00     +1.396263E+00 +9.599311E-01 +0.000000E+00     +6.195919E+00 +8.726646E-02 +0.000000E+00    
 +4.974188E+00 +1.221730E+00 +0.000000E+00     +1.745329E+00 +5.235988E-01 +0.000000E+00     +1.483530E+00 +5.235988E-01 +0.000000E+00     +3.665191E+00 +4.363323E-01 +0.000000E+00     +1.047198E+00 +8.726646E-01 +0.000000E+00     +3.141593E+00 +6.108652E-01 +0.000000E+00     +3.665191E+00 +6.108652E-01 +0.000000E+00    
 +2.094395E+00 +9.599311E-01 +0.000000E+00     +4.625123E+00 +1.396263E+00 +0.000000E+00     +4.625123E+00 +8.726646E-02 +0.000000E+00     +1.832596E+00 +1.483530E+00 +0.000000E+00     +9.599311E-01 +1.570796E+00 +0.000000E+00     +5.497787E+00 +1.221730E+00 +0.000000E+00     +7.853982E-01 +1.570796E+00 +0.000000E+00    
 +5.235988E+00 +5.235988E-01 +0.000000E+00     +5.497787E+00 +8.726646E-02 +0.000000E+00     +1.919862E+00 +1.570796E+00 +0.000000E+00     +2.530727E+00 +3.490659E-01 +0.000000E+00     +4.799655E+00 +2.617994E-01 +0.000000E+00     +4.101524E+00 +1.396263E+00 +0.000000E+00     +3.054326E+00 +3.490659E-01 +0.000000E+00    
 +1.745329E+00 +1.308997E+00 +0.000000E+00     +4.363323E+00 +6.108652E-01 +0.000000E+00     +1.832596E+00 +1.221730E+00 +0.000000E+00     +4.276057E+00 +1.396263E+00 +0.000000E+00     +3.054326E+00 +1.745329E-01 +0.000000E+00     +2.443461E+00 +3.490659E-01 +0.000000E+00     +1.570796E+00 +1.047198E+00 +0.000000E+00    
 +3.752458E+00 +9.599311E-01 +0.000000E+00     +3.490659E+00 +8.726646E-02 +0.000000E+00     +2.094395E+00 +2.617994E-01 +0.000000E+00     +5.846853E+00 +2.617994E-01 +0.000000E+00     +7.853982E-01 +8.726646E-02 +0.000000E+00     +2.617994E+00 +8.726646E-02 +0.000000E+00     +4.450590E+00 +2.617994E-01 +0.000000E+00    
 +4.014257E+00 +4.363323E-01 +0.000000E+00     +1.396263E+00 +2.617994E-01 +0.000000E+00     +3.665191E+00 +1.308997E+00 +0.000000E+00     +4.712389E+00 +1.221730E+00 +0.000000E+00     +4.014257E+00 +8.726646E-02 +0.000000E+00     +5.846853E+00 +5.235988E-01 +0.000000E+00     +4.886922E+00 +5.235988E-01 +0.000000E+00    
 +2.443461E+00 +8.726646E-02 +0.000000E+00     +3.490659E+00 +1.483530E+00 +0.000000E+00     +5.410521E+00 +1.483530E+00 +0.000000E+00     +3.490659E-01 +6.981317E-01 +0.000000E+00     +2.617994E+00 +2.617994E-01 +0.000000E+00     +5.497787E+00 +1.483530E+00 +0.000000E+00     +6.021386E+00 +6.981317E-01 +0.000000E+00    
 +3.752458E+00 +1.396263E+00 +0.000000E+00     +5.410521E+00 +1.745329E-01 +0.000000E+00     +1.745329E+00 +8.726646E-01 +0.000000E+00     +4.101524E+00 +5.235988E-01 +0.000000E+00     +2.356194E+00 +9.599311E-01 +0.000000E+00     +8.726646E-02 +1.134464E+00 +0.000000E+00     +5.497787E+00 +1.221730E+00 +0.000000E+00    
 +4.101524E+00 +6.981317E-01 +0.000000E+00     +5.410521E+00 +1.221730E+00 +0.000000E+00     +4.276057E+00 +5.235988E-01 +0.000000E+00     +1.832596E+00 +1.308997E+00 +0.000000E+00     +5.061455E+00 +1.396263E+00 +0.000000E+00     +5.497787E+00 +1.134464E+00 +0.000000E+00     +3.752458E+00 +6.981317E-01 +0.000000E+00    
 +5.846853E+00 +6.108652E-01 +0.000000E+00     +4.450590E+00 +8.726646E-01 +0.000000E+00     +1.658063E+00 +8.726646E-01 +0.000000E+00     +4.363323E-01 +1.221730E+00 +0.000000E+00     +8.726646E-02 +4.363323E-01 +0.000000E+00     +2.268928E+00 +3.490659E-01 +0.000000E+00     +4.101524E+00 +7.853982E-01 +0.000000E+00    
 +2.617994E+00 +9.599311E-01 +0.000000E+00     +3.490659E+00 +1.570796E+00 +0.000000E+00     +5.323254E+00 +7.853982E-01 +0.000000E+00     +2.268928E+00 +1.134464E+00 +0.000000E+00     +3.141593E+00 +3.490659E-01 +0.000000E+00     +2.879793E+00 +1.745329E-01 +0.000000E+00     +3.490659E+00 +9.599311E-01 +0.000000E+00    
 +5.235988E+00 +5.235988E-01 +0.000000E+00     +2.443461E+00 +7.853982E-01 +0.000000E+00     +2.879793E+00 +1.308997E+00 +0.000000E+00     +4.974188E+00 +1.570796E+00 +0.000000E+00     +4.625123E+00 +2.617994E-01 +0.000000E+00     +4.712389E+00 +6.108652E-01 +0.000000E+00     +2.181662E+00 +8.726646E-01 +0.000000E+00    
 +2.617994E-01 +9.599311E-01 +0.000000E+00     +2.792527E+00 +5.235988E-01 +0.000000E+00     +1.745329E+00 +1.308997E+00 +0.000000E+00     +5.235988E+00 +1.483530E+00 +0.000000E+00     +4.537856E+00 +7.853982E-01 +0.000000E+00     +4.101524E+00 +1.221730E+00 +0.000000E+00     +4.625123E+00 +1.221730E+00 +0.000000E+00    
 +4.101524E+00 +5.235988E-01 +0.000000E+00     +6.108652E+00 +6.981317E-01 +0.000000E+00     +4.276057E+00 +6.108652E-01 +0.000000E+00     +6.108652E+00 +9.599311E-01 +0.000000E+00     +4.014257E+00 +6.108652E-01 +0.000000E+00     +6.283185E+00 +1.396263E+00 +0.000000E+00     +3.316126E+00 +1.047198E+00 +0.000000E+00    
 +3.316126E+00 +9.599311E-01 +0.000000E+00     +2.094395E+00 +1.221730E+00 +0.000000E+00     +4.799655E+00 +9.599311E-01 +0.000000E+00     +1.658063E+00 +1.483530E+00 +0.000000E+00     +1.221730E+00 +5.235988E-01 +0.000000E+00     +1.832596E+00 +3.490659E-01 +0.000000E+00     +3.403392E+00 +1.483530E+00 +0.000000E+00    
 +7.853982E-01 +1.396263E+00 +0.000000E+00     +4.450590E+00 +6.981317E-01 +0.000000E+00     +2.443461E+00 +9.599311E-01 +0.000000E+00     +3.665191E+00 +1.745329E-01 +0.000000E+00     +3.403392E+00 +1.308997E+00 +0.000000E+00     +6.195919E+00 +1.221730E+00 +0.000000E+00     +4.799655E+00 +8.726646E-02 +0.000000E+00    
 +3.665191E+00 +5.235988E-01 +0.000000E+00     +5.061455E+00 +1.221730E+00 +0.000000E+00     +8.726646E-02 +1.308997E+00 +0.000000E+00     +1.483530E+00 +2.617994E-01 +0.000000E+00     +4.014257E+00 +4.363323E-01 +0.000000E+00     +5.934119E+00 +6.108652E-01 +0.000000E+00     +3.054326E+00 +2.617994E-01 +0.000000E+00    
 +2.879793E+00 +1.483530E+00 +0.000000E+00     +2.356194E+00 +1.221730E+00 +0.000000E+00     +5.846853E+00 +1.047198E+00 +0.000000E+00     +5.672320E+00 +4.363323E-01 +0.000000E+00     +1.483530E+00 +6.981317E-01 +0.000000E+00     +5.934119E+00 +1.308997E+00 +0.000000E+00     +6.981317E-01 +3.490659E-01 +0.000000E+00    
 +4.276057E+00 +1.308997E+00 +0.000000E+00     +6.195919E+00 +2.617994E-01 +0.000000E+00     +7.853982E-01 +1.570796E+00 +0.000000E+00     +1.832596E+00 +8.726646E-02 +0.000000E+00     +1.221730E+00 +1.570796E+00 +0.000000E+00     +6.108652E+00 +1.396263E+00 +0.000000E+00     +6.021386E+00 +1.483530E+00 +0.000000E+00    
 +2.617994E+00 +1.221730E+00 +0.000000E+00     +1.745329E+00 +1.308997E+00 +0.000000E+00     +2.268928E+00 +4.363323E-01 +0.000000E+00     +3.141593E+00 +6.981317E-01 +0.000000E+00     +6.283185E+00 +6.981317E-01 +0.000000E+00     +1.134464E+00 +9.599311E-01 +0.000000E+00     +1.919862E+00 +1.570796E+00 +0.000000E+00    
 +5.585054E+00 +1.308997E+00 +0.000000E+00     +4.101524E+00 +1.396263E+00 +0.000000E+00     +2.879793E+00 +8.726646E-02 +0.000000E+00     +6.021386E+00 +1.570796E+00 +0.000000E+00     +1.745329E+00 +1.221730E+00 +0.000000E+00     +2.967060E+00 +2.617994E-01 +0.000000E+00     +5.061455E+00 +8.726646E-01 +0.000000E+00    
 +6.981317E-01 +1.047198E+00 +0.000000E+00     +5.323254E+00 +9.599311E-01 +0.000000E+00     +5.672320E+00 +3.490659E-01 +0.000000E+00     +4.101524E+00 +7.853982E-01 +0.000000E+00     +6.195919E+00 +1.047198E+00 +0.000000E+00     +1.745329E+00 +1.047198E+00 +0.000000E+00     +5.846853E+00 +8.726646E-02 +0.000000E+00    
 +2.617994E+00 +6.108652E-01 +0.000000E+00     +2.705260E+00 +1.745329E-01 +0.000000E+00     +3.490659E+00 +7.853982E-01 +0.000000E+00     +5.061455E+00 +6.108652E-01 +0.000000E+00     +4.974188E+00 +1.308997E+00 +0.000000E+00     +1.221730E+00 +1.134464E+00 +0.000000E+00     +1.483530E+00 +7.853982E-01 +0.000000E+00    
 +1.745329E-01 +1.134464E+00 +0.000000E+00     +4.276057E+00 +1.134464E+00 +0.000000E+00     +4.188790E+00 +1.134464E+00 +0.000000E+00     +5.934119E+00 +8.726646E-02 +0.000000E+00     +2.705260E+00 +8.726646E-02 +0.000000E+00     +4.799655E+00 +1.483530E+00 +0.000000E+00     +4.625123E+00 +1.047198E+00 +0.000000E+00    
 +2.443461E+00 +2.617994E-01 +0.000000E+00     +4.886922E+00 +1.221730E+00 +0.000000E+00     +5.323254E+00 +1.308997E+00 +0.000000E+00     +4.101524E+00 +5.235988E-01 +0.000000E+00     +5.235988E+00 +5.235988E-01 +0.000000E+00     +5.497787E+00 +1.308997E+00 +0.000000E+00     +2.443461E+00 +4.363323E-01 +0.000000E+00    
 +3.490659E+00 +1.047198E+00 +0.000000E+00     +2.094395E+00 +6.981317E-01 +0.000000E+00     +3.752458E+00 +7.853982E-01 +0.000000E+00     +3.926991E+00 +1.221730E+00 +0.000000E+00     +5.235988E+00 +1.134464E+00 +0.000000E+00     +5.323254E+00 +1.308997E+00 +0.000000E+00     +1.396263E+00 +6.981317E-01 +0.000000E+00    
 +5.148721E+00 +1.483530E+00 +0.000000E+00     +5.323254E+00 +1.308997E+00 +0.000000E+00     +1.134464E+00 +1.134464E+00 +0.000000E+00     +3.228859E+00 +1.134464E+00 +0.000000E+00     +2.879793E+00 +7.853982E-01 +0.000000E+00     +3.752458E+00 +2.617994E-01 +0.000000E+00     +3.316126E+00 +1.047198E+00 +0.000000E+00    
 +2.617994E+00 +1.745329E-01 +0.000000E+00     +2.879793E+00 +1.134464E+00 +0.000000E+00     +5.759587E+00 +1.134464E+00 +0.000000E+00     +4.799655E+00 +6.981317E-01 +0.000000E+00     +8.726646E-01 +1.134464E+00 +0.000000E+00     +2.181662E+00 +7.853982E-01 +0.000000E+00     +9.599311E-01 +8.726646E-02 +0.000000E+00    
 +2.530727E+00 +5.235988E-01 +0.000000E+00     +5.061455E+00 +1.221730E+00 +0.000000E+00     +2.181662E+00 +6.108652E-01 +0.000000E+00     +1.308997E+00 +5.235988E-01 +0.000000E+00     +5.235988E+00 +8.726646E-01 +0.000000E+00     +2.617994E-01 +9.599311E-01 +0.000000E+00     +3.054326E+00 +7.853982E-01 +0.000000E+00    
 +2.879793E+00 +9.599311E-01 +0.000000E+00     +1.308997E+00 +8.726646E-01 +0.000000E+00     +2.617994E-01 +7.853982E-01 +0.000000E+00     +4.625123E+00 +1.745329E-01 +0.000000E+00     +3.141593E+00 +1.221730E+00 +0.000000E+00     +2.181662E+00 +1.483530E+00 +0.000000E+00     +3.316126E+00 +1.308997E+00 +0.000000E+00    
 +4.974188E+00 +7.853982E-01 +0.000000E+00     +5.061455E+00 +1.047198E+00 +0.000000E+00     +6.108652E+00 +5.235988E-01 +0.000000E+00     +5.846853E+00 +1.483530E+00 +0.000000E+00     +4.188790E+00 +1.483530E+00 +0.000000E+00     +7.853982E-01 +4.363323E-01 +0.000000E+00     +5.148721E+00 +6.981317E-01 +0.000000E+00    
 +6.195919E+00 +8.726646E-01 +0.000000E+00     +3.752458E+00 +1.396263E+00 +0.000000E+00     +3.490659E-01 +1.134464E+00 +0.000000E+00     +2.792527E+00 +3.490659E-01 +0.000000E+00     +1.483530E+00 +1.745329E-01 +0.000000E+00     +5.148721E+00 +5.235988E-01 +0.000000E+00     +4.101524E+00 +1.047198E+00 +0.000000E+00    
 +3.577925E+00 +1.570796E+00 +0.000000E+00     +5.497787E+00 +5.235988E-01 +0.000000E+00     +6.108652E-01 +6.981317E-01 +0.000000E+00     +5.759587E+00 +2.617994E-01 +0.000000E+00     +3.926991E+00 +1.134464E+00 +0.000000E+00     +5.323254E+00 +1.745329E-01 +0.000000E+00     +5.846853E+00 +1.483530E+00 +0.000000E+00    
 +6.981317E-01 +1.745329E-01 +0.000000E+00     +3.228859E+00 +1.396263E+00 +0.000000E+00     +4.537856E+00 +1.047198E+00 +0.000000E+00     +3.141593E+00 +7.853982E-01 +0.000000E+00     +1.396263E+00 +1.047198E+00 +0.000000E+00     +6.283185E+00 +1.221730E+00 +0.000000E+00     +1.919862E+00 +9.599311E-01 +0.000000E+00    
 +2.181662E+00 +8.726646E-02 +0.000000E+00     +6.981317E-01 +1.047198E+00 +0.000000E+00     +3.228859E+00 +1.570796E+00 +0.000000E+00     +9.599311E-01 +6.108652E-01 +0.000000E+00     +1.483530E+00 +9.599311E-01 +0.000000E+00     +2.356194E+00 +1.570796E+00 +0.000000E+00     +4.101524E+00 +1.483530E+00 +0.000000E+00    
 +2.094395E+00 +8.726646E-02 +0.000000E+00     +3.316126E+00 +1.483530E+00 +0.000000E+00     +3.577925E+00 +1.221730E+00 +0.000000E+00     +4.712389E+00 +1.047198E+00 +0.000000E+00     +5.846853E+00 +6.108652E-01 +0.000000E+00     +1.745329E-01 +1.047198E+00 +0.000000E+00     +1.745329E+00 +2.617994E-01 +0.000000E+00    
 +2.181662E+00 +1.308997E+00 +0.000000E+00     +3.316126E+00 +5.235988E-01 +0.000000E+00     +2.443461E+00 +4.363323E-01 +0.000000E+00     +4.974188E+00 +9.599311E-01 +0.000000E+00     +2.530727E+00 +8.726646E-01 +0.000000E+00     +4.712389E+00 +1.221730E+00 +0.000000E+00     +5.846853E+00 +3.490659E-01 +0.000000E+00    
 +1.919862E+00 +6.981317E-01 +0.000000E+00     +5.497787E+00 +1.221730E+00 +0.000000E+00     +1.570796E+00 +8.726646E-02 +0.000000E+00     +5.934119E+00 +3.490659E-01 +0.000000E+00     +3.665191E+00 +1.047198E+00 +0.000000E+00     +4.712389E+00 +5.235988E-01 +0.000000E+00     +1.745329E+00 +3.490659E-01 +0.000000E+00    
 +5.585054E+00 +1.396263E+00 +0.000000E+00     +2.356194E+00 +8.726646E-01 +0.000000E+00     +2.530727E+00 +1.483530E+00 +0.000000E+00     +3.926991E+00 +1.570796E+00 +0.000000E+00     +5.061455E+00 +4.363323E-01 +0.000000E+00     +2.007129E+00 +1.047198E+00 +0.000000E+00     +4.886922E+00 +1.221730E+00 +0.000000E+00    
 +5.323254E+00 +1.570796E+00 +0.000000E+00     +1.658063E+00 +3.490659E-01 +0.000000E+00     +4.712389E+00 +6.108652E-01 +0.000000E+00     +4.537856E+00 +1.047198E+00 +0.000000E+00     +1.658063E+00 +4.363323E-01 +0.000000E+00     +2.094395E+00 +1.047198E+00 +0.000000E+00     +8.726646E-01 +1.483530E+00 +0.000000E+00    
 +1.396263E+00 +1.308997E+00 +0.000000E+00     +5.846853E+00 +1.221730E+00 +0.000000E+00     +5.323254E+00 +6.981317E-01 +0.000000E+00     +1.745329E+00 +3.490659E-01 +0.000000E+00     +5.061455E+00 +2.617994E-01 +0.000000E+00     +4.188790E+00 +1.308997E+00 +0.000000E+00     +6.108652E+00 +1.308997E+00 +0.000000E+00    
 +5.846853E+00 +6.981317E-01 +0.000000E+00     +3.752458E+00 +9.599311E-01 +0.000000E+00     +4.886922E+00 +1.483530E+00 +0.000000E+00     +4.974188E+00 +4.363323E-01 +0.000000E+00     +5.497787E+00 +1.483530E+00 +0.000000E+00     +5.846853E+00 +1.483530E+00 +0.000000E+00     +5.672320E+00 +3.490659E-01 +0.000000E+00    
 +1.832596E+00 +7.853982E-01 +0.000000E+00     +5.759587E+00 +6.108652E-01 +0.000000E+00     +3.141593E+00 +1.221730E+00 +0.000000E+00     +5.410521E+00 +1.221730E+00 +0.000000E+00     +1.919862E+00 +4.363323E-01 +0.000000E+00     +2.705260E+00 +1.745329E-01 +0.000000E+00     +2.007129E+00 +6.108652E-01 +0.000000E+00    
 +2.530727E+00 +1.134464E+00 +0.000000E+00     +2.617994E+00 +9.599311E-01 +0.000000E+00     +1.308997E+00 +8.726646E-02 +0.000000E+00     +7.853982E-01 +1.483530E+00 +0.000000E+00     +1.134464E+00 +7.853982E-01 +0.000000E+00     +3.490659E+00 +1.221730E+00 +0.000000E+00     +4.625123E+00 +4.363323E-01 +0.000000E+00    
 +3.403392E+00 +6.108652E-01 +0.000000E+00     +3.054326E+00 +5.235988E-01 +0.000000E+00     +5.585054E+00 +4.363323E-01 +0.000000E+00     +3.752458E+00 +1.745329E-01 +0.000000E+00     +1.221730E+00 +1.134464E+00 +0.000000E+00     +1.134464E+00 +1.221730E+00 +0.000000E+00     +5.846853E+00 +8.726646E-02 +0.000000E+00    
 +4.537856E+00 +6.981317E-01 +0.000000E+00     +1.047198E+00 +1.308997E+00 +0.000000E+00     +4.712389E+00 +6.108652E-01 +0.000000E+00     +3.839724E+00 +6.981317E-01 +0.000000E+00     +5.846853E+00 +3.490659E-01 +0.000000E+00     +6.283185E+00 +1.396263E+00 +0.000000E+00     +1.134464E+00 +1.483530E+00 +0.000000E+00    
 +4.188790E+00 +2.617994E-01 +0.000000E+00     +3.490659E+00 +6.108652E-01 +0.000000E+00     +6.108652E+00 +6.981317E-01 +0.000000E+00     +1.396263E+00 +6.108652E-01 +0.000000E+00     +1.832596E+00 +1.134464E+00 +0.000000E+00     +1.047198E+00 +2.617994E-01 +0.000000E+00     +3.926991E+00 +5.235988E-01 +0.000000E+00    
 +6.108652E-01 +1.483530E+00 +0.000000E+00     +4.974188E+00 +1.396263E+00 +0.000000E+00     +2.356194E+00 +9.599311E-01 +0.000000E+00     +3.490659E+00 +1.745329E-01 +0.000000E+00     +4.014257E+00 +1.396263E+00 +0.000000E+00     +2.879793E+00 +9.599311E-01 +0.000000E+00     +5.061455E+00 +5.235988E-01 +0.000000E+00    
 +3.228859E+00 +5.235988E-01 +0.000000E+00     +4.101524E+00 +9.599311E-01 +0.000000E+00     +3.577925E+00 +6.108652E-01 +0.000000E+00     +3.316126E+00 +8.726646E-01 +0.000000E+00     +6.108652E+00 +3.490659E-01 +0.000000E+00     +6.283185E+00 +1.396263E+00 +0.000000E+00     +1.483530E+00 +1.221730E+00 +0.000000E+00    
 +5.410521E+00 +3.490659E-01 +0.000000E+00     +5.235988E-01 +2.617994E-01 +0.000000E+00     +5.759587E+00 +1.570796E+00 +0.000000E+00     +3.403392E+00 +1.570796E+00 +0.000000E+00     +6.195919E+00 +8.726646E-02 +0.000000E+00     +4.363323E+00 +1.047198E+00 +0.000000E+00     +2.443461E+00 +1.570796E+00 +0.000000E+00    
 +4.450590E+00 +8.726646E-02 +0.000000E+00     +2.268928E+00 +1.745329E-01 +0.000000E+00     +2.617994E+00 +9.599311E-01 +0.000000E+00     +5.235988E+00 +8.726646E-02 +0.000000E+00     +1.308997E+00 +4.363323E-01 +0.000000E+00     +2.443461E+00 +5.235988E-01 +0.000000E+00     +5.323254E+00 +1.221730E+00 +0.000000E+00    
 +5.061455E+00 +9.599311E-01 +0.000000E+00     +2.705260E+00 +1.134464E+00 +0.000000E+00     +2.268928E+00 +6.981317E-01 +0.000000E+00     +5.934119E+00 +7.853982E-01 +0.000000E+00     +3.577925E+00 +2.617994E-01 +0.000000E+00     +1.832596E+00 +1.396263E+00 +0.000000E+00     +3.490659E+00 +6.108652E-01 +0.000000E+00    
 +6.108652E+00 +8.726646E-01 +0.000000E+00     +8.726646E-01 +2.617994E-01 +0.000000E+00     +4.712389E+00 +2.617994E-01 +0.000000E+00     +1.658063E+00 +1.047198E+00 +0.000000E+00     +2.879793E+00 +1.308997E+00 +0.000000E+00     +2.705260E+00 +2.617994E-01 +0.000000E+00     +3.490659E-01 +1.570796E+00 +0.000000E+00    
 +5.672320E+00 +4.363323E-01 +0.000000E+00     +4.363323E+00 +3.490659E-01 +0.000000E+00     +5.846853E+00 +1.570796E+00 +0.000000E+00     +4.799655E+00 +1.308997E+00 +0.000000E+00     +3.490659E-01 +1.221730E+00 +0.000000E+00     +1.134464E+00 +8.726646E-02 +0.000000E+00     +3.490659E+00 +9.599311E-01 +0.000000E+00    
 +6.108652E+00 +1.134464E+00 +0.000000E+00     +1.832596E+00 +5.235988E-01 +0.000000E+00     +1.570796E+00 +8.726646E-01 +0.000000E+00     +5.585054E+00 +4.363323E-01 +0.000000E+00     +4.363323E+00 +1.047198E+00 +0.000000E+00     +6.195919E+00 +1.221730E+00 +0.000000E+00     +4.014257E+00 +1.308997E+00 +0.000000E+00    
 +4.276057E+00 +8.726646E-01 +0.000000E+00     +1.134464E+00 +1.047198E+00 +0.000000E+00     +4.363323E-01 +1.134464E+00 +0.000000E+00     +5.061455E+00 +8.726646E-01 +0.000000E+00     +4.625123E+00 +2.617994E-01 +0.000000E+00     +4.886922E+00 +1.134464E+00 +0.000000E+00     +1.745329E-01 +5.235988E-01 +0.000000E+00    
 +3.054326E+00 +1.745329E-01 +0.000000E+00     +2.617994E-01 +1.396263E+00 +0.000000E+00     +5.061455E+00 +8.726646E-01 +0.000000E+00     +3.577925E+00 +1.308997E+00 +0.000000E+00     +4.014257E+00 +4.363323E-01 +0.000000E+00     +3.403392E+00 +1.396263E+00 +0.000000E+00     +1.221730E+00 +1.483530E+00 +0.000000E+00    
 +4.712389E+00 +4.363323E-01 +0.000000E+00     +8.726646E-02 +4.363323E-01 +0.000000E+00     +4.014257E+00 +5.235988E-01 +0.000000E+00     +5.061455E+00 +4.363323E-01 +0.000000E+00     +4.799655E+00 +2.617994E-01 +0.000000E+00     +1.396263E+00 +4.363323E-01 +0.000000E+00     +4.450590E+00 +7.853982E-01 +0.000000E+00    
 +4.363323E+00 +6.108652E-01 +0.000000E+00     +5.323254E+00 +6.108652E-01 +0.000000E+00     +5.235988E-01 +2.617994E-01 +0.000000E+00     +2.967060E+00 +4.363323E-01 +0.000000E+00     +3.665191E+00 +1.396263E+00 +0.000000E+00     +2.181662E+00 +2.617994E-01 +0.000000E+00     +2.705260E+00 +7.853982E-01 +0.000000E+00    
 +2.007129E+00 +1.308997E+00 +0.000000E+00     +5.061455E+00 +6.981317E-01 +0.000000E+00     +3.054326E+00 +2.617994E-01 +0.000000E+00     +5.759587E+00 +3.490659E-01 +0.000000E+00     +2.181662E+00 +8.726646E-01 +0.000000E+00     +3.490659E-01 +1.308997E+00 +0.000000E+00     +2.443461E+00 +9.599311E-01 +0.000000E+00    
 +2.094395E+00 +3.490659E-01 +0.000000E+00     +5.323254E+00 +3.490659E-01 +0.000000E+00     +4.014257E+00 +8.726646E-02 +0.000000E+00     +5.235988E-01 +1.308997E+00 +0.000000E+00     +4.886922E+00 +5.235988E-01 +0.000000E+00     +9.599311E-01 +6.981317E-01 +0.000000E+00     +2.268928E+00 +6.108652E-01 +0.000000E+00    
 +3.665191E+00 +1.483530E+00 +0.000000E+00     +3.054326E+00 +1.221730E+00 +0.000000E+00     +6.981317E-01 +1.483530E+00 +0.000000E+00     +5.410521E+00 +1.745329E-01 +0.000000E+00     +1.745329E-01 +8.726646E-02 +0.000000E+00     +4.363323E+00 +5.235988E-01 +0.000000E+00     +3.490659E+00 +5.235988E-01 +0.000000E+00    
 +1.134464E+00 +1.396263E+00 +0.000000E+00     +4.363323E+00 +5.235988E-01 +0.000000E+00     +3.490659E-01 +6.981317E-01 +0.000000E+00     +5.934119E+00 +8.726646E-01 +0.000000E+00     +4.363323E-01 +1.745329E-01 +0.000000E+00     +6.021386E+00 +2.617994E-01 +0.000000E+00     +9.599311E-01 +1.221730E+00 +0.000000E+00    
 +2.181662E+00 +1.745329E-01 +0.000000E+00     +4.363323E+00 +5.235988E-01 +0.000000E+00     +1.570796E+00 +8.726646E-01 +0.000000E+00     +4.014257E+00 +8.726646E-01 +0.000000E+00     +1.919862E+00 +4.363323E-01 +0.000000E+00     +4.625123E+00 +1.308997E+00 +0.000000E+00     +1.483530E+00 +5.235988E-01 +0.000000E+00    
 +8.726646E-01 +2.617994E-01 +0.000000E+00     +2.705260E+00 +5.235988E-01 +0.000000E+00     +2.268928E+00 +5.235988E-01 +0.000000E+00     +5.235988E+00 +8.726646E-02 +0.000000E+00     +1.832596E+00 +5.235988E-01 +0.000000E+00     +9.599311E-01 +4.363323E-01 +0.000000E+00     +2.617994E+00 +8.726646E-02 +0.000000E+00    
 +5.846853E+00 +4.363323E-01 +0.000000E+00     +2.617994E-01 +7.853982E-01 +0.000000E+00     +5.323254E+00 +1.396263E+00 +0.000000E+00     +4.101524E+00 +7.853982E-01 +0.000000E+00     +4.886922E+00 +9.599311E-01 +0.000000E+00     +2.530727E+00 +1.308997E+00 +0.000000E+00     +4.363323E+00 +1.047198E+00 +0.000000E+00    
 +5.148721E+00 +6.108652E-01 +0.000000E+00     +9.599311E-01 +8.726646E-01 +0.000000E+00     +4.363323E-01 +7.853982E-01 +0.000000E+00     +5.759587E+00 +4.363323E-01 +0.000000E+00     +4.188790E+00 +7.853982E-01 +0.000000E+00     +2.268928E+00 +1.483530E+00 +0.000000E+00     +2.617994E-01 +1.483530E+00 +0.000000E+00    
 +1.745329E+00 +1.483530E+00 +0.000000E+00     +5.235988E-01 +8.726646E-01 +0.000000E+00     +7.853982E-01 +1.221730E+00 +0.000000E+00     +4.712389E+00 +1.745329E-01 +0.000000E+00     +1.047198E+00 +1.483530E+00 +0.000000E+00     +4.276057E+00 +1.308997E+00 +0.000000E+00     +1.396263E+00 +7.853982E-01 +0.000000E+00    
 +7.853982E-01 +1.047198E+00 +0.000000E+00     +5.235988E+00 +7.853982E-01 +0.000000E+00     +4.799655E+00 +1.483530E+00 +0.000000E+00     +2.443461E+00 +1.221730E+00 +0.000000E+00     +6.108652E-01 +2.617994E-01 +0.000000E+00     +2.181662E+00 +7.853982E-01 +0.000000E+00     +1.832596E+00 +1.745329E-01 +0.000000E+00    
 +3.054326E+00 +7.853982E-01 +0.000000E+00     +2.181662E+00 +1.570796E+00 +0.000000E+00     +2.967060E+00 +1.134464E+00 +0.000000E+00     +3.316126E+00 +1.221730E+00 +0.000000E+00     +7.853982E-01 +4.363323E-01 +0.000000E+00     +9.599311E-01 +6.108652E-01 +0.000000E+00     +5.846853E+00 +4.363323E-01 +0.000000E+00    
 +4.363323E-01 +1.483530E+00 +0.000000E+00     +1.221730E+00 +3.490659E-01 +0.000000E+00     +1.832596E+00 +1.570796E+00 +0.000000E+00     +3.141593E+00 +7.853982E-01 +0.000000E+00     +4.974188E+00 +8.726646E-01 +0.000000E+00     +1.396263E+00 +8.726646E-02 +0.000000E+00     +2.007129E+00 +6.108652E-01 +0.000000E+00    
 +1.745329E-01 +2.617994E-01 +0.000000E+00     +3.403392E+00 +8.726646E-01 +0.000000E+00     +2.879793E+00 +1.134464E+00 +0.000000E+00     +5.235988E-01 +1.570796E+00 +0.000000E+00     +4.363323E-01 +5.235988E-01 +0.000000E+00     +3.316126E+00 +2.617994E-01 +0.000000E+00     +4.799655E+00 +4.363323E-01 +0.000000E+00    
 +6.981317E-01 +4.363323E-01 +0.000000E+00     +1.396263E+00 +7.853982E-01 +0.000000E+00     +1.570796E+00 +1.221730E+00 +0.000000E+00     +6.108652E-01 +1.570796E+00 +0.000000E+00     +2.792527E+00 +1.047198E+00 +0.000000E+00     +3.228859E+00 +1.047198E+00 +0.000000E+00     +2.181662E+00 +6.981317E-01 +0.000000E+00    
 +9.599311E-01 +5.235988E-01 +0.000000E+00     +1.919862E+00 +1.745329E-01 +0.000000E+00     +2.268928E+00 +7.853982E-01 +0.000000E+00     +3.752458E+00 +2.617994E-01 +0.000000E+00     +5.672320E+00 +3.490659E-01 +0.000000E+00     +4.363323E+00 +8.726646E-02 +0.000000E+00     +4.188790E+00 +1.396263E+00 +0.000000E+00    
 +2.094395E+00 +5.235988E-01 +0.000000E+00     +4.886922E+00 +8.726646E-02 +0.000000E+00     +1.308997E+00 +1.570796E+00 +0.000000E+00     +4.625123E+00 +9.599311E-01 +0.000000E+00     +3.926991E+00 +5.235988E-01 +0.000000E+00     +1.745329E-01 +5.235988E-01 +0.000000E+00     +4.276057E+00 +2.617994E-01 +0.000000E+00    
 +4.974188E+00 +6.981317E-01 +0.000000E+00     +2.617994E-01 +3.490659E-01 +0.000000E+00     +7.853982E-01 +7.853982E-01 +0.000000E+00     +4.450590E+00 +3.490659E-01 +0.000000E+00     +4.363323E+00 +1.047198E+00 +0.000000E+00     +2.181662E+00 +1.570796E+00 +0.000000E+00     +5.934119E+00 +9.599311E-01 +0.000000E+00    
 +1.658063E+00 +3.490659E-01 +0.000000E+00     +5.759587E+00 +4.363323E-01 +0.000000E+00     +1.919862E+00 +1.570796E+00 +0.000000E+00     +3.316126E+00 +3.490659E-01 +0.000000E+00     +1.832596E+00 +1.308997E+00 +0.000000E+00     +1.483530E+00 +1.221730E+00 +0.000000E+00     +4.363323E-01 +1.134464E+00 +0.000000E+00    
 +3.926991E+00 +8.726646E-02 +0.000000E+00     +4.537856E+00 +2.617994E-01 +0.000000E+00     +4.450590E+00 +5.235988E-01 +0.000000E+00     +4.974188E+00 +1.047198E+00 +0.000000E+00     +5.759587E+00 +1.134464E+00 +0.000000E+00     +3.490659E-01 +1.570796E+00 +0.000000E+00     +3.839724E+00 +8.726646E-02 +0.000000E+00    
 +9.599311E-01 +1.308997E+00 +0.000000E+00     +6.195919E+00 +1.047198E+00 +0.000000E+00     +9.599311E-01 +6.981317E-01 +0.000000E+00     +4.014257E+00 +7.853982E-01 +0.000000E+00     +3.839724E+00 +9.599311E-01 +0.000000E+00     +6.021386E+00 +1.745329E-01 +0.000000E+00     +3.490659E+00 +3.490659E-01 +0.000000E+00    
 +2.007129E+00 +1.396263E+00 +0.000000E+00     +5.410521E+00 +1.396263E+00 +0.000000E+00     +1.570796E+00 +1.221730E+00 +0.000000E+00     +5.061455E+00 +1.396263E+00 +0.000000E+00     +3.752458E+00 +6.108652E-01 +0.000000E+00     +1.745329E+00 +7.853982E-01 +0.000000E+00     +5.148721E+00 +3.490659E-01 +0.000000E+00    
 +4.363323E-01 +7.853982E-01 +0.000000E+00     +6.981317E-01 +6.108652E-01 +0.000000E+00     +3.577925E+00 +6.108652E-01 +0.000000E+00     +1.745329E-01 +1.047198E+00 +0.000000E+00     +9.599311E-01 +1.134464E+00 +0.000000E+00     +4.363323E-01 +1.745329E-01 +0.000000E+00     +8.726646E-02 +6.108652E-01 +0.000000E+00    
 +1.047198E+00 +1.483530E+00 +0.000000E+00     +4.974188E+00 +1.134464E+00 +0.000000E+00     +3.054326E+00 +5.235988E-01 +0.000000E+00     +4.363323E-01 +1.221730E+00 +0.000000E+00     +2.617994E+00 +1.570796E+00 +0.000000E+00     +3.316126E+00 +1.221730E+00 +0.000000E+00     +4.537856E+00 +3.490659E-01 +0.000000E+00    
 +4.799655E+00 +5.235988E-01 +0.000000E+00     +1.658063E+00 +5.235988E-01 +0.000000E+00     +2.617994E-01 +8.726646E-02 +0.000000E+00     +5.934119E+00 +1.745329E-01 +0.000000E+00     +1.570796E+00 +4.363323E-01 +0.000000E+00     +4.363323E+00 +1.396263E+00 +0.000000E+00     +5.148721E+00 +1.745329E-01 +0.000000E+00    
 +6.283185E+00 +6.108652E-01 +0.000000E+00     +2.007129E+00 +1.570796E+00 +0.000000E+00     +9.599311E-01 +8.726646E-01 +0.000000E+00     +6.108652E-01 +1.396263E+00 +0.000000E+00     +2.792527E+00 +1.396263E+00 +0.000000E+00     +3.490659E-01 +7.853982E-01 +0.000000E+00     +1.396263E+00 +8.726646E-01 +0.000000E+00    
 +1.221730E+00 +1.221730E+00 +0.000000E+00     +1.047198E+00 +6.981317E-01 +0.000000E+00     +2.268928E+00 +8.726646E-02 +0.000000E+00     +1.919862E+00 +1.396263E+00 +0.000000E+00     +1.745329E+00 +1.047198E+00 +0.000000E+00     +6.981317E-01 +8.726646E-01 +0.000000E+00     +3.490659E-01 +6.108652E-01 +0.000000E+00    
 +2.530727E+00 +6.108652E-01 +0.000000E+00     +1.745329E+00 +6.108652E-01 +0.000000E+00     +1.832596E+00 +1.570796E+00 +0.000000E+00     +5.323254E+00 +2.617994E-01 +0.000000E+00     +3.490659E+00 +8.726646E-01 +0.000000E+00     +2.181662E+00 +1.570796E+00 +0.000000E+00     +2.356194E+00 +5.235988E-01 +0.000000E+00    
 +3.490659E+00 +3.490659E-01 +0.000000E+00     +1.047198E+00 +1.134464E+00 +0.000000E+00     +3.403392E+00 +1.221730E+00 +0.000000E+00     +3.228859E+00 +7.853982E-01 +0.000000E+00     +8.726646E-01 +6.108652E-01 +0.000000E+00     +3.665191E+00 +1.396263E+00 +0.000000E+00     +4.886922E+00 +1.483530E+00 +0.000000E+00    
 +2.094395E+00 +8.726646E-01 +0.000000E+00     +4.014257E+00 +3.490659E-01 +0.000000E+00     +3.316126E+00 +8.726646E-01 +0.000000E+00     +2.617994E+00 +6.108652E-01 +0.000000E+00     +5.672320E+00 +1.221730E+00 +0.000000E+00     +4.363323E-01 +3.490659E-01 +0.000000E+00     +3.665191E+00 +6.981317E-01 +0.000000E+00    
 +2.094395E+00 +1.396263E+00 +0.000000E+00     +2.181662E+00 +1.221730E+00 +0.000000E+00     +6.981317E-01 +1.134464E+00 +0.000000E+00     +4.101524E+00 +2.617994E-01 +0.000000E+00     +4.537856E+00 +7.853982E-01 +0.000000E+00     +6.283185E+00 +1.134464E+00 +0.000000E+00     +5.235988E+00 +8.726646E-01 +0.000000E+00    
 +3.316126E+00 +4.363323E-01 +0.000000E+00     +3.403392E+00 +1.483530E+00 +0.000000E+00     +5.148721E+00 +5.235988E-01 +0.000000E+00     +3.403392E+00 +8.726646E-01 +0.000000E+00     +1.745329E+00 +1.221730E+00 +0.000000E+00     +3.403392E+00 +7.853982E-01 +0.000000E+00     +6.108652E-01 +3.490659E-01 +0.000000E+00    
 +2.617994E-01 +8.726646E-01 +0.000000E+00     +3.665191E+00 +1.745329E-01 +0.000000E+00     +3.926991E+00 +3.490659E-01 +0.000000E+00     +3.054326E+00 +1.221730E+00 +0.000000E+00     +2.181662E+00 +1.396263E+00 +0.000000E+00     +5.759587E+00 +1.047198E+00 +0.000000E+00     +4.712389E+00 +1.221730E+00 +0.000000E+00    
 +4.537856E+00 +1.396263E+00 +0.000000E+00     +3.926991E+00 +8.726646E-01 +0.000000E+00     +5.672320E+00 +1.221730E+00 +0.000000E+00     +4.188790E+00 +6.108652E-01 +0.000000E+00     +5.585054E+00 +1.483530E+00 +0.000000E+00     +1.658063E+00 +5.235988E-01 +0.000000E+00     +2.007129E+00 +1.745329E-01 +0.000000E+00    
 +1.919862E+00 +1.745329E-01 +0.000000E+00     +4.537856E+00 +2.617994E-01 +0.000000E+00     +2.879793E+00 +6.108652E-01 +0.000000E+00     +4.188790E+00 +8.726646E-02 +0.000000E+00     +4.799655E+00 +1.396263E+00 +0.000000E+00     +1.396263E+00 +1.221730E+00 +0.000000E+00     +1.221730E+00 +7.853982E-01 +0.000000E+00    
 +1.745329E+00 +9.599311E-01 +0.000000E+00     +4.276057E+00 +1.745329E-01 +0.000000E+00     +2.007129E+00 +1.134464E+00 +0.000000E+00     +4.799655E+00 +3.490659E-01 +0.000000E+00     +1.221730E+00 +8.726646E-01 +0.000000E+00     +6.108652E-01 +8.726646E-02 +0.000000E+00     +4.101524E+00 +1.396263E+00 +0.000000E+00    
 +5.672320E+00 +1.745329E-01 +0.000000E+00     +1.832596E+00 +9.599311E-01 +0.000000E+00     +2.530727E+00 +1.745329E-01 +0.000000E+00     +3.490659E-01 +8.726646E-02 +0.000000E+00     +8.726646E-01 +1.745329E-01 +0.000000E+00     +2.792527E+00 +1.134464E+00 +0.000000E+00     +5.148721E+00 +1.308997E+00 +0.000000E+00    
 +5.061455E+00 +1.745329E-01 +0.000000E+00     +2.094395E+00 +1.134464E+00 +0.000000E+00     +6.108652E+00 +1.308997E+00 +0.000000E+00     +6.108652E-01 +1.396263E+00 +0.000000E+00     +6.108652E+00 +6.981317E-01 +0.000000E+00     +6.283185E+00 +9.599311E-01 +0.000000E+00     +6.283185E+00 +3.490659E-01 +0.000000E+00    
 +4.363323E+00 +1.570796E+00 +0.000000E+00     +2.007129E+00 +1.570796E+00 +0.000000E+00     +3.490659E-01 +1.134464E+00 +0.000000E+00     +1.745329E-01 +1.221730E+00 +0.000000E+00     +4.188790E+00 +1.483530E+00 +0.000000E+00     +3.490659E-01 +1.483530E+00 +0.000000E+00     +2.530727E+00 +8.726646E-01 +0.000000E+00    
 +1.832596E+00 +8.726646E-02 +0.000000E+00     +5.235988E+00 +1.047198E+00 +0.000000E+00     +3.316126E+00 +8.726646E-01 +0.000000E+00     +8.726646E-02 +8.726646E-02 +0.000000E+00     +4.799655E+00 +1.134464E+00 +0.000000E+00     +6.283185E+00 +6.108652E-01 +0.000000E+00     +5.672320E+00 +1.134464E+00 +0.000000E+00    
 +2.967060E+00 +1.745329E-01 +0.000000E+00     +5.672320E+00 +5.235988E-01 +0.000000E+00     +3.054326E+00 +8.726646E-01 +0.000000E+00     +3.490659E-01 +1.745329E-01 +0.000000E+00     +5.672320E+00 +9.599311E-01 +0.000000E+00     +6.981317E-01 +4.363323E-01 +0.000000E+00     +1.919862E+00 +1.047198E+00 +0.000000E+00    
 +4.188790E+00 +9.599311E-01 +0.000000E+00     +1.221730E+00 +5.235988E-01 +0.000000E+00     +4.712389E+00 +1.221730E+00 +0.000000E+00     +2.617994E+00 +1.483530E+00 +0.000000E+00     +6.981317E-01 +9.599311E-01 +0.000000E+00     +5.148721E+00 +6.981317E-01 +0.000000E+00     +5.497787E+00 +6.108652E-01 +0.000000E+00    
 +6.283185E+00 +7.853982E-01 +0.000000E+00     +1.570796E+00 +1.745329E-01 +0.000000E+00     +2.530727E+00 +3.490659E-01 +0.000000E+00     +4.712389E+00 +6.981317E-01 +0.000000E+00     +8.726646E-01 +1.221730E+00 +0.000000E+00     +3.490659E-01 +1.396263E+00 +0.000000E+00     +1.221730E+00 +6.981317E-01 +0.000000E+00    
 +4.101524E+00 +7.853982E-01 +0.000000E+00     +4.101524E+00 +2.617994E-01 +0.000000E+00     +1.396263E+00 +6.108652E-01 +0.000000E+00     +4.101524E+00 +1.745329E-01 +0.000000E+00     +4.625123E+00 +8.726646E-02 +0.000000E+00     +2.879793E+00 +6.981317E-01 +0.000000E+00     +1.745329E+00 +1.483530E+00 +0.000000E+00    
 +5.846853E+00 +5.235988E-01 +0.000000E+00     +4.450590E+00 +1.308997E+00 +0.000000E+00     +1.745329E+00 +1.570796E+00 +0.000000E+00     +3.490659E+00 +1.570796E+00 +0.000000E+00     +1.919862E+00 +1.570796E+00 +0.000000E+00     +2.967060E+00 +1.047198E+00 +0.000000E+00     +4.974188E+00 +4.363323E-01 +0.000000E+00    
 +5.759587E+00 +8.726646E-02 +0.000000E+00     +2.530727E+00 +8.726646E-02 +0.000000E+00     +5.934119E+00 +2.617994E-01 +0.000000E+00     +2.268928E+00 +1.221730E+00 +0.000000E+00     +8.726646E-01 +1.221730E+00 +0.000000E+00     +1.483530E+00 +1.308997E+00 +0.000000E+00     +6.021386E+00 +1.221730E+00 +0.000000E+00    
 +8.726646E-02 +5.235988E-01 +0.000000E+00     +2.181662E+00 +6.981317E-01 +0.000000E+00     +4.014257E+00 +1.483530E+00 +0.000000E+00     +5.235988E+00 +3.490659E-01 +0.000000E+00     +5.846853E+00 +4.363323E-01 +0.000000E+00     +6.283185E+00 +4.363323E-01 +0.000000E+00     +4.101524E+00 +6.108652E-01 +0.000000E+00    
 +2.268928E+00 +5.235988E-01 +0.000000E+00     +4.276057E+00 +1.221730E+00 +0.000000E+00     +2.792527E+00 +1.308997E+00 +0.000000E+00     +6.108652E+00 +1.047198E+00 +0.000000E+00     +3.577925E+00 +1.396263E+00 +0.000000E+00     +6.108652E+00 +5.235988E-01 +0.000000E+00     +4.537856E+00 +1.745329E-01 +0.000000E+00    
 +1.134464E+00 +5.235988E-01 +0.000000E+00     +5.846853E+00 +1.134464E+00 +0.000000E+00     +3.316126E+00 +9.599311E-01 +0.000000E+00     +1.745329E-01 +4.363323E-01 +0.000000E+00     +1.396263E+00 +1.745329E-01 +0.000000E+00     +1.396263E+00 +6.108652E-01 +0.000000E+00     +4.625123E+00 +5.235988E-01 +0.000000E+00    
 +1.832596E+00 +1.570796E+00 +0.000000E+00     +6.981317E-01 +4.363323E-01 +0.000000E+00     +5.759587E+00 +1.745329E-01 +0.000000E+00     +7.853982E-01 +1.570796E+00 +0.000000E+00     +4.363323E+00 +7.853982E-01 +0.000000E+00     +4.886922E+00 +1.483530E+00 +0.000000E+00     +9.599311E-01 +1.221730E+00 +0.000000E+00    
 +3.839724E+00 +1.745329E-01 +0.000000E+00     +5.846853E+00 +9.599311E-01 +0.000000E+00     +8.726646E-02 +8.726646E-02 +0.000000E+00     +6.283185E+00 +3.490659E-01 +0.000000E+00     +6.108652E+00 +7.853982E-01 +0.000000E+00     +6.195919E+00 +2.617994E-01 +0.000000E+00     +3.490659E-01 +5.235988E-01 +0.000000E+00    
 +4.712389E+00 +8.726646E-02 +0.000000E+00     +5.846853E+00 +1.483530E+00 +0.000000E+00     +1.134464E+00 +8.726646E-02 +0.000000E+00     +5.759587E+00 +1.047198E+00 +0.000000E+00     +1.570796E+00 +4.363323E-01 +0.000000E+00     +1.308997E+00 +6.981317E-01 +0.000000E+00     +9.599311E-01 +1.745329E-01 +0.000000E+00    
 +2.792527E+00 +3.490659E-01 +0.000000E+00     +4.886922E+00 +6.108652E-01 +0.000000E+00     +5.235988E+00 +5.235988E-01 +0.000000E+00     +4.974188E+00 +1.221730E+00 +0.000000E+00     +4.101524E+00 +1.047198E+00 +0.000000E+00     +6.108652E+00 +6.108652E-01 +0.000000E+00     +5.672320E+00 +1.570796E+00 +0.000000E+00    
 +7.853982E-01 +1.221730E+00 +0.000000E+00     +3.752458E+00 +1.047198E+00 +0.000000E+00     +2.443461E+00 +2.617994E-01 +0.000000E+00     +5.235988E-01 +5.235988E-01 +0.000000E+00     +3.490659E+00 +1.308997E+00 +0.000000E+00     +2.879793E+00 +6.108652E-01 +0.000000E+00     +3.490659E-01 +2.617994E-01 +0.000000E+00    
 +3.665191E+00 +1.308997E+00 +0.000000E+00     +3.228859E+00 +2.617994E-01 +0.000000E+00     +2.181662E+00 +5.235988E-01 +0.000000E+00     +5.934119E+00 +9.599311E-01 +0.000000E+00     +5.934119E+00 +6.108652E-01 +0.000000E+00     +1.134464E+00 +5.235988E-01 +0.000000E+00     +4.450590E+00 +9.599311E-01 +0.000000E+00    
 +6.283185E+00 +1.745329E-01 +0.000000E+00     +1.221730E+00 +3.490659E-01 +0.000000E+00     +4.363323E-01 +9.599311E-01 +0.000000E+00     +4.625123E+00 +1.308997E+00 +0.000000E+00     +3.054326E+00 +1.308997E+00 +0.000000E+00     +1.832596E+00 +2.617994E-01 +0.000000E+00     +5.235988E+00 +9.599311E-01 +0.000000E+00    
 +5.497787E+00 +1.047198E+00 +0.000000E+00     +6.195919E+00 +1.221730E+00 +0.000000E+00     +6.283185E+00 +1.570796E+00 +0.000000E+00     +8.726646E-01 +6.981317E-01 +0.000000E+00     +2.530727E+00 +1.570796E+00 +0.000000E+00     +3.490659E+00 +3.490659E-01 +0.000000E+00     +4.276057E+00 +4.363323E-01 +0.000000E+00    
 +2.617994E-01 +1.570796E+00 +0.000000E+00     +7.853982E-01 +9.599311E-01 +0.000000E+00     +4.363323E-01 +1.483530E+00 +0.000000E+00     +2.443461E+00 +8.726646E-01 +0.000000E+00     +1.570796E+00 +1.483530E+00 +0.000000E+00     +6.283185E+00 +1.483530E+00 +0.000000E+00     +1.832596E+00 +1.134464E+00 +0.000000E+00    
 +1.134464E+00 +1.745329E-01 +0.000000E+00     +2.356194E+00 +8.726646E-02 +0.000000E+00     +2.967060E+00 +4.363323E-01 +0.000000E+00     +5.497787E+00 +1.308997E+00 +0.000000E+00     +4.712389E+00 +1.308997E+00 +0.000000E+00     +1.396263E+00 +6.981317E-01 +0.000000E+00     +4.450590E+00 +1.308997E+00 +0.000000E+00    
 +3.752458E+00 +5.235988E-01 +0.000000E+00     +4.625123E+00 +3.490659E-01 +0.000000E+00     +4.363323E-01 +9.599311E-01 +0.000000E+00     +3.839724E+00 +9.599311E-01 +0.000000E+00     +1.919862E+00 +3.490659E-01 +0.000000E+00     +2.617994E+00 +1.047198E+00 +0.000000E+00     +3.490659E-01 +1.221730E+00 +0.000000E+00    
 +1.570796E+00 +2.617994E-01 +0.000000E+00     +9.599311E-01 +6.981317E-01 +0.000000E+00     +6.108652E+00 +1.134464E+00 +0.000000E+00     +4.974188E+00 +1.308997E+00 +0.000000E+00     +3.316126E+00 +1.396263E+00 +0.000000E+00     +7.853982E-01 +5.235988E-01 +0.000000E+00     +2.705260E+00 +1.047198E+00 +0.000000E+00    
 +1.919862E+00 +1.134464E+00 +0.000000E+00     +2.530727E+00 +1.134464E+00 +0.000000E+00     +5.672320E+00 +5.235988E-01 +0.000000E+00     +6.021386E+00 +6.981317E-01 +0.000000E+00     +3.490659E+00 +9.599311E-01 +0.000000E+00     +1.745329E-01 +1.047198E+00 +0.000000E+00     +3.839724E+00 +1.047198E+00 +0.000000E+00    
 +6.108652E+00 +6.981317E-01 +0.000000E+00     +3.752458E+00 +1.483530E+00 +0.000000E+00     +2.967060E+00 +6.981317E-01 +0.000000E+00     +9.599311E-01 +8.726646E-01 +0.000000E+00     +5.497787E+00 +5.235988E-01 +0.000000E+00     +3.316126E+00 +1.483530E+00 +0.000000E+00     +6.981317E-01 +4.363323E-01 +0.000000E+00    
 +1.396263E+00 +1.483530E+00 +0.000000E+00     +2.705260E+00 +1.396263E+00 +0.000000E+00     +3.228859E+00 +6.981317E-01 +0.000000E+00     +5.846853E+00 +1.221730E+00 +0.000000E+00     +5.410521E+00 +1.221730E+00 +0.000000E+00     +5.497787E+00 +4.363323E-01 +0.000000E+00     +1.832596E+00 +1.483530E+00 +0.000000E+00    
 +4.886922E+00 +1.047198E+00 +0.000000E+00     +2.705260E+00 +1.745329E-01 +0.000000E+00     +2.879793E+00 +1.483530E+00 +0.000000E+00     +5.235988E+00 +1.308997E+00 +0.000000E+00     +2.181662E+00 +5.235988E-01 +0.000000E+00     +6.195919E+00 +3.490659E-01 +0.000000E+00     +3.316126E+00 +1.308997E+00 +0.000000E+00    
 +4.101524E+00 +2.617994E-01 +0.000000E+00     +3.752458E+00 +4.363323E-01 +0.000000E+00     +3.141593E+00 +5.235988E-01 +0.000000E+00     +4.799655E+00 +1.483530E+00 +0.000000E+00     +4.625123E+00 +4.363323E-01 +0.000000E+00     +5.585054E+00 +1.570796E+00 +0.000000E+00     +3.926991E+00 +4.363323E-01 +0.000000E+00    
 +2.356194E+00 +6.108652E-01 +0.000000E+00     +1.047198E+00 +8.726646E-01 +0.000000E+00     +3.665191E+00 +1.570796E+00 +0.000000E+00     +2.530727E+00 +2.617994E-01 +0.000000E+00     +5.323254E+00 +8.726646E-02 +0.000000E+00     +4.974188E+00 +1.047198E+00 +0.000000E+00     +2.705260E+00 +6.108652E-01 +0.000000E+00    
 +5.846853E+00 +1.308997E+00 +0.000000E+00     +4.712389E+00 +9.599311E-01 +0.000000E+00     +4.712389E+00 +1.745329E-01 +0.000000E+00     +6.108652E+00 +1.221730E+00 +0.000000E+00     +5.846853E+00 +6.981317E-01 +0.000000E+00     +2.967060E+00 +8.726646E-02 +0.000000E+00     +4.101524E+00 +3.490659E-01 +0.000000E+00    
 +6.981317E-01 +9.599311E-01 +0.000000E+00     +7.853982E-01 +1.745329E-01 +0.000000E+00     +3.577925E+00 +1.483530E+00 +0.000000E+00     +4.188790E+00 +7.853982E-01 +0.000000E+00     +1.483530E+00 +1.047198E+00 +0.000000E+00     +3.403392E+00 +1.308997E+00 +0.000000E+00     +6.283185E+00 +1.308997E+00 +0.000000E+00    
 +2.792527E+00 +1.134464E+00 +0.000000E+00     +3.141593E+00 +1.221730E+00 +0.000000E+00     +3.141593E+00 +1.396263E+00 +0.000000E+00     +4.363323E-01 +6.108652E-01 +0.000000E+00     +1.919862E+00 +1.745329E-01 +0.000000E+00     +3.141593E+00 +6.981317E-01 +0.000000E+00     +3.316126E+00 +1.570796E+00 +0.000000E+00    
 +3.752458E+00 +1.483530E+00 +0.000000E+00     +1.832596E+00 +1.570796E+00 +0.000000E+00     +4.799655E+00 +1.745329E-01 +0.000000E+00     +2.007129E+00 +6.108652E-01 +0.000000E+00     +4.886922E+00 +1.308997E+00 +0.000000E+00     +4.188790E+00 +1.308997E+00 +0.000000E+00     +1.483530E+00 +1.308997E+00 +0.000000E+00    
 +2.443461E+00 +7.853982E-01 +0.000000E+00     +3.926991E+00 +1.745329E-01 +0.000000E+00     +8.726646E-02 +8.726646E-02 +0.000000E+00     +1.832596E+00 +1.570796E+00 +0.000000E+00     +4.625123E+00 +1.221730E+00 +0.000000E+00     +8.726646E-01 +1.221730E+00 +0.000000E+00     +4.188790E+00 +1.308997E+00 +0.000000E+00    
 +8.726646E-02 +1.134464E+00 +0.000000E+00     +2.617994E-01 +8.726646E-02 +0.000000E+00     +5.934119E+00 +8.726646E-02 +0.000000E+00     +1.047198E+00 +1.745329E-01 +0.000000E+00     +4.101524E+00 +5.235988E-01 +0.000000E+00     +8.726646E-01 +1.047198E+00 +0.000000E+00     +5.323254E+00 +1.134464E+00 +0.000000E+00    
 +1.919862E+00 +7.853982E-01 +0.000000E+00     +1.047198E+00 +1.745329E-01 +0.000000E+00     +4.363323E-01 +1.483530E+00 +0.000000E+00     +1.308997E+00 +8.726646E-02 +0.000000E+00     +3.926991E+00 +8.726646E-02 +0.000000E+00     +3.926991E+00 +4.363323E-01 +0.000000E+00     +4.799655E+00 +1.396263E+00 +0.000000E+00    
 +5.323254E+00 +1.134464E+00 +0.000000E+00     +4.450590E+00 +6.981317E-01 +0.000000E+00     +7.853982E-01 +9.599311E-01 +0.000000E+00     +9.599311E-01 +6.981317E-01 +0.000000E+00     +3.316126E+00 +1.483530E+00 +0.000000E+00     +5.672320E+00 +1.134464E+00 +0.000000E+00     +6.021386E+00 +3.490659E-01 +0.000000E+00    
 +5.235988E-01 +7.853982E-01 +0.000000E+00     +1.919862E+00 +5.235988E-01 +0.000000E+00     +4.537856E+00 +1.308997E+00 +0.000000E+00     +4.363323E+00 +6.108652E-01 +0.000000E+00     +3.054326E+00 +6.108652E-01 +0.000000E+00     +9.599311E-01 +5.235988E-01 +0.000000E+00     +1.308997E+00 +1.221730E+00 +0.000000E+00    
 +6.981317E-01 +4.363323E-01 +0.000000E+00     +1.658063E+00 +1.483530E+00 +0.000000E+00     +3.316126E+00 +1.308997E+00 +0.000000E+00     +4.101524E+00 +8.726646E-02 +0.000000E+00     +2.094395E+00 +1.570796E+00 +0.000000E+00     +6.021386E+00 +1.570796E+00 +0.000000E+00     +4.014257E+00 +1.745329E-01 +0.000000E+00    
 +2.530727E+00 +7.853982E-01 +0.000000E+00     +6.195919E+00 +1.047198E+00 +0.000000E+00     +9.599311E-01 +1.570796E+00 +0.000000E+00     +2.356194E+00 +1.570796E+00 +0.000000E+00     +2.268928E+00 +4.363323E-01 +0.000000E+00     +5.148721E+00 +7.853982E-01 +0.000000E+00     +3.054326E+00 +1.308997E+00 +0.000000E+00    
 +4.101524E+00 +8.726646E-02 +0.000000E+00     +1.047198E+00 +6.108652E-01 +0.000000E+00     +4.014257E+00 +1.483530E+00 +0.000000E+00     +2.356194E+00 +1.134464E+00 +0.000000E+00     +6.981317E-01 +6.981317E-01 +0.000000E+00     +8.726646E-02 +1.221730E+00 +0.000000E+00     +4.450590E+00 +1.221730E+00 +0.000000E+00    
 +4.276057E+00 +1.047198E+00 +0.000000E+00     +5.672320E+00 +8.726646E-01 +0.000000E+00     +1.221730E+00 +1.221730E+00 +0.000000E+00     +4.537856E+00 +2.617994E-01 +0.000000E+00     +9.599311E-01 +8.726646E-02 +0.000000E+00     +2.443461E+00 +6.108652E-01 +0.000000E+00     +3.228859E+00 +8.726646E-01 +0.000000E+00    
 +1.483530E+00 +1.134464E+00 +0.000000E+00     +3.403392E+00 +1.396263E+00 +0.000000E+00     +1.047198E+00 +6.981317E-01 +0.000000E+00     +4.276057E+00 +9.599311E-01 +0.000000E+00     +6.981317E-01 +6.981317E-01 +0.000000E+00     +2.356194E+00 +3.490659E-01 +0.000000E+00     +2.094395E+00 +1.483530E+00 +0.000000E+00    
 +1.570796E+00 +1.047198E+00 +0.000000E+00     +4.188790E+00 +1.221730E+00 +0.000000E+00     +2.879793E+00 +9.599311E-01 +0.000000E+00     +5.235988E-01 +7.853982E-01 +0.000000E+00     +5.235988E+00 +6.981317E-01 +0.000000E+00     +4.625123E+00 +6.108652E-01 +0.000000E+00     +5.585054E+00 +6.108652E-01 +0.000000E+00    
 +4.188790E+00 +1.483530E+00 +0.000000E+00     +8.726646E-02 +1.745329E-01 +0.000000E+00     +2.530727E+00 +6.981317E-01 +0.000000E+00     +2.443461E+00 +1.570796E+00 +0.000000E+00     +1.134464E+00 +8.726646E-01 +0.000000E+00     +5.585054E+00 +6.108652E-01 +0.000000E+00     +5.497787E+00 +1.570796E+00 +0.000000E+00    
 +5.759587E+00 +4.363323E-01 +0.000000E+00     +5.410521E+00 +8.726646E-02 +0.000000E+00     +3.665191E+00 +1.134464E+00 +0.000000E+00     +4.188790E+00 +2.617994E-01 +0.000000E+00     +1.658063E+00 +7.853982E-01 +0.000000E+00     +5.934119E+00 +9.599311E-01 +0.000000E+00     +2.268928E+00 +1.221730E+00 +0.000000E+00    
 +3.839724E+00 +5.235988E-01 +0.000000E+00     +4.712389E+00 +1.308997E+00 +0.000000E+00     +3.839724E+00 +1.047198E+00 +0.000000E+00     +2.268928E+00 +6.981317E-01 +0.000000E+00     +1.134464E+00 +1.570796E+00 +0.000000E+00     +2.967060E+00 +1.134464E+00 +0.000000E+00     +5.934119E+00 +7.853982E-01 +0.000000E+00    
 +2.879793E+00 +7.853982E-01 +0.000000E+00     +5.148721E+00 +4.363323E-01 +0.000000E+00     +1.483530E+00 +1.308997E+00 +0.000000E+00     +2.181662E+00 +1.570796E+00 +0.000000E+00     +8.726646E-01 +1.483530E+00 +0.000000E+00     +1.745329E+00 +4.363323E-01 +0.000000E+00     +5.235988E+00 +9.599311E-01 +0.000000E+00    
 +4.625123E+00 +5.235988E-01 +0.000000E+00     +2.617994E+00 +1.047198E+00 +0.000000E+00     +3.577925E+00 +7.853982E-01 +0.000000E+00     +4.276057E+00 +1.221730E+00 +0.000000E+00     +3.141593E+00 +6.108652E-01 +0.000000E+00     +1.221730E+00 +9.599311E-01 +0.000000E+00     +4.974188E+00 +1.396263E+00 +0.000000E+00    
 +6.108652E+00 +7.853982E-01 +0.000000E+00     +4.450590E+00 +1.047198E+00 +0.000000E+00     +5.323254E+00 +2.617994E-01 +0.000000E+00     +4.625123E+00 +2.617994E-01 +0.000000E+00     +1.570796E+00 +4.363323E-01 +0.000000E+00     +3.839724E+00 +8.726646E-01 +0.000000E+00     +4.537856E+00 +7.853982E-01 +0.000000E+00    
 +4.188790E+00 +2.617994E-01 +0.000000E+00     +6.981317E-01 +1.570796E+00 +0.000000E+00     +6.195919E+00 +1.483530E+00 +0.000000E+00     +6.283185E+00 +6.981317E-01 +0.000000E+00     +5.672320E+00 +1.134464E+00 +0.000000E+00     +1.047198E+00 +4.363323E-01 +0.000000E+00     +2.007129E+00 +8.726646E-02 +0.000000E+00    
 +6.108652E+00 +3.490659E-01 +0.000000E+00     +2.094395E+00 +9.599311E-01 +0.000000E+00     +5.759587E+00 +1.134464E+00 +0.000000E+00     +5.410521E+00 +1.745329E-01 +0.000000E+00     +1.570796E+00 +3.490659E-01 +0.000000E+00     +5.672320E+00 +1.745329E-01 +0.000000E+00     +3.490659E-01 +7.853982E-01 +0.000000E+00    
 +5.497787E+00 +6.981317E-01 +0.000000E+00     +4.450590E+00 +6.108652E-01 +0.000000E+00     +3.490659E-01 +7.853982E-01 +0.000000E+00     +2.443461E+00 +6.981317E-01 +0.000000E+00     +3.839724E+00 +1.134464E+00 +0.000000E+00     +3.228859E+00 +1.483530E+00 +0.000000E+00     +3.665191E+00 +1.134464E+00 +0.000000E+00    
 +5.410521E+00 +1.308997E+00 +0.000000E+00     +2.530727E+00 +1.396263E+00 +0.000000E+00     +2.617994E+00 +1.570796E+00 +0.000000E+00     +4.799655E+00 +1.308997E+00 +0.000000E+00     +3.665191E+00 +1.396263E+00 +0.000000E+00     +8.726646E-02 +6.108652E-01 +0.000000E+00     +9.599311E-01 +6.981317E-01 +0.000000E+00    
 +5.148721E+00 +1.483530E+00 +0.000000E+00     +3.752458E+00 +3.490659E-01 +0.000000E+00     +3.577925E+00 +1.745329E-01 +0.000000E+00     +1.745329E+00 +1.308997E+00 +0.000000E+00     +6.283185E+00 +8.726646E-02 +0.000000E+00     +2.007129E+00 +5.235988E-01 +0.000000E+00     +4.363323E+00 +8.726646E-01 +0.000000E+00    
 +5.323254E+00 +7.853982E-01 +0.000000E+00     +6.021386E+00 +1.134464E+00 +0.000000E+00     +2.617994E+00 +8.726646E-02 +0.000000E+00     +5.497787E+00 +1.570796E+00 +0.000000E+00     +6.108652E+00 +3.490659E-01 +0.000000E+00     +2.356194E+00 +9.599311E-01 +0.000000E+00     +5.235988E-01 +1.483530E+00 +0.000000E+00    
 +2.094395E+00 +1.745329E-01 +0.000000E+00     +2.356194E+00 +6.108652E-01 +0.000000E+00     +9.599311E-01 +1.570796E+00 +0.000000E+00     +6.981317E-01 +1.483530E+00 +0.000000E+00     +9.599311E-01 +1.483530E+00 +0.000000E+00     +6.981317E-01 +1.221730E+00 +0.000000E+00     +5.148721E+00 +1.570796E+00 +0.000000E+00    
 +5.759587E+00 +4.363323E-01 +0.000000E+00     +6.981317E-01 +1.483530E+00 +0.000000E+00     +4.014257E+00 +6.981317E-01 +0.000000E+00     +2.705260E+00 +9.599311E-01 +0.000000E+00     +3.141593E+00 +5.235988E-01 +0.000000E+00     +2.617994E+00 +1.047198E+00 +0.000000E+00     +1.483530E+00 +1.308997E+00 +0.000000E+00    
 +6.981317E-01 +8.726646E-01 +0.000000E+00     +2.007129E+00 +1.483530E+00 +0.000000E+00     +4.712389E+00 +1.134464E+00 +0.000000E+00     +8.726646E-01 +1.396263E+00 +0.000000E+00     +1.658063E+00 +5.235988E-01 +0.000000E+00     +7.853982E-01 +1.134464E+00 +0.000000E+00     +6.981317E-01 +1.134464E+00 +0.000000E+00    
 +3.141593E+00 +6.981317E-01 +0.000000E+00     +2.967060E+00 +1.047198E+00 +0.000000E+00     +4.886922E+00 +9.599311E-01 +0.000000E+00     +4.886922E+00 +9.599311E-01 +0.000000E+00     +5.846853E+00 +3.490659E-01 +0.000000E+00     +3.577925E+00 +9.599311E-01 +0.000000E+00     +5.235988E+00 +1.047198E+00 +0.000000E+00    
 +4.363323E+00 +1.745329E-01 +0.000000E+00     +4.450590E+00 +1.134464E+00 +0.000000E+00     +4.101524E+00 +3.490659E-01 +0.000000E+00     +2.181662E+00 +1.134464E+00 +0.000000E+00     +5.497787E+00 +1.396263E+00 +0.000000E+00     +2.879793E+00 +8.726646E-02 +0.000000E+00     +3.665191E+00 +6.981317E-01 +0.000000E+00    
 +4.537856E+00 +5.235988E-01 +0.000000E+00     +3.926991E+00 +1.483530E+00 +0.000000E+00     +2.094395E+00 +8.726646E-02 +0.000000E+00     +4.537856E+00 +8.726646E-01 +0.000000E+00     +2.617994E+00 +1.483530E+00 +0.000000E+00     +1.047198E+00 +1.570796E+00 +0.000000E+00     +1.832596E+00 +1.221730E+00 +0.000000E+00    
 +3.316126E+00 +1.570796E+00 +0.000000E+00     +5.323254E+00 +7.853982E-01 +0.000000E+00     +1.658063E+00 +1.134464E+00 +0.000000E+00     +6.283185E+00 +1.134464E+00 +0.000000E+00     +4.363323E+00 +6.108652E-01 +0.000000E+00     +3.839724E+00 +3.490659E-01 +0.000000E+00     +4.101524E+00 +7.853982E-01 +0.000000E+00    
 +5.846853E+00 +1.396263E+00 +0.000000E+00     +4.101524E+00 +1.570796E+00 +0.000000E+00     +4.974188E+00 +1.570796E+00 +0.000000E+00     +1.745329E-01 +1.134464E+00 +0.000000E+00     +5.061455E+00 +1.134464E+00 +0.000000E+00     +6.108652E+00 +2.617994E-01 +0.000000E+00     +3.752458E+00 +8.726646E-01 +0.000000E+00    
 +2.356194E+00 +2.617994E-01 +0.000000E+00     +3.665191E+00 +8.726646E-01 +0.000000E+00     +5.148721E+00 +5.235988E-01 +0.000000E+00     +2.792527E+00 +6.108652E-01 +0.000000E+00     +2.617994E+00 +1.745329E-01 +0.000000E+00     +6.108652E-01 +9.599311E-01 +0.000000E+00     +3.577925E+00 +8.726646E-02 +0.000000E+00    
 +5.672320E+00 +8.726646E-01 +0.000000E+00     +5.235988E+00 +1.047198E+00 +0.000000E+00     +8.726646E-02 +3.490659E-01 +0.000000E+00     +6.108652E-01 +8.726646E-02 +0.000000E+00     +5.235988E+00 +2.617994E-01 +0.000000E+00     +6.195919E+00 +7.853982E-01 +0.000000E+00     +3.403392E+00 +1.396263E+00 +0.000000E+00    
 +6.108652E+00 +1.047198E+00 +0.000000E+00     +4.101524E+00 +1.745329E-01 +0.000000E+00     +3.665191E+00 +6.108652E-01 +0.000000E+00     +4.101524E+00 +1.483530E+00 +0.000000E+00     +2.530727E+00 +9.599311E-01 +0.000000E+00     +4.450590E+00 +7.853982E-01 +0.000000E+00     +6.108652E+00 +2.617994E-01 +0.000000E+00    
 +2.181662E+00 +4.363323E-01 +0.000000E+00     +2.443461E+00 +5.235988E-01 +0.000000E+00     +9.599311E-01 +1.134464E+00 +0.000000E+00     +3.926991E+00 +6.108652E-01 +0.000000E+00     +4.712389E+00 +1.221730E+00 +0.000000E+00     +5.235988E-01 +8.726646E-01 +0.000000E+00     +4.712389E+00 +9.599311E-01 +0.000000E+00    
 +4.363323E+00 +1.308997E+00 +0.000000E+00     +5.148721E+00 +4.363323E-01 +0.000000E+00     +6.021386E+00 +1.308997E+00 +0.000000E+00     +3.228859E+00 +9.599311E-01 +0.000000E+00     +4.450590E+00 +3.490659E-01 +0.000000E+00     +5.585054E+00 +1.047198E+00 +0.000000E+00     +2.443461E+00 +1.134464E+00 +0.000000E+00    
 +1.483530E+00 +7.853982E-01 +0.000000E+00     +4.712389E+00 +1.221730E+00 +0.000000E+00     +3.054326E+00 +5.235988E-01 +0.000000E+00     +3.316126E+00 +1.134464E+00 +0.000000E+00     +7.853982E-01 +9.599311E-01 +0.000000E+00     +5.672320E+00 +1.745329E-01 +0.000000E+00     +2.617994E-01 +5.235988E-01 +0.000000E+00    
 +1.919862E+00 +1.570796E+00 +0.000000E+00     +6.021386E+00 +1.396263E+00 +0.000000E+00     +1.047198E+00 +8.726646E-02 +0.000000E+00     +2.443461E+00 +1.134464E+00 +0.000000E+00     +1.658063E+00 +1.308997E+00 +0.000000E+00     +2.268928E+00 +4.363323E-01 +0.000000E+00     +4.276057E+00 +6.981317E-01 +0.000000E+00    
 +3.490659E-01 +4.363323E-01 +0.000000E+00     +2.967060E+00 +1.308997E+00 +0.000000E+00     +1.658063E+00 +4.363323E-01 +0.000000E+00     +3.752458E+00 +6.981317E-01 +0.000000E+00     +4.886922E+00 +6.108652E-01 +0.000000E+00     +3.665191E+00 +1.745329E-01 +0.000000E+00     +3.665191E+00 +5.235988E-01 +0.000000E+00    
 +4.712389E+00 +5.235988E-01 +0.000000E+00     +3.316126E+00 +1.308997E+00 +0.000000E+00     +1.308997E+00 +8.726646E-02 +0.000000E+00     +2.530727E+00 +1.134464E+00 +0.000000E+00     +1.745329E-01 +8.726646E-01 +0.000000E+00     +1.919862E+00 +1.221730E+00 +0.000000E+00     +5.061455E+00 +1.570796E+00 +0.000000E+00    
 +5.846853E+00 +1.308997E+00 +0.000000E+00     +1.134464E+00 +9.599311E-01 +0.000000E+00     +4.014257E+00 +2.617994E-01 +0.000000E+00     +3.316126E+00 +5.235988E-01 +0.000000E+00     +3.228859E+00 +9.599311E-01 +0.000000E+00     +6.283185E+00 +7.853982E-01 +0.000000E+00     +8.726646E-01 +6.108652E-01 +0.000000E+00    
 +6.021386E+00 +4.363323E-01 +0.000000E+00     +1.221730E+00 +2.617994E-01 +0.000000E+00     +2.792527E+00 +7.853982E-01 +0.000000E+00     +1.745329E+00 +1.396263E+00 +0.000000E+00     +5.846853E+00 +8.726646E-02 +0.000000E+00     +3.228859E+00 +1.570796E+00 +0.000000E+00     +6.108652E-01 +1.221730E+00 +0.000000E+00    
 +2.268928E+00 +6.981317E-01 +0.000000E+00     +2.007129E+00 +1.570796E+00 +0.000000E+00     +3.490659E-01 +6.108652E-01 +0.000000E+00     +1.483530E+00 +8.726646E-02 +0.000000E+00     +3.752458E+00 +1.483530E+00 +0.000000E+00     +6.283185E+00 +1.134464E+00 +0.000000E+00     +4.014257E+00 +1.570796E+00 +0.000000E+00    
 +2.530727E+00 +1.745329E-01 +0.000000E+00     +3.316126E+00 +6.108652E-01 +0.000000E+00     +5.585054E+00 +5.235988E-01 +0.000000E+00     +4.450590E+00 +5.235988E-01 +0.000000E+00     +3.752458E+00 +5.235988E-01 +0.000000E+00     +4.712389E+00 +8.726646E-01 +0.000000E+00     +1.308997E+00 +1.483530E+00 +0.000000E+00    
 +4.886922E+00 +2.617994E-01 +0.000000E+00     +1.919862E+00 +1.745329E-01 +0.000000E+00     +6.108652E+00 +1.308997E+00 +0.000000E+00     +6.108652E-01 +6.108652E-01 +0.000000E+00     +9.599311E-01 +3.490659E-01 +0.000000E+00     +2.443461E+00 +6.108652E-01 +0.000000E+00     +9.599311E-01 +1.745329E-01 +0.000000E+00    
 +1.832596E+00 +8.726646E-02 +0.000000E+00     +3.316126E+00 +4.363323E-01 +0.000000E+00     +4.188790E+00 +1.047198E+00 +0.000000E+00     +5.148721E+00 +1.483530E+00 +0.000000E+00     +4.363323E-01 +1.745329E-01 +0.000000E+00     +4.363323E-01 +8.726646E-02 +0.000000E+00     +3.228859E+00 +8.726646E-02 +0.000000E+00    
 +2.617994E+00 +6.108652E-01 +0.000000E+00     +6.981317E-01 +1.570796E+00 +0.000000E+00     +4.363323E+00 +8.726646E-01 +0.000000E+00     +5.934119E+00 +1.570796E+00 +0.000000E+00     +5.934119E+00 +1.308997E+00 +0.000000E+00     +4.974188E+00 +8.726646E-02 +0.000000E+00     +3.839724E+00 +5.235988E-01 +0.000000E+00    
 +3.403392E+00 +1.047198E+00 +0.000000E+00     +8.726646E-01 +8.726646E-01 +0.000000E+00     +5.410521E+00 +1.745329E-01 +0.000000E+00     +4.014257E+00 +4.363323E-01 +0.000000E+00     +3.577925E+00 +1.134464E+00 +0.000000E+00     +1.745329E-01 +8.726646E-02 +0.000000E+00     +6.021386E+00 +8.726646E-02 +0.000000E+00    
 +3.926991E+00 +9.599311E-01 +0.000000E+00     +1.396263E+00 +2.617994E-01 +0.000000E+00     +3.141593E+00 +6.108652E-01 +0.000000E+00     +2.530727E+00 +5.235988E-01 +0.000000E+00     +1.745329E+00 +5.235988E-01 +0.000000E+00     +3.141593E+00 +7.853982E-01 +0.000000E+00     +5.585054E+00 +1.570796E+00 +0.000000E+00    
 +1.221730E+00 +1.308997E+00 +0.000000E+00     +3.228859E+00 +8.726646E-01 +0.000000E+00     +1.134464E+00 +1.396263E+00 +0.000000E+00     +4.276057E+00 +1.745329E-01 +0.000000E+00     +2.181662E+00 +1.047198E+00 +0.000000E+00     +5.934119E+00 +3.490659E-01 +0.000000E+00     +1.919862E+00 +4.363323E-01 +0.000000E+00    
 +1.396263E+00 +1.308997E+00 +0.000000E+00     +5.235988E+00 +1.745329E-01 +0.000000E+00     +6.108652E+00 +1.047198E+00 +0.000000E+00     +5.672320E+00 +2.617994E-01 +0.000000E+00     +5.323254E+00 +1.396263E+00 +0.000000E+00     +1.919862E+00 +1.483530E+00 +0.000000E+00     +4.974188E+00 +4.363323E-01 +0.000000E+00    
 +2.268928E+00 +1.221730E+00 +0.000000E+00     +5.672320E+00 +1.047198E+00 +0.000000E+00     +5.672320E+00 +2.617994E-01 +0.000000E+00     +5.235988E-01 +2.617994E-01 +0.000000E+00     +4.363323E+00 +1.396263E+00 +0.000000E+00     +1.745329E-01 +8.726646E-02 +0.000000E+00     +2.356194E+00 +8.726646E-02 +0.000000E+00    
 +2.617994E-01 +1.308997E+00 +0.000000E+00     +6.195919E+00 +5.235988E-01 +0.000000E+00     +4.974188E+00 +7.853982E-01 +0.000000E+00     +6.283185E+00 +1.047198E+00 +0.000000E+00     +6.021386E+00 +1.483530E+00 +0.000000E+00     +5.410521E+00 +1.396263E+00 +0.000000E+00     +1.658063E+00 +1.483530E+00 +0.000000E+00    
 +1.396263E+00 +1.134464E+00 +0.000000E+00     +3.228859E+00 +4.363323E-01 +0.000000E+00     +2.443461E+00 +8.726646E-01 +0.000000E+00     +1.396263E+00 +1.308997E+00 +0.000000E+00     +6.108652E+00 +8.726646E-02 +0.000000E+00     +3.926991E+00 +8.726646E-02 +0.000000E+00     +5.846853E+00 +1.745329E-01 +0.000000E+00    
 +2.181662E+00 +1.396263E+00 +0.000000E+00     +2.967060E+00 +4.363323E-01 +0.000000E+00     +4.974188E+00 +6.981317E-01 +0.000000E+00     +2.967060E+00 +3.490659E-01 +0.000000E+00     +5.235988E+00 +1.745329E-01 +0.000000E+00     +6.981317E-01 +2.617994E-01 +0.000000E+00     +2.181662E+00 +8.726646E-02 +0.000000E+00    
 +4.014257E+00 +1.570796E+00 +0.000000E+00     +1.745329E-01 +1.570796E+00 +0.000000E+00     +1.396263E+00 +1.308997E+00 +0.000000E+00     +4.712389E+00 +1.221730E+00 +0.000000E+00     +4.363323E+00 +4.363323E-01 +0.000000E+00     +3.839724E+00 +6.981317E-01 +0.000000E+00     +6.108652E+00 +1.570796E+00 +0.000000E+00    
 +6.283185E+00 +9.599311E-01 +0.000000E+00     +4.712389E+00 +1.570796E+00 +0.000000E+00     +2.094395E+00 +8.726646E-02 +0.000000E+00     +6.981317E-01 +1.745329E-01 +0.000000E+00     +6.021386E+00 +2.617994E-01 +0.000000E+00     +3.490659E-01 +4.363323E-01 +0.000000E+00     +3.054326E+00 +1.308997E+00 +0.000000E+00    
 +3.665191E+00 +1.570796E+00 +0.000000E+00     +5.497787E+00 +1.745329E-01 +0.000000E+00     +5.148721E+00 +3.490659E-01 +0.000000E+00     +1.047198E+00 +1.047198E+00 +0.000000E+00     +3.752458E+00 +4.363323E-01 +0.000000E+00     +9.599311E-01 +9.599311E-01 +0.000000E+00     +1.658063E+00 +6.981317E-01 +0.000000E+00    
 +4.625123E+00 +6.108652E-01 +0.000000E+00     +4.799655E+00 +3.490659E-01 +0.000000E+00     +4.712389E+00 +2.617994E-01 +0.000000E+00     +6.195919E+00 +6.981317E-01 +0.000000E+00     +7.853982E-01 +8.726646E-02 +0.000000E+00     +4.974188E+00 +6.981317E-01 +0.000000E+00     +2.094395E+00 +1.308997E+00 +0.000000E+00    
 +3.752458E+00 +1.396263E+00 +0.000000E+00     +4.014257E+00 +1.134464E+00 +0.000000E+00     +6.021386E+00 +1.134464E+00 +0.000000E+00     +4.537856E+00 +9.599311E-01 +0.000000E+00     +6.021386E+00 +1.308997E+00 +0.000000E+00     +7.853982E-01 +1.134464E+00 +0.000000E+00     +4.450590E+00 +1.570796E+00 +0.000000E+00    
 +4.625123E+00 +4.363323E-01 +0.000000E+00     +4.101524E+00 +8.726646E-01 +0.000000E+00     +3.577925E+00 +1.047198E+00 +0.000000E+00     +4.188790E+00 +9.599311E-01 +0.000000E+00     +1.658063E+00 +9.599311E-01 +0.000000E+00     +5.934119E+00 +4.363323E-01 +0.000000E+00     +2.792527E+00 +5.235988E-01 +0.000000E+00    
 +4.886922E+00 +1.745329E-01 +0.000000E+00     +5.323254E+00 +1.134464E+00 +0.000000E+00     +2.792527E+00 +5.235988E-01 +0.000000E+00     +3.490659E-01 +1.570796E+00 +0.000000E+00     +2.356194E+00 +1.134464E+00 +0.000000E+00     +4.363323E+00 +1.396263E+00 +0.000000E+00     +2.181662E+00 +1.134464E+00 +0.000000E+00    
 +6.108652E+00 +5.235988E-01 +0.000000E+00     +3.577925E+00 +1.396263E+00 +0.000000E+00     +2.530727E+00 +1.308997E+00 +0.000000E+00     +6.283185E+00 +1.396263E+00 +0.000000E+00     +6.195919E+00 +9.599311E-01 +0.000000E+00     +9.599311E-01 +3.490659E-01 +0.000000E+00     +8.726646E-01 +8.726646E-02 +0.000000E+00    
 +2.356194E+00 +1.221730E+00 +0.000000E+00     +1.308997E+00 +4.363323E-01 +0.000000E+00     +2.617994E-01 +6.981317E-01 +0.000000E+00     +1.308997E+00 +2.617994E-01 +0.000000E+00     +3.141593E+00 +1.134464E+00 +0.000000E+00     +5.497787E+00 +1.396263E+00 +0.000000E+00     +7.853982E-01 +6.981317E-01 +0.000000E+00    
 +1.396263E+00 +1.221730E+00 +0.000000E+00     +4.974188E+00 +1.570796E+00 +0.000000E+00     +5.934119E+00 +9.599311E-01 +0.000000E+00     +3.577925E+00 +6.981317E-01 +0.000000E+00     +4.886922E+00 +1.745329E-01 +0.000000E+00     +1.745329E+00 +6.981317E-01 +0.000000E+00     +5.497787E+00 +1.047198E+00 +0.000000E+00    
 +8.726646E-02 +1.308997E+00 +0.000000E+00     +2.705260E+00 +8.726646E-02 +0.000000E+00     +2.443461E+00 +1.396263E+00 +0.000000E+00     +3.490659E+00 +7.853982E-01 +0.000000E+00     +2.268928E+00 +6.981317E-01 +0.000000E+00     +3.054326E+00 +3.490659E-01 +0.000000E+00     +4.450590E+00 +2.617994E-01 +0.000000E+00    
 +4.014257E+00 +1.570796E+00 +0.000000E+00     +1.047198E+00 +1.047198E+00 +0.000000E+00     +5.235988E+00 +2.617994E-01 +0.000000E+00     +4.188790E+00 +1.308997E+00 +0.000000E+00     +2.705260E+00 +1.221730E+00 +0.000000E+00     +4.974188E+00 +2.617994E-01 +0.000000E+00     +4.363323E+00 +6.981317E-01 +0.000000E+00    
 +1.658063E+00 +2.617994E-01 +0.000000E+00     +4.799655E+00 +9.599311E-01 +0.000000E+00     +5.410521E+00 +1.483530E+00 +0.000000E+00     +4.101524E+00 +1.745329E-01 +0.000000E+00     +4.537856E+00 +8.726646E-02 +0.000000E+00     +3.752458E+00 +1.570796E+00 +0.000000E+00     +2.181662E+00 +6.981317E-01 +0.000000E+00    
 +3.490659E-01 +6.981317E-01 +0.000000E+00     +6.108652E-01 +8.726646E-01 +0.000000E+00     +9.599311E-01 +1.221730E+00 +0.000000E+00     +1.483530E+00 +6.108652E-01 +0.000000E+00     +4.974188E+00 +2.617994E-01 +0.000000E+00     +1.396263E+00 +1.221730E+00 +0.000000E+00     +1.483530E+00 +6.981317E-01 +0.000000E+00    
 +3.926991E+00 +1.308997E+00 +0.000000E+00     +2.967060E+00 +1.483530E+00 +0.000000E+00     +4.974188E+00 +1.745329E-01 +0.000000E+00     +5.061455E+00 +7.853982E-01 +0.000000E+00     +1.047198E+00 +8.726646E-02 +0.000000E+00     +5.410521E+00 +1.221730E+00 +0.000000E+00     +2.356194E+00 +1.221730E+00 +0.000000E+00    
 +8.726646E-01 +1.308997E+00 +0.000000E+00     +5.148721E+00 +2.617994E-01 +0.000000E+00     +9.599311E-01 +3.490659E-01 +0.000000E+00     +3.752458E+00 +6.108652E-01 +0.000000E+00     +7.853982E-01 +6.108652E-01 +0.000000E+00     +5.585054E+00 +1.745329E-01 +0.000000E+00     +4.625123E+00 +5.235988E-01 +0.000000E+00    
 +2.530727E+00 +2.617994E-01 +0.000000E+00     +4.974188E+00 +6.108652E-01 +0.000000E+00     +1.745329E+00 +1.396263E+00 +0.000000E+00     +1.832596E+00 +1.396263E+00 +0.000000E+00     +1.745329E-01 +7.853982E-01 +0.000000E+00     +4.974188E+00 +6.108652E-01 +0.000000E+00     +4.363323E-01 +7.853982E-01 +0.000000E+00    
 +3.665191E+00 +8.726646E-02 +0.000000E+00     +5.410521E+00 +1.134464E+00 +0.000000E+00     +5.235988E+00 +1.221730E+00 +0.000000E+00     +5.410521E+00 +1.483530E+00 +0.000000E+00     +7.853982E-01 +1.745329E-01 +0.000000E+00     +4.537856E+00 +1.570796E+00 +0.000000E+00     +4.974188E+00 +7.853982E-01 +0.000000E+00    
 +4.974188E+00 +1.483530E+00 +0.000000E+00     +8.726646E-02 +2.617994E-01 +0.000000E+00     +4.276057E+00 +1.221730E+00 +0.000000E+00     +2.530727E+00 +1.047198E+00 +0.000000E+00     +4.363323E-01 +9.599311E-01 +0.000000E+00     +2.792527E+00 +1.221730E+00 +0.000000E+00     +6.108652E+00 +9.599311E-01 +0.000000E+00    
 +5.235988E-01 +1.308997E+00 +0.000000E+00     +2.617994E-01 +9.599311E-01 +0.000000E+00     +2.879793E+00 +1.134464E+00 +0.000000E+00     +5.148721E+00 +6.981317E-01 +0.000000E+00     +4.014257E+00 +1.745329E-01 +0.000000E+00     +6.108652E-01 +5.235988E-01 +0.000000E+00     +5.934119E+00 +1.047198E+00 +0.000000E+00    
 +5.323254E+00 +1.047198E+00 +0.000000E+00     +7.853982E-01 +1.047198E+00 +0.000000E+00     +4.363323E+00 +6.981317E-01 +0.000000E+00     +1.745329E+00 +6.981317E-01 +0.000000E+00     +5.235988E-01 +1.483530E+00 +0.000000E+00     +3.490659E+00 +8.726646E-02 +0.000000E+00     +9.599311E-01 +1.745329E-01 +0.000000E+00    
 +1.745329E+00 +8.726646E-01 +0.000000E+00     +3.316126E+00 +6.981317E-01 +0.000000E+00     +6.195919E+00 +1.134464E+00 +0.000000E+00     +4.974188E+00 +1.570796E+00 +0.000000E+00     +2.181662E+00 +7.853982E-01 +0.000000E+00     +5.672320E+00 +1.308997E+00 +0.000000E+00     +5.934119E+00 +1.134464E+00 +0.000000E+00    
 +3.490659E+00 +1.396263E+00 +0.000000E+00     +3.316126E+00 +1.134464E+00 +0.000000E+00     +4.712389E+00 +3.490659E-01 +0.000000E+00     +4.625123E+00 +2.617994E-01 +0.000000E+00     +3.665191E+00 +5.235988E-01 +0.000000E+00     +2.617994E-01 +1.134464E+00 +0.000000E+00     +4.799655E+00 +1.134464E+00 +0.000000E+00    
 +4.799655E+00 +3.490659E-01 +0.000000E+00     +6.108652E-01 +1.570796E+00 +0.000000E+00     +4.188790E+00 +1.483530E+00 +0.000000E+00     +3.926991E+00 +1.570796E+00 +0.000000E+00     +5.672320E+00 +3.490659E-01 +0.000000E+00     +4.974188E+00 +1.221730E+00 +0.000000E+00     +5.148721E+00 +9.599311E-01 +0.000000E+00    
 +3.839724E+00 +1.308997E+00 +0.000000E+00     +4.625123E+00 +1.221730E+00 +0.000000E+00     +5.759587E+00 +3.490659E-01 +0.000000E+00     +4.974188E+00 +4.363323E-01 +0.000000E+00     +5.235988E+00 +1.047198E+00 +0.000000E+00     +7.853982E-01 +1.308997E+00 +0.000000E+00     +1.745329E-01 +1.047198E+00 +0.000000E+00    
 +1.745329E+00 +6.981317E-01 +0.000000E+00     +2.007129E+00 +1.483530E+00 +0.000000E+00     +1.570796E+00 +7.853982E-01 +0.000000E+00     +4.625123E+00 +1.396263E+00 +0.000000E+00     +3.926991E+00 +2.617994E-01 +0.000000E+00     +1.570796E+00 +6.981317E-01 +0.000000E+00     +2.617994E-01 +6.108652E-01 +0.000000E+00    
 +2.530727E+00 +1.221730E+00 +0.000000E+00     +9.599311E-01 +1.483530E+00 +0.000000E+00     +4.276057E+00 +6.981317E-01 +0.000000E+00     +3.839724E+00 +1.570796E+00 +0.000000E+00     +3.839724E+00 +6.981317E-01 +0.000000E+00     +3.665191E+00 +4.363323E-01 +0.000000E+00     +2.792527E+00 +8.726646E-02 +0.000000E+00    
 +3.141593E+00 +4.363323E-01 +0.000000E+00     +2.181662E+00 +1.308997E+00 +0.000000E+00     +6.195919E+00 +6.108652E-01 +0.000000E+00     +6.283185E+00 +1.396263E+00 +0.000000E+00     +3.141593E+00 +9.599311E-01 +0.000000E+00     +5.410521E+00 +4.363323E-01 +0.000000E+00     +3.490659E+00 +9.599311E-01 +0.000000E+00    
 +5.061455E+00 +1.483530E+00 +0.000000E+00     +6.283185E+00 +1.396263E+00 +0.000000E+00     +4.101524E+00 +6.108652E-01 +0.000000E+00     +2.094395E+00 +6.108652E-01 +0.000000E+00     +4.799655E+00 +4.363323E-01 +0.000000E+00     +2.181662E+00 +8.726646E-01 +0.000000E+00     +3.316126E+00 +1.483530E+00 +0.000000E+00    
 +2.705260E+00 +3.490659E-01 +0.000000E+00     +2.792527E+00 +7.853982E-01 +0.000000E+00     +2.617994E+00 +5.235988E-01 +0.000000E+00     +8.726646E-01 +7.853982E-01 +0.000000E+00     +1.134464E+00 +1.396263E+00 +0.000000E+00     +2.617994E+00 +2.617994E-01 +0.000000E+00     +5.235988E+00 +1.047198E+00 +0.000000E+00    
 +4.188790E+00 +1.134464E+00 +0.000000E+00     +3.490659E+00 +2.617994E-01 +0.000000E+00     +1.745329E-01 +1.745329E-01 +0.000000E+00     +5.585054E+00 +1.134464E+00 +0.000000E+00     +3.577925E+00 +6.981317E-01 +0.000000E+00     +4.188790E+00 +7.853982E-01 +0.000000E+00     +3.316126E+00 +1.396263E+00 +0.000000E+00    
 +6.195919E+00 +1.308997E+00 +0.000000E+00     +2.356194E+00 +5.235988E-01 +0.000000E+00     +3.490659E-01 +3.490659E-01 +0.000000E+00     +1.308997E+00 +6.981317E-01 +0.000000E+00     +1.919862E+00 +8.726646E-02 +0.000000E+00     +1.134464E+00 +1.308997E+00 +0.000000E+00     +1.308997E+00 +4.363323E-01 +0.000000E+00    
 +5.759587E+00 +1.047198E+00 +0.000000E+00     +1.308997E+00 +1.745329E-01 +0.000000E+00     +1.134464E+00 +6.108652E-01 +0.000000E+00     +4.625123E+00 +1.134464E+00 +0.000000E+00     +9.599311E-01 +7.853982E-01 +0.000000E+00     +2.792527E+00 +1.134464E+00 +0.000000E+00     +4.363323E-01 +8.726646E-02 +0.000000E+00    
 +3.403392E+00 +1.745329E-01 +0.000000E+00     +2.094395E+00 +5.235988E-01 +0.000000E+00     +2.617994E-01 +6.108652E-01 +0.000000E+00     +1.832596E+00 +7.853982E-01 +0.000000E+00     +2.617994E-01 +6.108652E-01 +0.000000E+00     +6.981317E-01 +1.134464E+00 +0.000000E+00     +3.926991E+00 +1.047198E+00 +0.000000E+00    
 +3.490659E+00 +8.726646E-02 +0.000000E+00     +3.839724E+00 +1.221730E+00 +0.000000E+00     +6.981317E-01 +1.308997E+00 +0.000000E+00     +4.101524E+00 +6.108652E-01 +0.000000E+00     +1.483530E+00 +1.570796E+00 +0.000000E+00     +5.061455E+00 +1.570796E+00 +0.000000E+00     +1.658063E+00 +1.745329E-01 +0.000000E+00    
 +6.981317E-01 +2.617994E-01 +0.000000E+00     +4.363323E-01 +1.308997E+00 +0.000000E+00     +5.323254E+00 +1.308997E+00 +0.000000E+00     +4.450590E+00 +1.483530E+00 +0.000000E+00     +1.396263E+00 +1.745329E-01 +0.000000E+00     +1.396263E+00 +1.134464E+00 +0.000000E+00     +1.047198E+00 +8.726646E-01 +0.000000E+00    
 +4.188790E+00 +2.617994E-01 +0.000000E+00     +2.181662E+00 +5.235988E-01 +0.000000E+00     +6.981317E-01 +9.599311E-01 +0.000000E+00     +5.497787E+00 +7.853982E-01 +0.000000E+00     +4.537856E+00 +6.108652E-01 +0.000000E+00     +1.134464E+00 +1.221730E+00 +0.000000E+00     +2.530727E+00 +4.363323E-01 +0.000000E+00    
 +1.308997E+00 +4.363323E-01 +0.000000E+00     +5.410521E+00 +4.363323E-01 +0.000000E+00     +5.497787E+00 +1.047198E+00 +0.000000E+00     +6.108652E+00 +1.396263E+00 +0.000000E+00     +2.967060E+00 +1.570796E+00 +0.000000E+00     +3.839724E+00 +6.108652E-01 +0.000000E+00     +1.396263E+00 +8.726646E-02 +0.000000E+00    
 +1.832596E+00 +1.396263E+00 +0.000000E+00     +4.712389E+00 +8.726646E-01 +0.000000E+00     +1.570796E+00 +2.617994E-01 +0.000000E+00     +1.134464E+00 +1.221730E+00 +0.000000E+00     +3.665191E+00 +4.363323E-01 +0.000000E+00     +2.181662E+00 +8.726646E-02 +0.000000E+00     +6.283185E+00 +1.570796E+00 +0.000000E+00    
 +5.497787E+00 +1.308997E+00 +0.000000E+00     +1.919862E+00 +3.490659E-01 +0.000000E+00     +3.054326E+00 +6.108652E-01 +0.000000E+00     +6.108652E-01 +1.134464E+00 +0.000000E+00     +4.101524E+00 +8.726646E-01 +0.000000E+00     +1.919862E+00 +7.853982E-01 +0.000000E+00     +1.919862E+00 +6.981317E-01 +0.000000E+00    
 +5.148721E+00 +1.396263E+00 +0.000000E+00     +4.014257E+00 +1.570796E+00 +0.000000E+00     +2.443461E+00 +1.570796E+00 +0.000000E+00     +5.410521E+00 +1.483530E+00 +0.000000E+00     +2.094395E+00 +8.726646E-01 +0.000000E+00     +1.745329E-01 +1.047198E+00 +0.000000E+00     +3.926991E+00 +5.235988E-01 +0.000000E+00    
 +5.585054E+00 +1.308997E+00 +0.000000E+00     +5.585054E+00 +1.221730E+00 +0.000000E+00     +6.108652E-01 +6.108652E-01 +0.000000E+00     +5.759587E+00 +1.134464E+00 +0.000000E+00     +2.181662E+00 +1.745329E-01 +0.000000E+00     +8.726646E-02 +1.308997E+00 +0.000000E+00     +3.490659E-01 +4.363323E-01 +0.000000E+00    
 +3.752458E+00 +6.981317E-01 +0.000000E+00     +9.599311E-01 +1.396263E+00 +0.000000E+00     +1.134464E+00 +1.483530E+00 +0.000000E+00     +6.283185E+00 +9.599311E-01 +0.000000E+00     +4.799655E+00 +1.134464E+00 +0.000000E+00     +5.846853E+00 +1.570796E+00 +0.000000E+00     +2.705260E+00 +1.483530E+00 +0.000000E+00    
 +4.363323E+00 +1.745329E-01 +0.000000E+00     +2.268928E+00 +1.570796E+00 +0.000000E+00     +1.134464E+00 +8.726646E-02 +0.000000E+00     +4.101524E+00 +6.108652E-01 +0.000000E+00     +1.483530E+00 +5.235988E-01 +0.000000E+00     +3.839724E+00 +1.308997E+00 +0.000000E+00     +5.235988E+00 +1.396263E+00 +0.000000E+00    
 +6.981317E-01 +8.726646E-01 +0.000000E+00     +4.188790E+00 +1.483530E+00 +0.000000E+00     +2.879793E+00 +2.617994E-01 +0.000000E+00     +6.981317E-01 +3.490659E-01 +0.000000E+00     +2.879793E+00 +1.134464E+00 +0.000000E+00     +6.195919E+00 +3.490659E-01 +0.000000E+00     +2.443461E+00 +1.396263E+00 +0.000000E+00    
 +2.094395E+00 +1.396263E+00 +0.000000E+00     +3.490659E+00 +7.853982E-01 +0.000000E+00     +5.235988E-01 +8.726646E-02 +0.000000E+00     +3.054326E+00 +7.853982E-01 +0.000000E+00     +1.483530E+00 +4.363323E-01 +0.000000E+00     +2.094395E+00 +1.134464E+00 +0.000000E+00     +6.108652E-01 +1.134464E+00 +0.000000E+00    
 +6.021386E+00 +2.617994E-01 +0.000000E+00     +1.570796E+00 +1.308997E+00 +0.000000E+00     +2.007129E+00 +1.134464E+00 +0.000000E+00     +3.752458E+00 +8.726646E-02 +0.000000E+00     +4.014257E+00 +4.363323E-01 +0.000000E+00     +6.108652E-01 +2.617994E-01 +0.000000E+00     +2.617994E-01 +1.221730E+00 +0.000000E+00    
 +5.846853E+00 +8.726646E-01 +0.000000E+00     +2.181662E+00 +2.617994E-01 +0.000000E+00     +2.705260E+00 +6.108652E-01 +0.000000E+00     +5.497787E+00 +1.221730E+00 +0.000000E+00     +1.570796E+00 +8.726646E-01 +0.000000E+00     +4.363323E-01 +7.853982E-01 +0.000000E+00     +5.235988E+00 +9.599311E-01 +0.000000E+00    
 +3.926991E+00 +8.726646E-01 +0.000000E+00     +5.672320E+00 +1.308997E+00 +0.000000E+00     +4.450590E+00 +2.617994E-01 +0.000000E+00     +1.832596E+00 +5.235988E-01 +0.000000E+00     +2.967060E+00 +6.108652E-01 +0.000000E+00     +4.014257E+00 +1.047198E+00 +0.000000E+00     +4.101524E+00 +1.570796E+00 +0.000000E+00    
 +2.094395E+00 +6.108652E-01 +0.000000E+00     +3.403392E+00 +1.134464E+00 +0.000000E+00     +4.363323E+00 +2.617994E-01 +0.000000E+00     +2.356194E+00 +8.726646E-01 +0.000000E+00     +4.276057E+00 +7.853982E-01 +0.000000E+00     +1.832596E+00 +1.308997E+00 +0.000000E+00     +1.396263E+00 +1.047198E+00 +0.000000E+00    
 +3.316126E+00 +6.108652E-01 +0.000000E+00     +6.021386E+00 +7.853982E-01 +0.000000E+00     +2.268928E+00 +1.396263E+00 +0.000000E+00     +3.403392E+00 +1.745329E-01 +0.000000E+00     +5.148721E+00 +7.853982E-01 +0.000000E+00     +4.101524E+00 +1.221730E+00 +0.000000E+00     +5.148721E+00 +8.726646E-02 +0.000000E+00    
 +2.007129E+00 +1.308997E+00 +0.000000E+00     +3.577925E+00 +4.363323E-01 +0.000000E+00     +6.195919E+00 +9.599311E-01 +0.000000E+00     +2.967060E+00 +1.047198E+00 +0.000000E+00     +4.974188E+00 +6.108652E-01 +0.000000E+00     +5.846853E+00 +6.108652E-01 +0.000000E+00     +2.617994E-01 +2.617994E-01 +0.000000E+00    
 +4.363323E-01 +1.483530E+00 +0.000000E+00     +1.570796E+00 +7.853982E-01 +0.000000E+00     +2.879793E+00 +1.308997E+00 +0.000000E+00     +1.570796E+00 +1.308997E+00 +0.000000E+00     +8.726646E-02 +1.134464E+00 +0.000000E+00     +5.934119E+00 +1.570796E+00 +0.000000E+00     +4.101524E+00 +8.726646E-01 +0.000000E+00    
 +6.108652E+00 +1.308997E+00 +0.000000E+00     +6.021386E+00 +1.483530E+00 +0.000000E+00     +2.530727E+00 +1.308997E+00 +0.000000E+00     +3.141593E+00 +6.108652E-01 +0.000000E+00     +2.268928E+00 +1.483530E+00 +0.000000E+00     +6.021386E+00 +1.221730E+00 +0.000000E+00     +1.745329E-01 +1.308997E+00 +0.000000E+00    
 +2.443461E+00 +3.490659E-01 +0.000000E+00     +4.450590E+00 +1.134464E+00 +0.000000E+00     +4.014257E+00 +1.745329E-01 +0.000000E+00     +4.363323E-01 +5.235988E-01 +0.000000E+00     +4.276057E+00 +5.235988E-01 +0.000000E+00     +1.570796E+00 +1.745329E-01 +0.000000E+00     +2.356194E+00 +2.617994E-01 +0.000000E+00    
 +8.726646E-01 +1.221730E+00 +0.000000E+00     +5.497787E+00 +1.308997E+00 +0.000000E+00     +1.396263E+00 +7.853982E-01 +0.000000E+00     +4.799655E+00 +6.108652E-01 +0.000000E+00     +1.745329E+00 +1.221730E+00 +0.000000E+00     +6.021386E+00 +3.490659E-01 +0.000000E+00     +2.443461E+00 +1.570796E+00 +0.000000E+00    
 +2.443461E+00 +1.221730E+00 +0.000000E+00     +1.745329E-01 +8.726646E-01 +0.000000E+00     +2.792527E+00 +8.726646E-01 +0.000000E+00     +1.658063E+00 +1.134464E+00 +0.000000E+00     +5.497787E+00 +8.726646E-02 +0.000000E+00     +2.094395E+00 +1.570796E+00 +0.000000E+00     +2.268928E+00 +8.726646E-01 +0.000000E+00    
 +3.316126E+00 +1.134464E+00 +0.000000E+00     +7.853982E-01 +1.134464E+00 +0.000000E+00     +3.316126E+00 +8.726646E-02 +0.000000E+00     +4.712389E+00 +9.599311E-01 +0.000000E+00     +1.745329E+00 +3.490659E-01 +0.000000E+00     +6.108652E+00 +1.047198E+00 +0.000000E+00     +5.148721E+00 +6.108652E-01 +0.000000E+00    
 +5.410521E+00 +3.490659E-01 +0.000000E+00     +2.181662E+00 +3.490659E-01 +0.000000E+00     +2.181662E+00 +6.981317E-01 +0.000000E+00     +5.585054E+00 +4.363323E-01 +0.000000E+00     +5.235988E-01 +6.108652E-01 +0.000000E+00     +1.047198E+00 +1.221730E+00 +0.000000E+00     +6.981317E-01 +1.047198E+00 +0.000000E+00    
 +2.705260E+00 +5.235988E-01 +0.000000E+00     +4.014257E+00 +1.396263E+00 +0.000000E+00     +2.617994E-01 +1.047198E+00 +0.000000E+00     +3.839724E+00 +1.745329E-01 +0.000000E+00     +3.839724E+00 +1.745329E-01 +0.000000E+00     +2.530727E+00 +2.617994E-01 +0.000000E+00     +5.585054E+00 +1.483530E+00 +0.000000E+00    
 +8.726646E-02 +7.853982E-01 +0.000000E+00     +9.599311E-01 +6.108652E-01 +0.000000E+00     +6.108652E-01 +9.599311E-01 +0.000000E+00     +3.054326E+00 +3.490659E-01 +0.000000E+00     +4.450590E+00 +1.221730E+00 +0.000000E+00     +2.792527E+00 +6.108652E-01 +0.000000E+00     +5.235988E+00 +1.745329E-01 +0.000000E+00    
 +6.108652E+00 +1.570796E+00 +0.000000E+00     +1.483530E+00 +1.745329E-01 +0.000000E+00     +3.490659E+00 +9.599311E-01 +0.000000E+00     +3.141593E+00 +3.490659E-01 +0.000000E+00     +2.094395E+00 +6.108652E-01 +0.000000E+00     +4.974188E+00 +7.853982E-01 +0.000000E+00     +1.396263E+00 +4.363323E-01 +0.000000E+00    
 +6.108652E+00 +1.570796E+00 +0.000000E+00     +3.752458E+00 +6.108652E-01 +0.000000E+00     +2.967060E+00 +1.570796E+00 +0.000000E+00     +2.617994E+00 +7.853982E-01 +0.000000E+00     +5.585054E+00 +8.726646E-01 +0.000000E+00     +5.148721E+00 +6.108652E-01 +0.000000E+00     +1.134464E+00 +4.363323E-01 +0.000000E+00    
 +7.853982E-01 +8.726646E-02 +0.000000E+00     +2.530727E+00 +1.483530E+00 +0.000000E+00     +1.396263E+00 +2.617994E-01 +0.000000E+00     +5.585054E+00 +1.134464E+00 +0.000000E+00     +2.356194E+00 +2.617994E-01 +0.000000E+00     +4.101524E+00 +1.483530E+00 +0.000000E+00     +1.745329E-01 +9.599311E-01 +0.000000E+00    
 +2.705260E+00 +1.483530E+00 +0.000000E+00     +3.752458E+00 +1.745329E-01 +0.000000E+00     +3.403392E+00 +2.617994E-01 +0.000000E+00     +5.235988E+00 +1.308997E+00 +0.000000E+00     +2.007129E+00 +1.483530E+00 +0.000000E+00     +2.443461E+00 +1.745329E-01 +0.000000E+00     +5.759587E+00 +4.363323E-01 +0.000000E+00    
 +3.141593E+00 +7.853982E-01 +0.000000E+00     +2.268928E+00 +8.726646E-02 +0.000000E+00     +5.410521E+00 +6.108652E-01 +0.000000E+00     +1.047198E+00 +8.726646E-01 +0.000000E+00     +5.235988E+00 +7.853982E-01 +0.000000E+00     +2.094395E+00 +1.221730E+00 +0.000000E+00     +3.490659E-01 +1.221730E+00 +0.000000E+00    
 +5.061455E+00 +1.308997E+00 +0.000000E+00     +2.181662E+00 +5.235988E-01 +0.000000E+00     +5.497787E+00 +7.853982E-01 +0.000000E+00     +4.886922E+00 +5.235988E-01 +0.000000E+00     +2.181662E+00 +7.853982E-01 +0.000000E+00     +1.483530E+00 +2.617994E-01 +0.000000E+00     +2.617994E-01 +6.108652E-01 +0.000000E+00    
 +4.974188E+00 +7.853982E-01 +0.000000E+00     +5.759587E+00 +3.490659E-01 +0.000000E+00     +2.792527E+00 +1.483530E+00 +0.000000E+00     +1.483530E+00 +2.617994E-01 +0.000000E+00     +6.195919E+00 +1.396263E+00 +0.000000E+00     +4.101524E+00 +1.570796E+00 +0.000000E+00     +1.919862E+00 +5.235988E-01 +0.000000E+00    
SCALARS FIP_FS float 1
LOOKUP_TABLE default
 0.000000E+00  0.000000E+00  0.000000E+00  0.000000E+00  0.000000E+00  0.000000E+00  0.000000E+00  0.000000E+00  0.000000E+00  0.000000E+00  0.000000E+00  0.000000E+00  0.000000E+00  0.000000E+00  0.000000E+00  0.000000E+00  0.000000E+00  0.000000E+00  0.000000E+00  0.000000E+00  0.000000E+00 
 0.000000E+00  0.000000E+00  0.000000E+00  0.000000E+00  0.000000E+00  0.000000E+00  0.000000E+00  0.000000E+00  0.000000E+00  0.000000E+00  0.000000E+00  0.000000E+00  0.000000E+00  0.000000E+00  0.000000E+00  0.000000E+00  0.000000E+00  0.000000E+00  0.000000E+00  0.000000E+00  0.000000E+00 
 0.000000E+00  0.000000E+00  0.000000E+00  0.000000E+00  0.000000E+00  0.000000E+00  0.000000E+00  0.000000E+00  0.000000E+00  0.000000E+00  0.000000E+00  0.000000E+00  0.000000E+00  0.000000E+00  0.000000E+00  0.000000E+00  0.000000E+00  0.000000E+00  0.000000E+00  0.000000E+00  0.000000E+00 
 0.000000E+00  0.000000E+00  0.000000E+00  0.000000E+00  0.000000E+00  0.000000E+00  0.000000E+00  0.000000E+00  0.000000E+00  0.000000E+00  0.000000E+00  0.000000E+00  0.000000E+00  0.000000E+00  0.000000E+00  0.000000E+00  0.000000E+00  0.000000E+00  0.000000E+00  0.000000E+00  0.000000E+00 
 0.000000E+00  0.000000E+00  0.000000E+00  0.000000E+00  0.000000E+00  0.000000E+00  0.000000E+00  0.000000E+00  0.000000E+00  0.000000E+00  0.000000E+00  0.000000E+00  0.000000E+00  0.000000E+00  0.000000E+00  0.000000E+00  0.000000E+00  0.000000E+00  0.000000E+00  0.000000E+00  0.000000E+00 
 0.000000E+00  0.000000E+00  0.000000E+00  0.000000E+00  0.000000E+00  0.000000E+00  0.000000E+00  0.000000E+00  0.000000E+00  0.000000E+00  0.000000E+00  0.000000E+00  0.000000E+00  0.000000E+00  0.000000E+00  0.000000E+00  0.000000E+00  0.000000E+00  0.000000E+00  0.000000E+00  0.000000E+00 
 0.000000E+00  0.000000E+00  0.000000E+00  0.000000E+00  0.000000E+00  0.000000E+00  0.000000E+00  0.000000E+00  0.000000E+00  0.000000E+00  0.000000E+00  0.000000E+00  0.000000E+00  0.000000E+00  0.000000E+00  0.000000E+00  0.000000E+00  0.000000E+00  0.000000E+00  0.000000E+00  0.000000E+00 
 0.000000E+00  0.000000E+00  0.000000E+00  0.000000E+00  0.000000E+00  0.000000E+00  0.000000E+00  0.000000E+00  0.000000E+00  0.000000E+00  0.000000E+00  0.000000E+00  0.000000E+00  0.000000E+00  0.000000E+00  0.000000E+00  0.000000E+00  0.000000E+00  0.000000E+00  0.000000E+00  0.000000E+00 
 0.000000E+00  0.000000E+00  0.000000E+00  0.000000E+00  0.000000E+00  0.000000E+00  0.000000E+00  0.000000E+00  0.000000E+00  0.000000E+00  0.000000E+00  0.000000E+00  0.000000E+00  0.000000E+00  0.000000E+00  0.000000E+00  0.000000E+00  0.000000E+00  0.000000E+00  0.000000E+00  0.000000E+00 
 0.000000E+00  0.000000E+00  0.000000E+00  0.000000E+00  0.000000E+00  0.000000E+00  0.000000E+00  0.000000E+00  0.000000E+00  0.000000E+00  0.000000E+00  0.000000E+00  0.000000E+00  0.000000E+00  0.000000E+00  0.000000E+00  0.000000E+00  0.000000E+00  0.000000E+00  0.000000E+00  0.000000E+00 
 0.000000E+00  0.000000E+00  0.000000E+00  0.000000E+00  0.000000E+00  0.000000E+00  0.000000E+00  0.000000E+00  0.000000E+00  0.000000E+00  0.000000E+00  0.000000E+00  0.000000E+00  0.000000E+00  0.000000E+00  0.000000E+00  0.000000E+00  0.000000E+00  0.000000E+00  0.000000E+00  0.000000E+00 
 0.000000E+00  0.000000E+00  0.000000E+00  0.000000E+00  0.000000E+00  0.000000E+00  0.000000E+00  0.000000E+00  0.000000E+00  0.000000E+00  0.000000E+00  0.000000E+00  0.000000E+00  0.000000E+00  0.000000E+00  0.000000E+00  0.000000E+00  0.000000E+00  0.000000E+00  0.000000E+00  0.000000E+00 
 0.000000E+00  0.000000E+00  0.000000E+00  0.000000E+00  0.000000E+00  0.000000E+00  0.000000E+00  0.000000E+00  0.000000E+00  0.000000E+00  0.000000E+00  0.000000E+00  0.000000E+00  0.000000E+00  0.000000E+00  0.000000E+00  0.000000E+00  0.000000E+00  0.000000E+00  0.000000E+00  0.000000E+00 
 0.000000E+00  0.000000E+00  0.000000E+00  0.000000E+00  0.000000E+00  0.000000E+00  0.000000E+00  0.000000E+00  0.000000E+00  0.000000E+00  0.000000E+00  0.000000E+00  0.000000E+00  0.000000E+00  0.000000E+00  0.000000E+00  0.000000E+00  0.000000E+00  0.000000E+00  0.000000E+00  0.000000E+00 
 0.000000E+00  0.000000E+00  0.000000E+00  0.000000E+00  0.000000E+00  0.000000E+00  0.000000E+00  0.000000E+00  0.000000E+00  0.000000E+00  0.000000E+00  0.000000E+00  0.000000E+00  0.000000E+00  0.000000E+00  0.000000E+00  0.000000E+00  0.000000E+00  0.000000E+00  0.000000E+00  0.000000E+00 
 0.000000E+00  0.000000E+00  0.000000E+00  0.000000E+00  0.000000E+00  0.000000E+00  0.000000E+00  0.000000E+00  0.000000E+00  0.000000E+00  0.000000E+00  0.000000E+00  0.000000E+00  0.000000E+00  0.000000E+00  0.000000E+00  0.000000E+00  0.000000E+00  0.000000E+00  0.000000E+00  0.000000E+00 
 0.000000E+00  0.000000E+00  0.000000E+00  0.000000E+00  0.000000E+00  0.000000E+00  0.000000E+00  0.000000E+00  0.000000E+00  0.000000E+00  0.000000E+00  0.000000E+00  0.000000E+00  0.000000E+00  0.000000E+00  0.000000E+00  0.000000E+00  0.000000E+00  0.000000E+00  0.000000E+00  0.000000E+00 
 0.000000E+00  0.000000E+00  0.000000E+00  0.000000E+00  0.000000E+00  0.000000E+00  0.000000E+00  0.000000E+00  0.000000E+00  0.000000E+00  0.000000E+00  0.000000E+00  0.000000E+00  0.000000E+00  0.000000E+00  0.000000E+00  0.000000E+00  0.000000E+00  0.000000E+00  0.000000E+00  0.000000E+00 
 0.000000E+00  0.000000E+00  0.000000E+00  0.000000E+00  0.000000E+00  0.000000E+00  0.000000E+00  0.000000E+00  0.000000E+00  0.000000E+00  0.000000E+00  0.000000E+00  0.000000E+00  0.000000E+00  0.000000E+00  0.000000E+00  0.000000E+00  0.000000E+00  0.000000E+00  0.000000E+00  0.000000E+00 
 0.000000E+00  0.000000E+00  0.000000E+00  0.000000E+00  0.000000E+00  0.000000E+00  0.000000E+00  0.000000E+00  0.000000E+00  0.000000E+00  0.000000E+00  0.000000E+00  0.000000E+00  0.000000E+00  0.000000E+00  0.000000E+00  0.000000E+00  0.000000E+00  0.000000E+00  0.000000E+00  0.000000E+00 
 0.000000E+00  0.000000E+00  0.000000E+00  0.000000E+00  0.000000E+00  0.000000E+00  0.000000E+00  0.000000E+00  0.000000E+00  0.000000E+00  0.000000E+00  0.000000E+00  0.000000E+00  0.000000E+00  0.000000E+00  0.000000E+00  0.000000E+00  0.000000E+00  0.000000E+00  0.000000E+00  0.000000E+00 
 0.000000E+00  0.000000E+00  0.000000E+00  0.000000E+00  0.000000E+00  0.000000E+00  0.000000E+00  0.000000E+00  0.000000E+00  0.000000E+00  0.000000E+00  0.000000E+00  0.000000E+00  0.000000E+00  0.000000E+00  0.000000E+00  0.000000E+00  0.000000E+00  0.000000E+00  0.000000E+00  0.000000E+00 
 0.000000E+00  0.000000E+00  0.000000E+00  0.000000E+00  0.000000E+00  0.000000E+00  0.000000E+00  0.000000E+00  0.000000E+00  0.000000E+00  0.000000E+00  0.000000E+00  0.000000E+00  0.000000E+00  0.000000E+00  0.000000E+00  0.000000E+00  0.000000E+00  0.000000E+00  0.000000E+00  0.000000E+00 
 0.000000E+00  0.000000E+00  0.000000E+00  0.000000E+00  0.000000E+00  0.000000E+00  0.000000E+00  0.000000E+00  0.000000E+00  0.000000E+00  0.000000E+00  0.000000E+00  0.000000E+00  0.000000E+00  0.000000E+00  0.000000E+00  0.000000E+00  0.000000E+00  0.000000E+00  0.000000E+00  0.000000E+00 
 0.000000E+00  0.000000E+00  0.000000E+00  0.000000E+00  0.000000E+00  0.000000E+00  0.000000E+00  0.000000E+00  0.000000E+00  0.000000E+00  0.000000E+00  0.000000E+00  0.000000E+00  0.000000E+00  0.000000E+00  0.000000E+00  0.000000E+00  0.000000E+00  0.000000E+00  0.000000E+00  0.000000E+00 
 0.000000E+00  0.000000E+00  0.000000E+00  0.000000E+00  0.000000E+00  0.000000E+00  0.000000E+00  0.000000E+00  0.000000E+00  0.000000E+00  0.000000E+00  0.000000E+00  0.000000E+00  0.000000E+00  0.000000E+00  0.000000E+00  0.000000E+00  0.000000E+00  0.000000E+00  0.000000E+00  0.000000E+00 
 0.000000E+00  0.000000E+00  0.000000E+00  0.000000E+00  0.000000E+00  0.000000E+00  0.000000E+00  0.000000E+00  0.000000E+00  0.000000E+00  0.000000E+00  0.000000E+00  0.000000E+00  0.000000E+00  0.000000E+00  0.000000E+00  0.000000E+00  0.000000E+00  0.000000E+00  0.000000E+00  0.000000E+00 
 0.000000E+00  0.000000E+00  0.000000E+00  0.000000E+00  0.000000E+00  0.000000E+00  0.000000E+00  0.000000E+00  0.000000E+00  0.000000E+00  0.000000E+00  0.000000E+00  0.000000E+00  0.000000E+00  0.000000E+00  0.000000E+00  0.000000E+00  0.000000E+00  0.000000E+00  0.000000E+00  0.000000E+00 
 0.000000E+00  0.000000E+00  0.000000E+00  0.000000E+00  0.000000E+00  0.000000E+00  0.000000E+00  0.000000E+00  0.000000E+00  0.000000E+00  0.000000E+00  0.000000E+00  0.000000E+00  0.000000E+00  0.000000E+00  0.000000E+00  0.000000E+00  0.000000E+00  0.000000E+00  0.000000E+00  0.000000E+00 
 0.000000E+00  0.000000E+00  0.000000E+00  0.000000E+00  0.000000E+00  0.000000E+00  0.000000E+00  0.000000E+00  0.000000E+00  0.000000E+00  0.000000E+00  0.000000E+00  0.000000E+00  0.000000E+00  0.000000E+00  0.000000E+00  0.000000E+00  0.000000E+00  0.000000E+00  0.000000E+00  0.000000E+00 
 0.000000E+00  0.000000E+00  0.000000E+00  0.000000E+00  0.000000E+00  0.000000E+00  0.000000E+00  0.000000E+00  0.000000E+00  0.000000E+00  0.000000E+00  0.000000E+00  0.000000E+00  0.000000E+00  0.000000E+00  0.000000E+00  0.000000E+00  0.000000E+00  0.000000E+00  0.000000E+00  0.000000E+00 
 0.000000E+00  0.000000E+00  0.000000E+00  0.000000E+00  0.000000E+00  0.000000E+00  0.000000E+00  0.000000E+00  0.000000E+00  0.000000E+00  0.000000E+00  0.000000E+00  0.000000E+00  0.000000E+00  0.000000E+00  0.000000E+00  0.000000E+00  0.000000E+00  0.000000E+00  0.000000E+00  0.000000E+00 
 0.000000E+00  0.000000E+00  0.000000E+00  0.000000E+00  0.000000E+00  0.000000E+00  0.000000E+00  0.000000E+00  0.000000E+00  0.000000E+00  0.000000E+00  0.000000E+00  0.000000E+00  0.000000E+00  0.000000E+00  0.000000E+00  0.000000E+00  0.000000E+00  0.000000E+00  0.000000E+00  0.000000E+00 
 0.000000E+00  0.000000E+00  0.000000E+00  0.000000E+00  0.000000E+00  0.000000E+00  0.000000E+00  0.000000E+00  0.000000E+00  0.000000E+00  0.000000E+00  0.000000E+00  0.000000E+00  0.000000E+00  0.000000E+00  0.000000E+00  0.000000E+00  0.000000E+00  0.000000E+00  0.000000E+00  0.000000E+00 
 0.000000E+00  0.000000E+00  0.000000E+00  0.000000E+00  0.000000E+00  0.000000E+00  0.000000E+00  0.000000E+00  0.000000E+00  0.000000E+00  0.000000E+00  0.000000E+00  0.000000E+00  0.000000E+00  0.000000E+00  0.000000E+00  0.000000E+00  0.000000E+00  0.000000E+00  0.000000E+00  0.000000E+00 
 0.000000E+00  0.000000E+00  0.000000E+00  0.000000E+00  0.000000E+00  0.000000E+00  0.000000E+00  0.000000E+00  0.000000E+00  0.000000E+00  0.000000E+00  0.000000E+00  0.000000E+00  0.000000E+00  0.000000E+00  0.000000E+00  0.000000E+00  0.000000E+00  0.000000E+00  0.000000E+00  0.000000E+00 
 0.000000E+00  0.000000E+00  0.000000E+00  0.000000E+00  0.000000E+00  0.000000E+00  0.000000E+00  0.000000E+00  0.000000E+00  0.000000E+00  0.000000E+00  0.000000E+00  0.000000E+00  0.000000E+00  0.000000E+00  0.000000E+00  0.000000E+00  0.000000E+00  0.000000E+00  0.000000E+00  0.000000E+00 
 0.000000E+00  0.000000E+00  0.000000E+00  0.000000E+00  0.000000E+00  0.000000E+00  0.000000E+00  0.000000E+00  0.000000E+00  0.000000E+00  0.000000E+00  0.000000E+00  0.000000E+00  0.000000E+00  0.000000E+00  0.000000E+00  0.000000E+00  0.000000E+00  0.000000E+00  0.000000E+00  0.000000E+00 
 0.000000E+00  0.000000E+00  0.000000E+00  0.000000E+00  0.000000E+00  0.000000E+00  0.000000E+00  0.000000E+00  0.000000E+00  0.000000E+00  0.000000E+00  0.000000E+00  0.000000E+00  0.000000E+00  0.000000E+00  0.000000E+00  0.000000E+00  0.000000E+00  0.000000E+00  0.000000E+00  0.000000E+00 
 0.000000E+00  0.000000E+00  0.000000E+00  0.000000E+00  0.000000E+00  0.000000E+00  0.000000E+00  0.000000E+00  0.000000E+00  0.000000E+00  0.000000E+00  0.000000E+00  0.000000E+00  0.000000E+00  0.000000E+00  0.000000E+00  0.000000E+00  0.000000E+00  0.000000E+00  0.000000E+00  0.000000E+00 
 0.000000E+00  0.000000E+00  0.000000E+00  0.000000E+00  0.000000E+00  0.000000E+00  0.000000E+00  0.000000E+00  0.000000E+00  0.000000E+00  0.000000E+00  0.000000E+00  0.000000E+00  0.000000E+00  0.000000E+00  0.000000E+00  0.000000E+00  0.000000E+00  0.000000E+00  0.000000E+00  0.000000E+00 
 0.000000E+00  0.000000E+00  0.000000E+00  0.000000E+00  0.000000E+00  0.000000E+00  0.000000E+00  0.000000E+00  0.000000E+00  0.000000E+00  0.000000E+00  0.000000E+00  0.000000E+00  0.000000E+00  0.000000E+00  0.000000E+00  0.000000E+00  0.000000E+00  0.000000E+00  0.000000E+00  0.000000E+00 
 0.000000E+00  0.000000E+00  0.000000E+00  0.000000E+00  0.000000E+00  0.000000E+00  0.000000E+00  0.000000E+00  0.000000E+00  0.000000E+00  0.000000E+00  0.000000E+00  0.000000E+00  0.000000E+00  0.000000E+00  0.000000E+00  0.000000E+00  0.000000E+00  0.000000E+00  0.000000E+00  0.000000E+00 
 0.000000E+00  0.000000E+00  0.000000E+00  0.000000E+00  0.000000E+00  0.000000E+00  0.000000E+00  0.000000E+00  0.000000E+00  0.000000E+00  0.000000E+00  0.000000E+00  0.000000E+00  0.000000E+00  0.000000E+00  0.000000E+00  0.000000E+00  0.000000E+00  0.000000E+00  0.000000E+00  0.000000E+00 
 0.000000E+00  0.000000E+00  0.000000E+00  0.000000E+00  0.000000E+00  0.000000E+00  0.000000E+00  0.000000E+00  0.000000E+00  0.000000E+00  0.000000E+00  0.000000E+00  0.000000E+00  0.000000E+00  0.000000E+00  0.000000E+00  0.000000E+00  0.000000E+00  0.000000E+00  0.000000E+00  0.000000E+00 
 0.000000E+00  0.000000E+00  0.000000E+00  0.000000E+00  0.000000E+00  0.000000E+00  0.000000E+00  0.000000E+00  0.000000E+00  0.000000E+00  0.000000E+00  0.000000E+00  0.000000E+00  0.000000E+00  0.000000E+00  0.000000E+00  0.000000E+00  0.000000E+00  0.000000E+00  0.000000E+00  0.000000E+00 
 0.000000E+00  0.000000E+00  0.000000E+00  0.000000E+00  0.000000E+00  0.000000E+00  0.000000E+00  0.000000E+00  0.000000E+00  0.000000E+00  0.000000E+00  0.000000E+00  0.000000E+00  0.000000E+00  0.000000E+00  0.000000E+00  0.000000E+00  0.000000E+00  0.000000E+00  0.000000E+00  0.000000E+00 
 0.000000E+00  0.000000E+00  0.000000E+00  0.000000E+00  0.000000E+00  0.000000E+00  0.000000E+00  0.000000E+00  0.000000E+00  0.000000E+00  0.000000E+00  0.000000E+00  0.000000E+00  0.000000E+00  0.000000E+00  0.000000E+00  0.000000E+00  0.000000E+00  0.000000E+00  0.000000E+00  0.000000E+00 
 0.000000E+00  0.000000E+00  0.000000E+00  0.000000E+00  0.000000E+00  0.000000E+00  0.000000E+00  0.000000E+00  0.000000E+00  0.000000E+00  0.000000E+00  0.000000E+00  0.000000E+00  0.000000E+00  0.000000E+00  0.000000E+00  0.000000E+00  0.000000E+00  0.000000E+00  0.000000E+00  0.000000E+00 
 0.000000E+00  0.000000E+00  0.000000E+00  0.000000E+00  0.000000E+00  0.000000E+00  0.000000E+00  0.000000E+00  0.000000E+00  0.000000E+00  0.000000E+00  0.000000E+00  0.000000E+00  0.000000E+00  0.000000E+00  0.000000E+00  0.000000E+00  0.000000E+00  0.000000E+00  0.000000E+00  0.000000E+00 
 0.000000E+00  0.000000E+00  0.000000E+00  0.000000E+00  0.000000E+00  0.000000E+00  0.000000E+00  0.000000E+00  0.000000E+00  0.000000E+00  0.000000E+00  0.000000E+00  0.000000E+00  0.000000E+00  0.000000E+00  0.000000E+00  0.000000E+00  0.000000E+00  0.000000E+00  0.000000E+00  0.000000E+00 
 0.000000E+00  0.000000E+00  0.000000E+00  0.000000E+00  0.000000E+00  0.000000E+00  0.000000E+00  0.000000E+00  0.000000E+00  0.000000E+00  0.000000E+00  0.000000E+00  0.000000E+00  0.000000E+00  0.000000E+00  0.000000E+00  0.000000E+00  0.000000E+00  0.000000E+00  0.000000E+00  0.000000E+00 
 0.000000E+00  0.000000E+00  0.000000E+00  0.000000E+00  0.000000E+00  0.000000E+00  0.000000E+00  0.000000E+00  0.000000E+00  0.000000E+00  0.000000E+00  0.000000E+00  0.000000E+00  0.000000E+00  0.000000E+00  0.000000E+00  0.000000E+00  0.000000E+00  0.000000E+00  0.000000E+00  0.000000E+00 
 0.000000E+00  0.000000E+00  0.000000E+00  0.000000E+00  0.000000E+00  0.000000E+00  0.000000E+00  0.000000E+00  0.000000E+00  0.000000E+00  0.000000E+00  0.000000E+00  0.000000E+00  0.000000E+00  0.000000E+00  0.000000E+00  0.000000E+00  0.000000E+00  0.000000E+00  0.000000E+00  0.000000E+00 
 0.000000E+00  0.000000E+00  0.000000E+00  0.000000E+00  0.000000E+00  0.000000E+00  0.000000E+00  0.000000E+00  0.000000E+00  0.000000E+00  0.000000E+00  0.000000E+00  0.000000E+00  0.000000E+00  0.000000E+00  0.000000E+00  0.000000E+00  0.000000E+00  0.000000E+00  0.000000E+00  0.000000E+00 
 0.000000E+00  0.000000E+00  0.000000E+00  0.000000E+00  0.000000E+00  0.000000E+00  0.000000E+00  0.000000E+00  0.000000E+00  0.000000E+00  0.000000E+00  0.000000E+00  0.000000E+00  0.000000E+00  0.000000E+00  0.000000E+00  0.000000E+00  0.000000E+00  0.000000E+00  0.000000E+00  0.000000E+00 
 0.000000E+00  0.000000E+00  0.000000E+00  0.000000E+00  0.000000E+00  0.000000E+00  0.000000E+00  0.000000E+00  0.000000E+00  0.000000E+00  0.000000E+00  0.000000E+00  0.000000E+00  0.000000E+00  0.000000E+00  0.000000E+00  0.000000E+00  0.000000E+00  0.000000E+00  0.000000E+00  0.000000E+00 
 0.000000E+00  0.000000E+00  0.000000E+00  0.000000E+00  0.000000E+00  0.000000E+00  0.000000E+00  0.000000E+00  0.000000E+00  0.000000E+00  0.000000E+00  0.000000E+00  0.000000E+00  0.000000E+00  0.000000E+00  0.000000E+00  0.000000E+00  0.000000E+00  0.000000E+00  0.000000E+00  0.000000E+00 
 0.000000E+00  0.000000E+00  0.000000E+00  0.000000E+00  0.000000E+00  0.000000E+00  0.000000E+00  0.000000E+00  0.000000E+00  0.000000E+00  0.000000E+00  0.000000E+00  0.000000E+00  0.000000E+00  0.000000E+00  0.000000E+00  0.000000E+00  0.000000E+00  0.000000E+00  0.000000E+00  0.000000E+00 
 0.000000E+00  0.000000E+00  0.000000E+00  0.000000E+00  0.000000E+00  0.000000E+00  0.000000E+00  0.000000E+00  0.000000E+00  0.000000E+00  0.000000E+00  0.000000E+00  0.000000E+00  0.000000E+00  0.000000E+00  0.000000E+00  0.000000E+00  0.000000E+00  0.000000E+00  0.000000E+00  0.000000E+00 
 0.000000E+00  0.000000E+00  0.000000E+00  0.000000E+00  0.000000E+00  0.000000E+00  0.000000E+00  0.000000E+00  0.000000E+00  0.000000E+00  0.000000E+00  0.000000E+00  0.000000E+00  0.000000E+00  0.000000E+00  0.000000E+00  0.000000E+00  0.000000E+00  0.000000E+00  0.000000E+00  0.000000E+00 
 0.000000E+00  0.000000E+00  0.000000E+00  0.000000E+00  0.000000E+00  0.000000E+00  0.000000E+00  0.000000E+00  0.000000E+00  0.000000E+00  0.000000E+00  0.000000E+00  0.000000E+00  0.000000E+00  0.000000E+00  0.000000E+00  0.000000E+00  0.000000E+00  0.000000E+00  0.000000E+00  0.000000E+00 
 0.000000E+00  0.000000E+00  0.000000E+00  0.000000E+00  0.000000E+00  0.000000E+00  0.000000E+00  0.000000E+00  0.000000E+00  0.000000E+00  0.000000E+00  0.000000E+00  0.000000E+00  0.000000E+00  0.000000E+00  0.000000E+00  0.000000E+00  0.000000E+00  0.000000E+00  0.000000E+00  0.000000E+00 
 0.000000E+00  0.000000E+00  0.000000E+00  0.000000E+00  0.000000E+00  0.000000E+00  0.000000E+00  0.000000E+00  0.000000E+00  0.000000E+00  0.000000E+00  0.000000E+00  0.000000E+00  0.000000E+00  0.000000E+00  0.000000E+00  0.000000E+00  0.000000E+00  0.000000E+00  0.000000E+00  0.000000E+00 
 0.000000E+00  0.000000E+00  0.000000E+00  0.000000E+00  0.000000E+00  0.000000E+00  0.000000E+00  0.000000E+00  0.000000E+00  0.000000E+00  0.000000E+00  0.000000E+00  0.000000E+00  0.000000E+00  0.000000E+00  0.000000E+00  0.000000E+00  0.000000E+00  0.000000E+00  0.000000E+00  0.000000E+00 
 0.000000E+00  0.000000E+00  0.000000E+00  0.000000E+00  0.000000E+00  0.000000E+00  0.000000E+00  0.000000E+00  0.000000E+00  0.000000E+00  0.000000E+00  0.000000E+00  0.000000E+00  0.000000E+00  0.000000E+00  0.000000E+00  0.000000E+00  0.000000E+00  0.000000E+00  0.000000E+00  0.000000E+00 
 0.000000E+00  0.000000E+00  0.000000E+00  0.000000E+00  0.000000E+00  0.000000E+00  0.000000E+00  0.000000E+00  0.000000E+00  0.000000E+00  0.000000E+00  0.000000E+00  0.000000E+00  0.000000E+00  0.000000E+00  0.000000E+00  0.000000E+00  0.000000E+00  0.000000E+00  0.000000E+00  0.000000E+00 
 0.000000E+00  0.000000E+00  0.000000E+00  0.000000E+00  0.000000E+00  0.000000E+00  0.000000E+00  0.000000E+00  0.000000E+00  0.000000E+00  0.000000E+00  0.000000E+00  0.000000E+00  0.000000E+00  0.000000E+00  0.000000E+00  0.000000E+00  0.000000E+00  0.000000E+00  0.000000E+00  0.000000E+00 
 0.000000E+00  0.000000E+00  0.000000E+00  0.000000E+00  0.000000E+00  0.000000E+00  0.000000E+00  0.000000E+00  0.000000E+00  0.000000E+00  0.000000E+00  0.000000E+00  0.000000E+00  0.000000E+00  0.000000E+00  0.000000E+00  0.000000E+00  0.000000E+00  0.000000E+00  0.000000E+00  0.000000E+00 
 0.000000E+00  0.000000E+00  0.000000E+00  0.000000E+00  0.000000E+00  0.000000E+00  0.000000E+00  0.000000E+00  0.000000E+00  0.000000E+00  0.000000E+00  0.000000E+00  0.000000E+00  0.000000E+00  0.000000E+00  0.000000E+00  0.000000E+00  0.000000E+00  0.000000E+00  0.000000E+00  0.000000E+00 
 0.000000E+00  0.000000E+00  0.000000E+00  0.000000E+00  0.000000E+00  0.000000E+00  0.000000E+00  0.000000E+00  0.000000E+00  0.000000E+00  0.000000E+00  0.000000E+00  0.000000E+00  0.000000E+00  0.000000E+00  0.000000E+00  0.000000E+00  0.000000E+00  0.000000E+00  0.000000E+00  0.000000E+00 
 0.000000E+00  0.000000E+00  0.000000E+00  0.000000E+00  0.000000E+00  0.000000E+00  0.000000E+00  0.000000E+00  0.000000E+00  0.000000E+00  0.000000E+00  0.000000E+00  0.000000E+00  0.000000E+00  0.000000E+00  0.000000E+00  0.000000E+00  0.000000E+00  0.000000E+00  0.000000E+00  0.000000E+00 
 0.000000E+00  0.000000E+00  0.000000E+00  0.000000E+00  0.000000E+00  0.000000E+00  0.000000E+00  0.000000E+00  0.000000E+00  0.000000E+00  0.000000E+00  0.000000E+00  0.000000E+00  0.000000E+00  0.000000E+00  0.000000E+00  0.000000E+00  0.000000E+00  0.000000E+00  0.000000E+00  0.000000E+00 
 0.000000E+00  0.000000E+00  0.000000E+00  0.000000E+00  0.000000E+00  0.000000E+00  0.000000E+00  0.000000E+00  0.000000E+00  0.000000E+00  0.000000E+00  0.000000E+00  0.000000E+00  0.000000E+00  0.000000E+00  0.000000E+00  0.000000E+00  0.000000E+00  0.000000E+00  0.000000E+00  0.000000E+00 
 0.000000E+00  0.000000E+00  0.000000E+00  0.000000E+00  0.000000E+00  0.000000E+00  0.000000E+00  0.000000E+00  0.000000E+00  0.000000E+00  0.000000E+00  0.000000E+00  0.000000E+00  0.000000E+00  0.000000E+00  0.000000E+00  0.000000E+00  0.000000E+00  0.000000E+00  0.000000E+00  0.000000E+00 
 0.000000E+00  0.000000E+00  0.000000E+00  0.000000E+00  0.000000E+00  0.000000E+00  0.000000E+00  0.000000E+00  0.000000E+00  0.000000E+00  0.000000E+00  0.000000E+00  0.000000E+00  0.000000E+00  0.000000E+00  0.000000E+00  0.000000E+00  0.000000E+00  0.000000E+00  0.000000E+00  0.000000E+00 
 0.000000E+00  0.000000E+00  0.000000E+00  0.000000E+00  0.000000E+00  0.000000E+00  0.000000E+00  0.000000E+00  0.000000E+00  0.000000E+00  0.000000E+00  0.000000E+00  0.000000E+00  0.000000E+00  0.000000E+00  0.000000E+00  0.000000E+00  0.000000E+00  0.000000E+00  0.000000E+00  0.000000E+00 
 0.000000E+00  0.000000E+00  0.000000E+00  0.000000E+00  0.000000E+00  0.000000E+00  0.000000E+00  0.000000E+00  0.000000E+00  0.000000E+00  0.000000E+00  0.000000E+00  0.000000E+00  0.000000E+00  0.000000E+00  0.000000E+00  0.000000E+00  0.000000E+00  0.000000E+00  0.000000E+00  0.000000E+00 
 0.000000E+00  0.000000E+00  0.000000E+00  0.000000E+00  0.000000E+00  0.000000E+00  0.000000E+00  0.000000E+00  0.000000E+00  0.000000E+00  0.000000E+00  0.000000E+00  0.000000E+00  0.000000E+00  0.000000E+00  0.000000E+00  0.000000E+00  0.000000E+00  0.000000E+00  0.000000E+00  0.000000E+00 
 0.000000E+00  0.000000E+00  0.000000E+00  0.000000E+00  0.000000E+00  0.000000E+00  0.000000E+00  0.000000E+00  0.000000E+00  0.000000E+00  0.000000E+00  0.000000E+00  0.000000E+00  0.000000E+00  0.000000E+00  0.000000E+00  0.000000E+00  0.000000E+00  0.000000E+00  0.000000E+00  0.000000E+00 
 0.000000E+00  0.000000E+00  0.000000E+00  0.000000E+00  0.000000E+00  0.000000E+00  0.000000E+00  0.000000E+00  0.000000E+00  0.000000E+00  0.000000E+00  0.000000E+00  0.000000E+00  0.000000E+00  0.000000E+00  0.000000E+00  0.000000E+00  0.000000E+00  0.000000E+00  0.000000E+00  0.000000E+00 
 0.000000E+00  0.000000E+00  0.000000E+00  0.000000E+00  0.000000E+00  0.000000E+00  0.000000E+00  0.000000E+00  0.000000E+00  0.000000E+00  0.000000E+00  0.000000E+00  0.000000E+00  0.000000E+00  0.000000E+00  0.000000E+00  0.000000E+00  0.000000E+00  0.000000E+00  0.000000E+00  0.000000E+00 
 0.000000E+00  0.000000E+00  0.000000E+00  0.000000E+00  0.000000E+00  0.000000E+00  0.000000E+00  0.000000E+00  0.000000E+00  0.000000E+00  0.000000E+00  0.000000E+00  0.000000E+00  0.000000E+00  0.000000E+00  0.000000E+00  0.000000E+00  0.000000E+00  0.000000E+00  0.000000E+00  0.000000E+00 
 0.000000E+00  0.000000E+00  0.000000E+00  0.000000E+00  0.000000E+00  0.000000E+00  0.000000E+00  0.000000E+00  0.000000E+00  0.000000E+00  0.000000E+00  0.000000E+00  0.000000E+00  0.000000E+00  0.000000E+00  0.000000E+00  0.000000E+00  0.000000E+00  0.000000E+00  0.000000E+00  0.000000E+00 
 0.000000E+00  0.000000E+00  0.000000E+00  0.000000E+00  0.000000E+00  0.000000E+00  0.000000E+00  0.000000E+00  0.000000E+00  0.000000E+00  0.000000E+00  0.000000E+00  0.000000E+00  0.000000E+00  0.000000E+00  0.000000E+00  0.000000E+00  0.000000E+00  0.000000E+00  0.000000E+00  0.000000E+00 
 0.000000E+00  0.000000E+00  0.000000E+00  0.000000E+00  0.000000E+00  0.000000E+00  0.000000E+00  0.000000E+00  0.000000E+00  0.000000E+00  0.000000E+00  0.000000E+00  0.000000E+00  0.000000E+00  0.000000E+00  0.000000E+00  0.000000E+00  0.000000E+00  0.000000E+00  0.000000E+00  0.000000E+00 
 0.000000E+00  0.000000E+00  0.000000E+00  0.000000E+00  0.000000E+00  0.000000E+00  0.000000E+00  0.000000E+00  0.000000E+00  0.000000E+00  0.000000E+00  0.000000E+00  0.000000E+00  0.000000E+00  0.000000E+00  0.000000E+00  0.000000E+00  0.000000E+00  0.000000E+00  0.000000E+00  0.000000E+00 
 0.000000E+00  0.000000E+00  0.000000E+00  0.000000E+00  0.000000E+00  0.000000E+00  0.000000E+00  0.000000E+00  0.000000E+00  0.000000E+00  0.000000E+00  0.000000E+00  0.000000E+00  0.000000E+00  0.000000E+00  0.000000E+00  0.000000E+00  0.000000E+00  0.000000E+00  0.000000E+00  0.000000E+00 
 0.000000E+00  0.000000E+00  0.000000E+00  0.000000E+00  0.000000E+00  0.000000E+00  0.000000E+00  0.000000E+00  0.000000E+00  0.000000E+00  0.000000E+00  0.000000E+00  0.000000E+00  0.000000E+00  0.000000E+00  0.000000E+00  0.000000E+00  0.000000E+00  0.000000E+00  0.000000E+00  0.000000E+00 
 0.000000E+00  0.000000E+00  0.000000E+00  0.000000E+00  0.000000E+00  0.000000E+00  0.000000E+00  0.000000E+00  0.000000E+00  0.000000E+00  0.000000E+00  0.000000E+00  0.000000E+00  0.000000E+00  0.000000E+00  0.000000E+00  0.000000E+00  0.000000E+00  0.000000E+00  0.000000E+00  0.000000E+00 
 0.000000E+00  0.000000E+00  0.000000E+00  0.000000E+00  0.000000E+00  0.000000E+00  0.000000E+00  0.000000E+00  0.000000E+00  0.000000E+00  0.000000E+00  0.000000E+00  0.000000E+00  0.000000E+00  0.000000E+00  0.000000E+00  0.000000E+00  0.000000E+00  0.000000E+00  0.000000E+00  0.000000E+00 
 0.000000E+00  0.000000E+00  0.000000E+00  0.000000E+00  0.000000E+00  0.000000E+00  0.000000E+00  0.000000E+00  0.000000E+00  0.000000E+00  0.000000E+00  0.000000E+00  0.000000E+00  0.000000E+00  0.000000E+00  0.000000E+00  0.000000E+00  0.000000E+00  0.000000E+00  0.000000E+00  0.000000E+00 
 0.000000E+00  0.000000E+00  0.000000E+00  0.000000E+00  0.000000E+00  0.000000E+00  0.000000E+00  0.000000E+00  0.000000E+00  0.000000E+00  0.000000E+00  0.000000E+00  0.000000E+00  0.000000E+00  0.000000E+00  0.000000E+00  0.000000E+00  0.000000E+00  0.000000E+00  0.000000E+00  0.000000E+00 
 0.000000E+00  0.000000E+00  0.000000E+00  0.000000E+00  0.000000E+00  0.000000E+00  0.000000E+00  0.000000E+00  0.000000E+00  0.000000E+00  0.000000E+00  0.000000E+00  0.000000E+00  0.000000E+00  0.000000E+00  0.000000E+00  0.000000E+00  0.000000E+00  0.000000E+00  0.000000E+00  0.000000E+00 
 0.000000E+00  0.000000E+00  0.000000E+00  0.000000E+00  0.000000E+00  0.000000E+00  0.000000E+00  0.000000E+00  0.000000E+00  0.000000E+00  0.000000E+00  0.000000E+00  0.000000E+00  0.000000E+00  0.000000E+00  0.000000E+00  0.000000E+00  0.000000E+00  0.000000E+00  0.000000E+00  0.000000E+00 
 0.000000E+00  0.000000E+00  0.000000E+00  0.000000E+00  0.000000E+00  0.000000E+00  0.000000E+00  0.000000E+00  0.000000E+00  0.000000E+00  0.000000E+00  0.000000E+00  0.000000E+00  0.000000E+00  0.000000E+00  0.000000E+00  0.000000E+00  0.000000E+00  0.000000E+00  0.000000E+00  0.000000E+00 
 0.000000E+00  0.000000E+00  0.000000E+00  0.000000E+00  0.000000E+00  0.000000E+00  0.000000E+00  0.000000E+00  0.000000E+00  0.000000E+00  0.000000E+00  0.000000E+00  0.000000E+00  0.000000E+00  0.000000E+00  0.000000E+00  0.000000E+00  0.000000E+00  0.000000E+00  0.000000E+00  0.000000E+00 
 0.000000E+00  0.000000E+00  0.000000E+00  0.000000E+00  0.000000E+00  0.000000E+00  0.000000E+00  0.000000E+00  0.000000E+00  0.000000E+00  0.000000E+00  0.000000E+00  0.000000E+00  0.000000E+00  0.000000E+00  0.000000E+00  0.000000E+00  0.000000E+00  0.000000E+00  0.000000E+00  0.000000E+00 
 0.000000E+00  0.000000E+00  0.000000E+00  0.000000E+00  0.000000E+00  0.000000E+00  0.000000E+00  0.000000E+00  0.000000E+00  0.000000E+00  0.000000E+00  0.000000E+00  0.000000E+00  0.000000E+00  0.000000E+00  0.000000E+00  0.000000E+00  0.000000E+00  0.000000E+00  0.000000E+00  0.000000E+00 
 0.000000E+00  0.000000E+00  0.000000E+00  0.000000E+00  0.000000E+00  0.000000E+00  0.000000E+00  0.000000E+00  0.000000E+00  0.000000E+00  0.000000E+00  0.000000E+00  0.000000E+00  0.000000E+00  0.000000E+00  0.000000E+00  0.000000E+00  0.000000E+00  0.000000E+00  0.000000E+00  0.000000E+00 
 0.000000E+00  0.000000E+00  0.000000E+00  0.000000E+00  0.000000E+00  0.000000E+00  0.000000E+00  0.000000E+00  0.000000E+00  0.000000E+00  0.000000E+00  0.000000E+00  0.000000E+00  0.000000E+00  0.000000E+00  0.000000E+00  0.000000E+00  0.000000E+00  0.000000E+00  0.000000E+00  0.000000E+00 
 0.000000E+00  0.000000E+00  0.000000E+00  0.000000E+00  0.000000E+00  0.000000E+00  0.000000E+00  0.000000E+00  0.000000E+00  0.000000E+00  0.000000E+00  0.000000E+00  0.000000E+00  0.000000E+00  0.000000E+00  0.000000E+00  0.000000E+00  0.000000E+00  0.000000E+00  0.000000E+00  0.000000E+00 
 0.000000E+00  0.000000E+00  0.000000E+00  0.000000E+00  0.000000E+00  0.000000E+00  0.000000E+00  0.000000E+00  0.000000E+00  0.000000E+00  0.000000E+00  0.000000E+00  0.000000E+00  0.000000E+00  0.000000E+00  0.000000E+00  0.000000E+00  0.000000E+00  0.000000E+00  0.000000E+00  0.000000E+00 
 0.000000E+00  0.000000E+00  0.000000E+00  0.000000E+00  0.000000E+00  0.000000E+00  0.000000E+00  0.000000E+00  0.000000E+00  0.000000E+00  0.000000E+00  0.000000E+00  0.000000E+00  0.000000E+00  0.000000E+00  0.000000E+00  0.000000E+00  0.000000E+00  0.000000E+00  0.000000E+00  0.000000E+00 
 0.000000E+00  0.000000E+00  0.000000E+00  0.000000E+00  0.000000E+00  0.000000E+00  0.000000E+00  0.000000E+00  0.000000E+00  0.000000E+00  0.000000E+00  0.000000E+00  0.000000E+00  0.000000E+00  0.000000E+00  0.000000E+00  0.000000E+00  0.000000E+00  0.000000E+00  0.000000E+00  0.000000E+00 
 0.000000E+00  0.000000E+00  0.000000E+00  0.000000E+00  0.000000E+00  0.000000E+00  0.000000E+00  0.000000E+00  0.000000E+00  0.000000E+00  0.000000E+00  0.000000E+00  0.000000E+00  0.000000E+00  0.000000E+00  0.000000E+00  0.000000E+00  0.000000E+00  0.000000E+00  0.000000E+00  0.000000E+00 
 0.000000E+00  0.000000E+00  0.000000E+00  0.000000E+00  0.000000E+00  0.000000E+00  0.000000E+00  0.000000E+00  0.000000E+00  0.000000E+00  0.000000E+00  0.000000E+00  0.000000E+00  0.000000E+00  0.000000E+00  0.000000E+00  0.000000E+00  0.000000E+00  0.000000E+00  0.000000E+00  0.000000E+00 
 0.000000E+00  0.000000E+00  0.000000E+00  0.000000E+00  0.000000E+00  0.000000E+00  0.000000E+00  0.000000E+00  0.000000E+00  0.000000E+00  0.000000E+00  0.000000E+00  0.000000E+00  0.000000E+00  0.000000E+00  0.000000E+00  0.000000E+00  0.000000E+00  0.000000E+00  0.000000E+00  0.000000E+00 
 0.000000E+00  0.000000E+00  0.000000E+00  0.000000E+00  0.000000E+00  0.000000E+00  0.000000E+00  0.000000E+00  0.000000E+00  0.000000E+00  0.000000E+00  0.000000E+00  0.000000E+00  0.000000E+00  0.000000E+00  0.000000E+00  0.000000E+00  0.000000E+00  0.000000E+00  0.000000E+00  0.000000E+00 
 0.000000E+00  0.000000E+00  0.000000E+00  0.000000E+00  0.000000E+00  0.000000E+00  0.000000E+00  0.000000E+00  0.000000E+00  0.000000E+00  0.000000E+00  0.000000E+00  0.000000E+00  0.000000E+00  0.000000E+00  0.000000E+00  0.000000E+00  0.000000E+00  0.000000E+00  0.000000E+00  0.000000E+00 
 0.000000E+00  0.000000E+00  0.000000E+00  0.000000E+00  0.000000E+00  0.000000E+00  0.000000E+00  0.000000E+00  0.000000E+00  0.000000E+00  0.000000E+00  0.000000E+00  0.000000E+00  0.000000E+00  0.000000E+00  0.000000E+00  0.000000E+00  0.000000E+00  0.000000E+00  0.000000E+00  0.000000E+00 
 0.000000E+00  0.000000E+00  0.000000E+00  0.000000E+00  0.000000E+00  0.000000E+00  0.000000E+00  0.000000E+00  0.000000E+00  0.000000E+00  0.000000E+00  0.000000E+00  0.000000E+00  0.000000E+00  0.000000E+00  0.000000E+00  0.000000E+00  0.000000E+00  0.000000E+00  0.000000E+00  0.000000E+00 
 0.000000E+00  0.000000E+00  0.000000E+00  0.000000E+00  0.000000E+00  0.000000E+00  0.000000E+00  0.000000E+00  0.000000E+00  0.000000E+00  0.000000E+00  0.000000E+00  0.000000E+00  0.000000E+00  0.000000E+00  0.000000E+00  0.000000E+00  0.000000E+00  0.000000E+00  0.000000E+00  0.000000E+00 
 0.000000E+00  0.000000E+00  0.000000E+00  0.000000E+00  0.000000E+00  0.000000E+00  0.000000E+00  0.000000E+00  0.000000E+00  0.000000E+00  0.000000E+00  0.000000E+00  0.000000E+00  0.000000E+00  0.000000E+00  0.000000E+00  0.000000E+00  0.000000E+00  0.000000E+00  0.000000E+00  0.000000E+00 
 0.000000E+00  0.000000E+00  0.000000E+00  0.000000E+00  0.000000E+00  0.000000E+00  0.000000E+00  0.000000E+00  0.000000E+00  0.000000E+00  0.000000E+00  0.000000E+00  0.000000E+00  0.000000E+00  0.000000E+00  0.000000E+00  0.000000E+00  0.000000E+00  0.000000E+00  0.000000E+00  0.000000E+00 
 0.000000E+00  0.000000E+00  0.000000E+00  0.000000E+00  0.000000E+00  0.000000E+00  0.000000E+00  0.000000E+00  0.000000E+00  0.000000E+00  0.000000E+00  0.000000E+00  0.000000E+00  0.000000E+00  0.000000E+00  0.000000E+00  0.000000E+00  0.000000E+00  0.000000E+00  0.000000E+00  0.000000E+00 
 0.000000E+00  0.000000E+00  0.000000E+00  0.000000E+00  0.000000E+00  0.000000E+00  0.000000E+00  0.000000E+00  0.000000E+00  0.000000E+00  0.000000E+00  0.000000E+00  0.000000E+00  0.000000E+00  0.000000E+00  0.000000E+00  0.000000E+00  0.000000E+00  0.000000E+00  0.000000E+00  0.000000E+00 
 0.000000E+00  0.000000E+00  0.000000E+00  0.000000E+00  0.000000E+00  0.000000E+00  0.000000E+00  0.000000E+00  0.000000E+00  0.000000E+00  0.000000E+00  0.000000E+00  0.000000E+00  0.000000E+00  0.000000E+00  0.000000E+00  0.000000E+00  0.000000E+00  0.000000E+00  0.000000E+00  0.000000E+00 
 0.000000E+00  0.000000E+00  0.000000E+00  0.000000E+00  0.000000E+00  0.000000E+00  0.000000E+00  0.000000E+00  0.000000E+00  0.000000E+00  0.000000E+00  0.000000E+00  0.000000E+00  0.000000E+00  0.000000E+00  0.000000E+00  0.000000E+00  0.000000E+00  0.000000E+00  0.000000E+00  0.000000E+00 
 0.000000E+00  0.000000E+00  0.000000E+00  0.000000E+00  0.000000E+00  0.000000E+00  0.000000E+00  0.000000E+00  0.000000E+00  0.000000E+00  0.000000E+00  0.000000E+00  0.000000E+00  0.000000E+00  0.000000E+00  0.000000E+00  0.000000E+00  0.000000E+00  0.000000E+00  0.000000E+00  0.000000E+00 
 0.000000E+00  0.000000E+00  0.000000E+00  0.000000E+00  0.000000E+00  0.000000E+00  0.000000E+00  0.000000E+00  0.000000E+00  0.000000E+00  0.000000E+00  0.000000E+00  0.000000E+00  0.000000E+00  0.000000E+00  0.000000E+00  0.000000E+00  0.000000E+00  0.000000E+00  0.000000E+00  0.000000E+00 
 0.000000E+00  0.000000E+00  0.000000E+00  0.000000E+00  0.000000E+00  0.000000E+00  0.000000E+00  0.000000E+00  0.000000E+00  0.000000E+00  0.000000E+00  0.000000E+00  0.000000E+00  0.000000E+00  0.000000E+00  0.000000E+00  0.000000E+00  0.000000E+00  0.000000E+00  0.000000E+00  0.000000E+00 
 0.000000E+00  0.000000E+00  0.000000E+00  0.000000E+00  0.000000E+00  0.000000E+00  0.000000E+00  0.000000E+00  0.000000E+00  0.000000E+00  0.000000E+00  0.000000E+00  0.000000E+00  0.000000E+00  0.000000E+00  0.000000E+00  0.000000E+00  0.000000E+00  0.000000E+00  0.000000E+00  0.000000E+00 
 0.000000E+00  0.000000E+00  0.000000E+00  0.000000E+00  0.000000E+00  0.000000E+00  0.000000E+00  0.000000E+00  0.000000E+00  0.000000E+00  0.000000E+00  0.000000E+00  0.000000E+00  0.000000E+00  0.000000E+00  0.000000E+00  0.000000E+00  0.000000E+00  0.000000E+00  0.000000E+00  0.000000E+00 
 0.000000E+00  0.000000E+00  0.000000E+00  0.000000E+00  0.000000E+00  0.000000E+00  0.000000E+00  0.000000E+00  0.000000E+00  0.000000E+00  0.000000E+00  0.000000E+00  0.000000E+00  0.000000E+00  0.000000E+00  0.000000E+00  0.000000E+00  0.000000E+00  0.000000E+00  0.000000E+00  0.000000E+00 
 0.000000E+00  0.000000E+00  0.000000E+00  0.000000E+00  0.000000E+00  0.000000E+00  0.000000E+00  0.000000E+00  0.000000E+00  0.000000E+00  0.000000E+00  0.000000E+00  0.000000E+00  0.000000E+00  0.000000E+00  0.000000E+00  0.000000E+00  0.000000E+00  0.000000E+00  0.000000E+00  0.000000E+00 
 0.000000E+00  0.000000E+00  0.000000E+00  0.000000E+00  0.000000E+00  0.000000E+00  0.000000E+00  0.000000E+00  0.000000E+00  0.000000E+00  0.000000E+00  0.000000E+00  0.000000E+00  0.000000E+00  0.000000E+00  0.000000E+00  0.000000E+00  0.000000E+00  0.000000E+00  0.000000E+00  0.000000E+00 
 0.000000E+00  0.000000E+00  0.000000E+00  0.000000E+00  0.000000E+00  0.000000E+00  0.000000E+00  0.000000E+00  0.000000E+00  0.000000E+00  0.000000E+00  0.000000E+00  0.000000E+00  0.000000E+00  0.000000E+00  0.000000E+00  0.000000E+00  0.000000E+00  0.000000E+00  0.000000E+00  0.000000E+00 
 0.000000E+00  0.000000E+00  0.000000E+00  0.000000E+00  0.000000E+00  0.000000E+00  0.000000E+00  0.000000E+00  0.000000E+00  0.000000E+00  0.000000E+00  0.000000E+00  0.000000E+00  0.000000E+00  0.000000E+00  0.000000E+00  0.000000E+00  0.000000E+00  0.000000E+00  0.000000E+00  0.000000E+00 
 0.000000E+00  0.000000E+00  0.000000E+00  0.000000E+00  0.000000E+00  0.000000E+00  0.000000E+00  0.000000E+00  0.000000E+00  0.000000E+00  0.000000E+00  0.000000E+00  0.000000E+00  0.000000E+00  0.000000E+00  0.000000E+00  0.000000E+00  0.000000E+00  0.000000E+00  0.000000E+00  0.000000E+00 
 0.000000E+00  0.000000E+00  0.000000E+00  0.000000E+00  0.000000E+00  0.000000E+00  0.000000E+00  0.000000E+00  0.000000E+00  0.000000E+00  0.000000E+00  0.000000E+00  0.000000E+00  0.000000E+00  0.000000E+00  0.000000E+00  0.000000E+00  0.000000E+00  0.000000E+00  0.000000E+00  0.000000E+00 
 0.000000E+00  0.000000E+00  0.000000E+00  0.000000E+00  0.000000E+00  0.000000E+00  0.000000E+00  0.000000E+00  0.000000E+00  0.000000E+00  0.000000E+00  0.000000E+00  0.000000E+00  0.000000E+00  0.000000E+00  0.000000E+00  0.000000E+00  0.000000E+00  0.000000E+00  0.000000E+00  0.000000E+00 
 0.000000E+00  0.000000E+00  0.000000E+00  0.000000E+00  0.000000E+00  0.000000E+00  0.000000E+00  0.000000E+00  0.000000E+00  0.000000E+00  0.000000E+00  0.000000E+00  0.000000E+00  0.000000E+00  0.000000E+00  0.000000E+00  0.000000E+00  0.000000E+00  0.000000E+00  0.000000E+00  0.000000E+00 
 0.000000E+00  0.000000E+00  0.000000E+00  0.000000E+00  0.000000E+00  0.000000E+00  0.000000E+00  0.000000E+00  0.000000E+00  0.000000E+00  0.000000E+00  0.000000E+00  0.000000E+00  0.000000E+00  0.000000E+00  0.000000E+00  0.000000E+00  0.000000E+00  0.000000E+00  0.000000E+00  0.000000E+00 
 0.000000E+00  0.000000E+00  0.000000E+00  0.000000E+00  0.000000E+00  0.000000E+00  0.000000E+00  0.000000E+00  0.000000E+00  0.000000E+00  0.000000E+00  0.000000E+00  0.000000E+00  0.000000E+00  0.000000E+00  0.000000E+00  0.000000E+00  0.000000E+00  0.000000E+00  0.000000E+00  0.000000E+00 
 0.000000E+00  0.000000E+00  0.000000E+00  0.000000E+00  0.000000E+00  0.000000E+00  0.000000E+00  0.000000E+00  0.000000E+00  0.000000E+00  0.000000E+00  0.000000E+00  0.000000E+00  0.000000E+00  0.000000E+00  0.000000E+00  0.000000E+00  0.000000E+00  0.000000E+00  0.000000E+00  0.000000E+00 
 0.000000E+00  0.000000E+00  0.000000E+00  0.000000E+00  0.000000E+00  0.000000E+00  0.000000E+00  0.000000E+00  0.000000E+00  0.000000E+00  0.000000E+00  0.000000E+00  0.000000E+00  0.000000E+00  0.000000E+00  0.000000E+00  0.000000E+00  0.000000E+00  0.000000E+00  0.000000E+00  0.000000E+00 
 0.000000E+00  0.000000E+00  0.000000E+00  0.000000E+00  0.000000E+00  0.000000E+00  0.000000E+00  0.000000E+00  0.000000E+00  0.000000E+00  0.000000E+00  0.000000E+00  0.000000E+00  0.000000E+00  0.000000E+00  0.000000E+00  0.000000E+00  0.000000E+00  0.000000E+00  0.000000E+00  0.000000E+00 
 0.000000E+00  0.000000E+00  0.000000E+00  0.000000E+00  0.000000E+00  0.000000E+00  0.000000E+00  0.000000E+00  0.000000E+00  0.000000E+00  0.000000E+00  0.000000E+00  0.000000E+00  0.000000E+00  0.000000E+00  0.000000E+00  0.000000E+00  0.000000E+00  0.000000E+00  0.000000E+00  0.000000E+00 
 0.000000E+00  0.000000E+00  0.000000E+00  0.000000E+00  0.000000E+00  0.000000E+00  0.000000E+00  0.000000E+00  0.000000E+00  0.000000E+00  0.000000E+00  0.000000E+00  0.000000E+00  0.000000E+00  0.000000E+00  0.000000E+00  0.000000E+00  0.000000E+00  0.000000E+00  0.000000E+00  0.000000E+00 
 0.000000E+00  0.000000E+00  0.000000E+00  0.000000E+00  0.000000E+00  0.000000E+00  0.000000E+00  0.000000E+00  0.000000E+00  0.000000E+00  0.000000E+00  0.000000E+00  0.000000E+00  0.000000E+00  0.000000E+00  0.000000E+00  0.000000E+00  0.000000E+00  0.000000E+00  0.000000E+00  0.000000E+00 
 0.000000E+00  0.000000E+00  0.000000E+00  0.000000E+00  0.000000E+00  0.000000E+00  0.000000E+00  0.000000E+00  0.000000E+00  0.000000E+00  0.000000E+00  0.000000E+00  0.000000E+00  0.000000E+00  0.000000E+00  0.000000E+00  0.000000E+00  0.000000E+00  0.000000E+00  0.000000E+00  0.000000E+00 
 0.000000E+00  0.000000E+00  0.000000E+00  0.000000E+00  0.000000E+00  0.000000E+00  0.000000E+00  0.000000E+00  0.000000E+00  0.000000E+00  0.000000E+00  0.000000E+00  0.000000E+00  0.000000E+00  0.000000E+00  0.000000E+00  0.000000E+00  0.000000E+00  0.000000E+00  0.000000E+00  0.000000E+00 
 0.000000E+00  0.000000E+00  0.000000E+00  0.000000E+00  0.000000E+00  0.000000E+00  0.000000E+00  0.000000E+00  0.000000E+00  0.000000E+00  0.000000E+00  0.000000E+00  0.000000E+00  0.000000E+00  0.000000E+00  0.000000E+00  0.000000E+00  0.000000E+00  0.000000E+00  0.000000E+00  0.000000E+00 
 0.000000E+00  0.000000E+00  0.000000E+00  0.000000E+00  0.000000E+00  0.000000E+00  0.000000E+00  0.000000E+00  0.000000E+00  0.000000E+00  0.000000E+00  0.000000E+00  0.000000E+00  0.000000E+00  0.000000E+00  0.000000E+00  0.000000E+00  0.000000E+00  0.000000E+00  0.000000E+00  0.000000E+00 
 0.000000E+00  0.000000E+00  0.000000E+00  0.000000E+00  0.000000E+00  0.000000E+00  0.000000E+00  0.000000E+00  0.000000E+00  0.000000E+00  0.000000E+00  0.000000E+00  0.000000E+00  0.000000E+00  0.000000E+00  0.000000E+00  0.000000E+00  0.000000E+00  0.000000E+00  0.000000E+00  0.000000E+00 
 0.000000E+00  0.000000E+00  0.000000E+00  0.000000E+00  0.000000E+00  0.000000E+00  0.000000E+00  0.000000E+00  0.000000E+00  0.000000E+00  0.000000E+00  0.000000E+00  0.000000E+00  0.000000E+00  0.000000E+00  0.000000E+00  0.000000E+00  0.000000E+00  0.000000E+00  0.000000E+00  0.000000E+00 
 0.000000E+00  0.000000E+00  0.000000E+00  0.000000E+00  0.000000E+00  0.000000E+00  0.000000E+00  0.000000E+00  0.000000E+00  0.000000E+00  0.000000E+00  0.000000E+00  0.000000E+00  0.000000E+00  0.000000E+00  0.000000E+00  0.000000E+00  0.000000E+00  0.000000E+00  0.000000E+00  0.000000E+00 
 0.000000E+00  0.000000E+00  0.000000E+00  0.000000E+00  0.000000E+00  0.000000E+00  0.000000E+00  0.000000E+00  0.000000E+00  0.000000E+00  0.000000E+00  0.000000E+00  0.000000E+00  0.000000E+00  0.000000E+00  0.000000E+00  0.000000E+00  0.000000E+00  0.000000E+00  0.000000E+00  0.000000E+00 
 0.000000E+00  0.000000E+00  0.000000E+00  0.000000E+00  0.000000E+00  0.000000E+00  0.000000E+00  0.000000E+00  0.000000E+00  0.000000E+00  0.000000E+00  0.000000E+00  0.000000E+00  0.000000E+00  0.000000E+00  0.000000E+00  0.000000E+00  0.000000E+00  0.000000E+00  0.000000E+00  0.000000E+00 
 0.000000E+00  0.000000E+00  0.000000E+00  0.000000E+00  0.000000E+00  0.000000E+00  0.000000E+00  0.000000E+00  0.000000E+00  0.000000E+00  0.000000E+00  0.000000E+00  0.000000E+00  0.000000E+00  0.000000E+00  0.000000E+00  0.000000E+00  0.000000E+00  0.000000E+00  0.000000E+00  0.000000E+00 
 0.000000E+00  0.000000E+00  0.000000E+00  0.000000E+00  0.000000E+00  0.000000E+00  0.000000E+00  0.000000E+00  0.000000E+00  0.000000E+00  0.000000E+00  0.000000E+00  0.000000E+00  0.000000E+00  0.000000E+00  0.000000E+00  0.000000E+00  0.000000E+00  0.000000E+00  0.000000E+00  0.000000E+00 
 0.000000E+00  0.000000E+00  0.000000E+00  0.000000E+00  0.000000E+00  0.000000E+00  0.000000E+00  0.000000E+00  0.000000E+00  0.000000E+00  0.000000E+00  0.000000E+00  0.000000E+00  0.000000E+00  0.000000E+00  0.000000E+00  0.000000E+00  0.000000E+00  0.000000E+00  0.000000E+00  0.000000E+00 
 0.000000E+00  0.000000E+00  0.000000E+00  0.000000E+00  0.000000E+00  0.000000E+00  0.000000E+00  0.000000E+00  0.000000E+00  0.000000E+00  0.000000E+00  0.000000E+00  0.000000E+00  0.000000E+00  0.000000E+00  0.000000E+00  0.000000E+00  0.000000E+00  0.000000E+00  0.000000E+00  0.000000E+00 
 0.000000E+00  0.000000E+00  0.000000E+00  0.000000E+00  0.000000E+00  0.000000E+00  0.000000E+00  0.000000E+00  0.000000E+00  0.000000E+00  0.000000E+00  0.000000E+00  0.000000E+00  0.000000E+00  0.000000E+00  0.000000E+00  0.000000E+00  0.000000E+00  0.000000E+00  0.000000E+00  0.000000E+00 
 0.000000E+00  0.000000E+00  0.000000E+00  0.000000E+00  0.000000E+00  0.000000E+00  0.000000E+00  0.000000E+00  0.000000E+00  0.000000E+00  0.000000E+00  0.000000E+00  0.000000E+00  0.000000E+00  0.000000E+00  0.000000E+00  0.000000E+00  0.000000E+00  0.000000E+00  0.000000E+00  0.000000E+00 
 0.000000E+00  0.000000E+00  0.000000E+00  0.000000E+00  0.000000E+00  0.000000E+00  0.000000E+00  0.000000E+00  0.000000E+00  0.000000E+00  0.000000E+00  0.000000E+00  0.000000E+00  0.000000E+00  0.000000E+00  0.000000E+00  0.000000E+00  0.000000E+00  0.000000E+00  0.000000E+00  0.000000E+00 
 0.000000E+00  0.000000E+00  0.000000E+00  0.000000E+00  0.000000E+00  0.000000E+00  0.000000E+00  0.000000E+00  0.000000E+00  0.000000E+00  0.000000E+00  0.000000E+00  0.000000E+00  0.000000E+00  0.000000E+00  0.000000E+00  0.000000E+00  0.000000E+00  0.000000E+00  0.000000E+00  0.000000E+00 
 0.000000E+00  0.000000E+00  0.000000E+00  0.000000E+00  0.000000E+00  0.000000E+00  0.000000E+00  0.000000E+00  0.000000E+00  0.000000E+00  0.000000E+00  0.000000E+00  0.000000E+00  0.000000E+00  0.000000E+00  0.000000E+00  0.000000E+00  0.000000E+00  0.000000E+00  0.000000E+00  0.000000E+00 
 0.000000E+00  0.000000E+00  0.000000E+00  0.000000E+00  0.000000E+00  0.000000E+00  0.000000E+00  0.000000E+00  0.000000E+00  0.000000E+00  0.000000E+00  0.000000E+00  0.000000E+00  0.000000E+00  0.000000E+00  0.000000E+00  0.000000E+00  0.000000E+00  0.000000E+00  0.000000E+00  0.000000E+00 
 0.000000E+00  0.000000E+00  0.000000E+00  0.000000E+00  0.000000E+00  0.000000E+00  0.000000E+00  0.000000E+00  0.000000E+00  0.000000E+00  0.000000E+00  0.000000E+00  0.000000E+00  0.000000E+00  0.000000E+00  0.000000E+00  0.000000E+00  0.000000E+00  0.000000E+00  0.000000E+00  0.000000E+00 
 0.000000E+00  0.000000E+00  0.000000E+00  0.000000E+00  0.000000E+00  0.000000E+00  0.000000E+00  0.000000E+00  0.000000E+00  0.000000E+00  0.000000E+00  0.000000E+00  0.000000E+00  0.000000E+00  0.000000E+00  0.000000E+00  0.000000E+00  0.000000E+00  0.000000E+00  0.000000E+00  0.000000E+00 
 0.000000E+00  0.000000E+00  0.000000E+00  0.000000E+00  0.000000E+00  0.000000E+00  0.000000E+00  0.000000E+00  0.000000E+00  0.000000E+00  0.000000E+00  0.000000E+00  0.000000E+00  0.000000E+00  0.000000E+00  0.000000E+00  0.000000E+00  0.000000E+00  0.000000E+00  0.000000E+00  0.000000E+00 
 0.000000E+00  0.000000E+00  0.000000E+00  0.000000E+00  0.000000E+00  0.000000E+00  0.000000E+00  0.000000E+00  0.000000E+00  0.000000E+00  0.000000E+00  0.000000E+00  0.000000E+00  0.000000E+00  0.000000E+00  0.000000E+00  0.000000E+00  0.000000E+00  0.000000E+00  0.000000E+00  0.000000E+00 
 0.000000E+00  0.000000E+00  0.000000E+00  0.000000E+00  0.000000E+00  0.000000E+00  0.000000E+00  0.000000E+00  0.000000E+00  0.000000E+00  0.000000E+00  0.000000E+00  0.000000E+00  0.000000E+00  0.000000E+00  0.000000E+00  0.000000E+00  0.000000E+00  0.000000E+00  0.000000E+00  0.000000E+00 
 0.000000E+00  0.000000E+00  0.000000E+00  0.000000E+00  0.000000E+00  0.000000E+00  0.000000E+00  0.000000E+00  0.000000E+00  0.000000E+00  0.000000E+00  0.000000E+00  0.000000E+00  0.000000E+00  0.000000E+00  0.000000E+00  0.000000E+00  0.000000E+00  0.000000E+00  0.000000E+00  0.000000E+00 
 0.000000E+00  0.000000E+00  0.000000E+00  0.000000E+00  0.000000E+00  0.000000E+00  0.000000E+00  0.000000E+00  0.000000E+00  0.000000E+00  0.000000E+00  0.000000E+00  0.000000E+00  0.000000E+00  0.000000E+00  0.000000E+00  0.000000E+00  0.000000E+00  0.000000E+00  0.000000E+00  0.000000E+00 
 0.000000E+00  0.000000E+00  0.000000E+00  0.000000E+00  0.000000E+00  0.000000E+00  0.000000E+00  0.000000E+00  0.000000E+00  0.000000E+00  0.000000E+00  0.000000E+00  0.000000E+00  0.000000E+00  0.000000E+00  0.000000E+00  0.000000E+00  0.000000E+00  0.000000E+00  0.000000E+00  0.000000E+00 
 0.000000E+00  0.000000E+00  0.000000E+00  0.000000E+00  0.000000E+00  0.000000E+00  0.000000E+00  0.000000E+00  0.000000E+00  0.000000E+00  0.000000E+00  0.000000E+00  0.000000E+00  0.000000E+00  0.000000E+00  0.000000E+00  0.000000E+00  0.000000E+00  0.000000E+00  0.000000E+00  0.000000E+00 
 0.000000E+00  0.000000E+00  0.000000E+00  0.000000E+00  0.000000E+00  0.000000E+00  0.000000E+00  0.000000E+00  0.000000E+00  0.000000E+00  0.000000E+00  0.000000E+00  0.000000E+00  0.000000E+00  0.000000E+00  0.000000E+00  0.000000E+00  0.000000E+00  0.000000E+00  0.000000E+00  0.000000E+00 
 0.000000E+00  0.000000E+00  0.000000E+00  0.000000E+00  0.000000E+00  0.000000E+00  0.000000E+00  0.000000E+00  0.000000E+00  0.000000E+00  0.000000E+00  0.000000E+00  0.000000E+00  0.000000E+00  0.000000E+00  0.000000E+00  0.000000E+00  0.000000E+00  0.000000E+00  0.000000E+00  0.000000E+00 
 0.000000E+00  0.000000E+00  0.000000E+00  0.000000E+00  0.000000E+00  0.000000E+00  0.000000E+00  0.000000E+00  0.000000E+00  0.000000E+00  0.000000E+00  0.000000E+00  0.000000E+00  0.000000E+00  0.000000E+00  0.000000E+00  0.000000E+00  0.000000E+00  0.000000E+00  0.000000E+00  0.000000E+00 
 0.000000E+00  0.000000E+00  0.000000E+00  0.000000E+00  0.000000E+00  0.000000E+00  0.000000E+00  0.000000E+00  0.000000E+00  0.000000E+00  0.000000E+00  0.000000E+00  0.000000E+00  0.000000E+00  0.000000E+00  0.000000E+00  0.000000E+00  0.000000E+00  0.000000E+00  0.000000E+00  0.000000E+00 
 0.000000E+00  0.000000E+00  0.000000E+00  0.000000E+00  0.000000E+00  0.000000E+00  0.000000E+00  0.000000E+00  0.000000E+00  0.000000E+00  0.000000E+00  0.000000E+00  0.000000E+00  0.000000E+00  0.000000E+00  0.000000E+00  0.000000E+00  0.000000E+00  0.000000E+00  0.000000E+00  0.000000E+00 
 0.000000E+00  0.000000E+00  0.000000E+00  0.000000E+00  0.000000E+00  0.000000E+00  0.000000E+00  0.000000E+00  0.000000E+00  0.000000E+00  0.000000E+00  0.000000E+00  0.000000E+00  0.000000E+00  0.000000E+00  0.000000E+00  0.000000E+00  0.000000E+00  0.000000E+00  0.000000E+00  0.000000E+00 
 0.000000E+00  0.000000E+00  0.000000E+00  0.000000E+00  0.000000E+00  0.000000E+00  0.000000E+00  0.000000E+00  0.000000E+00  0.000000E+00  0.000000E+00  0.000000E+00  0.000000E+00  0.000000E+00  0.000000E+00  0.000000E+00  0.000000E+00  0.000000E+00  0.000000E+00  0.000000E+00  0.000000E+00 
 0.000000E+00  0.000000E+00  0.000000E+00  0.000000E+00  0.000000E+00  0.000000E+00  0.000000E+00  0.000000E+00  0.000000E+00  0.000000E+00  0.000000E+00  0.000000E+00  0.000000E+00  0.000000E+00  0.000000E+00  0.000000E+00  0.000000E+00  0.000000E+00  0.000000E+00  0.000000E+00  0.000000E+00 
 0.000000E+00  0.000000E+00  0.000000E+00  0.000000E+00  0.000000E+00  0.000000E+00  0.000000E+00  0.000000E+00  0.000000E+00  0.000000E+00  0.000000E+00  0.000000E+00  0.000000E+00  0.000000E+00  0.000000E+00  0.000000E+00  0.000000E+00  0.000000E+00  0.000000E+00  0.000000E+00  0.000000E+00 
 0.000000E+00  0.000000E+00  0.000000E+00  0.000000E+00  0.000000E+00  0.000000E+00  0.000000E+00  0.000000E+00  0.000000E+00  0.000000E+00  0.000000E+00  0.000000E+00  0.000000E+00  0.000000E+00  0.000000E+00  0.000000E+00  0.000000E+00  0.000000E+00  0.000000E+00  0.000000E+00  0.000000E+00 
 0.000000E+00  0.000000E+00  0.000000E+00  0.000000E+00  0.000000E+00  0.000000E+00  0.000000E+00  0.000000E+00  0.000000E+00  0.000000E+00  0.000000E+00  0.000000E+00  0.000000E+00  0.000000E+00  0.000000E+00  0.000000E+00  0.000000E+00  0.000000E+00  0.000000E+00  0.000000E+00  0.000000E+00 
 0.000000E+00  0.000000E+00  0.000000E+00  0.000000E+00  0.000000E+00  0.000000E+00  0.000000E+00  0.000000E+00  0.000000E+00  0.000000E+00  0.000000E+00  0.000000E+00  0.000000E+00  0.000000E+00  0.000000E+00  0.000000E+00  0.000000E+00  0.000000E+00  0.000000E+00  0.000000E+00  0.000000E+00 
 0.000000E+00  0.000000E+00  0.000000E+00  0.000000E+00  0.000000E+00  0.000000E+00  0.000000E+00  0.000000E+00  0.000000E+00  0.000000E+00  0.000000E+00  0.000000E+00  0.000000E+00  0.000000E+00  0.000000E+00  0.000000E+00  0.000000E+00  0.000000E+00  0.000000E+00  0.000000E+00  0.000000E+00 
 0.000000E+00  0.000000E+00  0.000000E+00  0.000000E+00  0.000000E+00  0.000000E+00  0.000000E+00  0.000000E+00  0.000000E+00  0.000000E+00  0.000000E+00  0.000000E+00  0.000000E+00  0.000000E+00  0.000000E+00  0.000000E+00  0.000000E+00  0.000000E+00  0.000000E+00  0.000000E+00  0.000000E+00 
 0.000000E+00  0.000000E+00  0.000000E+00  0.000000E+00  0.000000E+00  0.000000E+00  0.000000E+00  0.000000E+00  0.000000E+00  0.000000E+00  0.000000E+00  0.000000E+00  0.000000E+00  0.000000E+00  0.000000E+00  0.000000E+00  0.000000E+00  0.000000E+00  0.000000E+00  0.000000E+00  0.000000E+00 
 0.000000E+00  0.000000E+00  0.000000E+00  0.000000E+00  0.000000E+00  0.000000E+00  0.000000E+00  0.000000E+00  0.000000E+00  0.000000E+00  0.000000E+00  0.000000E+00  0.000000E+00  0.000000E+00  0.000000E+00  0.000000E+00  0.000000E+00  0.000000E+00  0.000000E+00  0.000000E+00  0.000000E+00 
 0.000000E+00  0.000000E+00  0.000000E+00  0.000000E+00  0.000000E+00  0.000000E+00  0.000000E+00  0.000000E+00  0.000000E+00  0.000000E+00  0.000000E+00  0.000000E+00  0.000000E+00  0.000000E+00  0.000000E+00  0.000000E+00  0.000000E+00  0.000000E+00  0.000000E+00  0.000000E+00  0.000000E+00 
 0.000000E+00  0.000000E+00  0.000000E+00  0.000000E+00  0.000000E+00  0.000000E+00  0.000000E+00  0.000000E+00  0.000000E+00  0.000000E+00  0.000000E+00  0.000000E+00  0.000000E+00  0.000000E+00  0.000000E+00  0.000000E+00  0.000000E+00  0.000000E+00  0.000000E+00  0.000000E+00  0.000000E+00 
 0.000000E+00  0.000000E+00  0.000000E+00  0.000000E+00  0.000000E+00  0.000000E+00  0.000000E+00  0.000000E+00  0.000000E+00  0.000000E+00  0.000000E+00  0.000000E+00  0.000000E+00  0.000000E+00  0.000000E+00  0.000000E+00  0.000000E+00  0.000000E+00  0.000000E+00  0.000000E+00  0.000000E+00 
 0.000000E+00  0.000000E+00  0.000000E+00  0.000000E+00  0.000000E+00  0.000000E+00  0.000000E+00  0.000000E+00  0.000000E+00  0.000000E+00  0.000000E+00  0.000000E+00  0.000000E+00  0.000000E+00  0.000000E+00  0.000000E+00  0.000000E+00  0.000000E+00  0.000000E+00  0.000000E+00  0.000000E+00 
 0.000000E+00  0.000000E+00  0.000000E+00  0.000000E+00  0.000000E+00  0.000000E+00  0.000000E+00  0.000000E+00  0.000000E+00  0.000000E+00  0.000000E+00  0.000000E+00  0.000000E+00  0.000000E+00  0.000000E+00  0.000000E+00  0.000000E+00  0.000000E+00  0.000000E+00  0.000000E+00  0.000000E+00 
 0.000000E+00  0.000000E+00  0.000000E+00  0.000000E+00  0.000000E+00  0.000000E+00  0.000000E+00  0.000000E+00  0.000000E+00  0.000000E+00  0.000000E+00  0.000000E+00  0.000000E+00  0.000000E+00  0.000000E+00  0.000000E+00  0.000000E+00  0.000000E+00  0.000000E+00  0.000000E+00  0.000000E+00 
 0.000000E+00  0.000000E+00  0.000000E+00  0.000000E+00  0.000000E+00  0.000000E+00  0.000000E+00  0.000000E+00  0.000000E+00  0.000000E+00  0.000000E+00  0.000000E+00  0.000000E+00  0.000000E+00  0.000000E+00  0.000000E+00  0.000000E+00  0.000000E+00  0.000000E+00  0.000000E+00  0.000000E+00 
 0.000000E+00  0.000000E+00  0.000000E+00  0.000000E+00  0.000000E+00  0.000000E+00  0.000000E+00  0.000000E+00  0.000000E+00  0.000000E+00  0.000000E+00  0.000000E+00  0.000000E+00  0.000000E+00  0.000000E+00  0.000000E+00  0.000000E+00  0.000000E+00  0.000000E+00  0.000000E+00  0.000000E+00 
 0.000000E+00  0.000000E+00  0.000000E+00  0.000000E+00  0.000000E+00  0.000000E+00  0.000000E+00  0.000000E+00  0.000000E+00  0.000000E+00  0.000000E+00  0.000000E+00  0.000000E+00  0.000000E+00  0.000000E+00  0.000000E+00  0.000000E+00  0.000000E+00  0.000000E+00  0.000000E+00  0.000000E+00 
 0.000000E+00  0.000000E+00  0.000000E+00  0.000000E+00  0.000000E+00  0.000000E+00  0.000000E+00  0.000000E+00  0.000000E+00  0.000000E+00  0.000000E+00  0.000000E+00  0.000000E+00  0.000000E+00  0.000000E+00  0.000000E+00  0.000000E+00  0.000000E+00  0.000000E+00  0.000000E+00  0.000000E+00 
 0.000000E+00  0.000000E+00  0.000000E+00  0.000000E+00  0.000000E+00  0.000000E+00  0.000000E+00  0.000000E+00  0.000000E+00  0.000000E+00  0.000000E+00  0.000000E+00  0.000000E+00  0.000000E+00  0.000000E+00  0.000000E+00  0.000000E+00  0.000000E+00  0.000000E+00  0.000000E+00  0.000000E+00 
 0.000000E+00  0.000000E+00  0.000000E+00  0.000000E+00  0.000000E+00  0.000000E+00  0.000000E+00  0.000000E+00  0.000000E+00  0.000000E+00  0.000000E+00  0.000000E+00  0.000000E+00  0.000000E+00  0.000000E+00  0.000000E+00  0.000000E+00  0.000000E+00  0.000000E+00  0.000000E+00  0.000000E+00 
 0.000000E+00  0.000000E+00  0.000000E+00  0.000000E+00  0.000000E+00  0.000000E+00  0.000000E+00  0.000000E+00  0.000000E+00  0.000000E+00  0.000000E+00  0.000000E+00  0.000000E+00  0.000000E+00  0.000000E+00  0.000000E+00  0.000000E+00  0.000000E+00  0.000000E+00  0.000000E+00  0.000000E+00 
 0.000000E+00  0.000000E+00  0.000000E+00  0.000000E+00  0.000000E+00  0.000000E+00  0.000000E+00  0.000000E+00  0.000000E+00  0.000000E+00  0.000000E+00  0.000000E+00  0.000000E+00  0.000000E+00  0.000000E+00  0.000000E+00  0.000000E+00  0.000000E+00  0.000000E+00  0.000000E+00  0.000000E+00 
 0.000000E+00  0.000000E+00  0.000000E+00  0.000000E+00  0.000000E+00  0.000000E+00  0.000000E+00  0.000000E+00  0.000000E+00  0.000000E+00  0.000000E+00  0.000000E+00  0.000000E+00  0.000000E+00  0.000000E+00  0.000000E+00  0.000000E+00  0.000000E+00  0.000000E+00  0.000000E+00  0.000000E+00 
 0.000000E+00  0.000000E+00  0.000000E+00  0.000000E+00  0.000000E+00  0.000000E+00  0.000000E+00  0.000000E+00  0.000000E+00  0.000000E+00  0.000000E+00  0.000000E+00  0.000000E+00  0.000000E+00  0.000000E+00  0.000000E+00  0.000000E+00  0.000000E+00  0.000000E+00  0.000000E+00  0.000000E+00 
 0.000000E+00  0.000000E+00  0.000000E+00  0.000000E+00  0.000000E+00  0.000000E+00  0.000000E+00  0.000000E+00  0.000000E+00  0.000000E+00  0.000000E+00  0.000000E+00  0.000000E+00  0.000000E+00  0.000000E+00  0.000000E+00  0.000000E+00  0.000000E+00  0.000000E+00  0.000000E+00  0.000000E+00 
 0.000000E+00  0.000000E+00  0.000000E+00  0.000000E+00  0.000000E+00  0.000000E+00  0.000000E+00  0.000000E+00  0.000000E+00  0.000000E+00  0.000000E+00  0.000000E+00  0.000000E+00  0.000000E+00  0.000000E+00  0.000000E+00  0.000000E+00  0.000000E+00  0.000000E+00  0.000000E+00  0.000000E+00 
 0.000000E+00  0.000000E+00  0.000000E+00  0.000000E+00  0.000000E+00  0.000000E+00  0.000000E+00  0.000000E+00  0.000000E+00  0.000000E+00  0.000000E+00  0.000000E+00  0.000000E+00  0.000000E+00  0.000000E+00  0.000000E+00  0.000000E+00  0.000000E+00  0.000000E+00  0.000000E+00  0.000000E+00 
 0.000000E+00  0.000000E+00  0.000000E+00  0.000000E+00  0.000000E+00  0.000000E+00  0.000000E+00  0.000000E+00  0.000000E+00  0.000000E+00  0.000000E+00  0.000000E+00  0.000000E+00  0.000000E+00  0.000000E+00  0.000000E+00  0.000000E+00  0.000000E+00  0.000000E+00  0.000000E+00  0.000000E+00 
 0.000000E+00  0.000000E+00  0.000000E+00  0.000000E+00  0.000000E+00  0.000000E+00  0.000000E+00  0.000000E+00  0.000000E+00  0.000000E+00  0.000000E+00  0.000000E+00  0.000000E+00  0.000000E+00  0.000000E+00  0.000000E+00  0.000000E+00  0.000000E+00  0.000000E+00  0.000000E+00  0.000000E+00 
 0.000000E+00  0.000000E+00  0.000000E+00  0.000000E+00  0.000000E+00  0.000000E+00  0.000000E+00  0.000000E+00  0.000000E+00  0.000000E+00  0.000000E+00  0.000000E+00  0.000000E+00  0.000000E+00  0.000000E+00  0.000000E+00  0.000000E+00  0.000000E+00  0.000000E+00  0.000000E+00  0.000000E+00 
 0.000000E+00  0.000000E+00  0.000000E+00  0.000000E+00  0.000000E+00  0.000000E+00  0.000000E+00  0.000000E+00  0.000000E+00  0.000000E+00  0.000000E+00  0.000000E+00  0.000000E+00  0.000000E+00  0.000000E+00  0.000000E+00  0.000000E+00  0.000000E+00  0.000000E+00  0.000000E+00  0.000000E+00 
 0.000000E+00  0.000000E+00  0.000000E+00  0.000000E+00  0.000000E+00  0.000000E+00  0.000000E+00  0.000000E+00  0.000000E+00  0.000000E+00  0.000000E+00  0.000000E+00  0.000000E+00  0.000000E+00  0.000000E+00  0.000000E+00  0.000000E+00  0.000000E+00  0.000000E+00  0.000000E+00  0.000000E+00 
 0.000000E+00  0.000000E+00  0.000000E+00  0.000000E+00  0.000000E+00  0.000000E+00  0.000000E+00  0.000000E+00  0.000000E+00  0.000000E+00  0.000000E+00  0.000000E+00  0.000000E+00  0.000000E+00  0.000000E+00  0.000000E+00  0.000000E+00  0.000000E+00  0.000000E+00  0.000000E+00  0.000000E+00 
 0.000000E+00  0.000000E+00  0.000000E+00  0.000000E+00  0.000000E+00  0.000000E+00  0.000000E+00  0.000000E+00  0.000000E+00  0.000000E+00  0.000000E+00  0.000000E+00  0.000000E+00  0.000000E+00  0.000000E+00  0.000000E+00  0.000000E+00  0.000000E+00  0.000000E+00  0.000000E+00  0.000000E+00 
 0.000000E+00  0.000000E+00  0.000000E+00  0.000000E+00  0.000000E+00  0.000000E+00  0.000000E+00  0.000000E+00  0.000000E+00  0.000000E+00  0.000000E+00  0.000000E+00  0.000000E+00  0.000000E+00  0.000000E+00  0.000000E+00  0.000000E+00  0.000000E+00  0.000000E+00  0.000000E+00  0.000000E+00 
 0.000000E+00  0.000000E+00  0.000000E+00  0.000000E+00  0.000000E+00  0.000000E+00  0.000000E+00  0.000000E+00  0.000000E+00  0.000000E+00  0.000000E+00  0.000000E+00  0.000000E+00  0.000000E+00  0.000000E+00  0.000000E+00  0.000000E+00  0.000000E+00  0.000000E+00  0.000000E+00  0.000000E+00 
 0.000000E+00  0.000000E+00  0.000000E+00  0.000000E+00  0.000000E+00  0.000000E+00  0.000000E+00  0.000000E+00  0.000000E+00  0.000000E+00  0.000000E+00  0.000000E+00  0.000000E+00  0.000000E+00  0.000000E+00  0.000000E+00  0.000000E+00  0.000000E+00  0.000000E+00  0.000000E+00  0.000000E+00 
 0.000000E+00  0.000000E+00  0.000000E+00  0.000000E+00  0.000000E+00  0.000000E+00  0.000000E+00  0.000000E+00  0.000000E+00  0.000000E+00  0.000000E+00  0.000000E+00  0.000000E+00  0.000000E+00  0.000000E+00  0.000000E+00  0.000000E+00  0.000000E+00  0.000000E+00  0.000000E+00  0.000000E+00 
 0.000000E+00  0.000000E+00  0.000000E+00  0.000000E+00  0.000000E+00  0.000000E+00  0.000000E+00  0.000000E+00  0.000000E+00  0.000000E+00  0.000000E+00  0.000000E+00  0.000000E+00  0.000000E+00  0.000000E+00  0.000000E+00  0.000000E+00  0.000000E+00  0.000000E+00  0.000000E+00  0.000000E+00 
 0.000000E+00  0.000000E+00  0.000000E+00  0.000000E+00  0.000000E+00  0.000000E+00  0.000000E+00  0.000000E+00  0.000000E+00  0.000000E+00  0.000000E+00  0.000000E+00  0.000000E+00  0.000000E+00  0.000000E+00  0.000000E+00  0.000000E+00  0.000000E+00  0.000000E+00  0.000000E+00  0.000000E+00 
 0.000000E+00  0.000000E+00  0.000000E+00  0.000000E+00  0.000000E+00  0.000000E+00  0.000000E+00  0.000000E+00  0.000000E+00  0.000000E+00  0.000000E+00  0.000000E+00  0.000000E+00  0.000000E+00  0.000000E+00  0.000000E+00  0.000000E+00  0.000000E+00  0.000000E+00  0.000000E+00  0.000000E+00 
 0.000000E+00  0.000000E+00  0.000000E+00  0.000000E+00  0.000000E+00  0.000000E+00  0.000000E+00  0.000000E+00  0.000000E+00  0.000000E+00  0.000000E+00  0.000000E+00  0.000000E+00  0.000000E+00  0.000000E+00  0.000000E+00  0.000000E+00  0.000000E+00  0.000000E+00  0.000000E+00  0.000000E+00 
 0.000000E+00  0.000000E+00  0.000000E+00  0.000000E+00  0.000000E+00  0.000000E+00  0.000000E+00  0.000000E+00  0.000000E+00  0.000000E+00  0.000000E+00  0.000000E+00  0.000000E+00  0.000000E+00  0.000000E+00  0.000000E+00  0.000000E+00  0.000000E+00  0.000000E+00  0.000000E+00  0.000000E+00 
 0.000000E+00  0.000000E+00  0.000000E+00  0.000000E+00  0.000000E+00  0.000000E+00  0.000000E+00  0.000000E+00  0.000000E+00  0.000000E+00  0.000000E+00  0.000000E+00  0.000000E+00  0.000000E+00  0.000000E+00  0.000000E+00  0.000000E+00  0.000000E+00  0.000000E+00  0.000000E+00  0.000000E+00 
 0.000000E+00  0.000000E+00  0.000000E+00  0.000000E+00  0.000000E+00  0.000000E+00  0.000000E+00  0.000000E+00  0.000000E+00  0.000000E+00  0.000000E+00  0.000000E+00  0.000000E+00  0.000000E+00  0.000000E+00  0.000000E+00  0.000000E+00  0.000000E+00  0.000000E+00  0.000000E+00  0.000000E+00 
 0.000000E+00  0.000000E+00  0.000000E+00  0.000000E+00  0.000000E+00  0.000000E+00  0.000000E+00  0.000000E+00  0.000000E+00  0.000000E+00  0.000000E+00  0.000000E+00  0.000000E+00  0.000000E+00  0.000000E+00  0.000000E+00  0.000000E+00  0.000000E+00  0.000000E+00  0.000000E+00  0.000000E+00 
 0.000000E+00  0.000000E+00  0.000000E+00  0.000000E+00  0.000000E+00  0.000000E+00  0.000000E+00  0.000000E+00  0.000000E+00  0.000000E+00  0.000000E+00  0.000000E+00  0.000000E+00  0.000000E+00  0.000000E+00  0.000000E+00  0.000000E+00  0.000000E+00  0.000000E+00  0.000000E+00  0.000000E+00 
 0.000000E+00  0.000000E+00  0.000000E+00  0.000000E+00  0.000000E+00  0.000000E+00  0.000000E+00  0.000000E+00  0.000000E+00  0.000000E+00  0.000000E+00  0.000000E+00  0.000000E+00  0.000000E+00  0.000000E+00  0.000000E+00  0.000000E+00  0.000000E+00  0.000000E+00  0.000000E+00  0.000000E+00 
 0.000000E+00  0.000000E+00  0.000000E+00  0.000000E+00  0.000000E+00  0.000000E+00  0.000000E+00  0.000000E+00  0.000000E+00  0.000000E+00  0.000000E+00  0.000000E+00  0.000000E+00  0.000000E+00  0.000000E+00  0.000000E+00  0.000000E+00  0.000000E+00  0.000000E+00  0.000000E+00  0.000000E+00 
 0.000000E+00  0.000000E+00  0.000000E+00  0.000000E+00  0.000000E+00  0.000000E+00  0.000000E+00  0.000000E+00  0.000000E+00  0.000000E+00  0.000000E+00  0.000000E+00  0.000000E+00  0.000000E+00  0.000000E+00  0.000000E+00  0.000000E+00  0.000000E+00  0.000000E+00  0.000000E+00  0.000000E+00 
 0.000000E+00  0.000000E+00  0.000000E+00  0.000000E+00  0.000000E+00  0.000000E+00  0.000000E+00  0.000000E+00  0.000000E+00  0.000000E+00  0.000000E+00  0.000000E+00  0.000000E+00  0.000000E+00  0.000000E+00  0.000000E+00  0.000000E+00  0.000000E+00  0.000000E+00  0.000000E+00  0.000000E+00 
 0.000000E+00  0.000000E+00  0.000000E+00  0.000000E+00  0.000000E+00  0.000000E+00  0.000000E+00  0.000000E+00  0.000000E+00  0.000000E+00  0.000000E+00  0.000000E+00  0.000000E+00  0.000000E+00  0.000000E+00  0.000000E+00  0.000000E+00  0.000000E+00  0.000000E+00  0.000000E+00  0.000000E+00 
 0.000000E+00  0.000000E+00  0.000000E+00  0.000000E+00  0.000000E+00  0.000000E+00  0.000000E+00  0.000000E+00  0.000000E+00  0.000000E+00  0.000000E+00  0.000000E+00  0.000000E+00  0.000000E+00  0.000000E+00  0.000000E+00  0.000000E+00  0.000000E+00  0.000000E+00  0.000000E+00  0.000000E+00 
 0.000000E+00  0.000000E+00  0.000000E+00  0.000000E+00  0.000000E+00  0.000000E+00  0.000000E+00  0.000000E+00  0.000000E+00  0.000000E+00  0.000000E+00  0.000000E+00  0.000000E+00  0.000000E+00  0.000000E+00  0.000000E+00  0.000000E+00  0.000000E+00  0.000000E+00  0.000000E+00  0.000000E+00 
 0.000000E+00  0.000000E+00  0.000000E+00  0.000000E+00  0.000000E+00  0.000000E+00  0.000000E+00  0.000000E+00  0.000000E+00  0.000000E+00  0.000000E+00  0.000000E+00  0.000000E+00  0.000000E+00  0.000000E+00  0.000000E+00  0.000000E+00  0.000000E+00  0.000000E+00  0.000000E+00  0.000000E+00 
 0.000000E+00  0.000000E+00  0.000000E+00  0.000000E+00  0.000000E+00  0.000000E+00  0.000000E+00  0.000000E+00  0.000000E+00  0.000000E+00  0.000000E+00  0.000000E+00  0.000000E+00  0.000000E+00  0.000000E+00  0.000000E+00  0.000000E+00  0.000000E+00  0.000000E+00  0.000000E+00  0.000000E+00 
 0.000000E+00  0.000000E+00  0.000000E+00  0.000000E+00  0.000000E+00  0.000000E+00  0.000000E+00  0.000000E+00  0.000000E+00  0.000000E+00  0.000000E+00  0.000000E+00  0.000000E+00  0.000000E+00  0.000000E+00  0.000000E+00  0.000000E+00  0.000000E+00  0.000000E+00  0.000000E+00  0.000000E+00 
 0.000000E+00  0.000000E+00  0.000000E+00  0.000000E+00  0.000000E+00  0.000000E+00  0.000000E+00  0.000000E+00  0.000000E+00  0.000000E+00  0.000000E+00  0.000000E+00  0.000000E+00  0.000000E+00  0.000000E+00  0.000000E+00  0.000000E+00  0.000000E+00  0.000000E+00  0.000000E+00  0.000000E+00 
 0.000000E+00  0.000000E+00  0.000000E+00  0.000000E+00  0.000000E+00  0.000000E+00  0.000000E+00  0.000000E+00  0.000000E+00  0.000000E+00  0.000000E+00  0.000000E+00  0.000000E+00  0.000000E+00  0.000000E+00  0.000000E+00  0.000000E+00  0.000000E+00  0.000000E+00  0.000000E+00  0.000000E+00 
 0.000000E+00  0.000000E+00  0.000000E+00  0.000000E+00  0.000000E+00  0.000000E+00  0.000000E+00  0.000000E+00  0.000000E+00  0.000000E+00  0.000000E+00  0.000000E+00  0.000000E+00  0.000000E+00  0.000000E+00  0.000000E+00  0.000000E+00  0.000000E+00  0.000000E+00  0.000000E+00  0.000000E+00 
 0.000000E+00  0.000000E+00  0.000000E+00  0.000000E+00  0.000000E+00  0.000000E+00  0.000000E+00  0.000000E+00  0.000000E+00  0.000000E+00  0.000000E+00  0.000000E+00  0.000000E+00  0.000000E+00  0.000000E+00  0.000000E+00  0.000000E+00  0.000000E+00  0.000000E+00  0.000000E+00  0.000000E+00 
 0.000000E+00  0.000000E+00  0.000000E+00  0.000000E+00  0.000000E+00  0.000000E+00  0.000000E+00  0.000000E+00  0.000000E+00  0.000000E+00  0.000000E+00  0.000000E+00  0.000000E+00  0.000000E+00  0.000000E+00  0.000000E+00  0.000000E+00  0.000000E+00  0.000000E+00  0.000000E+00  0.000000E+00 
 0.000000E+00  0.000000E+00  0.000000E+00  0.000000E+00  0.000000E+00  0.000000E+00  0.000000E+00  0.000000E+00  0.000000E+00  0.000000E+00  0.000000E+00  0.000000E+00  0.000000E+00  0.000000E+00  0.000000E+00  0.000000E+00  0.000000E+00  0.000000E+00  0.000000E+00  0.000000E+00  0.000000E+00 
 0.000000E+00  0.000000E+00  0.000000E+00  0.000000E+00  0.000000E+00  0.000000E+00  0.000000E+00  0.000000E+00  0.000000E+00  0.000000E+00  0.000000E+00  0.000000E+00  0.000000E+00  0.000000E+00  0.000000E+00  0.000000E+00  0.000000E+00  0.000000E+00  0.000000E+00  0.000000E+00  0.000000E+00 
 0.000000E+00  0.000000E+00  0.000000E+00  0.000000E+00  0.000000E+00  0.000000E+00  0.000000E+00  0.000000E+00  0.000000E+00  0.000000E+00  0.000000E+00  0.000000E+00  0.000000E+00  0.000000E+00  0.000000E+00  0.000000E+00  0.000000E+00  0.000000E+00  0.000000E+00  0.000000E+00  0.000000E+00 
 0.000000E+00  0.000000E+00  0.000000E+00  0.000000E+00  0.000000E+00  0.000000E+00  0.000000E+00  0.000000E+00  0.000000E+00  0.000000E+00  0.000000E+00  0.000000E+00  0.000000E+00  0.000000E+00  0.000000E+00  0.000000E+00  0.000000E+00  0.000000E+00  0.000000E+00  0.000000E+00  0.000000E+00 
 0.000000E+00  0.000000E+00  0.000000E+00  0.000000E+00  0.000000E+00  0.000000E+00  0.000000E+00  0.000000E+00  0.000000E+00  0.000000E+00  0.000000E+00  0.000000E+00  0.000000E+00  0.000000E+00  0.000000E+00  0.000000E+00  0.000000E+00  0.000000E+00  0.000000E+00  0.000000E+00  0.000000E+00 
 0.000000E+00  0.000000E+00  0.000000E+00  0.000000E+00  0.000000E+00  0.000000E+00  0.000000E+00  0.000000E+00  0.000000E+00  0.000000E+00  0.000000E+00  0.000000E+00  0.000000E+00  0.000000E+00  0.000000E+00  0.000000E+00  0.000000E+00  0.000000E+00  0.000000E+00  0.000000E+00  0.000000E+00 
 0.000000E+00  0.000000E+00  0.000000E+00  0.000000E+00  0.000000E+00  0.000000E+00  0.000000E+00  0.000000E+00  0.000000E+00  0.000000E+00  0.000000E+00  0.000000E+00  0.000000E+00  0.000000E+00  0.000000E+00  0.000000E+00  0.000000E+00  0.000000E+00  0.000000E+00  0.000000E+00  0.000000E+00 
 0.000000E+00  0.000000E+00  0.000000E+00  0.000000E+00  0.000000E+00  0.000000E+00  0.000000E+00  0.000000E+00  0.000000E+00  0.000000E+00  0.000000E+00  0.000000E+00  0.000000E+00  0.000000E+00  0.000000E+00  0.000000E+00  0.000000E+00  0.000000E+00  0.000000E+00  0.000000E+00  0.000000E+00 
 0.000000E+00  0.000000E+00  0.000000E+00  0.000000E+00  0.000000E+00  0.000000E+00  0.000000E+00  0.000000E+00  0.000000E+00  0.000000E+00  0.000000E+00  0.000000E+00  0.000000E+00  0.000000E+00  0.000000E+00  0.000000E+00  0.000000E+00  0.000000E+00  0.000000E+00  0.000000E+00  0.000000E+00 
 0.000000E+00  0.000000E+00  0.000000E+00  0.000000E+00  0.000000E+00  0.000000E+00  0.000000E+00  0.000000E+00  0.000000E+00  0.000000E+00  0.000000E+00  0.000000E+00  0.000000E+00  0.000000E+00  0.000000E+00  0.000000E+00  0.000000E+00  0.000000E+00  0.000000E+00  0.000000E+00  0.000000E+00 
 0.000000E+00  0.000000E+00  0.000000E+00  0.000000E+00  0.000000E+00  0.000000E+00  0.000000E+00  0.000000E+00  0.000000E+00  0.000000E+00  0.000000E+00  0.000000E+00  0.000000E+00  0.000000E+00  0.000000E+00  0.000000E+00  0.000000E+00  0.000000E+00  0.000000E+00  0.000000E+00  0.000000E+00 
 0.000000E+00  0.000000E+00  0.000000E+00  0.000000E+00  0.000000E+00  0.000000E+00  0.000000E+00  0.000000E+00  0.000000E+00  0.000000E+00  0.000000E+00  0.000000E+00  0.000000E+00  0.000000E+00  0.000000E+00  0.000000E+00  0.000000E+00  0.000000E+00  0.000000E+00  0.000000E+00  0.000000E+00 
 0.000000E+00  0.000000E+00  0.000000E+00  0.000000E+00  0.000000E+00  0.000000E+00  0.000000E+00  0.000000E+00  0.000000E+00  0.000000E+00  0.000000E+00  0.000000E+00  0.000000E+00  0.000000E+00  0.000000E+00  0.000000E+00  0.000000E+00  0.000000E+00  0.000000E+00  0.000000E+00  0.000000E+00 
 0.000000E+00  0.000000E+00  0.000000E+00  0.000000E+00  0.000000E+00  0.000000E+00  0.000000E+00  0.000000E+00  0.000000E+00  0.000000E+00  0.000000E+00  0.000000E+00  0.000000E+00  0.000000E+00  0.000000E+00  0.000000E+00  0.000000E+00  0.000000E+00  0.000000E+00  0.000000E+00  0.000000E+00 
 0.000000E+00  0.000000E+00  0.000000E+00  0.000000E+00  0.000000E+00  0.000000E+00  0.000000E+00  0.000000E+00  0.000000E+00  0.000000E+00  0.000000E+00  0.000000E+00  0.000000E+00  0.000000E+00  0.000000E+00  0.000000E+00  0.000000E+00  0.000000E+00  0.000000E+00  0.000000E+00  0.000000E+00 
 0.000000E+00  0.000000E+00  0.000000E+00  0.000000E+00  0.000000E+00  0.000000E+00  0.000000E+00  0.000000E+00  0.000000E+00  0.000000E+00  0.000000E+00  0.000000E+00  0.000000E+00  0.000000E+00  0.000000E+00  0.000000E+00  0.000000E+00  0.000000E+00  0.000000E+00  0.000000E+00  0.000000E+00 
 0.000000E+00  0.000000E+00  0.000000E+00  0.000000E+00  0.000000E+00  0.000000E+00  0.000000E+00  0.000000E+00  0.000000E+00  0.000000E+00  0.000000E+00  0.000000E+00  0.000000E+00  0.000000E+00  0.000000E+00  0.000000E+00  0.000000E+00  0.000000E+00  0.000000E+00  0.000000E+00  0.000000E+00 
 0.000000E+00  0.000000E+00  0.000000E+00  0.000000E+00  0.000000E+00  0.000000E+00  0.000000E+00  0.000000E+00  0.000000E+00  0.000000E+00  0.000000E+00  0.000000E+00  0.000000E+00  0.000000E+00  0.000000E+00  0.000000E+00  0.000000E+00  0.000000E+00  0.000000E+00  0.000000E+00  0.000000E+00 
 0.000000E+00  0.000000E+00  0.000000E+00  0.000000E+00  0.000000E+00  0.000000E+00  0.000000E+00  0.000000E+00  0.000000E+00  0.000000E+00  0.000000E+00  0.000000E+00  0.000000E+00  0.000000E+00  0.000000E+00  0.000000E+00  0.000000E+00  0.000000E+00  0.000000E+00  0.000000E+00  0.000000E+00 
 0.000000E+00  0.000000E+00  0.000000E+00  0.000000E+00  0.000000E+00  0.000000E+00  0.000000E+00  0.000000E+00  0.000000E+00  0.000000E+00  0.000000E+00  0.000000E+00  0.000000E+00  0.000000E+00  0.000000E+00  0.000000E+00  0.000000E+00  0.000000E+00  0.000000E+00  0.000000E+00  0.000000E+00 
 0.000000E+00  0.000000E+00  0.000000E+00  0.000000E+00  0.000000E+00  0.000000E+00  0.000000E+00  0.000000E+00  0.000000E+00  0.000000E+00  0.000000E+00  0.000000E+00  0.000000E+00  0.000000E+00  0.000000E+00  0.000000E+00  0.000000E+00  0.000000E+00  0.000000E+00  0.000000E+00  0.000000E+00 
 0.000000E+00  0.000000E+00  0.000000E+00  0.000000E+00  0.000000E+00  0.000000E+00  0.000000E+00  0.000000E+00  0.000000E+00  0.000000E+00  0.000000E+00  0.000000E+00  0.000000E+00  0.000000E+00  0.000000E+00  0.000000E+00  0.000000E+00  0.000000E+00  0.000000E+00  0.000000E+00  0.000000E+00 
 0.000000E+00  0.000000E+00  0.000000E+00  0.000000E+00  0.000000E+00  0.000000E+00  0.000000E+00  0.000000E+00  0.000000E+00  0.000000E+00  0.000000E+00  0.000000E+00  0.000000E+00  0.000000E+00  0.000000E+00  0.000000E+00  0.000000E+00  0.000000E+00  0.000000E+00  0.000000E+00  0.000000E+00 
 0.000000E+00  0.000000E+00  0.000000E+00  0.000000E+00  0.000000E+00  0.000000E+00  0.000000E+00  0.000000E+00  0.000000E+00  0.000000E+00  0.000000E+00  0.000000E+00  0.000000E+00  0.000000E+00  0.000000E+00  0.000000E+00  0.000000E+00  0.000000E+00  0.000000E+00  0.000000E+00  0.000000E+00 
 0.000000E+00  0.000000E+00  0.000000E+00  0.000000E+00  0.000000E+00  0.000000E+00  0.000000E+00  0.000000E+00  0.000000E+00  0.000000E+00  0.000000E+00  0.000000E+00  0.000000E+00  0.000000E+00  0.000000E+00  0.000000E+00  0.000000E+00  0.000000E+00  0.000000E+00  0.000000E+00  0.000000E+00 
 0.000000E+00  0.000000E+00  0.000000E+00  0.000000E+00  0.000000E+00  0.000000E+00  0.000000E+00  0.000000E+00  0.000000E+00  0.000000E+00  0.000000E+00  0.000000E+00  0.000000E+00  0.000000E+00  0.000000E+00  0.000000E+00  0.000000E+00  0.000000E+00  0.000000E+00  0.000000E+00  0.000000E+00 
 0.000000E+00  0.000000E+00  0.000000E+00  0.000000E+00  0.000000E+00  0.000000E+00  0.000000E+00  0.000000E+00  0.000000E+00  0.000000E+00  0.000000E+00  0.000000E+00  0.000000E+00  0.000000E+00  0.000000E+00  0.000000E+00  0.000000E+00  0.000000E+00  0.000000E+00  0.000000E+00  0.000000E+00 
 0.000000E+00  0.000000E+00  0.000000E+00  0.000000E+00  0.000000E+00  0.000000E+00  0.000000E+00  0.000000E+00  0.000000E+00  0.000000E+00  0.000000E+00  0.000000E+00  0.000000E+00  0.000000E+00  0.000000E+00  0.000000E+00  0.000000E+00  0.000000E+00  0.000000E+00  0.000000E+00  0.000000E+00 
 0.000000E+00  0.000000E+00  0.000000E+00  0.000000E+00  0.000000E+00  0.000000E+00  0.000000E+00  0.000000E+00  0.000000E+00  0.000000E+00  0.000000E+00  0.000000E+00  0.000000E+00  0.000000E+00  0.000000E+00  0.000000E+00  0.000000E+00  0.000000E+00  0.000000E+00  0.000000E+00  0.000000E+00 
 0.000000E+00  0.000000E+00  0.000000E+00  0.000000E+00  0.000000E+00  0.000000E+00  0.000000E+00  0.000000E+00  0.000000E+00  0.000000E+00  0.000000E+00  0.000000E+00  0.000000E+00  0.000000E+00  0.000000E+00  0.000000E+00  0.000000E+00  0.000000E+00  0.000000E+00  0.000000E+00  0.000000E+00 
 0.000000E+00  0.000000E+00  0.000000E+00  0.000000E+00  0.000000E+00  0.000000E+00  0.000000E+00  0.000000E+00  0.000000E+00  0.000000E+00  0.000000E+00  0.000000E+00  0.000000E+00  0.000000E+00  0.000000E+00  0.000000E+00  0.000000E+00  0.000000E+00  0.000000E+00  0.000000E+00  0.000000E+00 
 0.000000E+00  0.000000E+00  0.000000E+00  0.000000E+00  0.000000E+00  0.000000E+00  0.000000E+00  0.000000E+00  0.000000E+00  0.000000E+00  0.000000E+00  0.000000E+00  0.000000E+00  0.000000E+00  0.000000E+00  0.000000E+00  0.000000E+00  0.000000E+00  0.000000E+00  0.000000E+00  0.000000E+00 
 0.000000E+00  0.000000E+00  0.000000E+00  0.000000E+00  0.000000E+00  0.000000E+00  0.000000E+00  0.000000E+00  0.000000E+00  0.000000E+00  0.000000E+00  0.000000E+00  0.000000E+00  0.000000E+00  0.000000E+00  0.000000E+00  0.000000E+00  0.000000E+00  0.000000E+00  0.000000E+00  0.000000E+00 
 0.000000E+00  0.000000E+00  0.000000E+00  0.000000E+00  0.000000E+00  0.000000E+00  0.000000E+00  0.000000E+00  0.000000E+00  0.000000E+00  0.000000E+00  0.000000E+00  0.000000E+00  0.000000E+00  0.000000E+00  0.000000E+00  0.000000E+00  0.000000E+00  0.000000E+00  0.000000E+00  0.000000E+00 
 0.000000E+00  0.000000E+00  0.000000E+00  0.000000E+00  0.000000E+00  0.000000E+00  0.000000E+00  0.000000E+00  0.000000E+00  0.000000E+00  0.000000E+00  0.000000E+00  0.000000E+00  0.000000E+00  0.000000E+00  0.000000E+00  0.000000E+00  0.000000E+00  0.000000E+00  0.000000E+00  0.000000E+00 
 0.000000E+00  0.000000E+00  0.000000E+00  0.000000E+00  0.000000E+00  0.000000E+00  0.000000E+00  0.000000E+00  0.000000E+00  0.000000E+00  0.000000E+00  0.000000E+00  0.000000E+00  0.000000E+00  0.000000E+00  0.000000E+00  0.000000E+00  0.000000E+00  0.000000E+00  0.000000E+00  0.000000E+00 
 0.000000E+00  0.000000E+00  0.000000E+00  0.000000E+00  0.000000E+00  0.000000E+00  0.000000E+00  0.000000E+00  0.000000E+00  0.000000E+00  0.000000E+00  0.000000E+00  0.000000E+00  0.000000E+00  0.000000E+00  0.000000E+00  0.000000E+00  0.000000E+00  0.000000E+00  0.000000E+00  0.000000E+00 
 0.000000E+00  0.000000E+00  0.000000E+00  0.000000E+00  0.000000E+00  0.000000E+00  0.000000E+00  0.000000E+00  0.000000E+00  0.000000E+00  0.000000E+00  0.000000E+00  0.000000E+00  0.000000E+00  0.000000E+00  0.000000E+00  0.000000E+00  0.000000E+00  0.000000E+00  0.000000E+00  0.000000E+00 
 0.000000E+00  0.000000E+00  0.000000E+00  0.000000E+00  0.000000E+00  0.000000E+00  0.000000E+00  0.000000E+00  0.000000E+00  0.000000E+00  0.000000E+00  0.000000E+00  0.000000E+00  0.000000E+00  0.000000E+00  0.000000E+00  0.000000E+00  0.000000E+00  0.000000E+00  0.000000E+00  0.000000E+00 
 0.000000E+00  0.000000E+00  0.000000E+00  0.000000E+00  0.000000E+00  0.000000E+00  0.000000E+00  0.000000E+00  0.000000E+00  0.000000E+00  0.000000E+00  0.000000E+00  0.000000E+00  0.000000E+00  0.000000E+00  0.000000E+00  0.000000E+00  0.000000E+00  0.000000E+00  0.000000E+00  0.000000E+00 
 0.000000E+00  0.000000E+00  0.000000E+00  0.000000E+00  0.000000E+00  0.000000E+00  0.000000E+00  0.000000E+00  0.000000E+00  0.000000E+00  0.000000E+00  0.000000E+00  0.000000E+00  0.000000E+00  0.000000E+00  0.000000E+00  0.000000E+00  0.000000E+00  0.000000E+00  0.000000E+00  0.000000E+00 
 0.000000E+00  0.000000E+00  0.000000E+00  0.000000E+00  0.000000E+00  0.000000E+00  0.000000E+00  0.000000E+00  0.000000E+00  0.000000E+00  0.000000E+00  0.000000E+00  0.000000E+00  0.000000E+00  0.000000E+00  0.000000E+00  0.000000E+00  0.000000E+00  0.000000E+00  0.000000E+00  0.000000E+00 
 0.000000E+00  0.000000E+00  0.000000E+00  0.000000E+00  0.000000E+00  0.000000E+00  0.000000E+00  0.000000E+00  0.000000E+00  0.000000E+00  0.000000E+00  0.000000E+00  0.000000E+00  0.000000E+00  0.000000E+00  0.000000E+00  0.000000E+00  0.000000E+00  0.000000E+00  0.000000E+00  0.000000E+00 
 0.000000E+00  0.000000E+00  0.000000E+00  0.000000E+00  0.000000E+00  0.000000E+00  0.000000E+00  0.000000E+00  0.000000E+00  0.000000E+00  0.000000E+00  0.000000E+00  0.000000E+00  0.000000E+00  0.000000E+00  0.000000E+00  0.000000E+00  0.000000E+00  0.000000E+00  0.000000E+00  0.000000E+00 
 0.000000E+00  0.000000E+00  0.000000E+00  0.000000E+00  0.000000E+00  0.000000E+00  0.000000E+00  0.000000E+00  0.000000E+00  0.000000E+00  0.000000E+00  0.000000E+00  0.000000E+00  0.000000E+00  0.000000E+00  0.000000E+00  0.000000E+00  0.000000E+00  0.000000E+00  0.000000E+00  0.000000E+00 
 0.000000E+00  0.000000E+00  0.000000E+00  0.000000E+00  0.000000E+00  0.000000E+00  0.000000E+00  0.000000E+00  0.000000E+00  0.000000E+00  0.000000E+00  0.000000E+00  0.000000E+00  0.000000E+00  0.000000E+00  0.000000E+00  0.000000E+00  0.000000E+00  0.000000E+00  0.000000E+00  0.000000E+00 
 0.000000E+00  0.000000E+00  0.000000E+00  0.000000E+00  0.000000E+00  0.000000E+00  0.000000E+00  0.000000E+00  0.000000E+00  0.000000E+00  0.000000E+00  0.000000E+00  0.000000E+00  0.000000E+00  0.000000E+00  0.000000E+00  0.000000E+00  0.000000E+00  0.000000E+00  0.000000E+00  0.000000E+00 
 0.000000E+00  0.000000E+00  0.000000E+00  0.000000E+00  0.000000E+00  0.000000E+00  0.000000E+00  0.000000E+00  0.000000E+00  0.000000E+00  0.000000E+00  0.000000E+00  0.000000E+00  0.000000E+00  0.000000E+00  0.000000E+00  0.000000E+00  0.000000E+00  0.000000E+00  0.000000E+00  0.000000E+00 
 0.000000E+00  0.000000E+00  0.000000E+00  0.000000E+00  0.000000E+00  0.000000E+00  0.000000E+00  0.000000E+00  0.000000E+00  0.000000E+00  0.000000E+00  0.000000E+00  0.000000E+00  0.000000E+00  0.000000E+00  0.000000E+00  0.000000E+00  0.000000E+00  0.000000E+00  0.000000E+00  0.000000E+00 
 0.000000E+00  0.000000E+00  0.000000E+00  0.000000E+00  0.000000E+00  0.000000E+00  0.000000E+00  0.000000E+00  0.000000E+00  0.000000E+00  0.000000E+00  0.000000E+00  0.000000E+00  0.000000E+00  0.000000E+00  0.000000E+00  0.000000E+00  0.000000E+00  0.000000E+00  0.000000E+00  0.000000E+00 
 0.000000E+00  0.000000E+00  0.000000E+00  0.000000E+00  0.000000E+00  0.000000E+00  0.000000E+00  0.000000E+00  0.000000E+00  0.000000E+00  0.000000E+00  0.000000E+00  0.000000E+00  0.000000E+00  0.000000E+00  0.000000E+00  0.000000E+00  0.000000E+00  0.000000E+00  0.000000E+00  0.000000E+00 
 0.000000E+00  0.000000E+00  0.000000E+00  0.000000E+00  0.000000E+00  0.000000E+00  0.000000E+00  0.000000E+00  0.000000E+00  0.000000E+00  0.000000E+00  0.000000E+00  0.000000E+00  0.000000E+00  0.000000E+00  0.000000E+00  0.000000E+00  0.000000E+00  0.000000E+00  0.000000E+00  0.000000E+00 
 0.000000E+00  0.000000E+00  0.000000E+00  0.000000E+00  0.000000E+00  0.000000E+00  0.000000E+00  0.000000E+00  0.000000E+00  0.000000E+00  0.000000E+00  0.000000E+00  0.000000E+00  0.000000E+00  0.000000E+00  0.000000E+00  0.000000E+00  0.000000E+00  0.000000E+00  0.000000E+00  0.000000E+00 
 0.000000E+00  0.000000E+00  0.000000E+00  0.000000E+00  0.000000E+00  0.000000E+00  0.000000E+00  0.000000E+00  0.000000E+00  0.000000E+00  0.000000E+00  0.000000E+00  0.000000E+00  0.000000E+00  0.000000E+00  0.000000E+00  0.000000E+00  0.000000E+00  0.000000E+00  0.000000E+00  0.000000E+00 
 0.000000E+00  0.000000E+00  0.000000E+00  0.000000E+00  0.000000E+00  0.000000E+00  0.000000E+00  0.000000E+00  0.000000E+00  0.000000E+00  0.000000E+00  0.000000E+00  0.000000E+00  0.000000E+00  0.000000E+00  0.000000E+00  0.000000E+00  0.000000E+00  0.000000E+00  0.000000E+00  0.000000E+00 
 0.000000E+00  0.000000E+00  0.000000E+00  0.000000E+00  0.000000E+00  0.000000E+00  0.000000E+00  0.000000E+00  0.000000E+00  0.000000E+00  0.000000E+00  0.000000E+00  0.000000E+00  0.000000E+00  0.000000E+00  0.000000E+00  0.000000E+00  0.000000E+00  0.000000E+00  0.000000E+00  0.000000E+00 
 0.000000E+00  0.000000E+00  0.000000E+00  0.000000E+00  0.000000E+00  0.000000E+00  0.000000E+00  0.000000E+00  0.000000E+00  0.000000E+00  0.000000E+00  0.000000E+00  0.000000E+00  0.000000E+00  0.000000E+00  0.000000E+00  0.000000E+00  0.000000E+00  0.000000E+00  0.000000E+00  0.000000E+00 
 0.000000E+00  0.000000E+00  0.000000E+00  0.000000E+00  0.000000E+00  0.000000E+00  0.000000E+00  0.000000E+00  0.000000E+00  0.000000E+00  0.000000E+00  0.000000E+00  0.000000E+00  0.000000E+00  0.000000E+00  0.000000E+00  0.000000E+00  0.000000E+00  0.000000E+00  0.000000E+00  0.000000E+00 
 0.000000E+00  0.000000E+00  0.000000E+00  0.000000E+00  0.000000E+00  0.000000E+00  0.000000E+00  0.000000E+00  0.000000E+00  0.000000E+00  0.000000E+00  0.000000E+00  0.000000E+00  0.000000E+00  0.000000E+00  0.000000E+00  0.000000E+00  0.000000E+00  0.000000E+00  0.000000E+00  0.000000E+00 
 0.000000E+00  0.000000E+00  0.000000E+00  0.000000E+00  0.000000E+00  0.000000E+00  0.000000E+00  0.000000E+00  0.000000E+00  0.000000E+00  0.000000E+00  0.000000E+00  0.000000E+00  0.000000E+00  0.000000E+00  0.000000E+00  0.000000E+00  0.000000E+00  0.000000E+00  0.000000E+00  0.000000E+00 
 0.000000E+00  0.000000E+00  0.000000E+00  0.000000E+00  0.000000E+00  0.000000E+00  0.000000E+00  0.000000E+00  0.000000E+00  0.000000E+00  0.000000E+00  0.000000E+00  0.000000E+00  0.000000E+00  0.000000E+00  0.000000E+00  0.000000E+00  0.000000E+00  0.000000E+00  0.000000E+00  0.000000E+00 
 0.000000E+00  0.000000E+00  0.000000E+00  0.000000E+00  0.000000E+00  0.000000E+00  0.000000E+00  0.000000E+00  0.000000E+00  0.000000E+00  0.000000E+00  0.000000E+00  0.000000E+00  0.000000E+00  0.000000E+00  0.000000E+00  0.000000E+00  0.000000E+00  0.000000E+00  0.000000E+00  0.000000E+00 
 0.000000E+00  0.000000E+00  0.000000E+00  0.000000E+00  0.000000E+00  0.000000E+00  0.000000E+00  0.000000E+00  0.000000E+00  0.000000E+00  0.000000E+00  0.000000E+00  0.000000E+00  0.000000E+00  0.000000E+00  0.000000E+00  0.000000E+00  0.000000E+00  0.000000E+00  0.000000E+00  0.000000E+00 
 0.000000E+00  0.000000E+00  0.000000E+00  0.000000E+00  0.000000E+00  0.000000E+00  0.000000E+00  0.000000E+00  0.000000E+00  0.000000E+00  0.000000E+00  0.000000E+00  0.000000E+00  0.000000E+00  0.000000E+00  0.000000E+00  0.000000E+00  0.000000E+00  0.000000E+00  0.000000E+00  0.000000E+00 
 0.000000E+00  0.000000E+00  0.000000E+00  0.000000E+00  0.000000E+00  0.000000E+00  0.000000E+00  0.000000E+00  0.000000E+00  0.000000E+00  0.000000E+00  0.000000E+00  0.000000E+00  0.000000E+00  0.000000E+00  0.000000E+00  0.000000E+00  0.000000E+00  0.000000E+00  0.000000E+00  0.000000E+00 
 0.000000E+00  0.000000E+00  0.000000E+00  0.000000E+00  0.000000E+00  0.000000E+00  0.000000E+00  0.000000E+00  0.000000E+00  0.000000E+00  0.000000E+00  0.000000E+00  0.000000E+00  0.000000E+00  0.000000E+00  0.000000E+00  0.000000E+00  0.000000E+00  0.000000E+00  0.000000E+00  0.000000E+00 
 0.000000E+00  0.000000E+00  0.000000E+00  0.000000E+00  0.000000E+00  0.000000E+00  0.000000E+00  0.000000E+00  0.000000E+00  0.000000E+00  0.000000E+00  0.000000E+00  0.000000E+00  0.000000E+00  0.000000E+00  0.000000E+00  0.000000E+00  0.000000E+00  0.000000E+00  0.000000E+00  0.000000E+00 
 0.000000E+00  0.000000E+00  0.000000E+00  0.000000E+00  0.000000E+00  0.000000E+00  0.000000E+00  0.000000E+00  0.000000E+00  0.000000E+00  0.000000E+00  0.000000E+00  0.000000E+00  0.000000E+00  0.000000E+00  0.000000E+00  0.000000E+00  0.000000E+00  0.000000E+00  0.000000E+00  0.000000E+00 
 0.000000E+00  0.000000E+00  0.000000E+00  0.000000E+00  0.000000E+00  0.000000E+00  0.000000E+00  0.000000E+00  0.000000E+00  0.000000E+00  0.000000E+00  0.000000E+00  0.000000E+00  0.000000E+00  0.000000E+00  0.000000E+00  0.000000E+00  0.000000E+00  0.000000E+00  0.000000E+00  0.000000E+00 
 0.000000E+00  0.000000E+00  0.000000E+00  0.000000E+00  0.000000E+00  0.000000E+00  0.000000E+00  0.000000E+00  0.000000E+00  0.000000E+00  0.000000E+00  0.000000E+00  0.000000E+00  0.000000E+00  0.000000E+00  0.000000E+00  0.000000E+00  0.000000E+00  0.000000E+00  0.000000E+00  0.000000E+00 
 0.000000E+00  0.000000E+00  0.000000E+00  0.000000E+00  0.000000E+00  0.000000E+00  0.000000E+00  0.000000E+00  0.000000E+00  0.000000E+00  0.000000E+00  0.000000E+00  0.000000E+00  0.000000E+00  0.000000E+00  0.000000E+00  0.000000E+00  0.000000E+00  0.000000E+00  0.000000E+00  0.000000E+00 
 0.000000E+00  0.000000E+00  0.000000E+00  0.000000E+00  0.000000E+00  0.000000E+00  0.000000E+00  0.000000E+00  0.000000E+00  0.000000E+00  0.000000E+00  0.000000E+00  0.000000E+00  0.000000E+00  0.000000E+00  0.000000E+00  0.000000E+00  0.000000E+00  0.000000E+00  0.000000E+00  0.000000E+00 
 0.000000E+00  0.000000E+00  0.000000E+00  0.000000E+00  0.000000E+00  0.000000E+00  0.000000E+00  0.000000E+00  0.000000E+00  0.000000E+00  0.000000E+00  0.000000E+00  0.000000E+00  0.000000E+00  0.000000E+00  0.000000E+00  0.000000E+00  0.000000E+00  0.000000E+00  0.000000E+00  0.000000E+00 
 0.000000E+00  0.000000E+00  0.000000E+00  0.000000E+00  0.000000E+00  0.000000E+00  0.000000E+00  0.000000E+00  0.000000E+00  0.000000E+00  0.000000E+00  0.000000E+00  0.000000E+00  0.000000E+00  0.000000E+00  0.000000E+00  0.000000E+00  0.000000E+00  0.000000E+00  0.000000E+00  0.000000E+00 
 0.000000E+00  0.000000E+00  0.000000E+00  0.000000E+00  0.000000E+00  0.000000E+00  0.000000E+00  0.000000E+00  0.000000E+00  0.000000E+00  0.000000E+00  0.000000E+00  0.000000E+00  0.000000E+00  0.000000E+00  0.000000E+00  0.000000E+00  0.000000E+00  0.000000E+00  0.000000E+00  0.000000E+00 
 0.000000E+00  0.000000E+00  0.000000E+00  0.000000E+00  0.000000E+00  0.000000E+00  0.000000E+00  0.000000E+00  0.000000E+00  0.000000E+00  0.000000E+00  0.000000E+00  0.000000E+00  0.000000E+00  0.000000E+00  0.000000E+00  0.000000E+00  0.000000E+00  0.000000E+00  0.000000E+00  0.000000E+00 
 0.000000E+00  0.000000E+00  0.000000E+00  0.000000E+00  0.000000E+00  0.000000E+00  0.000000E+00  0.000000E+00  0.000000E+00  0.000000E+00  0.000000E+00  0.000000E+00  0.000000E+00  0.000000E+00  0.000000E+00  0.000000E+00  0.000000E+00  0.000000E+00  0.000000E+00  0.000000E+00  0.000000E+00 
 0.000000E+00  0.000000E+00  0.000000E+00  0.000000E+00  0.000000E+00  0.000000E+00  0.000000E+00  0.000000E+00  0.000000E+00  0.000000E+00  0.000000E+00  0.000000E+00  0.000000E+00  0.000000E+00  0.000000E+00  0.000000E+00  0.000000E+00  0.000000E+00  0.000000E+00  0.000000E+00  0.000000E+00 
 0.000000E+00  0.000000E+00  0.000000E+00  0.000000E+00  0.000000E+00  0.000000E+00  0.000000E+00  0.000000E+00  0.000000E+00  0.000000E+00  0.000000E+00  0.000000E+00  0.000000E+00  0.000000E+00  0.000000E+00  0.000000E+00  0.000000E+00  0.000000E+00  0.000000E+00  0.000000E+00  0.000000E+00 
 0.000000E+00  0.000000E+00  0.000000E+00  0.000000E+00  0.000000E+00  0.000000E+00  0.000000E+00  0.000000E+00  0.000000E+00  0.000000E+00  0.000000E+00  0.000000E+00  0.000000E+00  0.000000E+00  0.000000E+00  0.000000E+00  0.000000E+00  0.000000E+00  0.000000E+00  0.000000E+00  0.000000E+00 
 0.000000E+00  0.000000E+00  0.000000E+00  0.000000E+00  0.000000E+00  0.000000E+00  0.000000E+00  0.000000E+00  0.000000E+00  0.000000E+00  0.000000E+00  0.000000E+00  0.000000E+00  0.000000E+00  0.000000E+00  0.000000E+00  0.000000E+00  0.000000E+00  0.000000E+00  0.000000E+00  0.000000E+00 
 0.000000E+00  0.000000E+00  0.000000E+00  0.000000E+00  0.000000E+00  0.000000E+00  0.000000E+00  0.000000E+00  0.000000E+00  0.000000E+00  0.000000E+00  0.000000E+00  0.000000E+00  0.000000E+00  0.000000E+00  0.000000E+00  0.000000E+00  0.000000E+00  0.000000E+00  0.000000E+00  0.000000E+00 
 0.000000E+00  0.000000E+00  0.000000E+00  0.000000E+00  0.000000E+00  0.000000E+00  0.000000E+00  0.000000E+00  0.000000E+00  0.000000E+00  0.000000E+00  0.000000E+00  0.000000E+00  0.000000E+00  0.000000E+00  0.000000E+00  0.000000E+00  0.000000E+00  0.000000E+00  0.000000E+00  0.000000E+00 
 0.000000E+00  0.000000E+00  0.000000E+00  0.000000E+00  0.000000E+00  0.000000E+00  0.000000E+00  0.000000E+00  0.000000E+00  0.000000E+00  0.000000E+00  0.000000E+00  0.000000E+00  0.000000E+00  0.000000E+00  0.000000E+00  0.000000E+00  0.000000E+00  0.000000E+00  0.000000E+00  0.000000E+00 
 0.000000E+00  0.000000E+00  0.000000E+00  0.000000E+00  0.000000E+00  0.000000E+00  0.000000E+00  0.000000E+00  0.000000E+00  0.000000E+00  0.000000E+00  0.000000E+00  0.000000E+00  0.000000E+00  0.000000E+00  0.000000E+00  0.000000E+00  0.000000E+00  0.000000E+00  0.000000E+00  0.000000E+00 
 0.000000E+00  0.000000E+00  0.000000E+00  0.000000E+00  0.000000E+00  0.000000E+00  0.000000E+00  0.000000E+00  0.000000E+00  0.000000E+00  0.000000E+00  0.000000E+00  0.000000E+00  0.000000E+00  0.000000E+00  0.000000E+00  0.000000E+00  0.000000E+00  0.000000E+00  0.000000E+00  0.000000E+00 
 0.000000E+00  0.000000E+00  0.000000E+00  0.000000E+00  0.000000E+00  0.000000E+00  0.000000E+00  0.000000E+00  0.000000E+00  0.000000E+00  0.000000E+00  0.000000E+00  0.000000E+00  0.000000E+00  0.000000E+00  0.000000E+00  0.000000E+00  0.000000E+00  0.000000E+00  0.000000E+00  0.000000E+00 
 0.000000E+00  0.000000E+00  0.000000E+00  0.000000E+00  0.000000E+00  0.000000E+00  0.000000E+00  0.000000E+00  0.000000E+00  0.000000E+00  0.000000E+00  0.000000E+00  0.000000E+00  0.000000E+00  0.000000E+00  0.000000E+00  0.000000E+00  0.000000E+00  0.000000E+00  0.000000E+00  0.000000E+00 
 0.000000E+00  0.000000E+00  0.000000E+00  0.000000E+00  0.000000E+00  0.000000E+00  0.000000E+00  0.000000E+00  0.000000E+00  0.000000E+00  0.000000E+00  0.000000E+00  0.000000E+00  0.000000E+00  0.000000E+00  0.000000E+00  0.000000E+00  0.000000E+00  0.000000E+00  0.000000E+00  0.000000E+00 
 0.000000E+00  0.000000E+00  0.000000E+00  0.000000E+00  0.000000E+00  0.000000E+00  0.000000E+00  0.000000E+00  0.000000E+00  0.000000E+00  0.000000E+00  0.000000E+00  0.000000E+00  0.000000E+00  0.000000E+00  0.000000E+00  0.000000E+00  0.000000E+00  0.000000E+00  0.000000E+00  0.000000E+00 
 0.000000E+00  0.000000E+00  0.000000E+00  0.000000E+00  0.000000E+00  0.000000E+00  0.000000E+00  0.000000E+00  0.000000E+00  0.000000E+00  0.000000E+00  0.000000E+00  0.000000E+00  0.000000E+00  0.000000E+00  0.000000E+00  0.000000E+00  0.000000E+00  0.000000E+00  0.000000E+00  0.000000E+00 
 0.000000E+00  0.000000E+00  0.000000E+00  0.000000E+00  0.000000E+00  0.000000E+00  0.000000E+00  0.000000E+00  0.000000E+00  0.000000E+00  0.000000E+00  0.000000E+00  0.000000E+00  0.000000E+00  0.000000E+00  0.000000E+00  0.000000E+00  0.000000E+00  0.000000E+00  0.000000E+00  0.000000E+00 
 0.000000E+00  0.000000E+00  0.000000E+00  0.000000E+00  0.000000E+00  0.000000E+00  0.000000E+00  0.000000E+00  0.000000E+00  0.000000E+00  0.000000E+00  0.000000E+00  0.000000E+00  0.000000E+00  0.000000E+00  0.000000E+00  0.000000E+00  0.000000E+00  0.000000E+00  0.000000E+00  0.000000E+00 
 0.000000E+00  0.000000E+00  0.000000E+00  0.000000E+00  0.000000E+00  0.000000E+00  0.000000E+00  0.000000E+00  0.000000E+00  0.000000E+00  0.000000E+00  0.000000E+00  0.000000E+00  0.000000E+00  0.000000E+00  0.000000E+00  0.000000E+00  0.000000E+00  0.000000E+00  0.000000E+00  0.000000E+00 
 0.000000E+00  0.000000E+00  0.000000E+00  0.000000E+00  0.000000E+00  0.000000E+00  0.000000E+00  0.000000E+00  0.000000E+00  0.000000E+00  0.000000E+00  0.000000E+00  0.000000E+00  0.000000E+00  0.000000E+00  0.000000E+00  0.000000E+00  0.000000E+00  0.000000E+00  0.000000E+00  0.000000E+00 
 0.000000E+00  0.000000E+00  0.000000E+00  0.000000E+00  0.000000E+00  0.000000E+00  0.000000E+00  0.000000E+00  0.000000E+00  0.000000E+00  0.000000E+00  0.000000E+00  0.000000E+00  0.000000E+00  0.000000E+00  0.000000E+00  0.000000E+00  0.000000E+00  0.000000E+00  0.000000E+00  0.000000E+00 
 0.000000E+00  0.000000E+00  0.000000E+00  0.000000E+00  0.000000E+00  0.000000E+00  0.000000E+00  0.000000E+00  0.000000E+00  0.000000E+00  0.000000E+00  0.000000E+00  0.000000E+00  0.000000E+00  0.000000E+00  0.000000E+00  0.000000E+00  0.000000E+00  0.000000E+00  0.000000E+00  0.000000E+00 
 0.000000E+00  0.000000E+00  0.000000E+00  0.000000E+00  0.000000E+00  0.000000E+00  0.000000E+00  0.000000E+00  0.000000E+00  0.000000E+00  0.000000E+00  0.000000E+00  0.000000E+00  0.000000E+00  0.000000E+00  0.000000E+00  0.000000E+00  0.000000E+00  0.000000E+00  0.000000E+00  0.000000E+00 
 0.000000E+00  0.000000E+00  0.000000E+00  0.000000E+00  0.000000E+00  0.000000E+00  0.000000E+00  0.000000E+00  0.000000E+00  0.000000E+00  0.000000E+00  0.000000E+00  0.000000E+00  0.000000E+00  0.000000E+00  0.000000E+00  0.000000E+00  0.000000E+00  0.000000E+00  0.000000E+00  0.000000E+00 
 0.000000E+00  0.000000E+00  0.000000E+00  0.000000E+00  0.000000E+00  0.000000E+00  0.000000E+00  0.000000E+00  0.000000E+00  0.000000E+00  0.000000E+00  0.000000E+00  0.000000E+00  0.000000E+00  0.000000E+00  0.000000E+00  0.000000E+00  0.000000E+00  0.000000E+00  0.000000E+00  0.000000E+00 
 0.000000E+00  0.000000E+00  0.000000E+00  0.000000E+00  0.000000E+00  0.000000E+00  0.000000E+00  0.000000E+00  0.000000E+00  0.000000E+00  0.000000E+00  0.000000E+00  0.000000E+00  0.000000E+00  0.000000E+00  0.000000E+00  0.000000E+00  0.000000E+00  0.000000E+00  0.000000E+00  0.000000E+00 
 0.000000E+00  0.000000E+00  0.000000E+00  0.000000E+00  0.000000E+00  0.000000E+00  0.000000E+00  0.000000E+00  0.000000E+00  0.000000E+00  0.000000E+00  0.000000E+00  0.000000E+00  0.000000E+00  0.000000E+00  0.000000E+00  0.000000E+00  0.000000E+00  0.000000E+00  0.000000E+00  0.000000E+00 
 0.000000E+00  0.000000E+00  0.000000E+00  0.000000E+00  0.000000E+00  0.000000E+00  0.000000E+00  0.000000E+00  0.000000E+00  0.000000E+00  0.000000E+00  0.000000E+00  0.000000E+00  0.000000E+00  0.000000E+00  0.000000E+00  0.000000E+00  0.000000E+00  0.000000E+00  0.000000E+00  0.000000E+00 
 0.000000E+00  0.000000E+00  0.000000E+00  0.000000E+00  0.000000E+00  0.000000E+00  0.000000E+00  0.000000E+00  0.000000E+00  0.000000E+00  0.000000E+00  0.000000E+00  0.000000E+00  0.000000E+00  0.000000E+00  0.000000E+00  0.000000E+00  0.000000E+00  0.000000E+00  0.000000E+00  0.000000E+00 
 0.000000E+00  0.000000E+00  0.000000E+00  0.000000E+00  0.000000E+00  0.000000E+00  0.000000E+00  0.000000E+00  0.000000E+00  0.000000E+00  0.000000E+00  0.000000E+00  0.000000E+00  0.000000E+00  0.000000E+00  0.000000E+00  0.000000E+00  0.000000E+00  0.000000E+00  0.000000E+00  0.000000E+00 
 0.000000E+00  0.000000E+00  0.000000E+00  0.000000E+00  0.000000E+00  0.000000E+00  0.000000E+00  0.000000E+00  0.000000E+00  0.000000E+00  0.000000E+00  0.000000E+00  0.000000E+00  0.000000E+00  0.000000E+00  0.000000E+00  0.000000E+00  0.000000E+00  0.000000E+00  0.000000E+00  0.000000E+00 
 0.000000E+00  0.000000E+00  0.000000E+00  0.000000E+00  0.000000E+00  0.000000E+00  0.000000E+00  0.000000E+00  0.000000E+00  0.000000E+00  0.000000E+00  0.000000E+00  0.000000E+00  0.000000E+00  0.000000E+00  0.000000E+00  0.000000E+00  0.000000E+00  0.000000E+00  0.000000E+00  0.000000E+00 
 0.000000E+00  0.000000E+00  0.000000E+00  0.000000E+00  0.000000E+00  0.000000E+00  0.000000E+00  0.000000E+00  0.000000E+00  0.000000E+00  0.000000E+00  0.000000E+00  0.000000E+00  0.000000E+00  0.000000E+00  0.000000E+00  0.000000E+00  0.000000E+00  0.000000E+00  0.000000E+00  0.000000E+00 
 0.000000E+00  0.000000E+00  0.000000E+00  0.000000E+00  0.000000E+00  0.000000E+00  0.000000E+00  0.000000E+00  0.000000E+00  0.000000E+00  0.000000E+00  0.000000E+00  0.000000E+00  0.000000E+00  0.000000E+00  0.000000E+00  0.000000E+00  0.000000E+00  0.000000E+00  0.000000E+00  0.000000E+00 
 0.000000E+00  0.000000E+00  0.000000E+00  0.000000E+00  0.000000E+00  0.000000E+00  0.000000E+00  0.000000E+00  0.000000E+00  0.000000E+00  0.000000E+00  0.000000E+00  0.000000E+00  0.000000E+00  0.000000E+00  0.000000E+00  0.000000E+00  0.000000E+00  0.000000E+00  0.000000E+00  0.000000E+00 
 0.000000E+00  0.000000E+00  0.000000E+00  0.000000E+00  0.000000E+00  0.000000E+00  0.000000E+00  0.000000E+00  0.000000E+00  0.000000E+00  0.000000E+00  0.000000E+00  0.000000E+00  0.000000E+00  0.000000E+00  0.000000E+00  0.000000E+00  0.000000E+00  0.000000E+00  0.000000E+00  0.000000E+00 
 0.000000E+00  0.000000E+00  0.000000E+00  0.000000E+00  0.000000E+00  0.000000E+00  0.000000E+00  0.000000E+00  0.000000E+00  0.000000E+00  0.000000E+00  0.000000E+00  0.000000E+00  0.000000E+00  0.000000E+00  0.000000E+00  0.000000E+00  0.000000E+00  0.000000E+00  0.000000E+00  0.000000E+00 
 0.000000E+00  0.000000E+00  0.000000E+00  0.000000E+00  0.000000E+00  0.000000E+00  0.000000E+00  0.000000E+00  0.000000E+00  0.000000E+00  0.000000E+00  0.000000E+00  0.000000E+00  0.000000E+00  0.000000E+00  0.000000E+00  0.000000E+00  0.000000E+00  0.000000E+00  0.000000E+00  0.000000E+00 
 0.000000E+00  0.000000E+00  0.000000E+00  0.000000E+00  0.000000E+00  0.000000E+00  0.000000E+00  0.000000E+00  0.000000E+00  0.000000E+00  0.000000E+00  0.000000E+00  0.000000E+00  0.000000E+00  0.000000E+00  0.000000E+00  0.000000E+00  0.000000E+00  0.000000E+00  0.000000E+00  0.000000E+00 
 0.000000E+00  0.000000E+00  0.000000E+00  0.000000E+00  0.000000E+00  0.000000E+00  0.000000E+00  0.000000E+00  0.000000E+00  0.000000E+00  0.000000E+00  0.000000E+00  0.000000E+00  0.000000E+00  0.000000E+00  0.000000E+00  0.000000E+00  0.000000E+00  0.000000E+00  0.000000E+00  0.000000E+00 
 0.000000E+00  0.000000E+00  0.000000E+00  0.000000E+00  0.000000E+00  0.000000E+00  0.000000E+00  0.000000E+00  0.000000E+00  0.000000E+00  0.000000E+00  0.000000E+00  0.000000E+00  0.000000E+00  0.000000E+00  0.000000E+00  0.000000E+00  0.000000E+00  0.000000E+00  0.000000E+00  0.000000E+00 
 0.000000E+00  0.000000E+00  0.000000E+00  0.000000E+00  0.000000E+00  0.000000E+00  0.000000E+00  0.000000E+00  0.000000E+00  0.000000E+00  0.000000E+00  0.000000E+00  0.000000E+00  0.000000E+00  0.000000E+00  0.000000E+00  0.000000E+00  0.000000E+00  0.000000E+00  0.000000E+00  0.000000E+00 
 0.000000E+00  0.000000E+00  0.000000E+00  0.000000E+00  0.000000E+00  0.000000E+00  0.000000E+00  0.000000E+00  0.000000E+00  0.000000E+00  0.000000E+00  0.000000E+00  0.000000E+00  0.000000E+00  0.000000E+00  0.000000E+00  0.000000E+00  0.000000E+00  0.000000E+00  0.000000E+00  0.000000E+00 
 0.000000E+00  0.000000E+00  0.000000E+00  0.000000E+00  0.000000E+00  0.000000E+00  0.000000E+00  0.000000E+00  0.000000E+00  0.000000E+00  0.000000E+00  0.000000E+00  0.000000E+00  0.000000E+00  0.000000E+00  0.000000E+00  0.000000E+00  0.000000E+00  0.000000E+00  0.000000E+00  0.000000E+00 
 0.000000E+00  0.000000E+00  0.000000E+00  0.000000E+00  0.000000E+00  0.000000E+00  0.000000E+00  0.000000E+00  0.000000E+00  0.000000E+00  0.000000E+00  0.000000E+00  0.000000E+00  0.000000E+00  0.000000E+00  0.000000E+00  0.000000E+00  0.000000E+00  0.000000E+00  0.000000E+00  0.000000E+00 
 0.000000E+00  0.000000E+00  0.000000E+00  0.000000E+00  0.000000E+00  0.000000E+00  0.000000E+00  0.000000E+00  0.000000E+00  0.000000E+00  0.000000E+00  0.000000E+00  0.000000E+00  0.000000E+00  0.000000E+00  0.000000E+00  0.000000E+00  0.000000E+00  0.000000E+00  0.000000E+00  0.000000E+00 
 0.000000E+00  0.000000E+00  0.000000E+00  0.000000E+00  0.000000E+00  0.000000E+00  0.000000E+00  0.000000E+00  0.000000E+00  0.000000E+00  0.000000E+00  0.000000E+00  0.000000E+00  0.000000E+00  0.000000E+00  0.000000E+00  0.000000E+00  0.000000E+00  0.000000E+00  0.000000E+00  0.000000E+00 
 0.000000E+00  0.000000E+00  0.000000E+00  0.000000E+00  0.000000E+00  0.000000E+00  0.000000E+00  0.000000E+00  0.000000E+00  0.000000E+00  0.000000E+00  0.000000E+00  0.000000E+00  0.000000E+00  0.000000E+00  0.000000E+00  0.000000E+00  0.000000E+00  0.000000E+00  0.000000E+00  0.000000E+00 
 0.000000E+00  0.000000E+00  0.000000E+00  0.000000E+00  0.000000E+00  0.000000E+00  0.000000E+00  0.000000E+00  0.000000E+00  0.000000E+00  0.000000E+00  0.000000E+00  0.000000E+00  0.000000E+00  0.000000E+00  0.000000E+00  0.000000E+00  0.000000E+00  0.000000E+00  0.000000E+00  0.000000E+00 
 0.000000E+00  0.000000E+00  0.000000E+00  0.000000E+00  0.000000E+00  0.000000E+00  0.000000E+00  0.000000E+00  0.000000E+00  0.000000E+00  0.000000E+00  0.000000E+00  0.000000E+00  0.000000E+00  0.000000E+00  0.000000E+00  0.000000E+00  0.000000E+00  0.000000E+00  0.000000E+00  0.000000E+00 
 0.000000E+00  0.000000E+00  0.000000E+00  0.000000E+00  0.000000E+00  0.000000E+00  0.000000E+00  0.000000E+00  0.000000E+00  0.000000E+00  0.000000E+00  0.000000E+00  0.000000E+00  0.000000E+00  0.000000E+00  0.000000E+00  0.000000E+00  0.000000E+00  0.000000E+00  0.000000E+00  0.000000E+00 
 0.000000E+00  0.000000E+00  0.000000E+00  0.000000E+00  0.000000E+00  0.000000E+00  0.000000E+00  0.000000E+00  0.000000E+00  0.000000E+00  0.000000E+00  0.000000E+00  0.000000E+00  0.000000E+00  0.000000E+00  0.000000E+00  0.000000E+00  0.000000E+00  0.000000E+00  0.000000E+00  0.000000E+00 
 0.000000E+00  0.000000E+00  0.000000E+00  0.000000E+00  0.000000E+00  0.000000E+00  0.000000E+00  0.000000E+00  0.000000E+00  0.000000E+00  0.000000E+00  0.000000E+00  0.000000E+00  0.000000E+00  0.000000E+00  0.000000E+00  0.000000E+00  0.000000E+00  0.000000E+00  0.000000E+00  0.000000E+00 
 0.000000E+00  0.000000E+00  0.000000E+00  0.000000E+00  0.000000E+00  0.000000E+00  0.000000E+00  0.000000E+00  0.000000E+00  0.000000E+00  0.000000E+00  0.000000E+00  0.000000E+00  0.000000E+00  0.000000E+00  0.000000E+00  0.000000E+00  0.000000E+00  0.000000E+00  0.000000E+00  0.000000E+00 
 0.000000E+00  0.000000E+00  0.000000E+00  0.000000E+00  0.000000E+00  0.000000E+00  0.000000E+00  0.000000E+00  0.000000E+00  0.000000E+00  0.000000E+00  0.000000E+00  0.000000E+00  0.000000E+00  0.000000E+00  0.000000E+00  0.000000E+00  0.000000E+00  0.000000E+00  0.000000E+00  0.000000E+00 
 0.000000E+00  0.000000E+00  0.000000E+00  0.000000E+00  0.000000E+00  0.000000E+00  0.000000E+00  0.000000E+00  0.000000E+00  0.000000E+00  0.000000E+00  0.000000E+00  0.000000E+00  0.000000E+00  0.000000E+00  0.000000E+00  0.000000E+00  0.000000E+00  0.000000E+00  0.000000E+00  0.000000E+00 
 0.000000E+00  0.000000E+00  0.000000E+00  0.000000E+00  0.000000E+00  0.000000E+00  0.000000E+00  0.000000E+00  0.000000E+00  0.000000E+00  0.000000E+00  0.000000E+00  0.000000E+00  0.000000E+00  0.000000E+00  0.000000E+00  0.000000E+00  0.000000E+00  0.000000E+00  0.000000E+00  0.000000E+00 
 0.000000E+00  0.000000E+00  0.000000E+00  0.000000E+00  0.000000E+00  0.000000E+00  0.000000E+00  0.000000E+00  0.000000E+00  0.000000E+00  0.000000E+00  0.000000E+00  0.000000E+00  0.000000E+00  0.000000E+00  0.000000E+00  0.000000E+00  0.000000E+00  0.000000E+00  0.000000E+00  0.000000E+00 
 0.000000E+00  0.000000E+00  0.000000E+00  0.000000E+00  0.000000E+00  0.000000E+00  0.000000E+00  0.000000E+00  0.000000E+00  0.000000E+00  0.000000E+00  0.000000E+00  0.000000E+00  0.000000E+00  0.000000E+00  0.000000E+00  0.000000E+00  0.000000E+00  0.000000E+00  0.000000E+00  0.000000E+00 
 0.000000E+00  0.000000E+00  0.000000E+00  0.000000E+00  0.000000E+00  0.000000E+00  0.000000E+00  0.000000E+00  0.000000E+00  0.000000E+00  0.000000E+00  0.000000E+00  0.000000E+00  0.000000E+00  0.000000E+00  0.000000E+00  0.000000E+00  0.000000E+00  0.000000E+00  0.000000E+00  0.000000E+00 
 0.000000E+00  0.000000E+00  0.000000E+00  0.000000E+00  0.000000E+00  0.000000E+00  0.000000E+00  0.000000E+00  0.000000E+00  0.000000E+00  0.000000E+00  0.000000E+00  0.000000E+00  0.000000E+00  0.000000E+00  0.000000E+00  0.000000E+00  0.000000E+00  0.000000E+00  0.000000E+00  0.000000E+00 
 0.000000E+00  0.000000E+00  0.000000E+00  0.000000E+00  0.000000E+00  0.000000E+00  0.000000E+00  0.000000E+00  0.000000E+00  0.000000E+00  0.000000E+00  0.000000E+00  0.000000E+00  0.000000E+00  0.000000E+00  0.000000E+00  0.000000E+00  0.000000E+00  0.000000E+00  0.000000E+00  0.000000E+00 
 0.000000E+00  0.000000E+00  0.000000E+00  0.000000E+00  0.000000E+00  0.000000E+00  0.000000E+00  0.000000E+00  0.000000E+00  0.000000E+00  0.000000E+00  0.000000E+00  0.000000E+00  0.000000E+00  0.000000E+00  0.000000E+00  0.000000E+00  0.000000E+00  0.000000E+00  0.000000E+00  0.000000E+00 
 0.000000E+00  0.000000E+00  0.000000E+00  0.000000E+00  0.000000E+00  0.000000E+00  0.000000E+00  0.000000E+00  0.000000E+00  0.000000E+00  0.000000E+00  0.000000E+00  0.000000E+00  0.000000E+00  0.000000E+00  0.000000E+00  0.000000E+00  0.000000E+00  0.000000E+00  0.000000E+00  0.000000E+00 
 0.000000E+00  0.000000E+00  0.000000E+00  0.000000E+00  0.000000E+00  0.000000E+00  0.000000E+00  0.000000E+00  0.000000E+00  0.000000E+00  0.000000E+00  0.000000E+00  0.000000E+00  0.000000E+00  0.000000E+00  0.000000E+00  0.000000E+00  0.000000E+00  0.000000E+00  0.000000E+00  0.000000E+00 
 0.000000E+00  0.000000E+00  0.000000E+00  0.000000E+00  0.000000E+00  0.000000E+00  0.000000E+00  0.000000E+00  0.000000E+00  0.000000E+00  0.000000E+00  0.000000E+00  0.000000E+00  0.000000E+00  0.000000E+00  0.000000E+00  0.000000E+00  0.000000E+00  0.000000E+00  0.000000E+00  0.000000E+00 
 0.000000E+00  0.000000E+00  0.000000E+00  0.000000E+00  0.000000E+00  0.000000E+00  0.000000E+00  0.000000E+00  0.000000E+00  0.000000E+00  0.000000E+00  0.000000E+00  0.000000E+00  0.000000E+00  0.000000E+00  0.000000E+00  0.000000E+00  0.000000E+00  0.000000E+00  0.000000E+00  0.000000E+00 
 0.000000E+00  0.000000E+00  0.000000E+00  0.000000E+00  0.000000E+00  0.000000E+00  0.000000E+00  0.000000E+00  0.000000E+00  0.000000E+00  0.000000E+00  0.000000E+00  0.000000E+00  0.000000E+00  0.000000E+00  0.000000E+00  0.000000E+00  0.000000E+00  0.000000E+00  0.000000E+00  0.000000E+00 
 0.000000E+00  0.000000E+00  0.000000E+00  0.000000E+00  0.000000E+00  0.000000E+00  0.000000E+00  0.000000E+00  0.000000E+00  0.000000E+00  0.000000E+00  0.000000E+00  0.000000E+00  0.000000E+00  0.000000E+00  0.000000E+00  0.000000E+00  0.000000E+00  0.000000E+00  0.000000E+00  0.000000E+00 
 0.000000E+00  0.000000E+00  0.000000E+00  0.000000E+00  0.000000E+00  0.000000E+00  0.000000E+00  0.000000E+00  0.000000E+00  0.000000E+00  0.000000E+00  0.000000E+00  0.000000E+00  0.000000E+00  0.000000E+00  0.000000E+00  0.000000E+00  0.000000E+00  0.000000E+00  0.000000E+00  0.000000E+00 
 0.000000E+00  0.000000E+00  0.000000E+00  0.000000E+00  0.000000E+00  0.000000E+00  0.000000E+00  0.000000E+00  0.000000E+00  0.000000E+00  0.000000E+00  0.000000E+00  0.000000E+00  0.000000E+00  0.000000E+00  0.000000E+00  0.000000E+00  0.000000E+00  0.000000E+00  0.000000E+00  0.000000E+00 
 0.000000E+00  0.000000E+00  0.000000E+00  0.000000E+00  0.000000E+00  0.000000E+00  0.000000E+00  0.000000E+00  0.000000E+00  0.000000E+00  0.000000E+00  0.000000E+00  0.000000E+00  0.000000E+00  0.000000E+00  0.000000E+00  0.000000E+00  0.000000E+00  0.000000E+00  0.000000E+00  0.000000E+00 
 0.000000E+00  0.000000E+00  0.000000E+00  0.000000E+00  0.000000E+00  0.000000E+00  0.000000E+00  0.000000E+00  0.000000E+00  0.000000E+00  0.000000E+00  0.000000E+00  0.000000E+00  0.000000E+00  0.000000E+00  0.000000E+00  0.000000E+00  0.000000E+00  0.000000E+00  0.000000E+00  0.000000E+00 
 0.000000E+00  0.000000E+00  0.000000E+00  0.000000E+00  0.000000E+00  0.000000E+00  0.000000E+00  0.000000E+00  0.000000E+00  0.000000E+00  0.000000E+00  0.000000E+00  0.000000E+00  0.000000E+00  0.000000E+00  0.000000E+00  0.000000E+00  0.000000E+00  0.000000E+00  0.000000E+00  0.000000E+00 
 0.000000E+00  0.000000E+00  0.000000E+00  0.000000E+00  0.000000E+00  0.000000E+00  0.000000E+00  0.000000E+00  0.000000E+00  0.000000E+00  0.000000E+00  0.000000E+00  0.000000E+00  0.000000E+00  0.000000E+00  0.000000E+00  0.000000E+00  0.000000E+00  0.000000E+00  0.000000E+00  0.000000E+00 
 0.000000E+00  0.000000E+00  0.000000E+00  0.000000E+00  0.000000E+00  0.000000E+00  0.000000E+00  0.000000E+00  0.000000E+00  0.000000E+00  0.000000E+00  0.000000E+00  0.000000E+00  0.000000E+00  0.000000E+00  0.000000E+00  0.000000E+00  0.000000E+00  0.000000E+00  0.000000E+00  0.000000E+00 
 0.000000E+00  0.000000E+00  0.000000E+00  0.000000E+00  0.000000E+00  0.000000E+00  0.000000E+00  0.000000E+00  0.000000E+00  0.000000E+00  0.000000E+00  0.000000E+00  0.000000E+00  0.000000E+00  0.000000E+00  0.000000E+00  0.000000E+00  0.000000E+00  0.000000E+00  0.000000E+00  0.000000E+00 
 0.000000E+00  0.000000E+00  0.000000E+00  0.000000E+00  0.000000E+00  0.000000E+00  0.000000E+00  0.000000E+00  0.000000E+00  0.000000E+00  0.000000E+00  0.000000E+00  0.000000E+00  0.000000E+00  0.000000E+00  0.000000E+00  0.000000E+00  0.000000E+00  0.000000E+00  0.000000E+00  0.000000E+00 
 0.000000E+00  0.000000E+00  0.000000E+00  0.000000E+00  0.000000E+00  0.000000E+00  0.000000E+00  0.000000E+00  0.000000E+00  0.000000E+00  0.000000E+00  0.000000E+00  0.000000E+00  0.000000E+00  0.000000E+00  0.000000E+00  0.000000E+00  0.000000E+00  0.000000E+00  0.000000E+00  0.000000E+00 
 0.000000E+00  0.000000E+00  0.000000E+00  0.000000E+00  0.000000E+00  0.000000E+00  0.000000E+00  0.000000E+00  0.000000E+00  0.000000E+00  0.000000E+00  0.000000E+00  0.000000E+00  0.000000E+00  0.000000E+00  0.000000E+00  0.000000E+00  0.000000E+00  0.000000E+00  0.000000E+00  0.000000E+00 
 0.000000E+00  0.000000E+00  0.000000E+00  0.000000E+00  0.000000E+00  0.000000E+00  0.000000E+00  0.000000E+00  0.000000E+00  0.000000E+00  0.000000E+00  0.000000E+00  0.000000E+00  0.000000E+00  0.000000E+00  0.000000E+00  0.000000E+00  0.000000E+00  0.000000E+00  0.000000E+00  0.000000E+00 
 0.000000E+00  0.000000E+00  0.000000E+00  0.000000E+00  0.000000E+00  0.000000E+00  0.000000E+00  0.000000E+00  0.000000E+00  0.000000E+00  0.000000E+00  0.000000E+00  0.000000E+00  0.000000E+00  0.000000E+00  0.000000E+00  0.000000E+00  0.000000E+00  0.000000E+00  0.000000E+00  0.000000E+00 
 0.000000E+00  0.000000E+00  0.000000E+00  0.000000E+00  0.000000E+00  0.000000E+00  0.000000E+00  0.000000E+00  0.000000E+00  0.000000E+00  0.000000E+00  0.000000E+00  0.000000E+00  0.000000E+00  0.000000E+00  0.000000E+00  0.000000E+00  0.000000E+00  0.000000E+00  0.000000E+00  0.000000E+00 
 0.000000E+00  0.000000E+00  0.000000E+00  0.000000E+00  0.000000E+00  0.000000E+00  0.000000E+00  0.000000E+00  0.000000E+00  0.000000E+00  0.000000E+00  0.000000E+00  0.000000E+00  0.000000E+00  0.000000E+00  0.000000E+00  0.000000E+00  0.000000E+00  0.000000E+00  0.000000E+00  0.000000E+00 
 0.000000E+00  0.000000E+00  0.000000E+00  0.000000E+00  0.000000E+00  0.000000E+00  0.000000E+00  0.000000E+00  0.000000E+00  0.000000E+00  0.000000E+00  0.000000E+00  0.000000E+00  0.000000E+00  0.000000E+00  0.000000E+00  0.000000E+00  0.000000E+00  0.000000E+00  0.000000E+00  0.000000E+00 
 0.000000E+00  0.000000E+00  0.000000E+00  0.000000E+00  0.000000E+00  0.000000E+00  0.000000E+00  0.000000E+00  0.000000E+00  0.000000E+00  0.000000E+00  0.000000E+00  0.000000E+00  0.000000E+00  0.000000E+00  0.000000E+00  0.000000E+00  0.000000E+00  0.000000E+00  0.000000E+00  0.000000E+00 
 0.000000E+00  0.000000E+00  0.000000E+00  0.000000E+00  0.000000E+00  0.000000E+00  0.000000E+00  0.000000E+00  0.000000E+00  0.000000E+00  0.000000E+00  0.000000E+00  0.000000E+00  0.000000E+00  0.000000E+00  0.000000E+00  0.000000E+00  0.000000E+00  0.000000E+00  0.000000E+00  0.000000E+00 
 0.000000E+00  0.000000E+00  0.000000E+00  0.000000E+00  0.000000E+00  0.000000E+00  0.000000E+00  0.000000E+00  0.000000E+00  0.000000E+00  0.000000E+00  0.000000E+00  0.000000E+00  0.000000E+00  0.000000E+00  0.000000E+00  0.000000E+00  0.000000E+00  0.000000E+00  0.000000E+00  0.000000E+00 
 0.000000E+00  0.000000E+00  0.000000E+00  0.000000E+00  0.000000E+00  0.000000E+00  0.000000E+00  0.000000E+00  0.000000E+00  0.000000E+00  0.000000E+00  0.000000E+00  0.000000E+00  0.000000E+00  0.000000E+00  0.000000E+00  0.000000E+00  0.000000E+00  0.000000E+00  0.000000E+00  0.000000E+00 
 0.000000E+00  0.000000E+00  0.000000E+00  0.000000E+00  0.000000E+00  0.000000E+00  0.000000E+00  0.000000E+00  0.000000E+00  0.000000E+00  0.000000E+00  0.000000E+00  0.000000E+00  0.000000E+00  0.000000E+00  0.000000E+00  0.000000E+00  0.000000E+00  0.000000E+00  0.000000E+00  0.000000E+00 
 0.000000E+00  0.000000E+00  0.000000E+00  0.000000E+00  0.000000E+00  0.000000E+00  0.000000E+00  0.000000E+00  0.000000E+00  0.000000E+00  0.000000E+00  0.000000E+00  0.000000E+00  0.000000E+00  0.000000E+00  0.000000E+00  0.000000E+00  0.000000E+00  0.000000E+00  0.000000E+00  0.000000E+00 
 0.000000E+00  0.000000E+00  0.000000E+00  0.000000E+00  0.000000E+00  0.000000E+00  0.000000E+00  0.000000E+00  0.000000E+00  0.000000E+00  0.000000E+00  0.000000E+00  0.000000E+00  0.000000E+00  0.000000E+00  0.000000E+00  0.000000E+00  0.000000E+00  0.000000E+00  0.000000E+00  0.000000E+00 
 0.000000E+00  0.000000E+00  0.000000E+00  0.000000E+00  0.000000E+00  0.000000E+00  0.000000E+00  0.000000E+00  0.000000E+00  0.000000E+00  0.000000E+00  0.000000E+00  0.000000E+00  0.000000E+00  0.000000E+00  0.000000E+00  0.000000E+00  0.000000E+00  0.000000E+00  0.000000E+00  0.000000E+00 
 0.000000E+00  0.000000E+00  0.000000E+00  0.000000E+00  0.000000E+00  0.000000E+00  0.000000E+00  0.000000E+00  0.000000E+00  0.000000E+00  0.000000E+00  0.000000E+00  0.000000E+00  0.000000E+00  0.000000E+00  0.000000E+00  0.000000E+00  0.000000E+00  0.000000E+00  0.000000E+00  0.000000E+00 
 0.000000E+00  0.000000E+00  0.000000E+00  0.000000E+00  0.000000E+00  0.000000E+00  0.000000E+00  0.000000E+00  0.000000E+00  0.000000E+00  0.000000E+00  0.000000E+00  0.000000E+00  0.000000E+00  0.000000E+00  0.000000E+00  0.000000E+00  0.000000E+00  0.000000E+00  0.000000E+00  0.000000E+00 
 0.000000E+00  0.000000E+00  0.000000E+00  0.000000E+00  0.000000E+00  0.000000E+00  0.000000E+00  0.000000E+00  0.000000E+00  0.000000E+00  0.000000E+00  0.000000E+00  0.000000E+00  0.000000E+00  0.000000E+00  0.000000E+00  0.000000E+00  0.000000E+00  0.000000E+00  0.000000E+00  0.000000E+00 
 0.000000E+00  0.000000E+00  0.000000E+00  0.000000E+00  0.000000E+00  0.000000E+00  0.000000E+00  0.000000E+00  0.000000E+00  0.000000E+00  0.000000E+00  0.000000E+00  0.000000E+00  0.000000E+00  0.000000E+00  0.000000E+00  0.000000E+00  0.000000E+00  0.000000E+00  0.000000E+00  0.000000E+00 
 0.000000E+00  0.000000E+00  0.000000E+00  0.000000E+00  0.000000E+00  0.000000E+00  0.000000E+00  0.000000E+00  0.000000E+00  0.000000E+00  0.000000E+00  0.000000E+00  0.000000E+00  0.000000E+00  0.000000E+00  0.000000E+00  0.000000E+00  0.000000E+00  0.000000E+00  0.000000E+00  0.000000E+00 
 0.000000E+00  0.000000E+00  0.000000E+00  0.000000E+00  0.000000E+00  0.000000E+00  0.000000E+00  0.000000E+00  0.000000E+00  0.000000E+00  0.000000E+00  0.000000E+00  0.000000E+00  0.000000E+00  0.000000E+00  0.000000E+00  0.000000E+00  0.000000E+00  0.000000E+00  0.000000E+00  0.000000E+00 
 0.000000E+00  0.000000E+00  0.000000E+00  0.000000E+00  0.000000E+00  0.000000E+00  0.000000E+00  0.000000E+00  0.000000E+00  0.000000E+00  0.000000E+00  0.000000E+00  0.000000E+00  0.000000E+00  0.000000E+00  0.000000E+00  0.000000E+00  0.000000E+00  0.000000E+00  0.000000E+00  0.000000E+00 
 0.000000E+00  0.000000E+00  0.000000E+00  0.000000E+00  0.000000E+00  0.000000E+00  0.000000E+00  0.000000E+00  0.000000E+00  0.000000E+00  0.000000E+00  0.000000E+00  0.000000E+00  0.000000E+00  0.000000E+00  0.000000E+00  0.000000E+00  0.000000E+00  0.000000E+00  0.000000E+00  0.000000E+00 
 0.000000E+00  0.000000E+00  0.000000E+00  0.000000E+00  0.000000E+00  0.000000E+00  0.000000E+00  0.000000E+00  0.000000E+00  0.000000E+00  0.000000E+00  0.000000E+00  0.000000E+00  0.000000E+00  0.000000E+00  0.000000E+00  0.000000E+00  0.000000E+00  0.000000E+00  0.000000E+00  0.000000E+00 
 0.000000E+00  0.000000E+00  0.000000E+00  0.000000E+00  0.000000E+00  0.000000E+00  0.000000E+00  0.000000E+00  0.000000E+00  0.000000E+00  0.000000E+00  0.000000E+00  0.000000E+00  0.000000E+00  0.000000E+00  0.000000E+00  0.000000E+00  0.000000E+00  0.000000E+00  0.000000E+00  0.000000E+00 
 0.000000E+00  0.000000E+00  0.000000E+00  0.000000E+00  0.000000E+00  0.000000E+00  0.000000E+00  0.000000E+00  0.000000E+00  0.000000E+00  0.000000E+00  0.000000E+00  0.000000E+00  0.000000E+00  0.000000E+00  0.000000E+00  0.000000E+00  0.000000E+00  0.000000E+00  0.000000E+00  0.000000E+00 
 0.000000E+00  0.000000E+00  0.000000E+00  0.000000E+00  0.000000E+00  0.000000E+00  0.000000E+00  0.000000E+00  0.000000E+00  0.000000E+00  0.000000E+00  0.000000E+00  0.000000E+00  0.000000E+00  0.000000E+00  0.000000E+00  0.000000E+00  0.000000E+00  0.000000E+00  0.000000E+00  0.000000E+00 
 0.000000E+00  0.000000E+00  0.000000E+00  0.000000E+00  0.000000E+00  0.000000E+00  0.000000E+00  0.000000E+00  0.000000E+00  0.000000E+00  0.000000E+00  0.000000E+00  0.000000E+00  0.000000E+00  0.000000E+00  0.000000E+00  0.000000E+00  0.000000E+00  0.000000E+00  0.000000E+00  0.000000E+00 
 0.000000E+00  0.000000E+00  0.000000E+00  0.000000E+00  0.000000E+00  0.000000E+00  0.000000E+00  0.000000E+00  0.000000E+00  0.000000E+00  0.000000E+00  0.000000E+00  0.000000E+00  0.000000E+00  0.000000E+00  0.000000E+00  0.000000E+00  0.000000E+00  0.000000E+00  0.000000E+00  0.000000E+00 
 0.000000E+00  0.000000E+00  0.000000E+00  0.000000E+00  0.000000E+00  0.000000E+00  0.000000E+00  0.000000E+00  0.000000E+00  0.000000E+00  0.000000E+00  0.000000E+00  0.000000E+00  0.000000E+00  0.000000E+00  0.000000E+00  0.000000E+00  0.000000E+00  0.000000E+00  0.000000E+00  0.000000E+00 
 0.000000E+00  0.000000E+00  0.000000E+00  0.000000E+00  0.000000E+00  0.000000E+00  0.000000E+00  0.000000E+00  0.000000E+00  0.000000E+00  0.000000E+00  0.000000E+00  0.000000E+00  0.000000E+00  0.000000E+00  0.000000E+00  0.000000E+00  0.000000E+00  0.000000E+00  0.000000E+00  0.000000E+00 
 0.000000E+00  0.000000E+00  0.000000E+00  0.000000E+00  0.000000E+00  0.000000E+00  0.000000E+00  0.000000E+00  0.000000E+00  0.000000E+00  0.000000E+00  0.000000E+00  0.000000E+00  0.000000E+00  0.000000E+00  0.000000E+00  0.000000E+00  0.000000E+00  0.000000E+00  0.000000E+00  0.000000E+00 
 0.000000E+00  0.000000E+00  0.000000E+00  0.000000E+00  0.000000E+00  0.000000E+00  0.000000E+00  0.000000E+00  0.000000E+00  0.000000E+00  0.000000E+00  0.000000E+00  0.000000E+00  0.000000E+00  0.000000E+00  0.000000E+00  0.000000E+00  0.000000E+00  0.000000E+00  0.000000E+00  0.000000E+00 
 0.000000E+00  0.000000E+00  0.000000E+00  0.000000E+00  0.000000E+00  0.000000E+00  0.000000E+00  0.000000E+00  0.000000E+00  0.000000E+00  0.000000E+00  0.000000E+00  0.000000E+00  0.000000E+00  0.000000E+00  0.000000E+00  0.000000E+00  0.000000E+00  0.000000E+00  0.000000E+00  0.000000E+00 
 0.000000E+00  0.000000E+00  0.000000E+00  0.000000E+00  0.000000E+00  0.000000E+00  0.000000E+00  0.000000E+00  0.000000E+00  0.000000E+00  0.000000E+00  0.000000E+00  0.000000E+00  0.000000E+00  0.000000E+00  0.000000E+00  0.000000E+00  0.000000E+00  0.000000E+00  0.000000E+00  0.000000E+00 
 0.000000E+00  0.000000E+00  0.000000E+00  0.000000E+00  0.000000E+00  0.000000E+00  0.000000E+00  0.000000E+00  0.000000E+00  0.000000E+00  0.000000E+00  0.000000E+00  0.000000E+00  0.000000E+00  0.000000E+00  0.000000E+00  0.000000E+00  0.000000E+00  0.000000E+00  0.000000E+00  0.000000E+00 
 0.000000E+00  0.000000E+00  0.000000E+00  0.000000E+00  0.000000E+00  0.000000E+00  0.000000E+00  0.000000E+00  0.000000E+00  0.000000E+00  0.000000E+00  0.000000E+00  0.000000E+00  0.000000E+00  0.000000E+00  0.000000E+00  0.000000E+00  0.000000E+00  0.000000E+00  0.000000E+00  0.000000E+00 
 0.000000E+00  0.000000E+00  0.000000E+00  0.000000E+00  0.000000E+00  0.000000E+00  0.000000E+00  0.000000E+00  0.000000E+00  0.000000E+00  0.000000E+00  0.000000E+00  0.000000E+00  0.000000E+00  0.000000E+00  0.000000E+00  0.000000E+00  0.000000E+00  0.000000E+00  0.000000E+00  0.000000E+00 
 0.000000E+00  0.000000E+00  0.000000E+00  0.000000E+00  0.000000E+00  0.000000E+00  0.000000E+00  0.000000E+00  0.000000E+00  0.000000E+00  0.000000E+00  0.000000E+00  0.000000E+00  0.000000E+00  0.000000E+00  0.000000E+00  0.000000E+00  0.000000E+00  0.000000E+00  0.000000E+00  0.000000E+00 
 0.000000E+00  0.000000E+00  0.000000E+00  0.000000E+00  0.000000E+00  0.000000E+00  0.000000E+00  0.000000E+00  0.000000E+00  0.000000E+00  0.000000E+00  0.000000E+00  0.000000E+00  0.000000E+00  0.000000E+00  0.000000E+00  0.000000E+00  0.000000E+00  0.000000E+00  0.000000E+00  0.000000E+00 
 0.000000E+00  0.000000E+00  0.000000E+00  0.000000E+00  0.000000E+00  0.000000E+00  0.000000E+00  0.000000E+00  0.000000E+00  0.000000E+00  0.000000E+00  0.000000E+00  0.000000E+00  0.000000E+00  0.000000E+00  0.000000E+00  0.000000E+00  0.000000E+00  0.000000E+00  0.000000E+00  0.000000E+00 
 0.000000E+00  0.000000E+00  0.000000E+00  0.000000E+00  0.000000E+00  0.000000E+00  0.000000E+00  0.000000E+00  0.000000E+00  0.000000E+00  0.000000E+00  0.000000E+00  0.000000E+00  0.000000E+00  0.000000E+00  0.000000E+00  0.000000E+00  0.000000E+00  0.000000E+00  0.000000E+00  0.000000E+00 
 0.000000E+00  0.000000E+00  0.000000E+00  0.000000E+00  0.000000E+00  0.000000E+00  0.000000E+00  0.000000E+00  0.000000E+00  0.000000E+00  0.000000E+00  0.000000E+00  0.000000E+00  0.000000E+00  0.000000E+00  0.000000E+00  0.000000E+00  0.000000E+00  0.000000E+00  0.000000E+00  0.000000E+00 
 0.000000E+00  0.000000E+00  0.000000E+00  0.000000E+00  0.000000E+00  0.000000E+00  0.000000E+00  0.000000E+00  0.000000E+00  0.000000E+00  0.000000E+00  0.000000E+00  0.000000E+00  0.000000E+00  0.000000E+00  0.000000E+00  0.000000E+00  0.000000E+00  0.000000E+00  0.000000E+00  0.000000E+00 
 0.000000E+00  0.000000E+00  0.000000E+00  0.000000E+00  0.000000E+00  0.000000E+00  0.000000E+00  0.000000E+00  0.000000E+00  0.000000E+00  0.000000E+00  0.000000E+00  0.000000E+00  0.000000E+00  0.000000E+00  0.000000E+00  0.000000E+00  0.000000E+00  0.000000E+00  0.000000E+00  0.000000E+00 
 0.000000E+00  0.000000E+00  0.000000E+00  0.000000E+00  0.000000E+00  0.000000E+00  0.000000E+00  0.000000E+00  0.000000E+00  0.000000E+00  0.000000E+00  0.000000E+00  0.000000E+00  0.000000E+00  0.000000E+00  0.000000E+00  0.000000E+00  0.000000E+00  0.000000E+00  0.000000E+00  0.000000E+00 
 0.000000E+00  0.000000E+00  0.000000E+00  0.000000E+00  0.000000E+00  0.000000E+00  0.000000E+00  0.000000E+00  0.000000E+00  0.000000E+00  0.000000E+00  0.000000E+00  0.000000E+00  0.000000E+00  0.000000E+00  0.000000E+00  0.000000E+00  0.000000E+00  0.000000E+00  0.000000E+00  0.000000E+00 
 0.000000E+00  0.000000E+00  0.000000E+00  0.000000E+00  0.000000E+00  0.000000E+00  0.000000E+00  0.000000E+00  0.000000E+00  0.000000E+00  0.000000E+00  0.000000E+00  0.000000E+00  0.000000E+00  0.000000E+00  0.000000E+00  0.000000E+00  0.000000E+00  0.000000E+00  0.000000E+00  0.000000E+00 
 0.000000E+00  0.000000E+00  0.000000E+00  0.000000E+00  0.000000E+00  0.000000E+00  0.000000E+00  0.000000E+00  0.000000E+00  0.000000E+00  0.000000E+00  0.000000E+00  0.000000E+00  0.000000E+00  0.000000E+00  0.000000E+00  0.000000E+00  0.000000E+00  0.000000E+00  0.000000E+00  0.000000E+00 
TENSORS Stress float 
 +7.305056E+02 +2.202292E+01 -1.706281E+01 +2.202292E+01 +6.459047E+02 +3.037153E+01 -1.706281E+01 +3.037153E+01 +1.339882E+03 
 +5.465629E+02 +5.479130E+00 +4.078801E+01 +5.479130E+00 +6.165637E+02 +2.605875E+01 +4.078801E+01 +2.605875E+01 +1.328936E+03 
 +6.761730E+02 +4.698382E+01 -3.791553E+00 +4.698382E+01 +5.929376E+02 -1.576537E+01 -3.791553E+00 -1.576537E+01 +1.296466E+03 
 +5.314789E+02 +5.029522E+01 +5.388403E+00 +5.029522E+01 +6.716915E+02 -1.636385E+01 +5.388403E+00 -1.636385E+01 +1.325385E+03 
 +7.266315E+02 -1.073355E+01 +8.604305E+00 -1.073355E+01 +6.229598E+02 +4.054592E+00 +8.604305E+00 +4.054592E+00 +1.402632E+03 
 +5.520205E+02 -3.590088E+00 +2.066130E+01 -3.590088E+00 +5.597628E+02 +5.206978E+00 +2.066130E+01 +5.206978E+00 +1.376308E+03 
 +6.370790E+02 +4.457747E+01 +1.136440E+01 +4.457747E+01 +5.910244E+02 -1.085854E+01 +1.136440E+01 -1.085854E+01 +1.276288E+03 
 +5.873620E+02 +1.868037E+00 -2.209122E+01 +1.868037E+00 +6.193780E+02 -9.237234E+00 -2.209122E+01 -9.237234E+00 +1.422272E+03 
 +7.167554E+02 -2.210635E+01 +8.804617E+00 -2.210635E+01 +6.455637E+02 -1.656513E+01 +8.804617E+00 -1.656513E+01 +1.365835E+03 
 +5.903721E+02 +3.412614E+01 +1.328456E+01 +3.412614E+01 +6.189417E+02 -1.537509E+01 +1.328456E+01 -1.537509E+01 +1.262913E+03 
 +6.579488E+02 -1.819468E+01 -2.104369E+01 -1.819468E+01 +6.360721E+02 -3.187009E-01 -2.104369E+01 -3.187009E-01 +1.415276E+03 
 +6.407669E+02 -2.582335E+01 +1.022267E+01 -2.582335E+01 +6.134659E+02 -2.125784E+01 +1.022267E+01 -2.125784E+01 +1.304354E+03 
 +5.554638E+02 -1.900354E+01 +1.079303E+01 -1.900354E+01 +5.307183E+02 -1.559066E+01 +1.079303E+01 -1.559066E+01 +1.389637E+03 
 +7.051423E+02 +1.573142E+01 -8.904786E+00 +1.573142E+01 +5.967264E+02 +1.598020E+01 -8.904786E+00 +1.598020E+01 +1.356012E+03 
 +6.095029E+02 +3.003351E+01 +5.450044E+00 +3.003351E+01 +5.859905E+02 +1.599380E+00 +5.450044E+00 +1.599380E+00 +1.323132E+03 
 +6.152314E+02 -1.866262E+00 -9.583909E+00 -1.866262E+00 +6.130443E+02 -7.869104E+00 -9.583909E+00 -7.869104E+00 +1.434516E+03 
 +6.937661E+02 -4.956368E+01 +2.298114E+01 -4.956368E+01 +6.368998E+02 +6.901962E-01 +2.298114E+01 +6.901962E-01 +1.361534E+03 
 +5.939941E+02 +4.077525E+00 -2.064204E+01 +4.077525E+00 +6.061705E+02 +1.308432E+01 -2.064204E+01 +1.308432E+01 +1.441256E+03 
 +6.832093E+02 +2.199294E+01 +1.501673E+01 +2.199294E+01 +5.722554E+02 +8.235455E+00 +1.501673E+01 +8.235455E+00 +1.333004E+03 
 +5.799487E+02 -1.030298E+01 +1.165383E+01 -1.030298E+01 +5.389323E+02 +1.430899E+01 +1.165383E+01 +1.430899E+01 +1.295604E+03 
 +5.864175E+02 +1.315160E+01 -5.255835E+00 +1.315160E+01 +5.713730E+02 +1.003718E+01 -5.255835E+00 +1.003718E+01 +1.414307E+03 
 +5.406766E+02 -2.322941E+01 -3.552253E+00 -2.322941E+01 +5.921287E+02 +1.096625E+01 -3.552253E+00 +1.096625E+01 +1.401417E+03 
 +5.569802E+02 +1.127660E+01 +2.688861E+01 +1.127660E+01 +6.801313E+02 +1.229887E+01 +2.688861E+01 +1.229887E+01 +1.303649E+03 
 +6.219346E+02 +3.091637E+01 -7.353570E+00 +3.091637E+01 +7.349172E+02 -6.359935E+00 -7.353570E+00 -6.359935E+00 +1.390813E+03 
 +6.386077E+02 -1.247849E+01 -2.194904E+01 -1.247849E+01 +5.959018E+02 +1.044213E+01 -2.194904E+01 +1.044213E+01 +1.289356E+03 
 +6.382368E+02 -3.240279E+01 +3.423371E+01 -3.240279E+01 +6.367765E+02 +2.845465E+00 +3.423371E+01 +2.845465E+00 +1.443798E+03 
 +5.980532E+02 +1.066723E+00 -1.603486E+01 +1.066723E+00 +6.787491E+02 -1.713040E+01 -1.603486E+01 -1.713040E+01 +1.379951E+03 
 +6.034898E+02 -3.677514E+00 +1.951387E+01 -3.677514E+00 +6.020399E+02 -2.485359E+01 +1.951387E+01 -2.485359E+01 +1.363776E+03 
 +6.601190E+02 +4.657824E+00 +1.634843E+01 +4.657824E+00 +6.129604E+02 -1.599064E+01 +1.634843E+01 -1.599064E+01 +1.417088E+03 
 +5.628281E+02 +4.310983E+00 -1.205408E+01 +4.310983E+00 +5.851431E+02 +1.928276E+01 -1.205408E+01 +1.928276E+01 +1.394995E+03 
 +6.004541E+02 +5.375883E+01 -2.114345E+01 +5.375883E+01 +5.979468E+02 +5.839184E+00 -2.114345E+01 +5.839184E+00 +1.283380E+03 
 +5.926349E+02 +1.517839E+01 +2.561562E+01 +1.517839E+01 +6.079792E+02 -9.043680E+00 +2.561562E+01 -9.043680E+00 +1.391835E+03 
 +5.682458E+02 +2.380212E+01 -2.499176E+01 +2.380212E+01 +6.181919E+02 -8.134951E+00 -2.499176E+01 -8.134951E+00 +1.345982E+03 
 +5.568461E+02 +5.789377E+00 -2.763229E+00 +5.789377E+00 +6.648277E+02 -7.185723E+00 -2.763229E+00 -7.185723E+00 +1.327837E+03 
 +6.122083E+02 -2.786242E+01 -1.417386E+01 -2.786242E+01 +6.349996E+02 +1.019755E+01 -1.417386E+01 +1.019755E+01 +1.363428E+03 
 +6.250752E+02 -7.790171E+00 -1.215591E-01 -7.790171E+00 +6.568086E+02 -7.131401E-01 -1.215591E-01 -7.131401E-01 +1.420588E+03 
 +5.584580E+02 -2.584036E+01 -1.257007E+01 -2.584036E+01 +6.633336E+02 -1.118900E+01 -1.257007E+01 -1.118900E+01 +1.347035E+03 
 +5.830035E+02 +6.638107E+00 +4.058752E+00 +6.638107E+00 +5.607520E+02 +1.613176E+01 +4.058752E+00 +1.613176E+01 +1.370706E+03 
 +6.727985E+02 -2.272620E+01 -1.327296E-01 -2.272620E+01 +6.142903E+02 +1.632327E+01 -1.327296E-01 +1.632327E+01 +1.397797E+03 
 +5.928060E+02 -3.907292E+01 +4.849111E+00 -3.907292E+01 +6.945386E+02 +1.071398E+01 +4.849111E+00 +1.071398E+01 +1.336697E+03 
 +5.752222E+02 -4.956215E+00 +1.117371E+01 -4.956215E+00 +6.344473E+02 -2.076802E+01 +1.117371E+01 -2.076802E+01 +1.356980E+03 
 +6.051895E+02 -7.456425E+00 -3.765997E-01 -7.456425E+00 +5.955330E+02 -1.453600E+01 -3.765997E-01 -1.453600E+01 +1.434098E+03 
 +6.711518E+02 -1.189548E+00 +6.876574E+00 -1.189548E+00 +6.078914E+02 +1.058736E+00 +6.876574E+00 +1.058736E+00 +1.401114E+03 
 +6.031946E+02 -4.125545E+00 -3.307620E+01 -4.125545E+00 +6.096492E+02 -3.070166E+01 -3.307620E+01 -3.070166E+01 +1.405950E+03 
 +5.227527E+02 +2.699721E+01 +1.547232E+01 +2.699721E+01 +5.588927E+02 +1.195908E+01 +1.547232E+01 +1.195908E+01 +1.317896E+03 
 +6.171382E+02 +7.417274E+00 -1.971833E+01 +7.417274E+00 +6.919846E+02 +2.073894E+00 -1.971833E+01 +2.073894E+00 +1.383297E+03 
 +7.279324E+02 +5.474790E+00 +2.647419E+01 +5.474790E+00 +7.186142E+02 -1.790536E+01 +2.647419E+01 -1.790536E+01 +1.402039E+03 
 +5.583660E+02 +7.961338E+00 -2.474141E+01 +7.961338E+00 +6.105771E+02 +2.563227E+00 -2.474141E+01 +2.563227E+00 +1.336742E+03 
 +6.013591E+02 -2.836390E+00 +4.568940E+01 -2.836390E+00 +6.187882E+02 -1.261890E+01 +4.568940E+01 -1.261890E+01 +1.354705E+03 
 +5.753713E+02 +4.318970E+00 +6.462536E-01 +4.318970E+00 +5.772881E+02 -1.452705E+01 +6.462536E-01 -1.452705E+01 +1.420725E+03 
 +7.033733E+02 -1.815989E-01 -2.164339E+01 -1.815989E-01 +5.857153E+02 -1.678510E+01 -2.164339E+01 -1.678510E+01 +1.352265E+03 
 +5.896129E+02 -1.724311E+01 -2.900960E+01 -1.724311E+01 +6.571723E+02 -1.082125E+01 -2.900960E+01 -1.082125E+01 +1.327729E+03 
 +6.422614E+02 -1.028519E+01 -2.012843E+01 -1.028519E+01 +6.171281E+02 -9.313990E+00 -2.012843E+01 -9.313990E+00 +1.417047E+03 
 +5.912365E+02 -3.769022E+01 +5.126263E-01 -3.769022E+01 +6.496760E+02 -1.676640E+01 +5.126263E-01 -1.676640E+01 +1.335821E+03 
 +6.907324E+02 +2.815456E+01 +4.651767E+00 +2.815456E+01 +6.359174E+02 -6.387579E+00 +4.651767E+00 -6.387579E+00 +1.319733E+03 
 +5.656715E+02 +4.278012E+01 +5.571003E+00 +4.278012E+01 +6.663952E+02 -7.761955E+00 +5.571003E+00 -7.761955E+00 +1.339554E+03 
 +6.389219E+02 +1.784501E+01 -9.830961E+00 +1.784501E+01 +6.236124E+02 -6.204763E+00 -9.830961E+00 -6.204763E+00 +1.355069E+03 
 +6.927029E+02 -3.564846E+00 -3.765208E+00 -3.564846E+00 +5.835729E+02 +1.184515E+01 -3.765208E+00 +1.184515E+01 +1.333813E+03 
 +5.558629E+02 +6.496533E-01 -2.010252E+01 +6.496533E-01 +6.074115E+02 +1.018121E+01 -2.010252E+01 +1.018121E+01 +1.339005E+03 
 +5.885894E+02 +2.138254E+01 +3.821413E+01 +2.138254E+01 +6.041753E+02 +2.121389E+01 +3.821413E+01 +2.121389E+01 +1.373195E+03 
 +5.262768E+02 +4.879157E+00 -2.006423E+01 +4.879157E+00 +5.451801E+02 +2.008665E+01 -2.006423E+01 +2.008665E+01 +1.335675E+03 
 +5.825388E+02 +1.940926E+01 -1.172039E+01 +1.940926E+01 +5.865751E+02 -2.848755E+01 -1.172039E+01 -2.848755E+01 +1.343590E+03 
 +6.202707E+02 +2.947468E+01 -1.325670E+01 +2.947468E+01 +5.938181E+02 +3.960420E+00 -1.325670E+01 +3.960420E+00 +1.442729E+03 
 +6.556617E+02 +1.454545E+01 -7.560182E+00 +1.454545E+01 +6.140549E+02 -6.628366E+00 -7.560182E+00 -6.628366E+00 +1.436896E+03 
 +6.672565E+02 -1.946272E+01 -2.955758E+01 -1.946272E+01 +6.388610E+02 +1.519797E+01 -2.955758E+01 +1.519797E+01 +1.418726E+03 
 +6.732355E+02 -4.847583E+01 +9.454851E+00 -4.847583E+01 +6.186314E+02 +4.474734E+00 +9.454851E+00 +4.474734E+00 +1.322383E+03 
 +6.199155E+02 -2.984365E+01 +3.356244E+01 -2.984365E+01 +6.070363E+02 -1.906185E+00 +3.356244E+01 -1.906185E+00 +1.322919E+03 
 +5.598661E+02 -1.149374E+01 +4.053720E+00 -1.149374E+01 +5.463117E+02 +1.766245E+01 +4.053720E+00 +1.766245E+01 +1.373829E+03 
 +6.838126E+02 -6.279804E+01 -6.099820E+00 -6.279804E+01 +5.575745E+02 +2.803033E+01 -6.099820E+00 +2.803033E+01 +1.285907E+03 
 +5.662828E+02 -1.044412E+01 -1.838423E+01 -1.044412E+01 +5.588625E+02 -1.242428E+00 -1.838423E+01 -1.242428E+00 +1.448548E+03 
 +6.101913E+02 +5.370802E+01 +1.360672E+01 +5.370802E+01 +6.283818E+02 -1.952223E-01 +1.360672E+01 -1.952223E-01 +1.323560E+03 
 +5.308992E+02 +1.209339E+01 -6.459415E+00 +1.209339E+01 +5.727072E+02 +1.210799E+01 -6.459415E+00 +1.210799E+01 +1.358807E+03 
 +5.203136E+02 +2.948864E+01 +3.573705E-01 +2.948864E+01 +4.969255E+02 -2.564618E+01 +3.573705E-01 -2.564618E+01 +1.321391E+03 
 +5.837261E+02 -2.221011E+00 -2.761008E+00 -2.221011E+00 +5.511517E+02 -8.671941E+00 -2.761008E+00 -8.671941E+00 +1.369082E+03 
 +5.828533E+02 +4.911471E+00 +7.862731E+00 +4.911471E+00 +5.626888E+02 -4.396468E-01 +7.862731E+00 -4.396468E-01 +1.353347E+03 
 +6.194431E+02 +1.981079E+01 +1.707788E+01 +1.981079E+01 +5.859361E+02 -1.208924E+01 +1.707788E+01 -1.208924E+01 +1.353666E+03 
 +5.352221E+02 -2.292377E+01 +1.780226E+01 -2.292377E+01 +5.341794E+02 -1.072361E+01 +1.780226E+01 -1.072361E+01 +1.334798E+03 
 +4.965356E+02 -7.624943E+00 +1.121087E+01 -7.624943E+00 +5.140308E+02 +1.548515E+01 +1.121087E+01 +1.548515E+01 +1.341170E+03 
 +5.837938E+02 -2.285073E+01 +1.714012E+01 -2.285073E+01 +5.797379E+02 -1.443541E+01 +1.714012E+01 -1.443541E+01 +1.390476E+03 
 +6.443145E+02 +3.970934E+01 -8.539411E+00 +3.970934E+01 +5.915748E+02 -2.519762E+00 -8.539411E+00 -2.519762E+00 +1.312310E+03 
 +6.787333E+02 +1.309816E+01 +1.548675E+01 +1.309816E+01 +5.997529E+02 +1.477591E+01 +1.548675E+01 +1.477591E+01 +1.400188E+03 
 +5.941411E+02 +1.757574E+01 -7.497462E+00 +1.757574E+01 +6.869298E+02 +9.483099E+00 -7.497462E+00 +9.483099E+00 +1.370070E+03 
 +6.667587E+02 -1.708011E+01 +1.349662E+01 -1.708011E+01 +6.114750E+02 +8.638358E-01 +1.349662E+01 +8.638358E-01 +1.317204E+03 
 +5.734749E+02 -8.491044E+00 -2.005298E+01 -8.491044E+00 +5.352913E+02 -1.271337E+01 -2.005298E+01 -1.271337E+01 +1.375289E+03 
 +5.622075E+02 -1.685538E+01 -1.948571E+01 -1.685538E+01 +5.892375E+02 -1.002210E+01 -1.948571E+01 -1.002210E+01 +1.408605E+03 
 +5.761924E+02 -7.209284E+00 +1.909539E+01 -7.209284E+00 +6.289861E+02 -1.492089E+01 +1.909539E+01 -1.492089E+01 +1.312238E+03 
 +6.281338E+02 -4.059242E+01 +3.528142E+01 -4.059242E+01 +6.049779E+02 +3.577913E+01 +3.528142E+01 +3.577913E+01 +1.376435E+03 
 +5.869078E+02 -1.445509E+01 -2.635290E+01 -1.445509E+01 +6.159849E+02 -8.040190E+00 -2.635290E+01 -8.040190E+00 +1.344553E+03 
 +6.031946E+02 +2.205796E+01 +2.893208E-01 +2.205796E+01 +7.099182E+02 -4.943738E+00 +2.893208E-01 -4.943738E+00 +1.329910E+03 
 +6.069087E+02 +7.137155E+00 -3.555579E+01 +7.137155E+00 +6.740021E+02 +7.635687E-01 -3.555579E+01 +7.635687E-01 +1.330508E+03 
 +6.385988E+02 +2.480291E+01 +1.476977E+01 +2.480291E+01 +6.813453E+02 +1.431744E+01 +1.476977E+01 +1.431744E+01 +1.417349E+03 
 +6.688293E+02 -1.502599E+01 +1.686145E+01 -1.502599E+01 +5.854346E+02 +9.011864E+00 +1.686145E+01 +9.011864E+00 +1.323579E+03 
 +5.712970E+02 +1.398888E+01 +2.907022E+01 +1.398888E+01 +6.314318E+02 +4.356907E+00 +2.907022E+01 +4.356907E+00 +1.321596E+03 
 +6.529659E+02 -2.875110E-01 -5.894480E+00 -2.875110E-01 +6.039610E+02 +2.154907E+01 -5.894480E+00 +2.154907E+01 +1.425130E+03 
 +6.126943E+02 +2.103513E+01 +3.375899E+01 +2.103513E+01 +5.495860E+02 -2.070434E+01 +3.375899E+01 -2.070434E+01 +1.320746E+03 
 +6.675466E+02 -2.315568E+01 -3.262787E+01 -2.315568E+01 +6.626158E+02 +4.302613E-01 -3.262787E+01 +4.302613E-01 +1.444704E+03 
 +6.037158E+02 +1.290673E+01 +3.446566E+01 +1.290673E+01 +6.189777E+02 +1.823137E+01 +3.446566E+01 +1.823137E+01 +1.316068E+03 
 +6.906987E+02 -1.985650E+00 +4.681210E+00 -1.985650E+00 +5.992953E+02 +1.423241E+01 +4.681210E+00 +1.423241E+01 +1.333291E+03 
 +6.487640E+02 -5.285213E+01 +7.304022E+00 -5.285213E+01 +6.724042E+02 -9.446515E+00 +7.304022E+00 -9.446515E+00 +1.384955E+03 
 +6.984117E+02 -3.896227E+00 -2.015177E+01 -3.896227E+00 +7.387695E+02 +9.437480E+00 -2.015177E+01 +9.437480E+00 +1.431019E+03 
 +5.726829E+02 +1.289877E+01 -2.593276E+01 +1.289877E+01 +6.462330E+02 -1.407124E+00 -2.593276E+01 -1.407124E+00 +1.292810E+03 
 +5.362178E+02 +1.337953E+01 -3.675951E+00 +1.337953E+01 +5.418032E+02 -3.305627E+01 -3.675951E+00 -3.305627E+01 +1.387970E+03 
 +5.951518E+02 -3.561126E+00 -8.405893E+00 -3.561126E+00 +6.334828E+02 -9.726684E+00 -8.405893E+00 -9.726684E+00 +1.322498E+03 
 +5.641835E+02 +2.802297E+01 -4.894981E+00 +2.802297E+01 +6.996514E+02 +1.702960E+01 -4.894981E+00 +1.702960E+01 +1.313878E+03 
 +6.614565E+02 +4.532650E+01 -1.744302E+01 +4.532650E+01 +6.495976E+02 +2.134454E+01 -1.744302E+01 +2.134454E+01 +1.323192E+03 
 +6.340882E+02 -2.134143E+01 -9.563686E+00 -2.134143E+01 +6.141348E+02 +1.194613E+01 -9.563686E+00 +1.194613E+01 +1.412934E+03 
 +5.915086E+02 -5.208308E+01 +1.422468E+01 -5.208308E+01 +5.914266E+02 +2.478334E+01 +1.422468E+01 +2.478334E+01 +1.288897E+03 
 +6.377341E+02 +4.769728E+01 +6.006804E+00 +4.769728E+01 +6.483074E+02 -3.004477E+01 +6.006804E+00 -3.004477E+01 +1.313856E+03 
 +5.897869E+02 -3.896562E+00 +1.661867E+01 -3.896562E+00 +6.863155E+02 -1.374430E+01 +1.661867E+01 -1.374430E+01 +1.397898E+03 
 +7.054235E+02 -1.846998E+01 -1.035499E+01 -1.846998E+01 +6.386806E+02 -4.398900E+00 -1.035499E+01 -4.398900E+00 +1.345838E+03 
 +6.178144E+02 +3.002908E+01 -3.157992E+01 +3.002908E+01 +5.790826E+02 +2.220823E+01 -3.157992E+01 +2.220823E+01 +1.359384E+03 
 +5.897454E+02 -2.709330E+00 +6.919613E+00 -2.709330E+00 +5.989065E+02 +1.008890E+01 +6.919613E+00 +1.008890E+01 +1.375318E+03 
 +5.534503E+02 +2.021166E+01 -4.638285E+00 +2.021166E+01 +5.813071E+02 -1.523473E+01 -4.638285E+00 -1.523473E+01 +1.428641E+03 
 +6.195429E+02 -2.689856E+00 +1.451785E+01 -2.689856E+00 +5.824106E+02 -4.937416E+01 +1.451785E+01 -4.937416E+01 +1.305464E+03 
 +5.983239E+02 -1.026737E+01 +5.120043E+00 -1.026737E+01 +5.662911E+02 +1.377719E+01 +5.120043E+00 +1.377719E+01 +1.408119E+03 
 +5.995341E+02 +2.474379E+01 +1.624344E+01 +2.474379E+01 +6.335039E+02 -3.375636E+00 +1.624344E+01 -3.375636E+00 +1.343304E+03 
 +5.700013E+02 -1.081889E+01 +6.017392E+00 -1.081889E+01 +5.881348E+02 -2.202423E+01 +6.017392E+00 -2.202423E+01 +1.436391E+03 
 +6.498247E+02 -3.370481E+01 +1.635824E+01 -3.370481E+01 +5.948828E+02 +1.873181E+01 +1.635824E+01 +1.873181E+01 +1.301417E+03 
 +5.812148E+02 -2.094220E+01 -2.544662E+00 -2.094220E+01 +6.827761E+02 -8.853040E+00 -2.544662E+00 -8.853040E+00 +1.339861E+03 
 +5.689843E+02 +5.136247E+00 +2.715001E+01 +5.136247E+00 +5.763827E+02 -2.774031E+01 +2.715001E+01 -2.774031E+01 +1.395851E+03 
 +5.809326E+02 +9.474134E+00 -4.706275E+00 +9.474134E+00 +5.925115E+02 +2.871467E+01 -4.706275E+00 +2.871467E+01 +1.412168E+03 
 +6.284600E+02 +1.213382E+00 +2.932980E+01 +1.213382E+00 +6.129404E+02 +2.110772E+01 +2.932980E+01 +2.110772E+01 +1.379816E+03 
 +5.500823E+02 -5.993554E+00 -1.947733E+01 -5.993554E+00 +5.718893E+02 -3.370430E+01 -1.947733E+01 -3.370430E+01 +1.353723E+03 
 +6.703893E+02 -9.119799E+00 +5.740873E+00 -9.119799E+00 +5.915040E+02 -2.973585E+01 +5.740873E+00 -2.973585E+01 +1.271596E+03 
 +6.181187E+02 +7.198048E+00 -1.812525E+01 +7.198048E+00 +6.008470E+02 +1.715422E+01 -1.812525E+01 +1.715422E+01 +1.332790E+03 
 +6.032349E+02 +8.359196E+00 +2.538290E+01 +8.359196E+00 +6.379890E+02 +1.016775E+01 +2.538290E+01 +1.016775E+01 +1.365246E+03 
 +5.388130E+02 +4.508013E-02 -3.132981E+01 +4.508013E-02 +5.371826E+02 +1.072445E+01 -3.132981E+01 +1.072445E+01 +1.350306E+03 
 +5.993179E+02 -7.628025E-01 -7.656881E+00 -7.628025E-01 +6.596921E+02 +1.230688E+01 -7.656881E+00 +1.230688E+01 +1.351252E+03 
 +6.014742E+02 -3.579514E+01 -1.506657E+01 -3.579514E+01 +6.583438E+02 -1.005520E+01 -1.506657E+01 -1.005520E+01 +1.324984E+03 
 +5.788734E+02 +1.235167E+01 +3.707626E+01 +1.235167E+01 +6.132715E+02 +4.155878E+00 +3.707626E+01 +4.155878E+00 +1.314531E+03 
 +6.089479E+02 +1.235033E+01 -2.980162E+01 +1.235033E+01 +6.301689E+02 +2.572671E+01 -2.980162E+01 +2.572671E+01 +1.429848E+03 
 +6.632493E+02 -2.785872E+01 +1.746921E+01 -2.785872E+01 +5.957666E+02 -1.082946E+01 +1.746921E+01 -1.082946E+01 +1.362041E+03 
 +6.467302E+02 -3.614270E+01 -7.959807E+00 -3.614270E+01 +6.156051E+02 +5.236562E+00 -7.959807E+00 +5.236562E+00 +1.439470E+03 
 +6.010377E+02 +3.777700E+00 +8.473636E+00 +3.777700E+00 +6.016219E+02 -6.175818E+00 +8.473636E+00 -6.175818E+00 +1.416326E+03 
 +7.086541E+02 +1.721889E+01 +1.785464E+01 +1.721889E+01 +5.970355E+02 -2.130131E+00 +1.785464E+01 -2.130131E+00 +1.343920E+03 
 +4.997155E+02 -6.234667E+00 -1.420329E+00 -6.234667E+00 +6.448363E+02 -1.144706E+01 -1.420329E+00 -1.144706E+01 +1.329862E+03 
 +6.636041E+02 +5.693623E+00 -2.278125E+01 +5.693623E+00 +6.046444E+02 +1.331925E+01 -2.278125E+01 +1.331925E+01 +1.317894E+03 
 +5.649078E+02 -1.007641E+01 -1.383278E+01 -1.007641E+01 +5.902456E+02 +1.306550E+01 -1.383278E+01 +1.306550E+01 +1.355749E+03 
 +7.054697E+02 -4.959203E+01 -3.300555E+00 -4.959203E+01 +6.120272E+02 +9.426915E+00 -3.300555E+00 +9.426915E+00 +1.351973E+03 
 +6.605594E+02 -3.846273E+00 -3.529892E+01 -3.846273E+00 +6.488479E+02 +4.485106E+00 -3.529892E+01 +4.485106E+00 +1.387543E+03 
 +6.181212E+02 -2.497109E+01 +2.539015E+01 -2.497109E+01 +6.976029E+02 -5.547678E+00 +2.539015E+01 -5.547678E+00 +1.366786E+03 
 +6.124110E+02 -2.516066E+00 -5.833297E+00 -2.516066E+00 +6.070833E+02 -3.780029E+01 -5.833297E+00 -3.780029E+01 +1.378738E+03 
 +6.073066E+02 -2.021302E+00 +2.411124E+00 -2.021302E+00 +5.387867E+02 -1.837830E+01 +2.411124E+00 -1.837830E+01 +1.381937E+03 
 +5.908856E+02 -1.240510E+00 +8.024201E+00 -1.240510E+00 +5.811482E+02 +1.120076E+01 +8.024201E+00 +1.120076E+01 +1.402642E+03 
 +6.258197E+02 +9.574984E+00 -7.784142E+00 +9.574984E+00 +5.643524E+02 -2.160116E+01 -7.784142E+00 -2.160116E+01 +1.258856E+03 
 +6.061888E+02 +1.248437E+01 -1.164401E+01 +1.248437E+01 +5.973318E+02 +9.646029E+00 -1.164401E+01 +9.646029E+00 +1.364284E+03 
 +5.990756E+02 +4.597449E+00 +2.133229E+01 +4.597449E+00 +6.052037E+02 +9.963235E-01 +2.133229E+01 +9.963235E-01 +1.450321E+03 
 +6.549681E+02 +2.310085E+01 -2.540969E+01 +2.310085E+01 +7.018286E+02 -1.873534E+01 -2.540969E+01 -1.873534E+01 +1.400916E+03 
 +6.594980E+02 +1.457411E+01 +5.885434E-02 +1.457411E+01 +5.934860E+02 -6.996649E+00 +5.885434E-02 -6.996649E+00 +1.290575E+03 
 +5.737507E+02 +2.692268E+01 -8.409492E+00 +2.692268E+01 +5.731611E+02 +2.021525E+01 -8.409492E+00 +2.021525E+01 +1.410719E+03 
 +6.106774E+02 +3.428546E+01 -2.413978E+00 +3.428546E+01 +6.735417E+02 +2.777395E+00 -2.413978E+00 +2.777395E+00 +1.296471E+03 
 +6.184082E+02 +1.342428E+01 +2.484120E+01 +1.342428E+01 +6.565034E+02 +5.864827E+00 +2.484120E+01 +5.864827E+00 +1.439135E+03 
 +5.744760E+02 -9.024363E+00 +1.852343E+01 -9.024363E+00 +6.114079E+02 +1.015827E+01 +1.852343E+01 +1.015827E+01 +1.336116E+03 
 +5.780544E+02 -7.409018E-01 -3.119345E+01 -7.409018E-01 +5.607496E+02 +2.666859E+01 -3.119345E+01 +2.666859E+01 +1.414831E+03 
 +6.189219E+02 -1.785711E+01 +1.138701E+01 -1.785711E+01 +6.104317E+02 +1.241419E+01 +1.138701E+01 +1.241419E+01 +1.453134E+03 
 +5.482912E+02 +7.168562E+00 -1.511978E+01 +7.168562E+00 +5.574017E+02 -3.152555E+01 -1.511978E+01 -3.152555E+01 +1.341461E+03 
 +6.329418E+02 +5.838877E+00 +3.216539E+00 +5.838877E+00 +4.995602E+02 +2.817972E+01 +3.216539E+00 +2.817972E+01 +1.273849E+03 
 +6.144226E+02 -2.228185E+00 -2.202254E+01 -2.228185E+00 +5.936630E+02 +2.507300E+00 -2.202254E+01 +2.507300E+00 +1.391091E+03 
 +6.323517E+02 +3.866731E+00 -1.931086E+00 +3.866731E+00 +6.251242E+02 -2.774789E+00 -1.931086E+00 -2.774789E+00 +1.307575E+03 
 +5.403955E+02 +5.072695E-01 -1.921809E+01 +5.072695E-01 +6.070825E+02 +2.996748E+01 -1.921809E+01 +2.996748E+01 +1.311390E+03 
 +6.146745E+02 -9.407754E+00 +3.794413E+01 -9.407754E+00 +6.165122E+02 +8.491018E-01 +3.794413E+01 +8.491018E-01 +1.371224E+03 
 +6.086335E+02 -7.828649E+00 -3.308828E+01 -7.828649E+00 +6.110508E+02 -3.534143E+01 -3.308828E+01 -3.534143E+01 +1.378845E+03 
 +6.192859E+02 -1.186203E+01 +1.695742E+01 -1.186203E+01 +5.779677E+02 +6.074821E+00 +1.695742E+01 +6.074821E+00 +1.402900E+03 
 +6.049702E+02 +9.277824E+00 -1.428284E+01 +9.277824E+00 +5.619982E+02 +4.540728E+00 -1.428284E+01 +4.540728E+00 +1.426389E+03 
 +5.814888E+02 -9.689552E+00 +2.956697E-01 -9.689552E+00 +5.569507E+02 +1.258042E+01 +2.956697E-01 +1.258042E+01 +1.396446E+03 
 +6.109350E+02 +2.731922E+01 -1.791142E+01 +2.731922E+01 +6.169494E+02 +2.192640E+01 -1.791142E+01 +2.192640E+01 +1.283054E+03 
 +5.924645E+02 -1.194055E+01 +8.158719E+00 -1.194055E+01 +6.065329E+02 -4.123139E+01 +8.158719E+00 -4.123139E+01 +1.338056E+03 
 +6.493215E+02 -2.084274E+00 -2.187189E+01 -2.084274E+00 +6.489694E+02 +2.410366E+01 -2.187189E+01 +2.410366E+01 +1.410216E+03 
 +5.627236E+02 +1.608184E+00 -7.988136E+00 +1.608184E+00 +6.125007E+02 +1.965075E+01 -7.988136E+00 +1.965075E+01 +1.372860E+03 
 +5.752449E+02 +3.138499E+00 +9.748790E+00 +3.138499E+00 +6.310048E+02 +9.416681E+00 +9.748790E+00 +9.416681E+00 +1.267806E+03 
 +6.260356E+02 +2.204133E+00 +3.809428E+00 +2.204133E+00 +6.148497E+02 -8.453360E+00 +3.809428E+00 -8.453360E+00 +1.349992E+03 
 +5.534514E+02 -1.082087E+01 -2.333495E+00 -1.082087E+01 +5.549706E+02 -8.268867E+00 -2.333495E+00 -8.268867E+00 +1.375827E+03 
 +6.187172E+02 +2.372279E+01 +5.929696E+00 +2.372279E+01 +5.598218E+02 +4.248354E+01 +5.929696E+00 +4.248354E+01 +1.380515E+03 
 +6.198637E+02 +1.663806E+01 +3.016104E+00 +1.663806E+01 +5.969489E+02 +5.183328E+01 +3.016104E+00 +5.183328E+01 +1.371655E+03 
 +6.098613E+02 +2.482952E+00 -2.324688E+01 +2.482952E+00 +5.929661E+02 +3.885230E+01 -2.324688E+01 +3.885230E+01 +1.384819E+03 
 +6.291833E+02 -1.481828E+01 +3.015343E+00 -1.481828E+01 +6.096960E+02 +2.371845E-01 +3.015343E+00 +2.371845E-01 +1.499923E+03 
 +6.290640E+02 +5.032537E+01 -1.576699E+01 +5.032537E+01 +6.454606E+02 -9.839061E+00 -1.576699E+01 -9.839061E+00 +1.312485E+03 
 +6.528503E+02 -2.001201E+01 +2.959225E+00 -2.001201E+01 +6.554199E+02 -7.044955E+00 +2.959225E+00 -7.044955E+00 +1.309079E+03 
 +5.925177E+02 -4.622767E+00 -8.218318E+00 -4.622767E+00 +6.689324E+02 -3.771798E+00 -8.218318E+00 -3.771798E+00 +1.326620E+03 
 +6.721244E+02 +5.753590E+01 +3.522136E+00 +5.753590E+01 +6.160156E+02 -2.282020E+00 +3.522136E+00 -2.282020E+00 +1.326908E+03 
 +6.276634E+02 -2.127510E+01 +1.886442E+00 -2.127510E+01 +6.111125E+02 -1.370463E+01 +1.886442E+00 -1.370463E+01 +1.311536E+03 
 +6.726904E+02 +4.479820E+00 +1.661455E+01 +4.479820E+00 +6.795702E+02 -1.899233E+01 +1.661455E+01 -1.899233E+01 +1.386109E+03 
 +6.476023E+02 +2.984097E+01 -2.395802E+01 +2.984097E+01 +6.062425E+02 +2.637688E+00 -2.395802E+01 +2.637688E+00 +1.435879E+03 
 +5.768640E+02 +4.826394E+00 +4.086323E+00 +4.826394E+00 +5.333862E+02 -7.319213E+00 +4.086323E+00 -7.319213E+00 +1.391620E+03 
 +4.951300E+02 -1.432580E+01 -1.966045E+01 -1.432580E+01 +5.181597E+02 +1.271601E+01 -1.966045E+01 +1.271601E+01 +1.418837E+03 
 +6.969978E+02 -1.769416E+00 -1.536384E+01 -1.769416E+00 +5.673334E+02 +3.912107E+00 -1.536384E+01 +3.912107E+00 +1.370897E+03 
 +6.213524E+02 -7.744833E+01 +1.567301E+01 -7.744833E+01 +5.970110E+02 -1.113887E+01 +1.567301E+01 -1.113887E+01 +1.305995E+03 
 +7.089150E+02 -1.141162E+01 +1.293965E+01 -1.141162E+01 +5.956612E+02 +5.295363E+00 +1.293965E+01 +5.295363E+00 +1.354950E+03 
 +6.131122E+02 +4.853734E+01 +8.925936E+00 +4.853734E+01 +6.339336E+02 -4.076992E+01 +8.925936E+00 -4.076992E+01 +1.354853E+03 
 +6.528735E+02 +3.311417E+01 -5.076637E+00 +3.311417E+01 +5.693060E+02 +1.349941E+01 -5.076637E+00 +1.349941E+01 +1.313405E+03 
 +6.179819E+02 -2.592347E+01 +3.414904E+00 -2.592347E+01 +5.770806E+02 +1.462336E+01 +3.414904E+00 +1.462336E+01 +1.242612E+03 
 +5.832034E+02 -2.643071E+00 -3.132609E+01 -2.643071E+00 +5.903195E+02 +2.457519E+00 -3.132609E+01 +2.457519E+00 +1.356466E+03 
 +7.027875E+02 +5.495494E+01 -6.673421E-01 +5.495494E+01 +6.372644E+02 +1.578482E+01 -6.673421E-01 +1.578482E+01 +1.368626E+03 
 +6.332502E+02 -1.240297E+01 -2.706357E+01 -1.240297E+01 +5.592438E+02 +1.591919E+01 -2.706357E+01 +1.591919E+01 +1.369143E+03 
 +6.046169E+02 +2.704084E+01 +3.606428E+00 +2.704084E+01 +5.793703E+02 -1.621179E+01 +3.606428E+00 -1.621179E+01 +1.446265E+03 
 +5.932514E+02 -2.583350E+00 -6.407388E+00 -2.583350E+00 +6.054410E+02 -1.171484E+01 -6.407388E+00 -1.171484E+01 +1.345695E+03 
 +5.860953E+02 +7.462397E+00 -4.698901E+01 +7.462397E+00 +5.683246E+02 +2.314262E+01 -4.698901E+01 +2.314262E+01 +1.432609E+03 
 +5.794597E+02 +1.033650E+01 +9.262792E+00 +1.033650E+01 +5.620801E+02 -1.387100E+01 +9.262792E+00 -1.387100E+01 +1.407561E+03 
 +5.697125E+02 -5.965876E+00 +2.807005E+00 -5.965876E+00 +5.708025E+02 -2.024116E+01 +2.807005E+00 -2.024116E+01 +1.372376E+03 
 +6.207084E+02 +1.045743E+00 -2.237782E+01 +1.045743E+00 +5.639987E+02 -1.992563E+01 -2.237782E+01 -1.992563E+01 +1.316595E+03 
 +5.555835E+02 -5.394597E+01 +1.776712E+01 -5.394597E+01 +6.160970E+02 +1.940472E+00 +1.776712E+01 +1.940472E+00 +1.302694E+03 
 +5.886059E+02 -5.899383E+00 -6.830025E+00 -5.899383E+00 +6.037672E+02 -2.815540E+01 -6.830025E+00 -2.815540E+01 +1.291260E+03 
 +6.132650E+02 +1.461095E+01 -1.909685E+00 +1.461095E+01 +6.287529E+02 -1.953675E+01 -1.909685E+00 -1.953675E+01 +1.358200E+03 
 +6.471638E+02 +3.952773E+01 -2.462709E+01 +3.952773E+01 +7.227217E+02 +1.065119E+01 -2.462709E+01 +1.065119E+01 +1.360310E+03 
 +6.037261E+02 +3.411712E+01 -5.402612E+00 +3.411712E+01 +6.865320E+02 -2.991370E-01 -5.402612E+00 -2.991370E-01 +1.374630E+03 
 +6.829877E+02 +6.078052E+01 +2.238565E+01 +6.078052E+01 +5.910016E+02 -8.902711E+00 +2.238565E+01 -8.902711E+00 +1.348010E+03 
 +5.353972E+02 +4.875586E+00 +2.259748E+01 +4.875586E+00 +5.797827E+02 -1.453454E+01 +2.259748E+01 -1.453454E+01 +1.402727E+03 
 +6.287301E+02 +2.141052E+01 +3.360801E+00 +2.141052E+01 +5.790480E+02 +6.876921E+00 +3.360801E+00 +6.876921E+00 +1.292297E+03 
 +5.987279E+02 +7.070300E+00 +3.817896E+00 +7.070300E+00 +5.742460E+02 -1.396819E+01 +3.817896E+00 -1.396819E+01 +1.401791E+03 
 +5.370881E+02 -1.010096E+01 +1.251413E+01 -1.010096E+01 +5.504792E+02 +5.009993E+00 +1.251413E+01 +5.009993E+00 +1.380168E+03 
 +5.015683E+02 -2.494039E+01 +1.558867E+01 -2.494039E+01 +6.599683E+02 +9.635382E+00 +1.558867E+01 +9.635382E+00 +1.295777E+03 
 +7.318643E+02 -5.898082E+00 +1.538184E+01 -5.898082E+00 +6.608033E+02 -3.241531E+01 +1.538184E+01 -3.241531E+01 +1.327635E+03 
 +5.568585E+02 -1.230002E+00 -1.303474E+01 -1.230002E+00 +5.281670E+02 -1.089070E+01 -1.303474E+01 -1.089070E+01 +1.403976E+03 
 +5.823279E+02 -3.450533E+01 -2.115465E+00 -3.450533E+01 +5.331187E+02 +1.203868E+01 -2.115465E+00 +1.203868E+01 +1.276556E+03 
 +6.233214E+02 +2.701978E+00 -4.788167E+00 +2.701978E+00 +6.240836E+02 -1.305961E+01 -4.788167E+00 -1.305961E+01 +1.431202E+03 
 +5.928274E+02 +4.190610E+00 +1.056189E+01 +4.190610E+00 +5.833881E+02 -2.374006E+01 +1.056189E+01 -2.374006E+01 +1.431292E+03 
 +5.724139E+02 +3.815140E+01 -2.589404E+01 +3.815140E+01 +5.547585E+02 +1.445750E+01 -2.589404E+01 +1.445750E+01 +1.309784E+03 
 +6.046438E+02 +9.842124E+00 -4.957556E+00 +9.842124E+00 +6.069618E+02 -1.955255E+01 -4.957556E+00 -1.955255E+01 +1.446526E+03 
 +6.332006E+02 -1.175947E+01 +4.718148E+01 -1.175947E+01 +6.177805E+02 -1.164791E+01 +4.718148E+01 -1.164791E+01 +1.419245E+03 
 +6.270243E+02 -1.739825E+01 +2.237840E+00 -1.739825E+01 +6.153337E+02 -3.543038E+00 +2.237840E+00 -3.543038E+00 +1.398086E+03 
 +6.637356E+02 +1.632753E+01 +8.561502E+00 +1.632753E+01 +6.729833E+02 -9.092525E+00 +8.561502E+00 -9.092525E+00 +1.328984E+03 
 +6.251775E+02 +3.369954E+01 -3.460594E+00 +3.369954E+01 +6.150179E+02 -6.870760E+00 -3.460594E+00 -6.870760E+00 +1.297315E+03 
 +5.852357E+02 -3.219110E+00 -1.405584E-01 -3.219110E+00 +5.908941E+02 -8.221553E+00 -1.405584E-01 -8.221553E+00 +1.338239E+03 
 +6.420626E+02 -2.978565E+01 -1.606207E+00 -2.978565E+01 +5.918777E+02 -2.829628E+01 -1.606207E+00 -2.829628E+01 +1.319187E+03 
 +5.565546E+02 -1.407367E+01 +6.788716E+00 -1.407367E+01 +5.930877E+02 -1.748271E+01 +6.788716E+00 -1.748271E+01 +1.392068E+03 
 +5.507492E+02 +1.863565E+01 +1.394375E+00 +1.863565E+01 +6.435713E+02 +3.275098E+01 +1.394375E+00 +3.275098E+01 +1.276708E+03 
 +6.822117E+02 -4.875208E+01 -9.597966E+00 -4.875208E+01 +6.876553E+02 +2.003042E+01 -9.597966E+00 +2.003042E+01 +1.435214E+03 
 +6.413862E+02 -6.542855E+01 +8.826463E+00 -6.542855E+01 +6.727465E+02 +1.523204E+01 +8.826463E+00 +1.523204E+01 +1.358319E+03 
 +6.443159E+02 -4.216713E+01 +4.589219E+00 -4.216713E+01 +6.274363E+02 +6.927641E+00 +4.589219E+00 +6.927641E+00 +1.296958E+03 
 +5.612924E+02 +1.026503E+01 +1.211458E+01 +1.026503E+01 +5.878781E+02 -2.038380E+01 +1.211458E+01 -2.038380E+01 +1.399627E+03 
 +7.040447E+02 +2.887025E+01 -3.959112E+00 +2.887025E+01 +6.350842E+02 -7.671793E+00 -3.959112E+00 -7.671793E+00 +1.389298E+03 
 +6.889254E+02 -3.211960E+01 +3.672652E+00 -3.211960E+01 +6.104238E+02 +1.648964E+00 +3.672652E+00 +1.648964E+00 +1.330823E+03 
 +5.819534E+02 -1.337642E+01 -1.627073E+01 -1.337642E+01 +6.299103E+02 +2.561204E+00 -1.627073E+01 +2.561204E+00 +1.357323E+03 
 +6.833339E+02 -4.307466E+00 +1.269260E+01 -4.307466E+00 +6.192776E+02 +6.529304E-01 +1.269260E+01 +6.529304E-01 +1.368633E+03 
 +6.002600E+02 +4.679195E+01 -2.630694E+01 +4.679195E+01 +6.361674E+02 +6.243291E+00 -2.630694E+01 +6.243291E+00 +1.302175E+03 
 +6.149163E+02 +3.512816E+01 +4.973946E+00 +3.512816E+01 +6.367778E+02 -1.319023E+00 +4.973946E+00 -1.319023E+00 +1.400672E+03 
 +5.482509E+02 +9.560583E+00 -2.674007E+01 +9.560583E+00 +5.912727E+02 +2.202066E+01 -2.674007E+01 +2.202066E+01 +1.429378E+03 
 +6.318602E+02 -4.743382E+01 +1.996641E+01 -4.743382E+01 +6.039695E+02 +3.375926E+00 +1.996641E+01 +3.375926E+00 +1.336915E+03 
 +6.127695E+02 +1.466003E+01 +4.048149E+01 +1.466003E+01 +6.189291E+02 -2.683214E+01 +4.048149E+01 -2.683214E+01 +1.441830E+03 
 +5.678817E+02 -1.815002E+01 -2.438953E+01 -1.815002E+01 +5.867230E+02 -1.325465E+01 -2.438953E+01 -1.325465E+01 +1.396176E+03 
 +6.197729E+02 -1.729674E+01 +2.530199E+01 -1.729674E+01 +6.698818E+02 -1.368943E+00 +2.530199E+01 -1.368943E+00 +1.378527E+03 
 +6.491494E+02 +2.682961E+01 -9.919732E-01 +2.682961E+01 +6.609089E+02 +9.667863E+00 -9.919732E-01 +9.667863E+00 +1.328146E+03 
 +5.561694E+02 +1.412247E+01 -3.097349E+01 +1.412247E+01 +5.948389E+02 -1.280882E+01 -3.097349E+01 -1.280882E+01 +1.365123E+03 
 +6.216125E+02 +4.957890E+00 +2.244358E+01 +4.957890E+00 +6.543542E+02 +1.659006E+01 +2.244358E+01 +1.659006E+01 +1.304973E+03 
 +6.188088E+02 -1.098642E+01 +1.944429E+01 -1.098642E+01 +5.851501E+02 -1.798268E+01 +1.944429E+01 -1.798268E+01 +1.404862E+03 
 +7.062452E+02 +9.747095E+00 +2.421499E-01 +9.747095E+00 +5.272732E+02 +6.581184E+00 +2.421499E-01 +6.581184E+00 +1.360625E+03 
 +5.867263E+02 -5.953515E+00 +2.812664E+01 -5.953515E+00 +6.061135E+02 +1.353780E+01 +2.812664E+01 +1.353780E+01 +1.316403E+03 
 +6.542379E+02 +2.051682E+00 -8.546663E+00 +2.051682E+00 +6.457423E+02 -8.643420E+00 -8.546663E+00 -8.643420E+00 +1.437187E+03 
 +6.148765E+02 -4.859189E+01 -3.183804E+00 -4.859189E+01 +6.704161E+02 +2.435796E+00 -3.183804E+00 +2.435796E+00 +1.344730E+03 
 +6.149170E+02 -3.114537E+01 -8.783333E+00 -3.114537E+01 +6.339908E+02 -3.275125E+00 -8.783333E+00 -3.275125E+00 +1.350173E+03 
 +6.608470E+02 -4.437410E+01 -1.958706E+01 -4.437410E+01 +6.274440E+02 +1.615612E+01 -1.958706E+01 +1.615612E+01 +1.367996E+03 
 +5.998925E+02 -2.600564E+01 -1.127794E+01 -2.600564E+01 +6.066838E+02 +1.096334E+00 -1.127794E+01 +1.096334E+00 +1.358340E+03 
 +5.724926E+02 -1.784842E+00 +7.732697E+00 -1.784842E+00 +5.595282E+02 -7.552915E+00 +7.732697E+00 -7.552915E+00 +1.366496E+03 
 +5.535132E+02 +2.454786E+01 -4.054983E+01 +2.454786E+01 +5.361499E+02 -1.495268E+00 -4.054983E+01 -1.495268E+00 +1.352111E+03 
 +6.315107E+02 +4.281501E+00 -1.079740E+01 +4.281501E+00 +6.103414E+02 +1.921212E+01 -1.079740E+01 +1.921212E+01 +1.340540E+03 
 +6.155311E+02 -4.447578E+01 -9.046674E+00 -4.447578E+01 +5.917614E+02 -7.452017E+00 -9.046674E+00 -7.452017E+00 +1.289767E+03 
 +5.963182E+02 -2.995208E+01 -2.186854E+01 -2.995208E+01 +5.908212E+02 +8.005114E+00 -2.186854E+01 +8.005114E+00 +1.339054E+03 
 +6.154820E+02 +4.613928E+00 +5.223396E+01 +4.613928E+00 +6.592083E+02 +2.090499E+00 +5.223396E+01 +2.090499E+00 +1.416804E+03 
 +6.005574E+02 +5.701212E+00 -1.075098E+01 +5.701212E+00 +6.099329E+02 +1.820476E+01 -1.075098E+01 +1.820476E+01 +1.316836E+03 
 +5.754921E+02 -1.536662E+01 +3.598667E+01 -1.536662E+01 +5.651160E+02 +1.295872E+01 +3.598667E+01 +1.295872E+01 +1.403923E+03 
 +5.809744E+02 -1.319744E+00 -2.311971E+01 -1.319744E+00 +6.080479E+02 -1.357432E+01 -2.311971E+01 -1.357432E+01 +1.405016E+03 
 +6.343594E+02 -2.593221E+00 -3.662670E+00 -2.593221E+00 +5.832032E+02 +2.842142E+01 -3.662670E+00 +2.842142E+01 +1.296076E+03 
 +5.770392E+02 -4.885056E+00 -1.515131E+01 -4.885056E+00 +6.018046E+02 +2.769689E+00 -1.515131E+01 +2.769689E+00 +1.404634E+03 
 +6.602781E+02 +2.232168E+01 +7.971953E+00 +2.232168E+01 +6.038930E+02 -1.963934E+01 +7.971953E+00 -1.963934E+01 +1.312831E+03 
 +6.500939E+02 -3.299470E+01 +4.030917E+01 -3.299470E+01 +5.921572E+02 -3.220487E+01 +4.030917E+01 -3.220487E+01 +1.369955E+03 
 +6.120674E+02 -5.398192E+00 +1.488462E+01 -5.398192E+00 +5.989451E+02 +4.606117E+00 +1.488462E+01 +4.606117E+00 +1.382905E+03 
 +6.425743E+02 -3.565164E+01 -3.057891E+00 -3.565164E+01 +5.955750E+02 +9.588104E+00 -3.057891E+00 +9.588104E+00 +1.307132E+03 
 +5.915753E+02 -2.826496E+01 -3.267007E+01 -2.826496E+01 +5.697216E+02 -1.561785E+01 -3.267007E+01 -1.561785E+01 +1.358815E+03 
 +5.667752E+02 +1.174180E+01 +2.990295E+01 +1.174180E+01 +5.725342E+02 +1.883718E+01 +2.990295E+01 +1.883718E+01 +1.369188E+03 
 +5.937217E+02 +1.244097E+01 +1.112522E-01 +1.244097E+01 +5.734168E+02 -1.987105E+01 +1.112522E-01 -1.987105E+01 +1.346894E+03 
 +5.802007E+02 +3.232075E+00 -6.893346E+00 +3.232075E+00 +5.551022E+02 -1.139661E+01 -6.893346E+00 -1.139661E+01 +1.341912E+03 
 +6.241245E+02 -4.666733E-01 +7.746737E+00 -4.666733E-01 +6.469213E+02 +6.937918E+00 +7.746737E+00 +6.937918E+00 +1.378063E+03 
 +6.343524E+02 -2.556624E+00 +6.513059E-02 -2.556624E+00 +6.454587E+02 -1.009790E+00 +6.513059E-02 -1.009790E+00 +1.412841E+03 
 +5.936626E+02 +4.440731E+01 -9.503178E+00 +4.440731E+01 +6.589136E+02 -1.086322E+01 -9.503178E+00 -1.086322E+01 +1.333896E+03 
 +5.904471E+02 -3.995350E+01 -1.988472E+01 -3.995350E+01 +6.354106E+02 -1.531288E-01 -1.988472E+01 -1.531288E-01 +1.357800E+03 
 +6.374475E+02 -5.212737E+01 +8.542607E+00 -5.212737E+01 +6.035398E+02 -9.417387E-02 +8.542607E+00 -9.417387E-02 +1.282109E+03 
 +6.141764E+02 +3.152501E+01 +1.508349E+01 +3.152501E+01 +6.227180E+02 -1.722941E+01 +1.508349E+01 -1.722941E+01 +1.305583E+03 
 +5.842188E+02 -3.456874E+00 -4.943744E+00 -3.456874E+00 +6.158529E+02 -1.658123E+01 -4.943744E+00 -1.658123E+01 +1.291001E+03 
 +6.125298E+02 -1.267726E+01 +2.441249E+01 -1.267726E+01 +6.176413E+02 +4.221940E+01 +2.441249E+01 +4.221940E+01 +1.467826E+03 
 +6.470645E+02 +2.403063E+00 -9.700991E+00 +2.403063E+00 +5.728959E+02 -1.697009E+01 -9.700991E+00 -1.697009E+01 +1.307955E+03 
 +5.980851E+02 -4.109455E+00 +4.019625E+00 -4.109455E+00 +6.047585E+02 -1.065308E+01 +4.019625E+00 -1.065308E+01 +1.416515E+03 
 +5.739551E+02 +7.055711E+00 -1.903751E+01 +7.055711E+00 +5.699980E+02 +4.622506E+00 -1.903751E+01 +4.622506E+00 +1.377235E+03 
 +6.093281E+02 +3.452554E+00 -1.105199E+01 +3.452554E+00 +5.903802E+02 -6.719328E+00 -1.105199E+01 -6.719328E+00 +1.296992E+03 
 +5.682294E+02 -9.518997E+00 +2.708062E+00 -9.518997E+00 +5.980387E+02 -3.869551E+00 +2.708062E+00 -3.869551E+00 +1.318264E+03 
 +6.472371E+02 +1.010485E+01 -2.025273E+00 +1.010485E+01 +6.512778E+02 +1.447878E+01 -2.025273E+00 +1.447878E+01 +1.303407E+03 
 +6.046664E+02 +4.324870E+01 -7.471752E+00 +4.324870E+01 +6.000338E+02 +1.259570E+00 -7.471752E+00 +1.259570E+00 +1.381491E+03 
 +7.065057E+02 +7.255632E+00 -5.521979E+00 +7.255632E+00 +5.582086E+02 -5.534873E+00 -5.521979E+00 -5.534873E+00 +1.331100E+03 
 +5.427952E+02 +1.053643E+01 -1.288231E+01 +1.053643E+01 +5.900909E+02 -1.936516E+01 -1.288231E+01 -1.936516E+01 +1.349618E+03 
 +6.371379E+02 +2.705146E+01 -7.018630E-01 +2.705146E+01 +5.665262E+02 -2.049285E+01 -7.018630E-01 -2.049285E+01 +1.274454E+03 
 +6.065928E+02 +2.327157E+01 -1.375753E+01 +2.327157E+01 +5.820553E+02 -2.070555E+01 -1.375753E+01 -2.070555E+01 +1.379248E+03 
 +6.070408E+02 -1.217372E+01 +1.168114E+00 -1.217372E+01 +6.546260E+02 -1.122115E+01 +1.168114E+00 -1.122115E+01 +1.351489E+03 
 +5.906188E+02 +4.613959E+01 +1.757964E+01 +4.613959E+01 +6.684634E+02 -3.838764E+00 +1.757964E+01 -3.838764E+00 +1.294295E+03 
 +5.617917E+02 +1.761263E+01 +1.568449E+01 +1.761263E+01 +5.355824E+02 -7.496152E+00 +1.568449E+01 -7.496152E+00 +1.366469E+03 
 +5.784796E+02 +3.155454E+00 +2.275287E+01 +3.155454E+00 +5.531759E+02 -1.299408E+01 +2.275287E+01 -1.299408E+01 +1.405239E+03 
 +6.987723E+02 +3.001815E+00 -3.018515E+00 +3.001815E+00 +5.665030E+02 +1.309388E+01 -3.018515E+00 +1.309388E+01 +1.329150E+03 
 +5.276019E+02 +1.756984E+01 +1.238969E+01 +1.756984E+01 +5.572844E+02 +1.529442E+01 +1.238969E+01 +1.529442E+01 +1.344843E+03 
 +6.519217E+02 +2.049118E+01 -1.489081E+01 +2.049118E+01 +7.029853E+02 +1.342636E+01 -1.489081E+01 +1.342636E+01 +1.341563E+03 
 +6.028844E+02 -3.684417E+00 +1.184491E+01 -3.684417E+00 +6.951870E+02 +1.036247E+01 +1.184491E+01 +1.036247E+01 +1.328544E+03 
 +5.886677E+02 +1.690644E+01 -5.264859E+00 +1.690644E+01 +6.016927E+02 -7.972912E+00 -5.264859E+00 -7.972912E+00 +1.329213E+03 
 +7.176526E+02 -2.682635E+01 +2.214885E+00 -2.682635E+01 +6.703889E+02 -1.230510E-01 +2.214885E+00 -1.230510E-01 +1.375771E+03 
 +5.980513E+02 -6.977867E+00 -3.249738E+00 -6.977867E+00 +7.184556E+02 -3.971673E+00 -3.249738E+00 -3.971673E+00 +1.366065E+03 
 +6.852512E+02 -3.863551E+01 -2.640458E+00 -3.863551E+01 +5.885655E+02 -8.471741E+00 -2.640458E+00 -8.471741E+00 +1.313644E+03 
 +5.758677E+02 +1.334441E+01 -1.227749E+01 +1.334441E+01 +6.105741E+02 -3.318895E+00 -1.227749E+01 -3.318895E+00 +1.473130E+03 
 +6.088321E+02 -4.433133E+01 +4.481407E+00 -4.433133E+01 +5.693270E+02 -1.431489E+01 +4.481407E+00 -1.431489E+01 +1.271804E+03 
 +5.701691E+02 -3.372232E+01 -1.930629E+01 -3.372232E+01 +5.823299E+02 -5.887293E+00 -1.930629E+01 -5.887293E+00 +1.320559E+03 
 +6.218176E+02 +4.374634E+01 -1.802099E+00 +4.374634E+01 +5.948099E+02 -2.553044E+00 -1.802099E+00 -2.553044E+00 +1.305845E+03 
 +6.046095E+02 +1.831543E+01 -1.826490E+01 +1.831543E+01 +5.895466E+02 +1.536574E+01 -1.826490E+01 +1.536574E+01 +1.401308E+03 
 +5.520517E+02 -9.237057E+00 -2.488035E+00 -9.237057E+00 +6.739623E+02 -1.253300E+01 -2.488035E+00 -1.253300E+01 +1.303419E+03 
 +5.859249E+02 -3.896447E+01 +1.068195E+01 -3.896447E+01 +7.073508E+02 +7.255838E+00 +1.068195E+01 +7.255838E+00 +1.343993E+03 
 +6.008428E+02 -1.187393E+01 -2.438974E+01 -1.187393E+01 +6.733123E+02 +1.623296E+01 -2.438974E+01 +1.623296E+01 +1.349891E+03 
 +6.098002E+02 +1.971994E+01 -1.151030E+01 +1.971994E+01 +5.725367E+02 -1.360942E+01 -1.151030E+01 -1.360942E+01 +1.389473E+03 
 +5.629931E+02 -1.287874E+00 +2.142555E+00 -1.287874E+00 +5.488781E+02 -5.566531E+00 +2.142555E+00 -5.566531E+00 +1.412358E+03 
 +7.009125E+02 -6.437339E+01 +2.342120E+00 -6.437339E+01 +5.501926E+02 -1.459842E+01 +2.342120E+00 -1.459842E+01 +1.339754E+03 
 +5.727245E+02 -7.195334E+01 +6.982029E-01 -7.195334E+01 +6.264164E+02 -2.063633E+01 +6.982029E-01 -2.063633E+01 +1.323738E+03 
 +6.333454E+02 -4.714422E+01 +7.393338E+00 -4.714422E+01 +6.273478E+02 +1.299541E+01 +7.393338E+00 +1.299541E+01 +1.324556E+03 
 +5.903838E+02 +3.344263E+00 +1.389366E+01 +3.344263E+00 +6.811874E+02 +2.477720E+01 +1.389366E+01 +2.477720E+01 +1.303166E+03 
 +6.674349E+02 -1.490810E+01 -6.457321E+00 -1.490810E+01 +7.556519E+02 -2.775291E+00 -6.457321E+00 -2.775291E+00 +1.373426E+03 
 +6.189056E+02 -1.872930E+01 -6.757373E-01 -1.872930E+01 +5.994588E+02 -1.889261E+01 -6.757373E-01 -1.889261E+01 +1.367127E+03 
 +6.281997E+02 +4.220478E+01 +1.199391E+01 +4.220478E+01 +6.277764E+02 +2.562145E+00 +1.199391E+01 +2.562145E+00 +1.313721E+03 
 +6.046896E+02 +2.899310E+00 +4.178596E+01 +2.899310E+00 +5.987403E+02 -1.512196E+01 +4.178596E+01 -1.512196E+01 +1.361579E+03 
 +5.359841E+02 -2.949556E+00 +1.465179E+01 -2.949556E+00 +5.274211E+02 -2.748230E+01 +1.465179E+01 -2.748230E+01 +1.376526E+03 
 +6.597170E+02 +2.235402E+01 -1.799790E+01 +2.235402E+01 +6.319551E+02 -6.007344E+00 -1.799790E+01 -6.007344E+00 +1.301109E+03 
 +5.469149E+02 +2.352986E+01 +1.246147E+01 +2.352986E+01 +6.799135E+02 +2.561753E+00 +1.246147E+01 +2.561753E+00 +1.322087E+03 
 +6.658364E+02 -2.946813E+01 +7.996737E+00 -2.946813E+01 +6.396384E+02 +1.840198E+01 +7.996737E+00 +1.840198E+01 +1.364418E+03 
 +5.896632E+02 -1.261141E+01 -7.379761E+00 -1.261141E+01 +6.569838E+02 +1.405783E-02 -7.379761E+00 +1.405783E-02 +1.291454E+03 
 +7.101433E+02 +4.794437E+01 -2.361191E+00 +4.794437E+01 +6.202355E+02 -2.452397E+01 -2.361191E+00 -2.452397E+01 +1.364023E+03 
 +5.792440E+02 +1.620224E+01 +1.120953E+01 +1.620224E+01 +5.654991E+02 -2.882091E+01 +1.120953E+01 -2.882091E+01 +1.377411E+03 
 +5.943268E+02 +2.346084E+01 -2.200917E+01 +2.346084E+01 +5.645380E+02 -2.624896E+01 -2.200917E+01 -2.624896E+01 +1.381173E+03 
 +6.230077E+02 -2.222095E+01 +1.847551E+01 -2.222095E+01 +5.759687E+02 +2.041639E+01 +1.847551E+01 +2.041639E+01 +1.249457E+03 
 +6.990701E+02 -6.625846E+00 +3.893901E+00 -6.625846E+00 +5.295131E+02 +9.373530E+00 +3.893901E+00 +9.373530E+00 +1.361317E+03 
 +6.029537E+02 +1.554212E+01 -1.348991E+01 +1.554212E+01 +6.244287E+02 +2.740225E+01 -1.348991E+01 +2.740225E+01 +1.428165E+03 
 +6.085231E+02 +1.127397E+01 +2.342876E+00 +1.127397E+01 +6.872624E+02 -4.625089E+00 +2.342876E+00 -4.625089E+00 +1.308196E+03 
 +5.808179E+02 +1.903714E+01 +3.284665E+00 +1.903714E+01 +6.900087E+02 +1.271300E+01 +3.284665E+00 +1.271300E+01 +1.332883E+03 
 +5.903268E+02 +1.672712E+01 -1.249946E+01 +1.672712E+01 +6.517271E+02 +4.099926E+00 -1.249946E+01 +4.099926E+00 +1.378423E+03 
 +6.567451E+02 +6.117162E+01 -2.359308E+00 +6.117162E+01 +5.841986E+02 +5.340040E+00 -2.359308E+00 +5.340040E+00 +1.343347E+03 
 +6.307988E+02 +3.462466E+01 -1.967992E+01 +3.462466E+01 +5.764112E+02 +1.746603E+01 -1.967992E+01 +1.746603E+01 +1.295560E+03 
 +7.142370E+02 +9.888299E+00 -4.698876E+00 +9.888299E+00 +5.994762E+02 -5.508014E+00 -4.698876E+00 -5.508014E+00 +1.332277E+03 
 +6.308751E+02 -3.947225E+01 +9.109745E+00 -3.947225E+01 +7.123129E+02 +8.907072E+00 +9.109745E+00 +8.907072E+00 +1.386993E+03 
 +6.057169E+02 -3.022503E+01 +1.205385E+00 -3.022503E+01 +6.694955E+02 +4.569174E+00 +1.205385E+00 +4.569174E+00 +1.313297E+03 
 +5.914319E+02 -2.908837E+01 +3.567133E+01 -2.908837E+01 +5.969719E+02 -1.894004E+01 +3.567133E+01 -1.894004E+01 +1.325258E+03 
 +6.219113E+02 -3.274747E+00 -2.993401E+00 -3.274747E+00 +5.472259E+02 -2.091449E+01 -2.993401E+00 -2.091449E+01 +1.412401E+03 
 +5.843712E+02 -2.709138E+01 +7.312688E-01 -2.709138E+01 +5.537584E+02 -3.329859E+01 +7.312688E-01 -3.329859E+01 +1.388486E+03 
 +6.619218E+02 -5.222092E+00 -5.434933E+00 -5.222092E+00 +6.089131E+02 -1.228912E+01 -5.434933E+00 -1.228912E+01 +1.333915E+03 
 +5.414873E+02 -1.946957E+01 -5.872709E+00 -1.946957E+01 +5.635584E+02 -1.508992E+01 -5.872709E+00 -1.508992E+01 +1.337225E+03 
 +6.054417E+02 +3.898452E+00 -9.513875E+00 +3.898452E+00 +6.062420E+02 +2.086016E+01 -9.513875E+00 +2.086016E+01 +1.288898E+03 
 +5.733862E+02 -3.773633E+00 +3.610680E-01 -3.773633E+00 +6.596372E+02 -1.653601E+00 +3.610680E-01 -1.653601E+00 +1.303085E+03 
 +6.910028E+02 +4.905267E+00 +2.356586E+00 +4.905267E+00 +5.987136E+02 +1.336335E+01 +2.356586E+00 +1.336335E+01 +1.283411E+03 
 +5.687706E+02 +5.960021E+00 +7.393863E+00 +5.960021E+00 +6.044588E+02 -1.256284E+01 +7.393863E+00 -1.256284E+01 +1.376131E+03 
 +5.903552E+02 -4.955245E+01 -1.505766E+01 -4.955245E+01 +6.218961E+02 -5.197555E-01 -1.505766E+01 -5.197555E-01 +1.293758E+03 
 +5.774977E+02 +6.460495E-01 +9.501064E+00 +6.460495E-01 +5.646102E+02 +2.804603E+01 +9.501064E+00 +2.804603E+01 +1.291518E+03 
 +6.116137E+02 -1.691728E+01 +1.528788E+00 -1.691728E+01 +5.872046E+02 -1.612826E+00 +1.528788E+00 -1.612826E+00 +1.382105E+03 
 +6.058569E+02 -1.385420E+01 -6.801799E+00 -1.385420E+01 +5.891573E+02 -2.218291E+01 -6.801799E+00 -2.218291E+01 +1.460485E+03 
 +6.089345E+02 +4.397209E+00 +2.567616E+01 +4.397209E+00 +6.378214E+02 -2.933750E+00 +2.567616E+01 -2.933750E+00 +1.328847E+03 
 +6.475231E+02 -3.912050E+01 -8.384523E+00 -3.912050E+01 +5.971780E+02 -7.718184E+00 -8.384523E+00 -7.718184E+00 +1.295684E+03 
 +5.588933E+02 +1.429003E+00 -1.755363E+01 +1.429003E+00 +5.912611E+02 +2.868152E+00 -1.755363E+01 +2.868152E+00 +1.373751E+03 
 +6.124692E+02 -4.326945E+00 +1.240604E+01 -4.326945E+00 +6.297422E+02 +9.694114E+00 +1.240604E+01 +9.694114E+00 +1.407245E+03 
 +5.324747E+02 -9.883348E+00 -3.255015E+01 -9.883348E+00 +5.744222E+02 -1.303287E+01 -3.255015E+01 -1.303287E+01 +1.314933E+03 
 +6.244545E+02 -7.610706E+00 +1.779037E+01 -7.610706E+00 +6.137311E+02 -1.613052E+01 +1.779037E+01 -1.613052E+01 +1.380668E+03 
 +5.311915E+02 -1.664683E+01 -4.820363E+00 -1.664683E+01 +5.397948E+02 -1.945671E+01 -4.820363E+00 -1.945671E+01 +1.347716E+03 
 +6.280579E+02 +2.583965E+01 -1.772198E+01 +2.583965E+01 +6.053816E+02 -2.518065E+01 -1.772198E+01 -2.518065E+01 +1.337139E+03 
 +6.174101E+02 +7.378467E+01 +7.079697E+00 +7.378467E+01 +6.491638E+02 +1.329405E+00 +7.079697E+00 +1.329405E+00 +1.297784E+03 
 +6.420789E+02 +2.472765E+01 -1.925996E+01 +2.472765E+01 +7.007963E+02 +1.534342E+01 -1.925996E+01 +1.534342E+01 +1.341134E+03 
 +5.812438E+02 +3.976301E+01 -2.407357E+00 +3.976301E+01 +6.366163E+02 +5.290436E+00 -2.407357E+00 +5.290436E+00 +1.304685E+03 
 +6.005764E+02 -1.161058E+00 -1.548981E+01 -1.161058E+00 +5.744340E+02 -2.090637E-01 -1.548981E+01 -2.090637E-01 +1.321149E+03 
 +6.948963E+02 -1.417467E+01 -1.102959E+01 -1.417467E+01 +6.237932E+02 +6.741705E+00 -1.102959E+01 +6.741705E+00 +1.328917E+03 
 +6.263276E+02 +1.649419E+01 -2.729947E+00 +1.649419E+01 +5.922899E+02 -5.079476E+00 -2.729947E+00 -5.079476E+00 +1.336107E+03 
 +5.697841E+02 +6.141903E+00 +8.199597E+00 +6.141903E+00 +6.566155E+02 +1.983070E+01 +8.199597E+00 +1.983070E+01 +1.276912E+03 
 +6.999909E+02 +8.990162E+00 -2.759414E+01 +8.990162E+00 +5.792130E+02 +8.926999E+00 -2.759414E+01 +8.926999E+00 +1.307862E+03 
 +5.980880E+02 -2.652171E+00 +4.375013E+00 -2.652171E+00 +5.947065E+02 -7.154321E+00 +4.375013E+00 -7.154321E+00 +1.302263E+03 
 +6.687635E+02 -1.208344E+01 -1.921847E+00 -1.208344E+01 +6.649595E+02 +1.741481E+01 -1.921847E+00 +1.741481E+01 +1.335081E+03 
 +5.283770E+02 -7.467498E+00 +5.804106E+00 -7.467498E+00 +6.532599E+02 -1.073052E+01 +5.804106E+00 -1.073052E+01 +1.278118E+03 
 +6.019332E+02 +1.130796E+00 -3.206997E+01 +1.130796E+00 +7.053397E+02 -1.279324E+01 -3.206997E+01 -1.279324E+01 +1.343424E+03 
 +5.745475E+02 -8.344552E+00 +3.855360E+01 -8.344552E+00 +6.352839E+02 +8.184096E+00 +3.855360E+01 +8.184096E+00 +1.334311E+03 
 +5.803502E+02 -1.984310E+00 -2.467123E+01 -1.984310E+00 +6.524290E+02 +4.025017E+00 -2.467123E+01 +4.025017E+00 +1.316708E+03 
 +5.927095E+02 -3.053271E+00 -2.073736E+00 -3.053271E+00 +6.312252E+02 +1.008998E+01 -2.073736E+00 +1.008998E+01 +1.288605E+03 
 +5.921254E+02 -6.223673E+00 -6.519719E+00 -6.223673E+00 +5.782344E+02 -1.909443E+01 -6.519719E+00 -1.909443E+01 +1.381216E+03 
 +6.234127E+02 +2.088172E+01 -9.243782E+00 +2.088172E+01 +6.462325E+02 +1.886184E+01 -9.243782E+00 +1.886184E+01 +1.417266E+03 
 +6.404939E+02 +4.382333E+01 -1.340337E+01 +4.382333E+01 +7.078959E+02 +7.511080E+00 -1.340337E+01 +7.511080E+00 +1.336383E+03 
 +5.946786E+02 +4.709416E+00 +9.181749E+00 +4.709416E+00 +5.920193E+02 +5.932296E+00 +9.181749E+00 +5.932296E+00 +1.339443E+03 
 +5.747218E+02 -1.677881E+00 +3.931532E-01 -1.677881E+00 +6.062639E+02 -2.965401E+01 +3.931532E-01 -2.965401E+01 +1.387682E+03 
 +6.338970E+02 +1.083573E+01 -3.768724E+01 +1.083573E+01 +6.109940E+02 -2.429710E+00 -3.768724E+01 -2.429710E+00 +1.367670E+03 
 +6.089799E+02 -7.534247E+00 -7.333329E+00 -7.534247E+00 +5.609780E+02 +8.698932E+00 -7.333329E+00 +8.698932E+00 +1.226043E+03 
 +5.682576E+02 -5.465265E+00 +2.812603E+01 -5.465265E+00 +5.651914E+02 +1.491672E+01 +2.812603E+01 +1.491672E+01 +1.352859E+03 
 +6.426819E+02 -6.318891E+01 +2.283584E+01 -6.318891E+01 +6.198900E+02 -6.890955E+00 +2.283584E+01 -6.890955E+00 +1.282823E+03 
 +5.514125E+02 -1.976794E+01 +2.264748E+01 -1.976794E+01 +6.929341E+02 -5.570450E+00 +2.264748E+01 -5.570450E+00 +1.317029E+03 
 +6.233236E+02 -3.791653E+01 -1.848047E+01 -3.791653E+01 +5.611212E+02 -9.345304E+00 -1.848047E+01 -9.345304E+00 +1.287292E+03 
 +6.351887E+02 -2.178270E+01 -8.519353E+00 -2.178270E+01 +6.331427E+02 +1.311531E+01 -8.519353E+00 +1.311531E+01 +1.327779E+03 
 +5.889583E+02 +1.352177E+01 +1.140534E+01 +1.352177E+01 +6.619236E+02 +5.816844E+00 +1.140534E+01 +5.816844E+00 +1.285106E+03 
 +6.330923E+02 +1.587181E+01 -7.025108E+00 +1.587181E+01 +6.507563E+02 -1.095491E+00 -7.025108E+00 -1.095491E+00 +1.333514E+03 
 +5.954586E+02 +4.986817E+00 -2.193891E+01 +4.986817E+00 +6.319286E+02 -1.465312E+01 -2.193891E+01 -1.465312E+01 +1.336491E+03 
 +6.964357E+02 -1.194636E+01 -9.628614E+00 -1.194636E+01 +6.605861E+02 -5.394612E+00 -9.628614E+00 -5.394612E+00 +1.299630E+03 
 +6.057061E+02 -1.330237E+01 -2.881760E+01 -1.330237E+01 +6.874110E+02 +1.253953E+01 -2.881760E+01 +1.253953E+01 +1.367598E+03 
 +6.485958E+02 -5.078700E+01 +6.047400E+00 -5.078700E+01 +5.986073E+02 -1.962838E+01 +6.047400E+00 -1.962838E+01 +1.316547E+03 
 +5.867970E+02 +2.243048E+00 -2.246412E+00 +2.243048E+00 +6.078468E+02 -2.683895E+01 -2.246412E+00 -2.683895E+01 +1.352901E+03 
 +6.362136E+02 +4.439174E+01 -3.123807E+00 +4.439174E+01 +6.663088E+02 +6.127722E+00 -3.123807E+00 +6.127722E+00 +1.305578E+03 
 +5.897672E+02 -6.514101E+00 +8.409079E+00 -6.514101E+00 +6.784238E+02 -7.820202E-01 +8.409079E+00 -7.820202E-01 +1.301606E+03 
 +5.584733E+02 -1.252657E+01 +2.919376E+01 -1.252657E+01 +5.858212E+02 +1.415473E+01 +2.919376E+01 +1.415473E+01 +1.412964E+03 
 +6.474868E+02 -2.402413E+01 -1.467628E+00 -2.402413E+01 +5.909522E+02 +4.220509E+01 -1.467628E+00 +4.220509E+01 +1.316714E+03 
 +6.297048E+02 -2.660853E+01 +1.692949E+01 -2.660853E+01 +6.119193E+02 +1.802495E+01 +1.692949E+01 +1.802495E+01 +1.394009E+03 
 +6.329512E+02 +1.520145E+01 +3.564679E+01 +1.520145E+01 +6.673930E+02 -5.267424E+00 +3.564679E+01 -5.267424E+00 +1.362607E+03 
 +5.919502E+02 +1.752778E+01 -1.022137E+01 +1.752778E+01 +6.379971E+02 -2.065494E+00 -1.022137E+01 -2.065494E+00 +1.365255E+03 
 +6.486013E+02 +8.963212E+00 +1.593478E+01 +8.963212E+00 +5.658370E+02 +2.262500E+01 +1.593478E+01 +2.262500E+01 +1.339462E+03 
 +6.845834E+02 -2.849933E+01 -5.766952E+00 -2.849933E+01 +6.104857E+02 -1.454927E+00 -5.766952E+00 -1.454927E+00 +1.319267E+03 
 +6.104630E+02 -4.379934E+00 -3.196148E+01 -4.379934E+00 +6.285231E+02 +7.634800E+00 -3.196148E+01 +7.634800E+00 +1.416134E+03 
 +6.068981E+02 +6.682191E+01 +1.577650E+01 +6.682191E+01 +5.580042E+02 -6.714728E+00 +1.577650E+01 -6.714728E+00 +1.296408E+03 
 +6.096276E+02 +4.343786E+01 +1.162414E+00 +4.343786E+01 +5.835184E+02 -7.511675E+00 +1.162414E+00 -7.511675E+00 +1.285800E+03 
 +6.448316E+02 -2.738347E+00 +3.513020E-02 -2.738347E+00 +6.252554E+02 +2.412219E+00 +3.513020E-02 +2.412219E+00 +1.358205E+03 
 +6.588138E+02 +9.406487E+00 -1.661199E+00 +9.406487E+00 +5.568425E+02 -1.894132E+01 -1.661199E+00 -1.894132E+01 +1.318178E+03 
 +6.373680E+02 +1.087707E+01 +1.951125E+01 +1.087707E+01 +6.117482E+02 +1.657383E+01 +1.951125E+01 +1.657383E+01 +1.335856E+03 
 +6.866487E+02 +2.104996E+01 +9.965185E+00 +2.104996E+01 +5.958945E+02 -1.492743E+01 +9.965185E+00 -1.492743E+01 +1.318947E+03 
 +5.119133E+02 -2.084776E+00 +3.745847E-01 -2.084776E+00 +5.067236E+02 +1.349242E+01 +3.745847E-01 +1.349242E+01 +1.389169E+03 
 +6.422696E+02 -5.682171E+00 +1.677789E+01 -5.682171E+00 +5.339847E+02 +2.805510E+01 +1.677789E+01 +2.805510E+01 +1.303105E+03 
 +6.175732E+02 -9.293986E-01 +8.459579E+00 -9.293986E-01 +6.387955E+02 +1.547338E+01 +8.459579E+00 +1.547338E+01 +1.410461E+03 
 +6.835612E+02 +4.618530E+01 +6.757237E-01 +4.618530E+01 +6.772830E+02 +1.858381E+00 +6.757237E-01 +1.858381E+00 +1.327715E+03 
 +5.529234E+02 +1.293904E+01 +4.034902E+00 +1.293904E+01 +6.191080E+02 -3.199485E+01 +4.034902E+00 -3.199485E+01 +1.363194E+03 
 +6.610642E+02 -3.977770E+01 -2.967041E+01 -3.977770E+01 +6.126199E+02 -1.206488E+01 -2.967041E+01 -1.206488E+01 +1.313756E+03 
 +6.449384E+02 -1.388802E+01 +2.555415E+01 -1.388802E+01 +6.231738E+02 +1.584617E+01 +2.555415E+01 +1.584617E+01 +1.437772E+03 
 +6.240115E+02 +3.014621E+01 +2.302984E+00 +3.014621E+01 +5.750048E+02 -4.124346E+00 +2.302984E+00 -4.124346E+00 +1.357379E+03 
 +5.438951E+02 +1.196249E+01 +3.616111E+00 +1.196249E+01 +5.967850E+02 -9.231525E+00 +3.616111E+00 -9.231525E+00 +1.287172E+03 
 +6.015760E+02 -5.758802E+00 -3.489508E+01 -5.758802E+00 +6.169238E+02 +1.328848E+01 -3.489508E+01 +1.328848E+01 +1.383924E+03 
 +5.532358E+02 -6.397414E+00 +2.686544E+01 -6.397414E+00 +5.508912E+02 +6.746468E+00 +2.686544E+01 +6.746468E+00 +1.348247E+03 
 +5.708079E+02 -1.652220E+01 -9.162602E+00 -1.652220E+01 +5.520190E+02 +2.439909E+00 -9.162602E+00 +2.439909E+00 +1.288414E+03 
 +5.857141E+02 -1.100141E+01 +2.706911E+00 -1.100141E+01 +5.898807E+02 -3.537364E+00 +2.706911E+00 -3.537364E+00 +1.284617E+03 
 +5.633931E+02 -1.431139E+01 -1.260573E+01 -1.431139E+01 +5.470665E+02 -1.482904E+01 -1.260573E+01 -1.482904E+01 +1.374874E+03 
 +5.523703E+02 -7.064492E+00 -2.116942E+01 -7.064492E+00 +5.698160E+02 -8.157900E+00 -2.116942E+01 -8.157900E+00 +1.427233E+03 
 +5.849707E+02 -1.424905E+01 -8.249745E+00 -1.424905E+01 +6.262891E+02 +9.898090E+00 -8.249745E+00 +9.898090E+00 +1.332848E+03 
 +6.277994E+02 -2.326028E+01 -4.765808E+00 -2.326028E+01 +6.658893E+02 -3.251347E+00 -4.765808E+00 -3.251347E+00 +1.274650E+03 
 +5.936461E+02 +5.204091E+00 -1.995116E+01 +5.204091E+00 +6.064867E+02 -1.904622E+01 -1.995116E+01 -1.904622E+01 +1.438764E+03 
 +5.953397E+02 -1.719636E+01 +1.835707E+01 -1.719636E+01 +5.569518E+02 +1.958240E+00 +1.835707E+01 +1.958240E+00 +1.343538E+03 
 +5.691332E+02 -4.525751E+00 +4.100447E+00 -4.525751E+00 +5.463824E+02 -1.096893E+01 +4.100447E+00 -1.096893E+01 +1.292751E+03 
 +5.400546E+02 -1.342568E+01 -3.500239E+00 -1.342568E+01 +5.406988E+02 -1.842123E+00 -3.500239E+00 -1.842123E+00 +1.415208E+03 
 +6.335374E+02 -1.405217E+01 +1.339867E+01 -1.405217E+01 +5.302723E+02 -9.436197E+00 +1.339867E+01 -9.436197E+00 +1.328203E+03 
 +5.653240E+02 -5.338282E+00 +1.517540E+01 -5.338282E+00 +5.877223E+02 +4.868381E+00 +1.517540E+01 +4.868381E+00 +1.411249E+03 
 +6.068052E+02 -1.158872E+00 +2.283542E+01 -1.158872E+00 +6.090069E+02 -7.736592E+00 +2.283542E+01 -7.736592E+00 +1.348587E+03 
 +5.240894E+02 -1.013882E+01 +3.671735E+00 -1.013882E+01 +5.322057E+02 +2.571532E+01 +3.671735E+00 +2.571532E+01 +1.328903E+03 
 +7.062680E+02 -2.081157E+01 -9.622024E+00 -2.081157E+01 +5.839855E+02 -1.436372E-01 -9.622024E+00 -1.436372E-01 +1.346415E+03 
 +6.067236E+02 +2.583799E+01 -8.892954E+00 +2.583799E+01 +5.663099E+02 -1.467636E+01 -8.892954E+00 -1.467636E+01 +1.303698E+03 
 +5.495002E+02 +1.460767E+01 -3.889133E+00 +1.460767E+01 +5.695714E+02 -2.226889E+01 -3.889133E+00 -2.226889E+01 +1.403263E+03 
 +6.724724E+02 +7.054098E-02 -1.345245E+01 +7.054098E-02 +5.928346E+02 -1.346892E+01 -1.345245E+01 -1.346892E+01 +1.336163E+03 
 +5.643958E+02 -1.290713E+01 +4.665160E-01 -1.290713E+01 +5.971180E+02 +1.676656E+01 +4.665160E-01 +1.676656E+01 +1.299029E+03 
 +6.651324E+02 -1.895294E+01 +2.907621E+01 -1.895294E+01 +6.870697E+02 +2.214521E+01 +2.907621E+01 +2.214521E+01 +1.351591E+03 
 +6.190748E+02 +1.438401E+01 +1.627852E+01 +1.438401E+01 +6.285386E+02 +5.983355E+00 +1.627852E+01 +5.983355E+00 +1.465295E+03 
 +5.576904E+02 +1.755324E+01 -1.112945E-01 +1.755324E+01 +6.751553E+02 -4.727949E+00 -1.112945E-01 -4.727949E+00 +1.342042E+03 
 +5.673848E+02 -7.849479E+00 -5.746795E+00 -7.849479E+00 +6.203011E+02 +1.578012E+01 -5.746795E+00 +1.578012E+01 +1.388829E+03 
 +5.987686E+02 +8.461371E+00 -1.533706E+01 +8.461371E+00 +6.544796E+02 +8.600640E-01 -1.533706E+01 +8.600640E-01 +1.357584E+03 
 +6.399269E+02 +2.992307E+01 -8.996761E+00 +2.992307E+01 +6.560637E+02 +2.697921E+00 -8.996761E+00 +2.697921E+00 +1.322529E+03 
 +6.095113E+02 +1.666121E+01 -1.124987E+00 +1.666121E+01 +5.677504E+02 -1.892222E+01 -1.124987E+00 -1.892222E+01 +1.310976E+03 
 +5.699395E+02 +1.701739E+01 +1.411658E+01 +1.701739E+01 +5.764489E+02 -2.239456E+01 +1.411658E+01 -2.239456E+01 +1.339433E+03 
 +6.769782E+02 -1.154275E+01 -9.985247E+00 -1.154275E+01 +6.782986E+02 -1.281261E+01 -9.985247E+00 -1.281261E+01 +1.325505E+03 
 +6.220530E+02 +8.904362E+00 -1.575063E+01 +8.904362E+00 +7.114672E+02 +5.130540E+00 -1.575063E+01 +5.130540E+00 +1.345573E+03 
 +6.029970E+02 +2.771452E+01 -7.760236E+00 +2.771452E+01 +7.158618E+02 -1.674965E+01 -7.760236E+00 -1.674965E+01 +1.380201E+03 
 +6.226493E+02 +2.433547E+00 -5.298340E+00 +2.433547E+00 +5.731254E+02 +9.564693E+00 -5.298340E+00 +9.564693E+00 +1.395943E+03 
 +6.017964E+02 +1.193459E+01 +8.582143E+00 +1.193459E+01 +5.611371E+02 +3.748842E+00 +8.582143E+00 +3.748842E+00 +1.424421E+03 
 +6.406312E+02 -4.786298E+00 +1.110166E+01 -4.786298E+00 +5.803735E+02 -2.766062E+01 +1.110166E+01 -2.766062E+01 +1.335980E+03 
 +6.763077E+02 -1.984154E+01 +5.003435E+00 -1.984154E+01 +5.247253E+02 -1.619547E+01 +5.003435E+00 -1.619547E+01 +1.330459E+03 
 +5.706942E+02 -1.497467E+01 -2.571577E+01 -1.497467E+01 +6.443967E+02 +1.151863E+01 -2.571577E+01 +1.151863E+01 +1.405464E+03 
 +5.562649E+02 -2.890903E+01 +6.806530E+00 -2.890903E+01 +6.896495E+02 +2.145109E+01 +6.806530E+00 +2.145109E+01 +1.303368E+03 
 +6.389072E+02 +3.210046E+01 -2.224160E+00 +3.210046E+01 +6.874102E+02 -1.135927E+01 -2.224160E+00 -1.135927E+01 +1.339974E+03 
 +6.022083E+02 -3.295963E-01 +6.261937E+00 -3.295963E-01 +6.127599E+02 +1.776762E+01 +6.261937E+00 +1.776762E+01 +1.385826E+03 
 +6.797265E+02 -2.866772E+01 -2.130446E+01 -2.866772E+01 +5.496187E+02 +3.248512E+00 -2.130446E+01 +3.248512E+00 +1.288145E+03 
 +5.881884E+02 +6.307216E+00 -4.712816E+00 +6.307216E+00 +5.834171E+02 -5.154372E+01 -4.712816E+00 -5.154372E+01 +1.359865E+03 
 +6.760121E+02 -1.104466E+01 +8.128294E-02 -1.104466E+01 +6.011010E+02 -3.656534E+00 +8.128294E-02 -3.656534E+00 +1.309055E+03 
 +6.049953E+02 -2.008295E+01 -1.814488E+01 -2.008295E+01 +6.176506E+02 -1.654004E+01 -1.814488E+01 -1.654004E+01 +1.371820E+03 
 +5.462719E+02 +1.100315E+01 +2.875787E+01 +1.100315E+01 +5.485122E+02 +9.912024E+00 +2.875787E+01 +9.912024E+00 +1.406963E+03 
 +6.411979E+02 +6.021146E+01 -1.321540E+01 +6.021146E+01 +5.799676E+02 +1.709243E+01 -1.321540E+01 +1.709243E+01 +1.341141E+03 
 +7.686707E+02 -4.054721E+00 +2.327424E+00 -4.054721E+00 +6.088636E+02 +2.066049E+01 +2.327424E+00 +2.066049E+01 +1.340630E+03 
 +5.593929E+02 -9.918663E+00 +5.213844E+00 -9.918663E+00 +5.548563E+02 -1.362855E+01 +5.213844E+00 -1.362855E+01 +1.397799E+03 
 +6.181119E+02 +4.298386E+01 +1.331404E+00 +4.298386E+01 +5.714923E+02 -9.329164E+00 +1.331404E+00 -9.329164E+00 +1.283357E+03 
 +6.597084E+02 -4.999195E+01 +2.178580E+01 -4.999195E+01 +6.174280E+02 +1.769268E+00 +2.178580E+01 +1.769268E+00 +1.288306E+03 
 +5.818682E+02 -3.729149E+01 -1.831725E+01 -3.729149E+01 +6.006987E+02 -1.019454E+01 -1.831725E+01 -1.019454E+01 +1.312795E+03 
 +5.919108E+02 +6.980224E-01 -1.497554E+00 +6.980224E-01 +5.796867E+02 -1.611724E+01 -1.497554E+00 -1.611724E+01 +1.324452E+03 
 +5.935300E+02 -8.414607E+00 -2.166458E+01 -8.414607E+00 +5.922617E+02 -8.978426E+00 -2.166458E+01 -8.978426E+00 +1.424816E+03 
 +6.691521E+02 +5.016265E+01 +9.614265E+00 +5.016265E+01 +6.923099E+02 +9.296551E+00 +9.614265E+00 +9.296551E+00 +1.327794E+03 
 +6.006329E+02 -9.207787E+00 -4.937075E+00 -9.207787E+00 +6.367528E+02 +2.012705E+01 -4.937075E+00 +2.012705E+01 +1.474716E+03 
 +5.642824E+02 -1.834097E+01 +3.037697E+01 -1.834097E+01 +5.934133E+02 -3.204053E+00 +3.037697E+01 -3.204053E+00 +1.303749E+03 
 +5.766972E+02 -2.737922E+01 -8.098345E+00 -2.737922E+01 +6.272643E+02 -1.501265E+01 -8.098345E+00 -1.501265E+01 +1.313525E+03 
 +6.692185E+02 -4.063037E-01 -3.762171E+00 -4.063037E-01 +5.942279E+02 -4.511519E+00 -3.762171E+00 -4.511519E+00 +1.325422E+03 
 +6.396346E+02 +1.886974E+01 +9.974619E+00 +1.886974E+01 +5.988981E+02 -1.837716E+01 +9.974619E+00 -1.837716E+01 +1.390380E+03 
 +6.246974E+02 -2.487551E+01 +4.525824E+00 -2.487551E+01 +6.351714E+02 -4.598435E+00 +4.525824E+00 -4.598435E+00 +1.299354E+03 
 +6.489534E+02 -1.305827E+01 +2.552601E+01 -1.305827E+01 +6.123237E+02 +5.173862E+00 +2.552601E+01 +5.173862E+00 +1.376739E+03 
 +5.567156E+02 +2.999983E+00 +1.288822E+01 +2.999983E+00 +6.419534E+02 +2.956541E+00 +1.288822E+01 +2.956541E+00 +1.344336E+03 
 +5.662324E+02 +6.026712E+00 -2.613388E+01 +6.026712E+00 +6.276476E+02 +3.527435E+01 -2.613388E+01 +3.527435E+01 +1.372276E+03 
 +5.667130E+02 -2.362120E+01 -8.238687E+00 -2.362120E+01 +6.065605E+02 -7.904094E+00 -8.238687E+00 -7.904094E+00 +1.257038E+03 
 +6.453544E+02 -1.380241E+01 -2.185713E+01 -1.380241E+01 +5.829969E+02 -6.888689E+00 -2.185713E+01 -6.888689E+00 +1.321423E+03 
 +5.826910E+02 +2.437332E+01 -3.386976E+01 +2.437332E+01 +5.760983E+02 +1.984552E+01 -3.386976E+01 +1.984552E+01 +1.376448E+03 
 +5.689239E+02 -8.985500E+00 -6.918040E+00 -8.985500E+00 +5.316469E+02 +1.391920E+01 -6.918040E+00 +1.391920E+01 +1.343497E+03 
 +5.738867E+02 -7.519915E+01 +1.038775E+01 -7.519915E+01 +6.094633E+02 -4.021406E+00 +1.038775E+01 -4.021406E+00 +1.300816E+03 
 +6.510497E+02 +1.282685E+01 +1.451837E+01 +1.282685E+01 +6.814791E+02 -6.978885E+00 +1.451837E+01 -6.978885E+00 +1.435001E+03 
 +6.538368E+02 +3.066240E+00 -2.608729E+01 +3.066240E+00 +6.343667E+02 +1.775793E+01 -2.608729E+01 +1.775793E+01 +1.324645E+03 
 +5.179193E+02 +2.576097E+01 +2.696060E+01 +2.576097E+01 +5.784018E+02 +6.013020E+00 +2.696060E+01 +6.013020E+00 +1.324443E+03 
 +6.543139E+02 +4.558750E+00 -7.019289E+00 +4.558750E+00 +6.343210E+02 +1.972189E+01 -7.019289E+00 +1.972189E+01 +1.323667E+03 
 +6.544547E+02 -4.291312E+00 +4.903093E+00 -4.291312E+00 +7.239155E+02 -2.730647E+00 +4.903093E+00 -2.730647E+00 +1.359218E+03 
 +5.479982E+02 +2.949146E+01 +5.720564E-01 +2.949146E+01 +6.795905E+02 -5.842366E-01 +5.720564E-01 -5.842366E-01 +1.313595E+03 
 +6.539129E+02 -1.415401E+00 +2.498720E+00 -1.415401E+00 +5.925184E+02 +1.216371E+01 +2.498720E+00 +1.216371E+01 +1.317066E+03 
 +5.538274E+02 +8.978329E+00 +5.708215E+00 +8.978329E+00 +5.589659E+02 +1.815918E+01 +5.708215E+00 +1.815918E+01 +1.419075E+03 
 +6.488380E+02 -6.830645E+00 +1.882015E+00 -6.830645E+00 +5.981430E+02 +2.793515E+01 +1.882015E+00 +2.793515E+01 +1.325576E+03 
 +5.750541E+02 +5.239933E+01 +2.269426E+01 +5.239933E+01 +5.748826E+02 +9.041539E+00 +2.269426E+01 +9.041539E+00 +1.282136E+03 
 +5.981210E+02 -3.756311E+00 +1.352019E+01 -3.756311E+00 +6.385024E+02 -1.462277E+01 +1.352019E+01 -1.462277E+01 +1.422673E+03 
 +6.182271E+02 +3.514204E+00 -1.505983E+00 +3.514204E+00 +5.860762E+02 +2.522309E+01 -1.505983E+00 +2.522309E+01 +1.293155E+03 
 +5.124211E+02 +2.110172E+01 +1.072357E+01 +2.110172E+01 +5.342493E+02 -1.991280E+01 +1.072357E+01 -1.991280E+01 +1.393749E+03 
 +6.710687E+02 -5.447301E+00 -2.278101E+01 -5.447301E+00 +5.863405E+02 -2.616199E+01 -2.278101E+01 -2.616199E+01 +1.329000E+03 
 +5.435308E+02 +1.015121E+00 +1.534133E+01 +1.015121E+00 +5.363460E+02 -1.845599E+00 +1.534133E+01 -1.845599E+00 +1.389785E+03 
 +5.603732E+02 +9.838935E+00 +1.004786E+01 +9.838935E+00 +5.416367E+02 +2.492814E+01 +1.004786E+01 +2.492814E+01 +1.334039E+03 
 +6.910156E+02 +1.710975E+01 +4.337053E+00 +1.710975E+01 +6.026956E+02 +9.512051E+00 +4.337053E+00 +9.512051E+00 +1.334281E+03 
 +6.944201E+02 -2.104740E+01 +6.315923E+00 -2.104740E+01 +5.849875E+02 +2.411635E+00 +6.315923E+00 +2.411635E+00 +1.310499E+03 
 +6.359700E+02 -2.719809E+01 -6.576976E-01 -2.719809E+01 +5.716700E+02 -5.914680E+00 -6.576976E-01 -5.914680E+00 +1.316217E+03 
 +6.710270E+02 -3.588612E+01 +1.395775E+00 -3.588612E+01 +6.789736E+02 +1.420743E+01 +1.395775E+00 +1.420743E+01 +1.343611E+03 
 +5.878182E+02 -1.184986E+01 +2.911800E+01 -1.184986E+01 +5.828538E+02 -4.674390E+00 +2.911800E+01 -4.674390E+00 +1.410194E+03 
 +6.129373E+02 -3.548912E+01 -1.644285E+01 -3.548912E+01 +5.818973E+02 +7.986275E+00 -1.644285E+01 +7.986275E+00 +1.414619E+03 
 +6.261190E+02 +2.408170E+01 -8.596444E+00 +2.408170E+01 +5.978165E+02 +5.269029E+00 -8.596444E+00 +5.269029E+00 +1.409650E+03 
 +6.513757E+02 -2.753139E+01 -5.536670E-01 -2.753139E+01 +5.475582E+02 -1.855200E+01 -5.536670E-01 -1.855200E+01 +1.280503E+03 
 +5.088485E+02 -1.005143E+01 +2.373025E+01 -1.005143E+01 +5.444512E+02 -6.852608E+00 +2.373025E+01 -6.852608E+00 +1.352267E+03 
 +5.709087E+02 +2.331200E+00 +2.055010E+01 +2.331200E+00 +5.495948E+02 +3.213948E+00 +2.055010E+01 +3.213948E+00 +1.365420E+03 
 +5.351719E+02 -4.249001E+01 -1.762305E+01 -4.249001E+01 +6.034570E+02 +1.212179E+01 -1.762305E+01 +1.212179E+01 +1.262013E+03 
 +5.978643E+02 -3.821620E+00 +8.140891E-01 -3.821620E+00 +6.905542E+02 +1.104222E+01 +8.140891E-01 +1.104222E+01 +1.352481E+03 
 +5.794852E+02 -7.586044E+00 +1.060110E+01 -7.586044E+00 +6.317755E+02 +7.881690E+00 +1.060110E+01 +7.881690E+00 +1.385419E+03 
 +6.384438E+02 -3.521484E+00 -2.843511E+01 -3.521484E+00 +6.138910E+02 +1.344309E+01 -2.843511E+01 +1.344309E+01 +1.331481E+03 
 +5.715594E+02 -5.977873E+00 -2.125721E+01 -5.977873E+00 +7.124833E+02 +1.851792E+01 -2.125721E+01 +1.851792E+01 +1.333621E+03 
 +5.574866E+02 +1.800151E+01 -4.054667E+00 +1.800151E+01 +5.942216E+02 +3.693165E+01 -4.054667E+00 +3.693165E+01 +1.386002E+03 
 +6.498452E+02 +1.203342E+01 -6.551216E+00 +1.203342E+01 +5.424276E+02 +1.281867E+01 -6.551216E+00 +1.281867E+01 +1.294860E+03 
 +6.291902E+02 +1.088856E+01 -2.690721E+01 +1.088856E+01 +5.978410E+02 -3.664825E+01 -2.690721E+01 -3.664825E+01 +1.455693E+03 
 +6.688380E+02 +4.645952E+01 +4.489028E+00 +4.645952E+01 +5.532991E+02 -3.049871E+00 +4.489028E+00 -3.049871E+00 +1.265586E+03 
 +5.656163E+02 +1.282502E+01 -1.979049E+01 +1.282502E+01 +5.694325E+02 +1.160203E+00 -1.979049E+01 +1.160203E+00 +1.424828E+03 
 +6.678518E+02 +4.836484E+01 +1.120705E+01 +4.836484E+01 +5.736344E+02 -2.189911E+01 +1.120705E+01 -2.189911E+01 +1.301218E+03 
 +5.660719E+02 -3.813170E+00 -2.719025E+01 -3.813170E+00 +5.812435E+02 +3.413867E+00 -2.719025E+01 +3.413867E+00 +1.396693E+03 
 +5.725789E+02 +1.098608E+01 -2.792789E+01 +1.098608E+01 +5.898536E+02 +2.023933E+01 -2.792789E+01 +2.023933E+01 +1.400814E+03 
 +5.791827E+02 -2.939783E+01 +4.836873E+01 -2.939783E+01 +5.997889E+02 -1.329734E+01 +4.836873E+01 -1.329734E+01 +1.322875E+03 
 +6.272525E+02 -4.862017E+01 +5.693963E+00 -4.862017E+01 +5.946565E+02 -1.543331E+01 +5.693963E+00 -1.543331E+01 +1.305064E+03 
 +5.668257E+02 -1.361926E+01 +9.126294E+00 -1.361926E+01 +6.219090E+02 +4.393435E+01 +9.126294E+00 +4.393435E+01 +1.399467E+03 
 +6.326885E+02 -7.322474E+00 +1.756895E+00 -7.322474E+00 +5.940460E+02 +2.122084E+01 +1.756895E+00 +2.122084E+01 +1.417865E+03 
 +6.125151E+02 -2.678734E+00 -2.503314E+01 -2.678734E+00 +6.059167E+02 +1.262480E+01 -2.503314E+01 +1.262480E+01 +1.413207E+03 
 +5.915037E+02 +9.301487E+00 -1.091894E+00 +9.301487E+00 +5.796279E+02 +9.337527E+00 -1.091894E+00 +9.337527E+00 +1.294600E+03 
 +6.593435E+02 +1.873858E+01 +1.281449E+01 +1.873858E+01 +6.273314E+02 -2.173568E+01 +1.281449E+01 -2.173568E+01 +1.383779E+03 
 +6.024730E+02 +5.341259E+01 -5.838273E+00 +5.341259E+01 +6.542318E+02 +4.307461E+00 -5.838273E+00 +4.307461E+00 +1.324982E+03 
 +6.185699E+02 +4.300654E+01 -1.531721E+01 +4.300654E+01 +6.893212E+02 -1.586355E+01 -1.531721E+01 -1.586355E+01 +1.307451E+03 
 +6.397416E+02 -4.569359E+01 -1.208998E+00 -4.569359E+01 +7.096341E+02 +2.697198E+00 -1.208998E+00 +2.697198E+00 +1.320351E+03 
 +6.115590E+02 +3.782080E+01 -7.500807E+00 +3.782080E+01 +6.619441E+02 +2.890174E+01 -7.500807E+00 +2.890174E+01 +1.324654E+03 
 +6.141840E+02 +1.436470E+00 +2.553206E+01 +1.436470E+00 +6.573748E+02 -4.196270E+00 +2.553206E+01 -4.196270E+00 +1.386311E+03 
 +6.108386E+02 -7.705500E+00 +6.678952E+00 -7.705500E+00 +6.064617E+02 +2.242711E+01 +6.678952E+00 +2.242711E+01 +1.379879E+03 
 +6.736024E+02 -4.710280E+01 -6.108666E+00 -4.710280E+01 +6.518958E+02 +1.329912E+01 -6.108666E+00 +1.329912E+01 +1.349531E+03 
 +5.709524E+02 -3.167975E+01 -2.314148E+01 -3.167975E+01 +5.871624E+02 -1.756050E+01 -2.314148E+01 -1.756050E+01 +1.366403E+03 
 +5.793867E+02 +6.278592E+00 -7.183197E+00 +6.278592E+00 +5.842328E+02 +1.699683E+01 -7.183197E+00 +1.699683E+01 +1.408279E+03 
 +5.964570E+02 -2.489189E+01 +1.243247E+00 -2.489189E+01 +7.512768E+02 +6.505821E+00 +1.243247E+00 +6.505821E+00 +1.346403E+03 
 +5.763899E+02 -4.498008E+00 +2.393652E+01 -4.498008E+00 +6.229185E+02 +5.534343E-01 +2.393652E+01 +5.534343E-01 +1.369751E+03 
 +5.697895E+02 +1.486171E+01 -2.233253E+01 +1.486171E+01 +5.701218E+02 -3.678973E+00 -2.233253E+01 -3.678973E+00 +1.414067E+03 
 +6.986557E+02 +2.095834E+01 +3.792495E+00 +2.095834E+01 +6.072172E+02 -2.221013E+01 +3.792495E+00 -2.221013E+01 +1.351322E+03 
 +6.442952E+02 +8.191076E-01 +7.754890E+00 +8.191076E-01 +7.067623E+02 -1.329781E+01 +7.754890E+00 -1.329781E+01 +1.387177E+03 
 +6.490790E+02 -2.364449E+01 +1.328478E+01 -2.364449E+01 +5.873439E+02 -4.565140E+00 +1.328478E+01 -4.565140E+00 +1.338416E+03 
 +5.635067E+02 +2.210032E+01 -9.156530E+00 +2.210032E+01 +5.820736E+02 +5.359153E+00 -9.156530E+00 +5.359153E+00 +1.387778E+03 
 +6.912054E+02 +2.240735E+01 -8.444126E-01 +2.240735E+01 +5.948652E+02 +9.795460E+00 -8.444126E-01 +9.795460E+00 +1.309724E+03 
 +5.694934E+02 +1.134446E+01 -1.699318E+01 +1.134446E+01 +5.886102E+02 +1.921427E+01 -1.699318E+01 +1.921427E+01 +1.429047E+03 
 +6.566967E+02 +6.476913E+01 -2.538951E+01 +6.476913E+01 +6.428339E+02 -2.478918E+00 -2.538951E+01 -2.478918E+00 +1.341714E+03 
 +6.392441E+02 +1.502878E+01 +3.762484E+00 +1.502878E+01 +6.025394E+02 +1.968747E+01 +3.762484E+00 +1.968747E+01 +1.359717E+03 
 +6.190033E+02 +7.551892E+00 -4.072238E+00 +7.551892E+00 +6.361244E+02 +1.336275E+01 -4.072238E+00 +1.336275E+01 +1.348534E+03 
 +5.664180E+02 -4.561338E+01 +2.261037E+01 -4.561338E+01 +5.800330E+02 +6.448175E+00 +2.261037E+01 +6.448175E+00 +1.325321E+03 
 +6.163660E+02 -1.584886E+01 +4.220683E+00 -1.584886E+01 +5.995474E+02 -2.423353E+00 +4.220683E+00 -2.423353E+00 +1.323673E+03 
 +5.673930E+02 +5.052843E+00 +2.010969E+01 +5.052843E+00 +5.680953E+02 +2.240066E+01 +2.010969E+01 +2.240066E+01 +1.355989E+03 
 +6.284830E+02 -2.401347E+01 -1.847480E+01 -2.401347E+01 +5.911346E+02 +8.651863E+00 -1.847480E+01 +8.651863E+00 +1.287119E+03 
 +6.355399E+02 +9.793125E-01 +1.309046E+01 +9.793125E-01 +5.966879E+02 +1.058751E+00 +1.309046E+01 +1.058751E+00 +1.443311E+03 
 +6.915892E+02 +2.453836E+01 +5.159972E+00 +2.453836E+01 +5.495389E+02 +5.407612E+00 +5.159972E+00 +5.407612E+00 +1.337268E+03 
 +5.394433E+02 +1.185681E+01 +2.911622E+01 +1.185681E+01 +5.392873E+02 +2.134101E+01 +2.911622E+01 +2.134101E+01 +1.409989E+03 
 +5.714678E+02 -3.835732E+00 -8.161417E+00 -3.835732E+00 +5.650378E+02 -4.303803E+01 -8.161417E+00 -4.303803E+01 +1.359376E+03 
 +5.585717E+02 +4.275179E+01 +1.944044E+01 +4.275179E+01 +6.589807E+02 -8.247925E+00 +1.944044E+01 -8.247925E+00 +1.288680E+03 
 +5.865524E+02 +1.981155E+00 -2.196050E+01 +1.981155E+00 +5.987316E+02 +4.825265E+01 -2.196050E+01 +4.825265E+01 +1.435276E+03 
 +6.469175E+02 -1.797720E+00 +2.926786E+00 -1.797720E+00 +5.968992E+02 +2.028427E+01 +2.926786E+00 +2.028427E+01 +1.346533E+03 
 +6.072908E+02 +2.036359E+00 -3.092626E+01 +2.036359E+00 +5.883345E+02 -9.353035E+00 -3.092626E+01 -9.353035E+00 +1.429611E+03 
 +5.415762E+02 -1.143960E+01 +6.066292E+00 -1.143960E+01 +6.201709E+02 +6.618655E+00 +6.066292E+00 +6.618655E+00 +1.309073E+03 
 +6.355622E+02 +5.074764E+01 -6.762368E+00 +5.074764E+01 +6.569209E+02 -9.195964E+00 -6.762368E+00 -9.195964E+00 +1.312792E+03 
 +6.144181E+02 -9.186265E+00 +3.516099E+00 -9.186265E+00 +6.145438E+02 -2.231439E+01 +3.516099E+00 -2.231439E+01 +1.352190E+03 
 +5.699148E+02 -1.057429E+00 -3.913239E+01 -1.057429E+00 +5.707939E+02 -1.967623E+01 -3.913239E+01 -1.967623E+01 +1.395282E+03 
 +5.976306E+02 -1.435855E+01 +2.826568E+01 -1.435855E+01 +5.664962E+02 -1.451127E+01 +2.826568E+01 -1.451127E+01 +1.404476E+03 
 +6.036636E+02 +7.896484E-01 -1.502976E+01 +7.896484E-01 +6.134355E+02 -2.743503E+01 -1.502976E+01 -2.743503E+01 +1.324667E+03 
 +6.787639E+02 -4.017752E+01 +1.048309E+01 -4.017752E+01 +6.537793E+02 +6.937700E+00 +1.048309E+01 +6.937700E+00 +1.351685E+03 
 +5.321303E+02 +2.290885E+00 -6.551255E+00 +2.290885E+00 +6.253950E+02 -9.449798E-01 -6.551255E+00 -9.449798E-01 +1.268687E+03 
 +5.657603E+02 -1.725084E+01 +7.963091E+00 -1.725084E+01 +5.880996E+02 +3.545424E+01 +7.963091E+00 +3.545424E+01 +1.394336E+03 
 +7.059698E+02 +4.857439E+01 +1.564733E+01 +4.857439E+01 +6.280723E+02 -1.279853E+00 +1.564733E+01 -1.279853E+00 +1.318585E+03 
 +6.053931E+02 +2.121884E+01 -2.438787E+01 +2.121884E+01 +5.561234E+02 -8.186365E+00 -2.438787E+01 -8.186365E+00 +1.350227E+03 
 +6.158200E+02 +5.352875E+00 -4.209151E+00 +5.352875E+00 +5.880526E+02 +7.383830E+00 -4.209151E+00 +7.383830E+00 +1.385521E+03 
 +7.221505E+02 -8.704076E+00 +2.233822E+01 -8.704076E+00 +6.491501E+02 -1.768487E+01 +2.233822E+01 -1.768487E+01 +1.389586E+03 
 +6.106336E+02 -6.703465E+01 -1.679935E+00 -6.703465E+01 +6.234070E+02 -1.257522E+01 -1.679935E+00 -1.257522E+01 +1.325623E+03 
 +6.457213E+02 -6.162280E+01 -2.566115E+00 -6.162280E+01 +5.408771E+02 +1.984861E+01 -2.566115E+00 +1.984861E+01 +1.303684E+03 
 +5.931652E+02 -1.220776E+01 -5.009577E+00 -1.220776E+01 +5.723235E+02 -5.063678E+00 -5.009577E+00 -5.063678E+00 +1.457906E+03 
 +6.467119E+02 +3.147174E+01 +5.914814E+00 +3.147174E+01 +6.010686E+02 +1.125897E+01 +5.914814E+00 +1.125897E+01 +1.408197E+03 
 +6.917874E+02 -7.526376E+00 -1.005035E+01 -7.526376E+00 +5.459952E+02 -5.452323E+00 -1.005035E+01 -5.452323E+00 +1.262342E+03 
 +5.598176E+02 +2.113106E+01 +8.291255E+00 +2.113106E+01 +5.713104E+02 +4.200376E+00 +8.291255E+00 +4.200376E+00 +1.395399E+03 
 +5.764091E+02 +3.007371E+00 +3.299545E+01 +3.007371E+00 +5.553591E+02 -4.602425E-01 +3.299545E+01 -4.602425E-01 +1.376319E+03 
 +6.635584E+02 -3.504605E+01 -6.918658E+00 -3.504605E+01 +6.050862E+02 -1.994703E+01 -6.918658E+00 -1.994703E+01 +1.320085E+03 
 +5.679860E+02 +6.568140E-01 +6.772483E+00 +6.568140E-01 +6.614423E+02 -2.403486E+01 +6.772483E+00 -2.403486E+01 +1.347367E+03 
 +6.337842E+02 -2.845363E+01 +1.098491E+00 -2.845363E+01 +5.949788E+02 -1.636432E+01 +1.098491E+00 -1.636432E+01 +1.280854E+03 
 +5.426286E+02 +4.411298E+01 +6.616426E+00 +4.411298E+01 +6.504187E+02 -1.654805E+01 +6.616426E+00 -1.654805E+01 +1.324631E+03 
 +6.782806E+02 +3.251435E+01 +6.434867E-02 +3.251435E+01 +6.169008E+02 +4.084820E+00 +6.434867E-02 +4.084820E+00 +1.364729E+03 
 +5.644734E+02 -3.820095E+01 +4.704004E+00 -3.820095E+01 +5.589106E+02 -3.389300E-01 +4.704004E+00 -3.389300E-01 +1.384748E+03 
 +6.091661E+02 +9.169045E+00 -5.312029E+00 +9.169045E+00 +6.048273E+02 -8.131036E-01 -5.312029E+00 -8.131036E-01 +1.358163E+03 
 +5.835464E+02 +2.157263E+01 +2.490923E+01 +2.157263E+01 +6.068012E+02 +6.537858E+00 +2.490923E+01 +6.537858E+00 +1.335743E+03 
 +6.948322E+02 -2.614597E+01 -1.844017E+01 -2.614597E+01 +5.981547E+02 -2.288167E+00 -1.844017E+01 -2.288167E+00 +1.309971E+03 
 +6.264105E+02 +2.574666E+01 +9.653443E+00 +2.574666E+01 +5.758510E+02 -1.906792E+01 +9.653443E+00 -1.906792E+01 +1.330964E+03 
 +5.791798E+02 -1.334282E+01 -2.356311E+01 -1.334282E+01 +6.127393E+02 +1.625965E+01 -2.356311E+01 +1.625965E+01 +1.406392E+03 
 +6.223666E+02 -2.734251E+01 -1.307836E+01 -2.734251E+01 +6.683535E+02 -1.660441E+01 -1.307836E+01 -1.660441E+01 +1.364208E+03 
 +5.643830E+02 -3.758104E+01 +4.112912E-01 -3.758104E+01 +6.167705E+02 -5.320825E+00 +4.112912E-01 -5.320825E+00 +1.320581E+03 
 +5.795812E+02 -9.679408E+00 -4.253854E+00 -9.679408E+00 +6.130875E+02 -6.410079E+00 -4.253854E+00 -6.410079E+00 +1.386770E+03 
 +6.021401E+02 +5.341392E+01 -1.563740E+00 +5.341392E+01 +5.658073E+02 +1.620048E+01 -1.563740E+00 +1.620048E+01 +1.307630E+03 
 +5.739650E+02 +1.613176E+01 +2.715727E+01 +1.613176E+01 +5.813947E+02 -8.309872E+00 +2.715727E+01 -8.309872E+00 +1.369252E+03 
 +6.395260E+02 -3.427608E+00 -1.340649E+01 -3.427608E+00 +6.055369E+02 -2.675759E+01 -1.340649E+01 -2.675759E+01 +1.476124E+03 
 +5.739601E+02 -1.378880E+01 -4.540207E+00 -1.378880E+01 +6.533098E+02 +1.373456E+01 -4.540207E+00 +1.373456E+01 +1.310006E+03 
 +5.523850E+02 -6.355843E+00 -1.358772E+01 -6.355843E+00 +6.906335E+02 +1.305286E+01 -1.358772E+01 +1.305286E+01 +1.310625E+03 
 +6.520008E+02 -4.036921E+01 -8.987429E+00 -4.036921E+01 +6.397443E+02 -1.655424E+01 -8.987429E+00 -1.655424E+01 +1.312478E+03 
 +6.518193E+02 -4.087291E+01 +1.126509E+01 -4.087291E+01 +6.567561E+02 +1.014173E+01 +1.126509E+01 +1.014173E+01 +1.378584E+03 
 +5.832800E+02 -2.379822E+01 +1.944678E+01 -2.379822E+01 +6.806683E+02 +1.033901E+01 +1.944678E+01 +1.033901E+01 +1.286164E+03 
 +5.895453E+02 -1.025041E+01 -2.010132E+00 -1.025041E+01 +5.984661E+02 +2.221762E+01 -2.010132E+00 +2.221762E+01 +1.366215E+03 
 +6.548880E+02 +3.930840E+01 -1.627431E+01 +3.930840E+01 +6.501397E+02 +1.752407E+01 -1.627431E+01 +1.752407E+01 +1.373678E+03 
 +6.228093E+02 -1.741332E+01 -1.253467E+01 -1.741332E+01 +5.735264E+02 +9.090849E+00 -1.253467E+01 +9.090849E+00 +1.295530E+03 
 +5.729562E+02 +7.091152E+00 -1.066877E+01 +7.091152E+00 +5.966047E+02 +1.940498E+01 -1.066877E+01 +1.940498E+01 +1.455301E+03 
 +5.809342E+02 +4.924340E+01 +5.222987E+00 +4.924340E+01 +6.432687E+02 -1.844353E+00 +5.222987E+00 -1.844353E+00 +1.314190E+03 
 +6.839473E+02 -3.345095E+01 -2.475999E+00 -3.345095E+01 +6.726702E+02 -1.627757E+01 -2.475999E+00 -1.627757E+01 +1.391823E+03 
 +5.941911E+02 -5.177175E+00 +5.482649E+00 -5.177175E+00 +6.872055E+02 -8.638495E-01 +5.482649E+00 -8.638495E-01 +1.323173E+03 
 +5.667085E+02 +1.890182E+01 -2.069718E+01 +1.890182E+01 +7.103792E+02 -1.501397E+01 -2.069718E+01 -1.501397E+01 +1.308351E+03 
 +5.657380E+02 -1.056718E+01 +6.655477E+00 -1.056718E+01 +6.120255E+02 +1.385504E+01 +6.655477E+00 +1.385504E+01 +1.345591E+03 
 +6.167031E+02 -2.162357E+01 -8.888152E+00 -2.162357E+01 +5.740648E+02 +3.342229E+01 -8.888152E+00 +3.342229E+01 +1.367598E+03 
 +6.416771E+02 +2.175532E+01 +1.329597E+01 +2.175532E+01 +6.240515E+02 +6.172945E+00 +1.329597E+01 +6.172945E+00 +1.396661E+03 
 +6.098762E+02 +3.377132E+01 +1.144831E+01 +3.377132E+01 +5.900458E+02 -1.617690E+01 +1.144831E+01 -1.617690E+01 +1.326067E+03 
 +6.491497E+02 +1.185518E+01 +1.456706E+00 +1.185518E+01 +6.312972E+02 +4.398646E+01 +1.456706E+00 +4.398646E+01 +1.324921E+03 
 +6.179565E+02 -8.344845E+00 +2.329645E+01 -8.344845E+00 +7.000109E+02 +2.519262E+00 +2.329645E+01 +2.519262E+00 +1.314227E+03 
 +6.831040E+02 -1.990558E+01 +1.645981E+01 -1.990558E+01 +6.224739E+02 -1.193192E+01 +1.645981E+01 -1.193192E+01 +1.387781E+03 
 +6.285381E+02 +2.320653E+01 -2.356769E+01 +2.320653E+01 +6.218088E+02 +1.177508E+01 -2.356769E+01 +1.177508E+01 +1.385397E+03 
 +6.249985E+02 +4.491263E+01 +2.086880E+01 +4.491263E+01 +6.174056E+02 -1.750676E+01 +2.086880E+01 -1.750676E+01 +1.299755E+03 
 +5.697021E+02 -9.369126E+00 -1.872988E+00 -9.369126E+00 +6.383396E+02 -4.164873E+00 -1.872988E+00 -4.164873E+00 +1.294573E+03 
 +6.372284E+02 -1.873999E+00 -2.195648E+00 -1.873999E+00 +6.794046E+02 +1.113520E+01 -2.195648E+00 +1.113520E+01 +1.351379E+03 
 +5.888412E+02 +7.589448E+00 -1.456286E+00 +7.589448E+00 +6.153984E+02 -6.404782E+00 -1.456286E+00 -6.404782E+00 +1.323823E+03 
 +6.498879E+02 +1.008849E+01 +5.952096E+00 +1.008849E+01 +5.828846E+02 +1.041823E+01 +5.952096E+00 +1.041823E+01 +1.312574E+03 
 +6.064458E+02 +3.546521E+01 -1.182406E-01 +3.546521E+01 +6.336862E+02 +6.035244E+00 -1.182406E-01 +6.035244E+00 +1.334153E+03 
 +5.548126E+02 -1.133244E+01 -1.685442E+01 -1.133244E+01 +5.686042E+02 +9.616120E+00 -1.685442E+01 +9.616120E+00 +1.372207E+03 
 +6.277336E+02 +2.496789E+01 +2.208405E+01 +2.496789E+01 +6.103131E+02 +3.519167E+00 +2.208405E+01 +3.519167E+00 +1.423554E+03 
 +5.966657E+02 -1.330372E+01 -3.301585E+01 -1.330372E+01 +6.038958E+02 -3.659019E+01 -3.301585E+01 -3.659019E+01 +1.428158E+03 
 +6.944291E+02 -2.493347E+01 +7.073795E+00 -2.493347E+01 +6.161162E+02 +1.396427E+00 +7.073795E+00 +1.396427E+00 +1.308907E+03 
 +6.136883E+02 +5.401011E+01 -4.316673E+00 +5.401011E+01 +6.515159E+02 +2.718333E+00 -4.316673E+00 +2.718333E+00 +1.348310E+03 
 +5.715784E+02 +5.167323E+01 -2.372648E+00 +5.167323E+01 +6.262415E+02 +1.258666E+01 -2.372648E+00 +1.258666E+01 +1.286890E+03 
 +6.990022E+02 +2.759639E+01 +5.987452E+00 +2.759639E+01 +6.111263E+02 +1.216625E+01 +5.987452E+00 +1.216625E+01 +1.324304E+03 
 +5.906806E+02 +5.793132E+01 +1.841292E+01 +5.793132E+01 +6.332662E+02 +2.433582E+00 +1.841292E+01 +2.433582E+00 +1.332202E+03 
 +6.020744E+02 +3.232993E+01 +1.876953E+01 +3.232993E+01 +6.757417E+02 -9.113703E+00 +1.876953E+01 -9.113703E+00 +1.308188E+03 
 +5.925370E+02 +6.459567E+00 +8.890407E+00 +6.459567E+00 +6.811539E+02 -1.430675E+01 +8.890407E+00 -1.430675E+01 +1.304708E+03 
 +6.378879E+02 -1.652892E+01 -3.162271E+01 -1.652892E+01 +6.462471E+02 +2.314810E+01 -3.162271E+01 +2.314810E+01 +1.312768E+03 
 +6.031617E+02 -9.545582E+00 -4.411159E+00 -9.545582E+00 +6.008622E+02 -1.022350E-01 -4.411159E+00 -1.022350E-01 +1.330654E+03 
 +6.110587E+02 +6.874647E+00 +2.148377E+01 +6.874647E+00 +5.953070E+02 -4.235657E+00 +2.148377E+01 -4.235657E+00 +1.414026E+03 
 +6.118622E+02 +4.195386E+00 -1.138125E+01 +4.195386E+00 +5.860139E+02 +1.111092E+01 -1.138125E+01 +1.111092E+01 +1.296082E+03 
 +5.709933E+02 +5.437720E+00 +1.755147E+01 +5.437720E+00 +5.887262E+02 +3.583374E+01 +1.755147E+01 +3.583374E+01 +1.445531E+03 
 +6.120690E+02 +2.684724E+01 +7.073408E+00 +2.684724E+01 +6.265422E+02 +2.495190E+01 +7.073408E+00 +2.495190E+01 +1.317703E+03 
 +5.989957E+02 +3.199028E+01 -2.186698E+01 +3.199028E+01 +6.708981E+02 +6.222651E+00 -2.186698E+01 +6.222651E+00 +1.354308E+03 
 +6.213340E+02 -1.017860E+00 -1.251031E+01 -1.017860E+00 +6.445359E+02 +1.205495E+01 -1.251031E+01 +1.205495E+01 +1.374721E+03 
 +6.579877E+02 -2.514490E+01 +3.321351E+01 -2.514490E+01 +6.174702E+02 +2.375617E+01 +3.321351E+01 +2.375617E+01 +1.294512E+03 
 +5.822736E+02 -1.181299E+01 +5.437253E+00 -1.181299E+01 +6.153959E+02 -2.085773E+01 +5.437253E+00 -2.085773E+01 +1.333527E+03 
 +5.592390E+02 +5.363145E-01 -9.423149E+00 +5.363145E-01 +5.798301E+02 -1.912886E+01 -9.423149E+00 -1.912886E+01 +1.310915E+03 
 +6.692150E+02 -4.087221E+01 +1.046179E+01 -4.087221E+01 +5.859650E+02 +1.334803E+01 +1.046179E+01 +1.334803E+01 +1.349509E+03 
 +5.722769E+02 +4.650112E-01 -5.784177E-01 +4.650112E-01 +5.663696E+02 +2.265544E+01 -5.784177E-01 +2.265544E+01 +1.434742E+03 
 +6.156281E+02 +4.222505E+01 +5.920865E+00 +4.222505E+01 +6.061037E+02 +6.767128E+00 +5.920865E+00 +6.767128E+00 +1.316916E+03 
 +5.202581E+02 -7.025980E+00 -1.114948E+01 -7.025980E+00 +5.480358E+02 -1.393927E+01 -1.114948E+01 -1.393927E+01 +1.394605E+03 
 +6.492697E+02 -1.432701E+01 +1.757736E+01 -1.432701E+01 +5.442803E+02 +1.064357E+01 +1.757736E+01 +1.064357E+01 +1.251036E+03 
 +5.534283E+02 -2.023669E+01 -2.219736E+01 -2.023669E+01 +5.455146E+02 +3.742631E+01 -2.219736E+01 +3.742631E+01 +1.333553E+03 
 +5.826340E+02 -1.670138E+00 -1.102051E+00 -1.670138E+00 +5.633541E+02 -2.074598E+01 -1.102051E+00 -2.074598E+01 +1.349736E+03 
 +5.114696E+02 -2.980400E+01 -7.988969E+00 -2.980400E+01 +6.219650E+02 -4.036416E+01 -7.988969E+00 -4.036416E+01 +1.256113E+03 
 +7.219290E+02 -4.167903E+01 -1.040051E+00 -4.167903E+01 +6.568400E+02 -1.159388E+01 -1.040051E+00 -1.159388E+01 +1.343436E+03 
 +4.878452E+02 -5.448585E+00 +1.237046E+01 -5.448585E+00 +5.999567E+02 +5.668362E-01 +1.237046E+01 +5.668362E-01 +1.247338E+03 
 +6.733596E+02 +8.892966E+00 -1.114512E+01 +8.892966E+00 +5.526159E+02 +1.047752E+01 -1.114512E+01 +1.047752E+01 +1.304648E+03 
 +6.008149E+02 -6.921759E+00 -3.448257E+01 -6.921759E+00 +6.086080E+02 +3.103340E+01 -3.448257E+01 +3.103340E+01 +1.389725E+03 
 +5.652411E+02 -1.903654E+00 +3.844511E+00 -1.903654E+00 +5.835673E+02 -1.741782E+00 +3.844511E+00 -1.741782E+00 +1.402565E+03 
 +6.719417E+02 -2.153784E+01 -7.836660E-01 -2.153784E+01 +5.527298E+02 -2.200623E+00 -7.836660E-01 -2.200623E+00 +1.272352E+03 
 +5.453708E+02 +4.617244E+00 -3.372962E+01 +4.617244E+00 +5.494812E+02 +8.672903E+00 -3.372962E+01 +8.672903E+00 +1.404567E+03 
 +5.994570E+02 -6.675379E+00 +1.960656E+01 -6.675379E+00 +5.915627E+02 +4.024560E+00 +1.960656E+01 +4.024560E+00 +1.366702E+03 
 +7.789125E+02 -3.928709E+01 -1.132778E+01 -3.928709E+01 +6.185566E+02 -3.469368E+00 -1.132778E+01 -3.469368E+00 +1.382769E+03 
 +6.131369E+02 -6.517525E-01 +1.900535E+01 -6.517525E-01 +5.588451E+02 +3.897136E+01 +1.900535E+01 +3.897136E+01 +1.334327E+03 
 +5.855359E+02 -2.092012E+01 -5.585287E+00 -2.092012E+01 +5.764799E+02 -1.180145E+01 -5.585287E+00 -1.180145E+01 +1.405259E+03 
 +5.371522E+02 +2.368921E+01 +6.856267E+00 +2.368921E+01 +6.651239E+02 +6.283897E+00 +6.856267E+00 +6.283897E+00 +1.280910E+03 
 +6.833955E+02 +4.436164E+01 -8.971884E-01 +4.436164E+01 +6.110405E+02 +2.106531E+01 -8.971884E-01 +2.106531E+01 +1.328527E+03 
 +6.515856E+02 +6.903499E+00 -7.297873E+00 +6.903499E+00 +6.168802E+02 -1.179965E+01 -7.297873E+00 -1.179965E+01 +1.366536E+03 
 +6.276395E+02 -1.671676E+01 -9.181678E+00 -1.671676E+01 +6.032985E+02 +1.309962E+01 -9.181678E+00 +1.309962E+01 +1.381539E+03 
 +7.063473E+02 -2.584695E+01 +7.897607E+00 -2.584695E+01 +6.362947E+02 +9.957199E+00 +7.897607E+00 +9.957199E+00 +1.365382E+03 
 +5.738119E+02 -4.877655E+00 -2.485187E+00 -4.877655E+00 +6.526599E+02 -1.858878E+00 -2.485187E+00 -1.858878E+00 +1.328523E+03 
 +6.535571E+02 +1.583784E+01 +9.117700E+00 +1.583784E+01 +5.992595E+02 +1.889405E+01 +9.117700E+00 +1.889405E+01 +1.267080E+03 
 +5.783333E+02 +1.116047E+01 -4.843389E+00 +1.116047E+01 +7.167693E+02 -6.875233E+00 -4.843389E+00 -6.875233E+00 +1.321564E+03 
 +6.101217E+02 -5.488413E+00 +1.067399E+01 -5.488413E+00 +7.306048E+02 -4.530858E+00 +1.067399E+01 -4.530858E+00 +1.365611E+03 
 +6.340038E+02 -3.899353E+01 -2.125822E+00 -3.899353E+01 +6.314216E+02 +1.900039E+01 -2.125822E+00 +1.900039E+01 +1.312919E+03 
 +5.874458E+02 +2.645494E+00 +1.025204E+01 +2.645494E+00 +6.386509E+02 +1.989422E+01 +1.025204E+01 +1.989422E+01 +1.324106E+03 
 +6.717732E+02 +5.391733E+00 -1.142089E+01 +5.391733E+00 +5.554562E+02 +2.100904E+00 -1.142089E+01 +2.100904E+00 +1.333634E+03 
 +6.322959E+02 +2.606427E+01 -1.406359E+01 +2.606427E+01 +5.065849E+02 +8.146449E+00 -1.406359E+01 +8.146449E+00 +1.273621E+03 
 +6.011699E+02 +2.198430E+01 +4.533269E+00 +2.198430E+01 +6.317614E+02 +5.816990E-02 +4.533269E+00 +5.816990E-02 +1.392311E+03 
 +6.270541E+02 -1.319556E+00 +2.996133E+01 -1.319556E+00 +6.757925E+02 -2.978310E+00 +2.996133E+01 -2.978310E+00 +1.361023E+03 
 +5.880616E+02 +1.329133E+01 -9.116324E+00 +1.329133E+01 +7.034818E+02 +1.034407E+01 -9.116324E+00 +1.034407E+01 +1.318822E+03 
 +6.412963E+02 -1.424222E+00 -1.096821E+01 -1.424222E+00 +6.797878E+02 -2.355465E-01 -1.096821E+01 -2.355465E-01 +1.349718E+03 
 +5.971932E+02 -2.325140E+01 +5.923445E+00 -2.325140E+01 +5.690721E+02 -1.876459E+01 +5.923445E+00 -1.876459E+01 +1.436894E+03 
 +6.018388E+02 -6.134177E+01 -2.196744E+00 -6.134177E+01 +5.992625E+02 +2.269059E+01 -2.196744E+00 +2.269059E+01 +1.273460E+03 
 +6.168773E+02 -4.319894E+01 +1.508530E+01 -4.319894E+01 +6.795287E+02 +2.501854E+00 +1.508530E+01 +2.501854E+00 +1.393749E+03 
 +6.611479E+02 -1.480534E+01 +7.067309E+00 -1.480534E+01 +6.855521E+02 +4.994020E+00 +7.067309E+00 +4.994020E+00 +1.336838E+03 
 +6.679952E+02 -4.227460E+01 +1.592399E+01 -4.227460E+01 +5.676394E+02 -1.425430E+01 +1.592399E+01 -1.425430E+01 +1.295874E+03 
 +6.184246E+02 -5.061623E+01 -2.105514E+00 -5.061623E+01 +5.909462E+02 -4.798636E+00 -2.105514E+00 -4.798636E+00 +1.311132E+03 
 +5.439982E+02 -7.653241E+00 -1.249736E+01 -7.653241E+00 +5.794882E+02 -5.847234E+00 -1.249736E+01 -5.847234E+00 +1.381563E+03 
 +5.801783E+02 -8.311566E-02 -2.205664E+01 -8.311566E-02 +6.150994E+02 -6.241333E+00 -2.205664E+01 -6.241333E+00 +1.313127E+03 
 +6.008845E+02 -5.250123E+00 +2.895686E+01 -5.250123E+00 +5.967198E+02 -1.671588E+00 +2.895686E+01 -1.671588E+00 +1.390418E+03 
 +6.243568E+02 +4.122291E+00 -2.089279E+01 +4.122291E+00 +6.125397E+02 +9.474165E+00 -2.089279E+01 +9.474165E+00 +1.319567E+03 
 +5.516577E+02 +3.320454E+01 +7.471298E+00 +3.320454E+01 +6.503519E+02 -1.637874E+01 +7.471298E+00 -1.637874E+01 +1.301008E+03 
 +5.619095E+02 -1.195745E+01 +1.461626E+01 -1.195745E+01 +5.602391E+02 -3.117302E+01 +1.461626E+01 -3.117302E+01 +1.362234E+03 
 +6.012094E+02 +2.287543E+01 +2.895506E+01 +2.287543E+01 +5.635067E+02 +1.978190E+00 +2.895506E+01 +1.978190E+00 +1.315686E+03 
 +5.784920E+02 +5.663720E+00 +2.505591E+01 +5.663720E+00 +6.118531E+02 +1.806342E+01 +2.505591E+01 +1.806342E+01 +1.434061E+03 
 +5.469572E+02 -2.755948E+01 -1.681084E+01 -2.755948E+01 +6.054470E+02 +8.504216E+00 -1.681084E+01 +8.504216E+00 +1.265646E+03 
 +6.029457E+02 +6.441979E+00 +4.275495E+00 +6.441979E+00 +5.847463E+02 +3.368203E+00 +4.275495E+00 +3.368203E+00 +1.426890E+03 
 +5.572217E+02 -1.892590E+01 -9.372565E+00 -1.892590E+01 +5.994359E+02 -7.884863E+00 -9.372565E+00 -7.884863E+00 +1.246117E+03 
 +6.029694E+02 -1.169798E+01 +6.282016E+00 -1.169798E+01 +6.137769E+02 -1.334383E+00 +6.282016E+00 -1.334383E+00 +1.415316E+03 
 +7.020363E+02 +8.907838E+00 -7.408140E+00 +8.907838E+00 +5.757279E+02 -1.143617E+01 -7.408140E+00 -1.143617E+01 +1.321592E+03 
 +6.346456E+02 -3.237432E+01 -1.568260E+01 -3.237432E+01 +6.228152E+02 +1.789653E+00 -1.568260E+01 +1.789653E+00 +1.390967E+03 
 +6.517816E+02 +1.580502E+01 +4.095362E+01 +1.580502E+01 +6.658541E+02 -1.181469E+01 +4.095362E+01 -1.181469E+01 +1.372815E+03 
 +6.849634E+02 +1.544845E+01 +2.694879E+00 +1.544845E+01 +6.596767E+02 +2.054393E+01 +2.694879E+00 +2.054393E+01 +1.378471E+03 
 +5.691360E+02 -2.255765E+01 +2.375152E+00 -2.255765E+01 +6.392435E+02 +2.517763E+00 +2.375152E+00 +2.517763E+00 +1.328580E+03 
 +5.933463E+02 +2.043883E+01 +8.476226E+00 +2.043883E+01 +6.134767E+02 +2.334019E+01 +8.476226E+00 +2.334019E+01 +1.423750E+03 
 +5.185962E+02 -1.103032E+01 +2.219186E+01 -1.103032E+01 +6.521271E+02 +8.028521E+00 +2.219186E+01 +8.028521E+00 +1.251428E+03 
 +5.815444E+02 +4.114702E+01 +6.452179E+00 +4.114702E+01 +6.228198E+02 +1.580872E+01 +6.452179E+00 +1.580872E+01 +1.274503E+03 
 +6.374181E+02 +1.971507E+01 +1.585451E+00 +1.971507E+01 +5.530267E+02 +2.390303E+00 +1.585451E+00 +2.390303E+00 +1.249201E+03 
 +6.064060E+02 +1.120303E+01 -8.920108E+00 +1.120303E+01 +6.476719E+02 +3.869889E+00 -8.920108E+00 +3.869889E+00 +1.439607E+03 
 +6.160826E+02 +1.110724E+01 -1.090173E+01 +1.110724E+01 +6.674792E+02 -6.900465E+00 -1.090173E+01 -6.900465E+00 +1.264740E+03 
 +6.284927E+02 +1.623207E+01 -2.057047E+00 +1.623207E+01 +5.879575E+02 -1.774381E+01 -2.057047E+00 -1.774381E+01 +1.418635E+03 
 +6.079968E+02 -9.445999E+00 -1.773465E+01 -9.445999E+00 +5.553364E+02 +1.318113E+01 -1.773465E+01 +1.318113E+01 +1.349676E+03 
 +6.446536E+02 -7.589934E+01 +1.490095E+00 -7.589934E+01 +5.383450E+02 +2.117263E+00 +1.490095E+00 +2.117263E+00 +1.334309E+03 
 +6.684217E+02 -4.816261E+01 +7.061630E+00 -4.816261E+01 +5.674709E+02 -1.338661E+01 +7.061630E+00 -1.338661E+01 +1.326684E+03 
 +5.948647E+02 -8.808627E+00 +1.621759E+01 -8.808627E+00 +6.753122E+02 -1.862139E+00 +1.621759E+01 -1.862139E+00 +1.294035E+03 
 +7.041540E+02 +4.528173E+01 -1.423359E+00 +4.528173E+01 +6.515634E+02 -6.083232E+00 -1.423359E+00 -6.083232E+00 +1.391205E+03 
 +5.754598E+02 +1.330557E+01 +4.060935E+00 +1.330557E+01 +6.170441E+02 +1.345593E+01 +4.060935E+00 +1.345593E+01 +1.313999E+03 
 +6.172213E+02 +1.451849E+01 +7.206947E+00 +1.451849E+01 +6.562450E+02 +5.897840E+00 +7.206947E+00 +5.897840E+00 +1.330770E+03 
 +6.390788E+02 -1.122367E+01 +1.827508E+01 -1.122367E+01 +6.076952E+02 +3.218291E+01 +1.827508E+01 +3.218291E+01 +1.378193E+03 
 +5.720823E+02 -1.460038E+01 +1.309149E+00 -1.460038E+01 +5.486985E+02 -9.436870E+00 +1.309149E+00 -9.436870E+00 +1.403543E+03 
 +6.913794E+02 +2.823839E+01 +8.755660E+00 +2.823839E+01 +6.319775E+02 -1.656247E+01 +8.755660E+00 -1.656247E+01 +1.401641E+03 
 +6.570970E+02 -1.398538E+00 +5.384953E+00 -1.398538E+00 +6.214002E+02 -1.963743E+01 +5.384953E+00 -1.963743E+01 +1.360673E+03 
 +5.635649E+02 +2.070638E+01 +2.643056E+00 +2.070638E+01 +5.542568E+02 +2.599577E+01 +2.643056E+00 +2.599577E+01 +1.348966E+03 
 +5.528872E+02 -9.236930E+00 -1.466913E+01 -9.236930E+00 +5.515629E+02 -1.256619E-01 -1.466913E+01 -1.256619E-01 +1.388046E+03 
 +6.210951E+02 +5.671716E+00 -1.109144E+01 +5.671716E+00 +6.255520E+02 +4.186471E+01 -1.109144E+01 +4.186471E+01 +1.338968E+03 
 +6.292588E+02 +1.118935E+01 +7.998407E+00 +1.118935E+01 +5.986194E+02 +1.393848E+01 +7.998407E+00 +1.393848E+01 +1.446262E+03 
 +6.252822E+02 +1.596484E+01 -2.167554E+01 +1.596484E+01 +5.508974E+02 +2.241282E+01 -2.167554E+01 +2.241282E+01 +1.254600E+03 
 +6.567023E+02 +3.026979E+00 -7.405766E+00 +3.026979E+00 +6.347023E+02 +2.238696E+01 -7.405766E+00 +2.238696E+01 +1.345157E+03 
 +5.330670E+02 -8.945384E+00 +2.147723E+01 -8.945384E+00 +6.612665E+02 +6.289897E+00 +2.147723E+01 +6.289897E+00 +1.267065E+03 
 +6.370087E+02 -1.907050E+01 +2.137951E+01 -1.907050E+01 +6.224061E+02 +1.994441E+00 +2.137951E+01 +1.994441E+00 +1.396896E+03 
 +5.308364E+02 -3.286860E+01 +1.616783E+01 -3.286860E+01 +6.566556E+02 -9.228873E+00 +1.616783E+01 -9.228873E+00 +1.295122E+03 
 +6.311729E+02 -3.796664E+01 -2.752093E+01 -3.796664E+01 +5.769556E+02 -1.154614E+01 -2.752093E+01 -1.154614E+01 +1.367500E+03 
 +5.624517E+02 +4.175305E+01 -4.746484E+00 +4.175305E+01 +5.233825E+02 +2.441016E+01 -4.746484E+00 +2.441016E+01 +1.344979E+03 
 +6.646021E+02 +1.373355E+01 +1.462950E+01 +1.373355E+01 +6.582818E+02 +5.322631E+00 +1.462950E+01 +5.322631E+00 +1.349228E+03 
 +5.811003E+02 +4.080177E+00 -4.191076E+00 +4.080177E+00 +6.628204E+02 -3.908520E+00 -4.191076E+00 -3.908520E+00 +1.319993E+03 
 +6.971695E+02 -3.298140E-01 +1.387322E+01 -3.298140E-01 +5.777314E+02 +5.246593E+00 +1.387322E+01 +5.246593E+00 +1.357292E+03 
 +5.439191E+02 -5.749430E+00 -2.134836E+01 -5.749430E+00 +5.851517E+02 +4.113039E+00 -2.134836E+01 +4.113039E+00 +1.353664E+03 
 +6.264697E+02 -2.934472E+01 +3.966683E-01 -2.934472E+01 +5.740128E+02 +2.387428E+01 +3.966683E-01 +2.387428E+01 +1.286582E+03 
 +6.127973E+02 -2.895390E+01 -1.166876E+01 -2.895390E+01 +5.542074E+02 +2.684389E+01 -1.166876E+01 +2.684389E+01 +1.275803E+03 
 +5.541248E+02 -4.207884E+00 -2.108838E+01 -4.207884E+00 +5.299341E+02 +1.863890E+01 -2.108838E+01 +1.863890E+01 +1.414468E+03 
 +5.960742E+02 -4.345659E-01 +9.844233E+00 -4.345659E-01 +5.925081E+02 -1.334872E+00 +9.844233E+00 -1.334872E+00 +1.370350E+03 
 +6.156268E+02 -1.549260E+01 -2.376517E+01 -1.549260E+01 +6.875172E+02 -3.088657E+01 -2.376517E+01 -3.088657E+01 +1.420944E+03 
 +5.945381E+02 +7.664993E+00 +2.159071E+01 +7.664993E+00 +6.815096E+02 +8.308629E+00 +2.159071E+01 +8.308629E+00 +1.304595E+03 
 +5.993099E+02 -9.013219E+00 -4.528057E+01 -9.013219E+00 +6.025806E+02 +5.412236E+00 -4.528057E+01 +5.412236E+00 +1.391486E+03 
 +6.566781E+02 +1.218821E+01 -7.932010E+00 +1.218821E+01 +5.653139E+02 +2.557998E+01 -7.932010E+00 +2.557998E+01 +1.312847E+03 
 +5.802444E+02 +1.080590E+01 +8.298789E+00 +1.080590E+01 +5.890609E+02 -7.326562E-01 +8.298789E+00 -7.326562E-01 +1.312074E+03 
 +6.280823E+02 -2.512556E+01 +2.128828E-01 -2.512556E+01 +6.237567E+02 +1.773727E+01 +2.128828E-01 +1.773727E+01 +1.366865E+03 
 +5.877162E+02 -1.540760E+01 -1.896408E+01 -1.540760E+01 +6.628748E+02 -7.626976E-01 -1.896408E+01 -7.626976E-01 +1.296922E+03 
 +6.144332E+02 +6.767237E-01 -7.812548E+00 +6.767237E-01 +6.533080E+02 -3.028092E+01 -7.812548E+00 -3.028092E+01 +1.431673E+03 
 +6.426921E+02 -1.771938E+01 -2.699250E+01 -1.771938E+01 +6.240963E+02 -3.983824E+01 -2.699250E+01 -3.983824E+01 +1.364253E+03 
 +7.143792E+02 -1.759414E+01 -1.471556E+01 -1.759414E+01 +5.617015E+02 -4.447425E+00 -1.471556E+01 -4.447425E+00 +1.367150E+03 
 +6.400356E+02 +1.537274E+01 +2.393112E+00 +1.537274E+01 +5.039661E+02 +2.266483E+01 +2.393112E+00 +2.266483E+01 +1.321843E+03 
 +6.089338E+02 +7.293819E+01 +7.971613E-01 +7.293819E+01 +5.802621E+02 +9.871217E+00 +7.971613E-01 +9.871217E+00 +1.318444E+03 
 +5.660581E+02 +1.890171E+01 +2.123210E+01 +1.890171E+01 +6.004079E+02 -1.851691E+00 +2.123210E+01 -1.851691E+00 +1.361318E+03 
 +6.304593E+02 +4.186263E+00 +7.327244E+00 +4.186263E+00 +6.213207E+02 -8.343845E+00 +7.327244E+00 -8.343845E+00 +1.396701E+03 
 +5.942700E+02 -2.116776E+01 -4.282182E+00 -2.116776E+01 +6.609085E+02 -6.131076E+00 -4.282182E+00 -6.131076E+00 +1.292234E+03 
 +5.788531E+02 +2.008849E+01 -4.903132E+00 +2.008849E+01 +5.878829E+02 +2.078772E+01 -4.903132E+00 +2.078772E+01 +1.391717E+03 
 +7.013759E+02 -1.230694E-01 +1.834310E+01 -1.230694E-01 +6.244661E+02 +7.374335E+00 +1.834310E+01 +7.374335E+00 +1.371029E+03 
 +5.726038E+02 -3.484507E+00 -1.749612E+01 -3.484507E+00 +6.430500E+02 +6.849590E+00 -1.749612E+01 +6.849590E+00 +1.351791E+03 
 +5.996917E+02 +4.717412E+01 +1.344161E+01 +4.717412E+01 +6.219025E+02 +1.003540E+01 +1.344161E+01 +1.003540E+01 +1.333697E+03 
 +5.953073E+02 +2.896621E+01 -1.289132E+01 +2.896621E+01 +6.200786E+02 +5.505844E+00 -1.289132E+01 +5.505844E+00 +1.328608E+03 
 +6.188770E+02 +4.274752E+01 +2.587109E+01 +4.274752E+01 +6.592294E+02 +7.960295E-02 +2.587109E+01 +7.960295E-02 +1.355731E+03 
 +6.053843E+02 +8.269559E+00 -1.547519E+01 +8.269559E+00 +6.559193E+02 +1.922938E+01 -1.547519E+01 +1.922938E+01 +1.345875E+03 
 +6.126487E+02 -3.205300E+00 +9.603462E+00 -3.205300E+00 +5.919999E+02 -4.517382E+01 +9.603462E+00 -4.517382E+01 +1.443400E+03 
 +6.292892E+02 +2.304221E+01 -2.284579E+01 +2.304221E+01 +6.194080E+02 -3.274588E+00 -2.284579E+01 -3.274588E+00 +1.308252E+03 
 +5.729488E+02 +2.337938E+00 -5.253176E+01 +2.337938E+00 +5.278647E+02 +1.858254E+01 -5.253176E+01 +1.858254E+01 +1.337949E+03 
 +5.654181E+02 +3.325206E+00 +4.622202E+01 +3.325206E+00 +5.431606E+02 -2.628210E+00 +4.622202E+01 -2.628210E+00 +1.364049E+03 
 +6.019892E+02 -1.617274E+01 +7.089274E+00 -1.617274E+01 +5.887861E+02 -1.510632E+00 +7.089274E+00 -1.510632E+00 +1.363308E+03 
 +6.241666E+02 -1.020174E+01 +3.165718E+01 -1.020174E+01 +6.329914E+02 -2.229437E+01 +3.165718E+01 -2.229437E+01 +1.374991E+03 
 +6.283894E+02 -2.082315E+01 -1.647338E+01 -2.082315E+01 +6.148656E+02 -4.750843E+01 -1.647338E+01 -4.750843E+01 +1.357511E+03 
 +5.987097E+02 +1.615611E+01 +1.138273E+00 +1.615611E+01 +6.050248E+02 -1.107133E+01 +1.138273E+00 -1.107133E+01 +1.411788E+03 
 +6.833476E+02 -3.020129E+01 -3.540324E+01 -3.020129E+01 +6.477420E+02 -1.502605E+01 -3.540324E+01 -1.502605E+01 +1.372147E+03 
 +6.010284E+02 -8.670662E+00 +5.944027E+00 -8.670662E+00 +5.841051E+02 -1.252795E+01 +5.944027E+00 -1.252795E+01 +1.315042E+03 
 +5.982421E+02 -2.045051E+01 -9.851575E-02 -2.045051E+01 +5.845024E+02 -3.121595E+01 -9.851575E-02 -3.121595E+01 +1.407850E+03 
 +6.536185E+02 -2.875158E+01 +1.386994E+01 -2.875158E+01 +6.084213E+02 -3.713485E+01 +1.386994E+01 -3.713485E+01 +1.347145E+03 
 +6.113283E+02 +2.095128E+01 -2.079559E+00 +2.095128E+01 +7.136286E+02 +7.412978E-01 -2.079559E+00 +7.412978E-01 +1.384651E+03 
 +6.208333E+02 +1.972527E+01 +1.616280E+01 +1.972527E+01 +6.638577E+02 +1.620906E+01 +1.616280E+01 +1.620906E+01 +1.287104E+03 
 +6.186904E+02 -3.850096E+01 -2.619672E+01 -3.850096E+01 +5.894289E+02 +1.122275E+01 -2.619672E+01 +1.122275E+01 +1.298047E+03 
 +5.367268E+02 +7.816737E+00 +1.197898E+01 +7.816737E+00 +5.885322E+02 +2.916475E+01 +1.197898E+01 +2.916475E+01 +1.387768E+03 
 +6.104620E+02 -1.816953E+01 +1.995551E+01 -1.816953E+01 +6.023437E+02 -4.274452E+01 +1.995551E+01 -4.274452E+01 +1.394789E+03 
 +6.122625E+02 -3.349812E+01 -1.709738E+01 -3.349812E+01 +5.743672E+02 +7.380600E+00 -1.709738E+01 +7.380600E+00 +1.329039E+03 
 +6.808683E+02 -1.835903E+01 +2.142223E+01 -1.835903E+01 +6.509721E+02 +9.790213E+00 +2.142223E+01 +9.790213E+00 +1.404391E+03 
 +6.506114E+02 -1.936014E+01 +5.613081E+00 -1.936014E+01 +6.094855E+02 +3.170819E+01 +5.613081E+00 +3.170819E+01 +1.349611E+03 
 +5.393447E+02 -1.715867E+01 +7.494950E+00 -1.715867E+01 +5.466480E+02 -1.971880E+01 +7.494950E+00 -1.971880E+01 +1.419196E+03 
 +5.916295E+02 +9.186895E+00 -3.711822E+00 +9.186895E+00 +6.050793E+02 -3.739323E+01 -3.711822E+00 -3.739323E+01 +1.410251E+03 
 +6.735753E+02 -1.842476E+01 +1.350719E+01 -1.842476E+01 +5.490095E+02 -1.028732E+01 +1.350719E+01 -1.028732E+01 +1.292375E+03 
 +5.383810E+02 -2.802200E+01 +1.575770E+01 -2.802200E+01 +6.377833E+02 -9.632566E+00 +1.575770E+01 -9.632566E+00 +1.310382E+03 
 +6.994169E+02 -4.462662E+01 -4.744759E-01 -4.462662E+01 +6.676812E+02 -4.628480E+00 -4.744759E-01 -4.628480E+00 +1.362652E+03 
 +5.892695E+02 +3.808852E+01 +3.157329E+00 +3.808852E+01 +6.909058E+02 +8.349451E+00 +3.157329E+00 +8.349451E+00 +1.321407E+03 
 +5.913466E+02 +2.331620E+01 -1.217584E+01 +2.331620E+01 +6.132557E+02 +2.990293E+01 -1.217584E+01 +2.990293E+01 +1.390797E+03 
 +5.798555E+02 +1.909038E+01 -8.328452E+00 +1.909038E+01 +5.895293E+02 +3.091482E+01 -8.328452E+00 +3.091482E+01 +1.283734E+03 
 +6.130383E+02 +1.767838E+01 -1.979235E+00 +1.767838E+01 +6.360880E+02 +1.318373E+01 -1.979235E+00 +1.318373E+01 +1.375005E+03 
 +6.030302E+02 +2.690075E+01 +9.810108E+00 +2.690075E+01 +6.137034E+02 -5.662510E-01 +9.810108E+00 -5.662510E-01 +1.296447E+03 
 +6.131444E+02 +6.097813E+00 +8.531675E+00 +6.097813E+00 +5.939296E+02 +1.186954E+01 +8.531675E+00 +1.186954E+01 +1.382299E+03 
 +5.858095E+02 -4.215572E-01 -3.704640E+00 -4.215572E-01 +5.454839E+02 -1.100782E+01 -3.704640E+00 -1.100782E+01 +1.392867E+03 
 +6.265568E+02 -5.949966E+00 +7.282302E+00 -5.949966E+00 +6.144710E+02 -1.852236E+01 +7.282302E+00 -1.852236E+01 +1.383160E+03 
 +5.939100E+02 -1.752866E+01 +2.522162E+01 -1.752866E+01 +5.382075E+02 -2.535125E+00 +2.522162E+01 -2.535125E+00 +1.358021E+03 
 +5.828790E+02 +3.007270E+00 +1.395467E+01 +3.007270E+00 +5.658854E+02 +3.204221E+01 +1.395467E+01 +3.204221E+01 +1.361991E+03 
 +6.093811E+02 +3.212462E+01 +3.285757E+01 +3.212462E+01 +5.816770E+02 -1.849850E+00 +3.285757E+01 -1.849850E+00 +1.281830E+03 
 +7.563563E+02 -3.780758E+01 -5.568987E+00 -3.780758E+01 +5.993511E+02 -1.225382E+01 -5.568987E+00 -1.225382E+01 +1.366663E+03 
 +5.645760E+02 -2.462181E+01 -2.960740E+00 -2.462181E+01 +6.254753E+02 +4.258654E+00 -2.960740E+00 +4.258654E+00 +1.350649E+03 
 +5.734523E+02 +1.265705E+01 -2.842824E+00 +1.265705E+01 +5.667302E+02 +2.089219E+01 -2.842824E+00 +2.089219E+01 +1.284761E+03 
 +6.538242E+02 +1.742141E+01 +9.605122E+00 +1.742141E+01 +6.110082E+02 +2.690203E+01 +9.605122E+00 +2.690203E+01 +1.412279E+03 
 +6.769860E+02 -1.060302E+01 -1.473555E+01 -1.060302E+01 +6.959550E+02 +1.568260E+00 -1.473555E+01 +1.568260E+00 +1.405039E+03 
 +6.309167E+02 +1.228744E+01 -1.540533E+01 +1.228744E+01 +6.473787E+02 -1.473353E+01 -1.540533E+01 -1.473353E+01 +1.433115E+03 
 +5.794448E+02 -1.351217E+01 -1.976551E+01 -1.351217E+01 +5.695898E+02 +1.154011E+01 -1.976551E+01 +1.154011E+01 +1.399191E+03 
 +5.551116E+02 -1.722465E+01 +2.675151E+01 -1.722465E+01 +5.731068E+02 -1.838564E+01 +2.675151E+01 -1.838564E+01 +1.351570E+03 
 +6.237488E+02 +3.333257E+00 -5.511300E+00 +3.333257E+00 +5.926534E+02 -3.442629E+01 -5.511300E+00 -3.442629E+01 +1.383687E+03 
 +5.412474E+02 -1.323990E+01 -8.941870E-01 -1.323990E+01 +5.414961E+02 -4.160077E+00 -8.941870E-01 -4.160077E+00 +1.402806E+03 
 +5.779151E+02 +2.513364E+01 -3.212183E+00 +2.513364E+01 +5.438099E+02 -2.480500E+01 -3.212183E+00 -2.480500E+01 +1.297004E+03 
 +6.189169E+02 -2.031916E+01 +1.519086E+01 -2.031916E+01 +6.090671E+02 +2.284358E+01 +1.519086E+01 +2.284358E+01 +1.323903E+03 
 +6.029513E+02 -4.726777E+01 -2.326772E+01 -4.726777E+01 +5.767405E+02 +4.019186E+01 -2.326772E+01 +4.019186E+01 +1.278145E+03 
 +5.492273E+02 -2.338283E+00 +2.549021E+01 -2.338283E+00 +5.522915E+02 +8.382459E+00 +2.549021E+01 +8.382459E+00 +1.399896E+03 
 +6.069404E+02 +2.580650E+01 +2.308671E+01 +2.580650E+01 +6.135295E+02 -6.155803E+00 +2.308671E+01 -6.155803E+00 +1.298246E+03 
 +5.648018E+02 +1.581248E+01 -1.924498E+01 +1.581248E+01 +5.918398E+02 +8.824873E+00 -1.924498E+01 +8.824873E+00 +1.394450E+03 
 +6.403267E+02 -2.461856E+01 -7.313154E+00 -2.461856E+01 +5.842358E+02 -1.236084E+01 -7.313154E+00 -1.236084E+01 +1.289934E+03 
 +6.292928E+02 +1.106641E+01 -7.261020E+00 +1.106641E+01 +5.916178E+02 +5.570125E+00 -7.261020E+00 +5.570125E+00 +1.434298E+03 
 +6.707647E+02 +7.208634E+00 -2.139306E+01 +7.208634E+00 +6.709720E+02 -3.675533E+00 -2.139306E+01 -3.675533E+00 +1.344656E+03 
 +5.938973E+02 +9.923884E+00 +4.560188E+00 +9.923884E+00 +6.836809E+02 +4.140224E+00 +4.560188E+00 +4.140224E+00 +1.376194E+03 
 +5.616144E+02 -1.959844E+01 +6.470667E+00 -1.959844E+01 +6.227589E+02 +7.627464E+00 +6.470667E+00 +7.627464E+00 +1.298583E+03 
 +6.582869E+02 -2.015380E+01 -2.082245E+01 -2.015380E+01 +6.641797E+02 -7.560940E-01 -2.082245E+01 -7.560940E-01 +1.375702E+03 
 +5.725814E+02 +2.036509E+00 -3.218338E+01 +2.036509E+00 +5.948964E+02 +1.795644E+01 -3.218338E+01 +1.795644E+01 +1.366570E+03 
 +6.588514E+02 +2.981687E+01 -2.821117E+00 +2.981687E+01 +5.754961E+02 -9.454075E+00 -2.821117E+00 -9.454075E+00 +1.309411E+03 
 +6.075622E+02 -5.156733E-02 +2.275644E+00 -5.156733E-02 +6.902040E+02 -4.240483E+00 +2.275644E+00 -4.240483E+00 +1.337161E+03 
 +6.627625E+02 -3.382865E-01 -2.487940E+01 -3.382865E-01 +6.759160E+02 +2.236809E+00 -2.487940E+01 +2.236809E+00 +1.439048E+03 
 +5.987104E+02 -1.092383E+01 +3.433566E+01 -1.092383E+01 +6.043211E+02 +2.892902E+01 +3.433566E+01 +2.892902E+01 +1.354479E+03 
 +6.881390E+02 -1.473869E+01 -2.717816E+00 -1.473869E+01 +6.008058E+02 +9.613114E+00 -2.717816E+00 +9.613114E+00 +1.384622E+03 
 +6.005720E+02 -7.372436E+00 -7.603712E+00 -7.372436E+00 +6.050289E+02 -1.436163E+01 -7.603712E+00 -1.436163E+01 +1.353555E+03 
 +5.916604E+02 -1.274061E+00 -3.740255E+00 -1.274061E+00 +6.039380E+02 +1.013753E+01 -3.740255E+00 +1.013753E+01 +1.362955E+03 
 +6.331802E+02 -1.987131E+00 -2.572770E+01 -1.987131E+00 +6.128008E+02 +4.093911E+00 -2.572770E+01 +4.093911E+00 +1.410745E+03 
 +6.350428E+02 +2.042225E+01 -1.159519E+01 +2.042225E+01 +6.002337E+02 -8.740771E-01 -1.159519E+01 -8.740771E-01 +1.334948E+03 
 +5.367039E+02 +1.655151E+01 -2.993897E+00 +1.655151E+01 +6.232686E+02 -3.815830E+01 -2.993897E+00 -3.815830E+01 +1.276942E+03 
 +6.265626E+02 +2.629789E+01 -3.442656E+00 +2.629789E+01 +6.421526E+02 -1.528205E+01 -3.442656E+00 -1.528205E+01 +1.316655E+03 
 +6.853448E+02 -4.512280E+00 +7.437444E-01 -4.512280E+00 +6.357972E+02 +2.313103E+01 +7.437444E-01 +2.313103E+01 +1.426990E+03 
 +5.865263E+02 -2.445006E+01 +6.016435E+00 -2.445006E+01 +5.831804E+02 -2.568649E+01 +6.016435E+00 -2.568649E+01 +1.384292E+03 
 +5.761186E+02 +5.717033E+00 +2.091599E+01 +5.717033E+00 +6.422433E+02 +2.945194E+00 +2.091599E+01 +2.945194E+00 +1.298846E+03 
 +6.135085E+02 +1.893614E+01 -4.599427E+00 +1.893614E+01 +6.517266E+02 +2.708581E+01 -4.599427E+00 +2.708581E+01 +1.362429E+03 
 +6.781197E+02 -8.701271E+00 -5.814528E+00 -8.701271E+00 +6.036065E+02 -1.947301E+01 -5.814528E+00 -1.947301E+01 +1.323598E+03 
 +5.364240E+02 -1.350505E+01 -2.052201E+01 -1.350505E+01 +5.303125E+02 -2.401044E+01 -2.052201E+01 -2.401044E+01 +1.339577E+03 
 +6.448711E+02 +6.175276E-01 +2.044592E+01 +6.175276E-01 +5.891962E+02 -3.195537E+01 +2.044592E+01 -3.195537E+01 +1.399690E+03 
 +6.530811E+02 +2.513902E+01 -3.998330E+01 +2.513902E+01 +6.021673E+02 +1.010585E+01 -3.998330E+01 +1.010585E+01 +1.321678E+03 
 +6.639981E+02 +1.311050E+01 -2.260916E+00 +1.311050E+01 +6.195855E+02 -1.193085E+00 -2.260916E+00 -1.193085E+00 +1.383497E+03 
 +5.700071E+02 +3.745074E+00 -2.644521E+01 +3.745074E+00 +6.878602E+02 -1.361790E+01 -2.644521E+01 -1.361790E+01 +1.343201E+03 
 +6.465134E+02 -1.590508E+01 +6.314799E+00 -1.590508E+01 +6.317715E+02 +2.296480E+01 +6.314799E+00 +2.296480E+01 +1.329381E+03 
 +5.657440E+02 +3.495328E+01 -1.247185E+00 +3.495328E+01 +5.304604E+02 -8.959248E+00 -1.247185E+00 -8.959248E+00 +1.378884E+03 
 +6.215852E+02 -3.023922E+00 -1.720354E+01 -3.023922E+00 +6.504855E+02 +5.268138E-01 -1.720354E+01 +5.268138E-01 +1.356846E+03 
 +5.946281E+02 -3.535078E+01 +6.034303E+00 -3.535078E+01 +6.804759E+02 -6.334228E+00 +6.034303E+00 -6.334228E+00 +1.314140E+03 
 +6.043374E+02 +1.755403E+01 -4.920127E+00 +1.755403E+01 +5.879627E+02 -1.670335E+01 -4.920127E+00 -1.670335E+01 +1.364984E+03 
 +5.939700E+02 -3.057035E+00 +3.056472E+01 -3.057035E+00 +6.034150E+02 +3.616123E+00 +3.056472E+01 +3.616123E+00 +1.336763E+03 
 +6.096849E+02 -2.863725E+00 +1.477453E+01 -2.863725E+00 +6.581088E+02 -4.103281E+00 +1.477453E+01 -4.103281E+00 +1.358066E+03 
 +6.194092E+02 -5.677921E+00 -3.007312E+01 -5.677921E+00 +6.747557E+02 -4.665979E+00 -3.007312E+01 -4.665979E+00 +1.363698E+03 
 +6.343588E+02 +4.197766E+01 -2.692693E+01 +4.197766E+01 +6.132649E+02 -9.384130E+00 -2.692693E+01 -9.384130E+00 +1.320830E+03 
 +6.283970E+02 +2.820547E+00 +8.832495E+00 +2.820547E+00 +6.190989E+02 +2.078974E+00 +8.832495E+00 +2.078974E+00 +1.340525E+03 
 +6.243288E+02 -1.966686E+01 +4.654040E+00 -1.966686E+01 +5.604097E+02 +5.121665E+00 +4.654040E+00 +5.121665E+00 +1.312807E+03 
 +5.453085E+02 -3.981938E+00 +1.818214E+01 -3.981938E+00 +5.393475E+02 +3.791807E+00 +1.818214E+01 +3.791807E+00 +1.397031E+03 
 +6.096831E+02 +1.648836E+01 +7.543496E+00 +1.648836E+01 +6.133740E+02 +1.476014E+01 +7.543496E+00 +1.476014E+01 +1.462125E+03 
 +6.287532E+02 -7.901732E+00 -1.839139E+01 -7.901732E+00 +5.337401E+02 +9.923692E+00 -1.839139E+01 +9.923692E+00 +1.317313E+03 
 +5.756207E+02 -4.477813E+00 +2.980333E+01 -4.477813E+00 +5.905187E+02 +4.444427E+00 +2.980333E+01 +4.444427E+00 +1.412479E+03 
 +6.545325E+02 -7.702128E+00 +1.380696E+01 -7.702128E+00 +6.177655E+02 +1.562674E+01 +1.380696E+01 +1.562674E+01 +1.311142E+03 
 +4.895508E+02 -8.664014E+00 -1.906533E+01 -8.664014E+00 +6.236178E+02 -2.259618E+01 -1.906533E+01 -2.259618E+01 +1.271011E+03 
 +6.143942E+02 +6.881096E+00 +1.146317E+01 +6.881096E+00 +6.097878E+02 -1.361451E+01 +1.146317E+01 -1.361451E+01 +1.372490E+03 
 +5.668560E+02 -3.531910E+01 -7.854356E+00 -3.531910E+01 +5.743428E+02 -6.982012E-01 -7.854356E+00 -6.982012E-01 +1.299774E+03 
 +5.852085E+02 +1.080450E+01 -1.314298E+01 +1.080450E+01 +5.951073E+02 +1.459004E+01 -1.314298E+01 +1.459004E+01 +1.385466E+03 
 +6.611140E+02 +1.850186E+01 +9.724639E+00 +1.850186E+01 +5.620665E+02 -9.348341E-01 +9.724639E+00 -9.348341E-01 +1.293212E+03 
 +5.586100E+02 +2.593446E+00 +1.432618E+01 +2.593446E+00 +5.713278E+02 +1.258209E+01 +1.432618E+01 +1.258209E+01 +1.361852E+03 
 +6.548871E+02 +1.017761E+01 -3.367419E+01 +1.017761E+01 +6.855511E+02 +2.645966E+00 -3.367419E+01 +2.645966E+00 +1.406130E+03 
 +5.951611E+02 +6.337455E+00 +1.765311E+01 +6.337455E+00 +6.196597E+02 -1.062281E+01 +1.765311E+01 -1.062281E+01 +1.322092E+03 
 +5.417104E+02 +9.850947E+00 -1.336808E+01 +9.850947E+00 +5.647522E+02 -1.946197E+01 -1.336808E+01 -1.946197E+01 +1.352964E+03 
 +6.022476E+02 +2.758391E+00 +2.630896E+01 +2.758391E+00 +5.636668E+02 +2.800315E+00 +2.630896E+01 +2.800315E+00 +1.337244E+03 
 +6.453954E+02 -1.485292E+01 -2.741412E+01 -1.485292E+01 +6.102709E+02 -3.495857E+00 -2.741412E+01 -3.495857E+00 +1.406477E+03 
 +7.340016E+02 -1.235405E+01 +5.568169E+00 -1.235405E+01 +5.599160E+02 +7.789332E+00 +5.568169E+00 +7.789332E+00 +1.336090E+03 
 +5.660754E+02 -5.024939E+00 -3.233900E+01 -5.024939E+00 +5.200244E+02 +1.083313E+01 -3.233900E+01 +1.083313E+01 +1.397752E+03 
 +5.770833E+02 -1.380387E+01 -6.366485E-01 -1.380387E+01 +5.561152E+02 -1.142072E+01 -6.366485E-01 -1.142072E+01 +1.414778E+03 
 +6.695901E+02 -4.852582E+00 +5.392249E+00 -4.852582E+00 +6.294587E+02 +2.694017E+00 +5.392249E+00 +2.694017E+00 +1.311940E+03 
 +5.572158E+02 +2.266565E+00 +3.245663E+00 +2.266565E+00 +6.922906E+02 +8.663333E+00 +3.245663E+00 +8.663333E+00 +1.289529E+03 
 +6.251956E+02 -1.309797E+01 +2.810985E+00 -1.309797E+01 +5.947913E+02 -2.340660E+01 +2.810985E+00 -2.340660E+01 +1.415376E+03 
 +5.741484E+02 +2.172481E+01 +3.310978E+00 +2.172481E+01 +5.708048E+02 +1.973665E+01 +3.310978E+00 +1.973665E+01 +1.244145E+03 
 +5.491359E+02 +4.985601E+00 -8.281399E+00 +4.985601E+00 +6.649494E+02 +6.054374E+00 -8.281399E+00 +6.054374E+00 +1.331388E+03 
 +5.997028E+02 -7.278355E+00 +4.172271E+01 -7.278355E+00 +6.502219E+02 -2.512492E+01 +4.172271E+01 -2.512492E+01 +1.330727E+03 
 +6.645183E+02 +9.187870E+00 -2.823197E+01 +9.187870E+00 +5.710300E+02 +1.214790E+01 -2.823197E+01 +1.214790E+01 +1.309346E+03 
 +5.333600E+02 +1.137852E+01 -3.360249E+01 +1.137852E+01 +5.608357E+02 +1.308909E+01 -3.360249E+01 +1.308909E+01 +1.402325E+03 
 +6.582831E+02 +2.831742E+01 +3.459349E+01 +2.831742E+01 +6.300240E+02 +5.929493E+00 +3.459349E+01 +5.929493E+00 +1.324461E+03 
 +6.144012E+02 -2.353741E+01 -2.035513E+01 -2.353741E+01 +6.346354E+02 +2.946209E+01 -2.035513E+01 +2.946209E+01 +1.414014E+03 
 +6.218557E+02 -1.374841E+01 -1.242126E+01 -1.374841E+01 +5.527134E+02 +8.763965E+00 -1.242126E+01 +8.763965E+00 +1.278644E+03 
 +5.894279E+02 +5.720683E+00 +1.450084E+00 +5.720683E+00 +5.977129E+02 +3.564670E+01 +1.450084E+00 +3.564670E+01 +1.410199E+03 
 +5.739004E+02 +3.441119E+01 +1.049176E+01 +3.441119E+01 +5.957113E+02 +5.959343E+00 +1.049176E+01 +5.959343E+00 +1.305621E+03 
 +6.359304E+02 +2.488669E+01 -2.284975E+01 +2.488669E+01 +6.424979E+02 -7.062641E-01 -2.284975E+01 -7.062641E-01 +1.383892E+03 
 +5.505590E+02 +3.304480E+01 -7.624304E+00 +3.304480E+01 +6.540308E+02 -5.003192E+00 -7.624304E+00 -5.003192E+00 +1.260166E+03 
 +6.429209E+02 -5.981159E+00 +1.965907E+01 -5.981159E+00 +6.990991E+02 -3.681654E+00 +1.965907E+01 -3.681654E+00 +1.416153E+03 
 +6.205362E+02 -2.417576E+01 +1.433372E+01 -2.417576E+01 +6.890450E+02 +1.020097E+01 +1.433372E+01 +1.020097E+01 +1.320954E+03 
 +5.541088E+02 -3.205909E+01 -5.639163E+00 -3.205909E+01 +5.471161E+02 -1.678581E+00 -5.639163E+00 -1.678581E+00 +1.350207E+03 
 +5.332933E+02 -7.305341E+00 -2.121326E+01 -7.305341E+00 +5.588132E+02 +5.831068E+00 -2.121326E+01 +5.831068E+00 +1.360994E+03 
 +6.404138E+02 +1.936234E+01 +2.136499E+01 +1.936234E+01 +5.669454E+02 -2.231276E+01 +2.136499E+01 -2.231276E+01 +1.360550E+03 
 +6.465652E+02 +5.499586E+00 +5.666673E+00 +5.499586E+00 +5.971026E+02 +1.239086E+01 +5.666673E+00 +1.239086E+01 +1.281903E+03 
 +6.065046E+02 +9.392553E+00 +3.598438E+01 +9.392553E+00 +6.086030E+02 -8.193485E+00 +3.598438E+01 -8.193485E+00 +1.384793E+03 
 +6.562138E+02 -6.308424E+01 -1.462174E+01 -6.308424E+01 +6.466085E+02 +1.734808E+01 -1.462174E+01 +1.734808E+01 +1.361726E+03 
 +5.819609E+02 -1.556618E+00 +3.242230E+01 -1.556618E+00 +6.444158E+02 +2.957044E+01 +3.242230E+01 +2.957044E+01 +1.473973E+03 
 +6.742161E+02 +6.054151E+00 -1.859239E+01 +6.054151E+00 +6.619677E+02 +1.510300E+01 -1.859239E+01 +1.510300E+01 +1.376367E+03 
 +5.662371E+02 -2.763619E+01 -4.656699E+00 -2.763619E+01 +6.251098E+02 +4.247686E-01 -4.656699E+00 +4.247686E-01 +1.302905E+03 
 +5.952076E+02 +3.008849E+00 -2.143156E+01 +3.008849E+00 +7.014655E+02 +2.812977E+01 -2.143156E+01 +2.812977E+01 +1.313513E+03 
 +7.200657E+02 +5.218865E+01 +4.911173E+00 +5.218865E+01 +6.347241E+02 +1.733440E+01 +4.911173E+00 +1.733440E+01 +1.347192E+03 
 +5.935970E+02 +9.565445E+00 -1.277419E+01 +9.565445E+00 +6.259219E+02 +2.106890E+01 -1.277419E+01 +2.106890E+01 +1.390815E+03 
 +6.281671E+02 -3.908774E+01 +3.709853E+00 -3.908774E+01 +7.134167E+02 -1.101689E+01 +3.709853E+00 -1.101689E+01 +1.345239E+03 
 +6.215341E+02 +1.630997E+01 +2.621802E+01 +1.630997E+01 +6.981994E+02 +1.503287E+01 +2.621802E+01 +1.503287E+01 +1.409391E+03 
 +6.216044E+02 -1.284286E+01 -1.378886E+01 -1.284286E+01 +6.110750E+02 +3.619994E+01 -1.378886E+01 +3.619994E+01 +1.370051E+03 
 +5.555999E+02 -8.577596E+00 +9.225173E-01 -8.577596E+00 +5.664426E+02 +5.681694E+00 +9.225173E-01 +5.681694E+00 +1.325070E+03 
 +6.725673E+02 -3.277090E+01 +1.119875E+01 -3.277090E+01 +6.284274E+02 +1.207500E-01 +1.119875E+01 +1.207500E-01 +1.339285E+03 
 +5.418587E+02 -1.031678E+01 -5.446600E+00 -1.031678E+01 +6.791512E+02 +5.428330E+00 -5.446600E+00 +5.428330E+00 +1.315565E+03 
 +7.560068E+02 +2.136958E+01 -5.136528E+00 +2.136958E+01 +7.009760E+02 -4.718221E+00 -5.136528E+00 -4.718221E+00 +1.398512E+03 
 +5.731361E+02 -4.733485E+01 +2.914876E+01 -4.733485E+01 +6.234091E+02 -5.743101E+00 +2.914876E+01 -5.743101E+00 +1.325062E+03 
 +6.352089E+02 -1.052529E+01 -5.206617E+00 -1.052529E+01 +6.432523E+02 +1.749655E+01 -5.206617E+00 +1.749655E+01 +1.405642E+03 
 +6.364059E+02 +2.446013E+01 -9.504116E+00 +2.446013E+01 +6.894697E+02 -5.547481E+00 -9.504116E+00 -5.547481E+00 +1.328231E+03 
 +6.672023E+02 +5.718249E+00 -1.114771E+01 +5.718249E+00 +6.708110E+02 -1.663710E-01 -1.114771E+01 -1.663710E-01 +1.401811E+03 
 +6.183284E+02 -3.938491E+01 +7.788618E+00 -3.938491E+01 +6.341172E+02 +3.231864E+01 +7.788618E+00 +3.231864E+01 +1.315147E+03 
 +5.945864E+02 +1.283155E+00 -2.320166E+00 +1.283155E+00 +6.751420E+02 -2.715194E+00 -2.320166E+00 -2.715194E+00 +1.339984E+03 
 +6.177337E+02 +1.937136E+01 +6.407143E-01 +1.937136E+01 +6.509470E+02 -6.157853E+00 +6.407143E-01 -6.157853E+00 +1.302188E+03 
 +5.438683E+02 +1.123115E+01 +1.765114E+01 +1.123115E+01 +5.611386E+02 -3.208375E+01 +1.765114E+01 -3.208375E+01 +1.312010E+03 
 +6.432395E+02 -1.788281E+01 +1.356222E+01 -1.788281E+01 +6.139078E+02 +1.127809E+00 +1.356222E+01 +1.127809E+00 +1.434879E+03 
 +5.563326E+02 +5.406433E+00 -2.301780E+01 +5.406433E+00 +5.817222E+02 +4.456637E+00 -2.301780E+01 +4.456637E+00 +1.402301E+03 
 +5.773639E+02 +4.314718E+01 +4.416458E+00 +4.314718E+01 +6.481494E+02 +9.789546E+00 +4.416458E+00 +9.789546E+00 +1.304596E+03 
 +6.243268E+02 +2.263009E+00 -9.168694E+00 +2.263009E+00 +6.738916E+02 -1.542835E+00 -9.168694E+00 -1.542835E+00 +1.333693E+03 
 +6.214126E+02 +2.814270E+00 +4.919215E+01 +2.814270E+00 +6.245414E+02 -7.303551E+00 +4.919215E+01 -7.303551E+00 +1.364643E+03 
 +5.548522E+02 -2.023021E+01 -3.044150E+01 -2.023021E+01 +5.548978E+02 +7.589470E+00 -3.044150E+01 +7.589470E+00 +1.413033E+03 
 +7.165764E+02 +1.815739E+01 -5.736245E+00 +1.815739E+01 +5.452022E+02 -1.135730E+00 -5.736245E+00 -1.135730E+00 +1.300095E+03 
 +5.719640E+02 -2.714209E+00 +2.914689E+00 -2.714209E+00 +5.730712E+02 -3.494276E+00 +2.914689E+00 -3.494276E+00 +1.348990E+03 
 +6.173708E+02 -1.143230E+01 +2.058801E+01 -1.143230E+01 +5.980763E+02 -2.906407E+00 +2.058801E+01 -2.906407E+00 +1.355286E+03 
 +5.818788E+02 +9.862636E+00 -3.088430E+00 +9.862636E+00 +5.663523E+02 -6.243761E+00 -3.088430E+00 -6.243761E+00 +1.324534E+03 
 +5.521872E+02 +7.246185E+00 +2.091004E+01 +7.246185E+00 +5.462853E+02 +1.599162E+01 +2.091004E+01 +1.599162E+01 +1.348699E+03 
 +6.120710E+02 +8.415634E+00 +4.472578E+00 +8.415634E+00 +5.537643E+02 +3.632042E+00 +4.472578E+00 +3.632042E+00 +1.358744E+03 
 +5.625610E+02 +7.682680E-01 +1.142912E+01 +7.682680E-01 +5.984835E+02 +3.924470E+01 +1.142912E+01 +3.924470E+01 +1.397469E+03 
 +5.822689E+02 +2.542920E+01 -7.301168E+00 +2.542920E+01 +5.782767E+02 -3.217488E+00 -7.301168E+00 -3.217488E+00 +1.419265E+03 
 +5.725898E+02 -1.449345E-01 -3.228155E+01 -1.449345E-01 +5.693687E+02 -2.954874E+01 -3.228155E+01 -2.954874E+01 +1.420215E+03 
 +5.585842E+02 -3.535102E+01 +1.299959E+01 -3.535102E+01 +5.501353E+02 +1.223055E+01 +1.299959E+01 +1.223055E+01 +1.304828E+03 
 +5.650150E+02 +1.231817E+01 +4.365805E+00 +1.231817E+01 +5.776148E+02 -1.944543E-01 +4.365805E+00 -1.944543E-01 +1.430301E+03 
 +6.112091E+02 +1.269759E+01 +1.937515E+00 +1.269759E+01 +6.624328E+02 -1.093411E-01 +1.937515E+00 -1.093411E-01 +1.304748E+03 
 +6.428600E+02 +4.114961E+01 -2.003514E+01 +4.114961E+01 +6.509049E+02 -1.912945E+01 -2.003514E+01 -1.912945E+01 +1.385015E+03 
 +6.085676E+02 +4.483898E+01 -1.900072E+01 +4.483898E+01 +6.174498E+02 +2.918575E+00 -1.900072E+01 +2.918575E+00 +1.293173E+03 
 +5.415878E+02 -4.089932E+01 -5.304531E+00 -4.089932E+01 +6.929769E+02 -1.681288E+01 -5.304531E+00 -1.681288E+01 +1.323619E+03 
 +6.641378E+02 +6.093180E+00 -1.832140E+01 +6.093180E+00 +6.528851E+02 -2.111488E+01 -1.832140E+01 -2.111488E+01 +1.374599E+03 
 +6.368165E+02 +2.348924E+01 -4.121451E+00 +2.348924E+01 +6.941526E+02 +1.330635E+00 -4.121451E+00 +1.330635E+00 +1.348972E+03 
 +7.251354E+02 -6.048558E+01 -2.762581E+00 -6.048558E+01 +6.256641E+02 +3.036252E+00 -2.762581E+00 +3.036252E+00 +1.376568E+03 
 +5.516378E+02 -4.876272E+01 +1.432261E+01 -4.876272E+01 +5.787281E+02 -9.442550E-01 +1.432261E+01 -9.442550E-01 +1.272244E+03 
 +6.269044E+02 -2.495844E+01 -4.025788E+00 -2.495844E+01 +6.130227E+02 -3.522144E+01 -4.025788E+00 -3.522144E+01 +1.381537E+03 
 +6.201055E+02 -1.863768E+01 -1.076669E+01 -1.863768E+01 +5.622144E+02 +1.750594E+01 -1.076669E+01 +1.750594E+01 +1.262309E+03 
 +5.627040E+02 -8.875407E+00 -1.714398E+01 -8.875407E+00 +5.907923E+02 +3.638080E+01 -1.714398E+01 +3.638080E+01 +1.380630E+03 
 +6.294976E+02 +3.553232E+01 -1.283439E+00 +3.553232E+01 +6.498157E+02 +2.409153E+00 -1.283439E+00 +2.409153E+00 +1.314689E+03 
 +5.748643E+02 +8.531296E+00 -5.269384E-01 +8.531296E+00 +5.798170E+02 -4.455013E+00 -5.269384E-01 -4.455013E+00 +1.396730E+03 
 +5.779277E+02 -3.261875E+01 +2.532607E+01 -3.261875E+01 +5.858058E+02 -2.908243E+01 +2.532607E+01 -2.908243E+01 +1.297229E+03 
 +6.301774E+02 -1.873511E+01 -3.714711E+01 -1.873511E+01 +6.542622E+02 -1.104007E+01 -3.714711E+01 -1.104007E+01 +1.369460E+03 
 +5.531692E+02 +2.531973E+01 +7.199409E+00 +2.531973E+01 +6.276941E+02 -4.177092E+00 +7.199409E+00 -4.177092E+00 +1.342249E+03 
 +6.580113E+02 +3.120169E+01 +3.975003E-01 +3.120169E+01 +6.776208E+02 -4.772747E+00 +3.975003E-01 -4.772747E+00 +1.362026E+03 
 +6.491495E+02 -1.212372E-01 +1.586080E+01 -1.212372E-01 +6.721127E+02 +4.945621E+00 +1.586080E+01 +4.945621E+00 +1.469493E+03 
 +5.824358E+02 +1.764185E+01 +1.818438E+01 +1.764185E+01 +5.535930E+02 +6.639869E+00 +1.818438E+01 +6.639869E+00 +1.328690E+03 
 +6.682440E+02 +1.646471E+01 +1.821322E+01 +1.646471E+01 +6.138030E+02 -2.243273E+00 +1.821322E+01 -2.243273E+00 +1.342210E+03 
 +6.273123E+02 -2.470341E+01 +1.525024E+01 -2.470341E+01 +7.041148E+02 +1.537199E+01 +1.525024E+01 +1.537199E+01 +1.357962E+03 
 +6.299460E+02 -6.401101E+00 -2.362561E+01 -6.401101E+00 +6.346346E+02 +5.159467E+01 -2.362561E+01 +5.159467E+01 +1.348110E+03 
 +5.839666E+02 -2.443229E+01 +7.009386E+00 -2.443229E+01 +6.020243E+02 +7.254673E+00 +7.009386E+00 +7.254673E+00 +1.386353E+03 
 +5.743621E+02 -1.164172E+01 +1.003919E+01 -1.164172E+01 +6.480947E+02 -2.344846E+01 +1.003919E+01 -2.344846E+01 +1.295628E+03 
 +6.020566E+02 +5.025315E+01 -9.248451E+00 +5.025315E+01 +6.481562E+02 +1.469468E+00 -9.248451E+00 +1.469468E+00 +1.348868E+03 
 +7.337827E+02 +7.675814E+00 +3.537638E+00 +7.675814E+00 +6.823552E+02 -1.074650E+01 +3.537638E+00 -1.074650E+01 +1.361659E+03 
 +6.314998E+02 +2.451722E+01 +1.722893E+01 +2.451722E+01 +6.198057E+02 -3.163033E+01 +1.722893E+01 -3.163033E+01 +1.267201E+03 
 +5.889922E+02 -1.883739E+00 +1.160959E+01 -1.883739E+00 +6.585533E+02 +6.601251E+00 +1.160959E+01 +6.601251E+00 +1.371248E+03 
 +6.171940E+02 -1.156534E+01 +3.118234E+00 -1.156534E+01 +6.276591E+02 -3.534168E+00 +3.118234E+00 -3.534168E+00 +1.333926E+03 
 +5.889382E+02 -4.891585E+00 -2.606668E+00 -4.891585E+00 +6.072229E+02 -1.881543E+01 -2.606668E+00 -1.881543E+01 +1.405417E+03 
 +5.871499E+02 -1.188121E+01 -1.107718E+01 -1.188121E+01 +6.500335E+02 -3.128877E+01 -1.107718E+01 -3.128877E+01 +1.271700E+03 
 +6.327092E+02 -6.986474E+00 -1.783594E+01 -6.986474E+00 +7.147108E+02 -3.352300E+01 -1.783594E+01 -3.352300E+01 +1.366012E+03 
 +6.250258E+02 +3.525690E+01 +9.560837E-01 +3.525690E+01 +7.228039E+02 -5.991759E+00 +9.560837E-01 -5.991759E+00 +1.347544E+03 
 +6.393020E+02 -1.540867E+01 -1.195651E-01 -1.540867E+01 +6.722599E+02 -3.463646E+00 -1.195651E-01 -3.463646E+00 +1.382085E+03 
 +5.607292E+02 +3.166872E+01 -1.278975E+00 +3.166872E+01 +6.783249E+02 +3.742534E+00 -1.278975E+00 +3.742534E+00 +1.327724E+03 
 +6.643920E+02 -1.559442E+01 -6.810907E+00 -1.559442E+01 +6.129644E+02 -1.839262E+01 -6.810907E+00 -1.839262E+01 +1.350375E+03 
 +5.787495E+02 -3.012408E+01 -2.999167E+01 -3.012408E+01 +5.640692E+02 -7.510969E+00 -2.999167E+01 -7.510969E+00 +1.343106E+03 
 +5.672457E+02 -2.388943E+01 +3.912577E+01 -2.388943E+01 +5.984127E+02 -1.939250E+01 +3.912577E+01 -1.939250E+01 +1.433054E+03 
 +5.692624E+02 +1.805318E+01 -3.808734E+01 +1.805318E+01 +6.417887E+02 +3.134733E+00 -3.808734E+01 +3.134733E+00 +1.381105E+03 
 +5.941212E+02 +4.047707E+01 -2.989705E+00 +4.047707E+01 +6.529629E+02 -3.690385E+00 -2.989705E+00 -3.690385E+00 +1.281233E+03 
 +6.395700E+02 +3.291901E+00 -2.310358E+00 +3.291901E+00 +5.745765E+02 -3.784503E+00 -2.310358E+00 -3.784503E+00 +1.328708E+03 
 +5.755049E+02 +3.440298E+01 -7.347780E+00 +3.440298E+01 +5.890608E+02 +7.272095E+00 -7.347780E+00 +7.272095E+00 +1.298875E+03 
 +6.087041E+02 -3.967515E+01 +1.357835E+00 -3.967515E+01 +6.727095E+02 +4.781152E+00 +1.357835E+00 +4.781152E+00 +1.310789E+03 
 +6.171479E+02 +6.690193E+00 -2.862731E+01 +6.690193E+00 +6.440933E+02 +3.535786E+01 -2.862731E+01 +3.535786E+01 +1.394278E+03 
 +6.006749E+02 +3.076035E+01 +1.043875E+01 +3.076035E+01 +6.561031E+02 +2.216193E+01 +1.043875E+01 +2.216193E+01 +1.316994E+03 
 +5.757692E+02 -6.300180E+01 -1.144487E+01 -6.300180E+01 +7.151550E+02 -1.105886E+01 -1.144487E+01 -1.105886E+01 +1.304920E+03 
 +5.923063E+02 +5.117038E+01 -2.855680E+01 +5.117038E+01 +6.869827E+02 -9.867888E-01 -2.855680E+01 -9.867888E-01 +1.339294E+03 
 +5.777063E+02 -2.487065E+01 +3.804437E+01 -2.487065E+01 +6.023516E+02 +2.898444E+00 +3.804437E+01 +2.898444E+00 +1.293423E+03 
 +7.129674E+02 +8.033168E+00 -9.889483E+00 +8.033168E+00 +6.205398E+02 +4.618027E+00 -9.889483E+00 +4.618027E+00 +1.306308E+03 
 +5.677043E+02 -6.084048E+00 +1.700294E+00 -6.084048E+00 +5.627306E+02 -4.590799E+00 +1.700294E+00 -4.590799E+00 +1.372706E+03 
 +6.497946E+02 -5.761713E+00 +8.030973E+00 -5.761713E+00 +5.901342E+02 -3.812832E+01 +8.030973E+00 -3.812832E+01 +1.356130E+03 
 +6.150082E+02 +8.709869E+00 +2.038300E+01 +8.709869E+00 +6.303460E+02 +1.000620E+00 +2.038300E+01 +1.000620E+00 +1.364838E+03 
 +5.339897E+02 +2.126177E+01 -1.371668E+00 +2.126177E+01 +5.189553E+02 -1.265085E+01 -1.371668E+00 -1.265085E+01 +1.324407E+03 
 +6.926091E+02 -1.748224E+00 +1.599324E+01 -1.748224E+00 +6.046799E+02 -1.140396E+01 +1.599324E+01 -1.140396E+01 +1.299218E+03 
 +5.933859E+02 -6.915238E+00 +6.087406E+00 -6.915238E+00 +5.786827E+02 -1.155630E+01 +6.087406E+00 -1.155630E+01 +1.424302E+03 
 +6.277812E+02 +3.482600E+00 -2.872286E+01 +3.482600E+00 +6.007231E+02 +1.922535E-01 -2.872286E+01 +1.922535E-01 +1.329703E+03 
 +5.699064E+02 -2.085995E+01 +5.252035E+00 -2.085995E+01 +5.878927E+02 +3.109229E+01 +5.252035E+00 +3.109229E+01 +1.389941E+03 
 +6.179299E+02 +1.089312E+01 -2.284276E+01 +1.089312E+01 +6.045334E+02 -2.986147E+00 -2.284276E+01 -2.986147E+00 +1.294584E+03 
 +6.496342E+02 -3.349576E+00 +6.585449E+00 -3.349576E+00 +6.070920E+02 -8.251922E+00 +6.585449E+00 -8.251922E+00 +1.489658E+03 
 +6.490632E+02 +3.891158E+01 +8.529091E-01 +3.891158E+01 +5.582659E+02 -5.468175E+00 +8.529091E-01 -5.468175E+00 +1.325374E+03 
 +7.345729E+02 -3.351592E+01 +1.794207E+01 -3.351592E+01 +5.970749E+02 +1.889628E+01 +1.794207E+01 +1.889628E+01 +1.344768E+03 
 +5.658404E+02 +2.904122E+00 -2.361965E+01 +2.904122E+00 +5.894878E+02 +7.482637E-02 -2.361965E+01 +7.482637E-02 +1.301296E+03 
 +5.157106E+02 -5.009818E+00 +6.117745E+00 -5.009818E+00 +5.406183E+02 -1.072534E+01 +6.117745E+00 -1.072534E+01 +1.388409E+03 
 +5.241711E+02 -1.228675E+01 -2.012635E+00 -1.228675E+01 +5.081426E+02 -3.482697E+01 -2.012635E+00 -3.482697E+01 +1.290073E+03 
 +5.423154E+02 +1.127045E+01 +5.991269E-01 +1.127045E+01 +5.657139E+02 -2.522894E+01 +5.991269E-01 -2.522894E+01 +1.382638E+03 
 +6.047958E+02 +4.280675E+00 +3.556668E+01 +4.280675E+00 +6.415911E+02 -1.519713E+01 +3.556668E+01 -1.519713E+01 +1.288020E+03 
 +6.348358E+02 +4.021752E+01 +4.859024E+00 +4.021752E+01 +6.555778E+02 +8.895420E-01 +4.859024E+00 +8.895420E-01 +1.323098E+03 
 +5.887022E+02 -4.178309E+01 -2.502705E+01 -4.178309E+01 +6.177943E+02 -3.797247E+00 -2.502705E+01 -3.797247E+00 +1.363139E+03 
 +6.765453E+02 -2.254937E+01 +1.066185E+01 -2.254937E+01 +5.842375E+02 +5.482819E+00 +1.066185E+01 +5.482819E+00 +1.298964E+03 
 +5.542596E+02 +7.277377E+01 +1.993094E+01 +7.277377E+01 +7.011389E+02 +2.130560E+01 +1.993094E+01 +2.130560E+01 +1.306839E+03 
 +5.976274E+02 +1.306663E+01 -4.346442E+00 +1.306663E+01 +7.339188E+02 -2.033715E+00 -4.346442E+00 -2.033715E+00 +1.326568E+03 
 +6.058531E+02 +3.953052E+01 +1.272581E+00 +3.953052E+01 +6.872360E+02 +1.089435E+01 +1.272581E+00 +1.089435E+01 +1.282446E+03 
 +6.222552E+02 -1.608013E+01 +2.684705E+00 -1.608013E+01 +5.866387E+02 +3.191383E+01 +2.684705E+00 +3.191383E+01 +1.352291E+03 
 +6.727273E+02 -1.845631E+01 +2.040383E+01 -1.845631E+01 +6.178823E+02 +2.108323E+01 +2.040383E+01 +2.108323E+01 +1.351561E+03 
 +5.817048E+02 +2.185593E+01 -1.706293E+01 +2.185593E+01 +5.907984E+02 -5.815293E+00 -1.706293E+01 -5.815293E+00 +1.327323E+03 
 +5.871406E+02 -7.269829E+00 +2.506898E+00 -7.269829E+00 +5.966626E+02 +9.101665E+00 +2.506898E+00 +9.101665E+00 +1.391461E+03 
 +5.865074E+02 +5.928023E+00 -5.637965E+00 +5.928023E+00 +5.417630E+02 +1.110033E+01 -5.637965E+00 +1.110033E+01 +1.426494E+03 
 +7.383938E+02 +3.529860E+01 -2.206468E+01 +3.529860E+01 +6.287281E+02 -3.052348E+00 -2.206468E+01 -3.052348E+00 +1.342307E+03 
 +5.822005E+02 -3.628938E+01 -5.517541E+00 -3.628938E+01 +6.960071E+02 -4.711436E+00 -5.517541E+00 -4.711436E+00 +1.326309E+03 
 +6.520310E+02 -2.725531E-01 +1.939504E+01 -2.725531E-01 +6.444625E+02 -9.831735E-01 +1.939504E+01 -9.831735E-01 +1.383757E+03 
 +6.063154E+02 -7.585056E+00 +5.809967E+00 -7.585056E+00 +6.063405E+02 +1.164324E+01 +5.809967E+00 +1.164324E+01 +1.417010E+03 
 +6.166049E+02 +3.325577E+01 +1.206489E+01 +3.325577E+01 +5.482519E+02 +1.356607E+01 +1.206489E+01 +1.356607E+01 +1.323015E+03 
 +5.697449E+02 -1.719243E+01 -1.923203E+01 -1.719243E+01 +5.356240E+02 -4.622518E+00 -1.923203E+01 -4.622518E+00 +1.391645E+03 
 +6.997767E+02 -3.082838E+01 +1.133449E+01 -3.082838E+01 +5.655492E+02 +4.342079E+00 +1.133449E+01 +4.342079E+00 +1.305824E+03 
 +6.901467E+02 +8.507574E+00 +8.793501E+00 +8.507574E+00 +5.515365E+02 +5.462377E+00 +8.793501E+00 +5.462377E+00 +1.333586E+03 
 +6.309490E+02 -2.747439E+00 -2.797153E+00 -2.747439E+00 +5.859236E+02 -2.324588E+01 -2.797153E+00 -2.324588E+01 +1.346991E+03 
 +5.959092E+02 -2.536709E+01 +2.633319E+01 -2.536709E+01 +6.169442E+02 -9.508202E+00 +2.633319E+01 -9.508202E+00 +1.305208E+03 
 +5.928564E+02 -2.008897E+01 +2.390584E+01 -2.008897E+01 +5.640007E+02 -4.767657E+00 +2.390584E+01 -4.767657E+00 +1.322589E+03 
 +5.069739E+02 +7.404816E+00 +1.220944E+01 +7.404816E+00 +5.197190E+02 +1.009333E+01 +1.220944E+01 +1.009333E+01 +1.371991E+03 
 +5.976523E+02 -9.054053E+00 -1.606113E+01 -9.054053E+00 +6.185891E+02 -9.914296E-01 -1.606113E+01 -9.914296E-01 +1.373525E+03 
 +5.505311E+02 -2.129998E+01 -1.322570E+01 -2.129998E+01 +5.779102E+02 -2.001723E+01 -1.322570E+01 -2.001723E+01 +1.309314E+03 
 +7.107048E+02 +2.200665E+01 -5.478851E+00 +2.200665E+01 +6.152724E+02 -5.651730E+00 -5.478851E+00 -5.651730E+00 +1.345087E+03 
 +5.864846E+02 -9.050533E+00 -1.034394E+01 -9.050533E+00 +6.214959E+02 -8.259159E+00 -1.034394E+01 -8.259159E+00 +1.316539E+03 
 +5.854128E+02 -1.716555E+00 -1.193408E+01 -1.716555E+00 +5.912902E+02 -2.615930E+00 -1.193408E+01 -2.615930E+00 +1.322917E+03 
 +6.017412E+02 +9.103088E+00 +2.424423E+01 +9.103088E+00 +5.999394E+02 -3.153947E+01 +2.424423E+01 -3.153947E+01 +1.346649E+03 
 +5.758331E+02 +2.025873E+01 -1.047056E+01 +2.025873E+01 +6.444702E+02 -9.401479E+00 -1.047056E+01 -9.401479E+00 +1.321553E+03 
 +6.721385E+02 +3.306225E+01 -1.084451E+01 +3.306225E+01 +6.786141E+02 +9.869592E+00 -1.084451E+01 +9.869592E+00 +1.393490E+03 
 +6.335645E+02 -1.264907E+00 +3.979504E+01 -1.264907E+00 +7.028230E+02 +5.298172E+00 +3.979504E+01 +5.298172E+00 +1.382434E+03 
 +5.161627E+02 -8.463834E+00 +2.052499E+01 -8.463834E+00 +6.382840E+02 -1.001676E+01 +2.052499E+01 -1.001676E+01 +1.277245E+03 
 +6.166507E+02 -2.145448E+01 -2.729020E+00 -2.145448E+01 +6.099730E+02 -4.615361E+00 -2.729020E+00 -4.615361E+00 +1.375838E+03 
 +5.955974E+02 -2.574478E+01 +3.741674E+01 -2.574478E+01 +6.403347E+02 -3.564385E-01 +3.741674E+01 -3.564385E-01 +1.391615E+03 
 +6.030547E+02 +2.342061E+01 +1.633714E+01 +2.342061E+01 +6.975920E+02 +3.369452E+00 +1.633714E+01 +3.369452E+00 +1.316137E+03 
 +5.880475E+02 +2.006246E+01 -1.312551E+01 +2.006246E+01 +7.300062E+02 -1.492154E+01 -1.312551E+01 -1.492154E+01 +1.382524E+03 
 +6.716757E+02 +3.233982E+01 +2.255373E+00 +3.233982E+01 +6.460798E+02 -1.473245E+01 +2.255373E+00 -1.473245E+01 +1.335113E+03 
 +5.274559E+02 +7.010691E+00 +1.398675E+00 +7.010691E+00 +5.654107E+02 +1.994519E+01 +1.398675E+00 +1.994519E+01 +1.326542E+03 
 +5.847789E+02 +2.161543E+00 -5.913524E+00 +2.161543E+00 +6.069108E+02 -2.168237E+01 -5.913524E+00 -2.168237E+01 +1.380125E+03 
 +6.392006E+02 -3.014120E+01 -1.005114E+01 -3.014120E+01 +6.016943E+02 -1.142650E+01 -1.005114E+01 -1.142650E+01 +1.362640E+03 
 +6.823198E+02 -2.635780E+01 +5.850477E+00 -2.635780E+01 +5.999150E+02 -9.238939E+00 +5.850477E+00 -9.238939E+00 +1.355054E+03 
 +6.419499E+02 -1.551369E+01 -1.236312E+00 -1.551369E+01 +5.511738E+02 -2.633129E+01 -1.236312E+00 -2.633129E+01 +1.336855E+03 
 +6.574783E+02 -4.595064E+01 -1.453262E+01 -4.595064E+01 +5.980110E+02 -1.635058E+01 -1.453262E+01 -1.635058E+01 +1.335324E+03 
 +7.109638E+02 +1.056267E+00 -1.636234E+01 +1.056267E+00 +5.635148E+02 -2.959792E+01 -1.636234E+01 -2.959792E+01 +1.354604E+03 
 +6.029405E+02 +2.265738E+01 -1.073754E+01 +2.265738E+01 +6.269351E+02 -6.346275E+00 -1.073754E+01 -6.346275E+00 +1.298470E+03 
 +5.552224E+02 +1.822231E+01 -3.037671E+01 +1.822231E+01 +5.912399E+02 -2.712497E+01 -3.037671E+01 -2.712497E+01 +1.315927E+03 
 +6.185447E+02 +1.598906E+00 +2.553741E+01 +1.598906E+00 +6.109730E+02 -8.063947E-02 +2.553741E+01 -8.063947E-02 +1.345702E+03 
 +6.494544E+02 -3.477006E+01 +8.218299E+00 -3.477006E+01 +5.884106E+02 +1.350177E+01 +8.218299E+00 +1.350177E+01 +1.312870E+03 
 +5.743132E+02 -2.191067E+01 +1.844358E+01 -2.191067E+01 +5.813126E+02 -8.427367E+00 +1.844358E+01 -8.427367E+00 +1.346773E+03 
 +6.483487E+02 +2.427402E+01 +1.982787E+01 +2.427402E+01 +5.076903E+02 -1.391192E+01 +1.982787E+01 -1.391192E+01 +1.277857E+03 
 +5.529293E+02 -1.416080E+01 -2.224752E+01 -1.416080E+01 +5.639457E+02 -3.312494E+01 -2.224752E+01 -3.312494E+01 +1.413525E+03 
 +6.158842E+02 -1.788973E+01 +3.398317E+01 -1.788973E+01 +5.729058E+02 -5.165022E+01 +3.398317E+01 -5.165022E+01 +1.299277E+03 
 +6.286514E+02 +5.236425E+00 +8.849190E+00 +5.236425E+00 +5.318401E+02 -1.017600E+01 +8.849190E+00 -1.017600E+01 +1.267710E+03 
 +6.376076E+02 +2.586135E+01 +2.280026E+00 +2.586135E+01 +6.224832E+02 -9.198122E+00 +2.280026E+00 -9.198122E+00 +1.330171E+03 
 +5.892924E+02 +1.125882E+01 -1.469036E+01 +1.125882E+01 +5.586077E+02 -2.674544E+01 -1.469036E+01 -2.674544E+01 +1.433935E+03 
 +6.723517E+02 -3.416238E+01 -1.162278E+01 -3.416238E+01 +5.563217E+02 -9.315542E+00 -1.162278E+01 -9.315542E+00 +1.325173E+03 
 +6.025566E+02 +1.209627E+01 +1.082793E+01 +1.209627E+01 +6.151113E+02 +3.232842E+00 +1.082793E+01 +3.232842E+00 +1.456181E+03 
 +6.657938E+02 -3.675585E+01 +1.341370E+01 -3.675585E+01 +5.910852E+02 +8.727844E+00 +1.341370E+01 +8.727844E+00 +1.319679E+03 
 +5.590745E+02 -1.153668E+01 +8.475021E-01 -1.153668E+01 +6.788865E+02 -3.202334E+00 +8.475021E-01 -3.202334E+00 +1.364034E+03 
 +6.593304E+02 +1.355696E+01 -2.473581E+01 +1.355696E+01 +6.226241E+02 +9.411020E+00 -2.473581E+01 +9.411020E+00 +1.416845E+03 
 +5.845738E+02 +2.728058E+00 +2.715475E+00 +2.728058E+00 +5.542149E+02 -2.114497E+01 +2.715475E+00 -2.114497E+01 +1.351185E+03 
 +5.651725E+02 +1.786070E+01 +2.774316E+01 +1.786070E+01 +5.699978E+02 -1.513370E+01 +2.774316E+01 -1.513370E+01 +1.337680E+03 
 +5.880250E+02 +1.194273E+00 -8.413811E+00 +1.194273E+00 +5.728175E+02 +2.798352E+01 -8.413811E+00 +2.798352E+01 +1.352122E+03 
 +5.040974E+02 +1.916652E+01 +1.221026E+01 +1.916652E+01 +5.372997E+02 +9.701371E+00 +1.221026E+01 +9.701371E+00 +1.363344E+03 
 +5.360168E+02 +1.705584E+01 -2.225172E+01 +1.705584E+01 +5.776417E+02 +2.638509E+00 -2.225172E+01 +2.638509E+00 +1.358664E+03 
 +5.830185E+02 -8.756481E+00 +9.370458E+00 -8.756481E+00 +5.495630E+02 -2.148515E+01 +9.370458E+00 -2.148515E+01 +1.207548E+03 
 +6.309899E+02 -2.081436E+01 +1.695931E+01 -2.081436E+01 +5.943803E+02 +1.938583E+01 +1.695931E+01 +1.938583E+01 +1.292633E+03 
 +6.310765E+02 -3.888808E+01 +9.531001E+00 -3.888808E+01 +5.734155E+02 +6.587920E+00 +9.531001E+00 +6.587920E+00 +1.321590E+03 
 +6.343751E+02 +5.368338E+01 +1.606263E+01 +5.368338E+01 +5.760647E+02 +1.194832E+00 +1.606263E+01 +1.194832E+00 +1.337225E+03 
 +6.126873E+02 +2.667650E+01 -1.270211E+00 +2.667650E+01 +5.803953E+02 +3.333586E+01 -1.270211E+00 +3.333586E+01 +1.320616E+03 
 +5.727172E+02 +1.776939E+01 +1.143362E+01 +1.776939E+01 +5.893917E+02 +5.064450E+00 +1.143362E+01 +5.064450E+00 +1.312803E+03 
 +5.993232E+02 +3.480925E+01 +1.228327E+01 +3.480925E+01 +6.046351E+02 -3.122386E+01 +1.228327E+01 -3.122386E+01 +1.401375E+03 
 +6.262522E+02 +2.439966E+01 -3.233423E+00 +2.439966E+01 +6.113101E+02 +1.330632E+01 -3.233423E+00 +1.330632E+01 +1.365318E+03 
 +5.723683E+02 +3.933414E+00 +7.229483E+00 +3.933414E+00 +6.115206E+02 -4.818300E+00 +7.229483E+00 -4.818300E+00 +1.341238E+03 
 +7.003676E+02 -1.637919E+01 +1.179195E+01 -1.637919E+01 +5.970791E+02 -1.284967E+01 +1.179195E+01 -1.284967E+01 +1.331438E+03 
 +6.359131E+02 -2.449809E+01 -2.154787E+00 -2.449809E+01 +6.708633E+02 +1.447132E+00 -2.154787E+00 +1.447132E+00 +1.385741E+03 
 +6.021296E+02 +1.161961E+01 -2.657977E+01 +1.161961E+01 +6.549724E+02 -1.089661E+00 -2.657977E+01 -1.089661E+00 +1.389477E+03 
 +6.366597E+02 +1.555915E+01 +3.832402E+01 +1.555915E+01 +6.367688E+02 +1.478193E+00 +3.832402E+01 +1.478193E+00 +1.410148E+03 
 +5.820468E+02 +3.164163E+00 -1.066843E+01 +3.164163E+00 +6.340071E+02 +5.830914E+00 -1.066843E+01 +5.830914E+00 +1.280100E+03 
 +5.930187E+02 -1.289679E+01 -6.525630E+00 -1.289679E+01 +5.891813E+02 +1.699601E+01 -6.525630E+00 +1.699601E+01 +1.398384E+03 
 +6.546708E+02 -1.135522E+01 -2.594904E+01 -1.135522E+01 +6.322567E+02 +2.328535E-01 -2.594904E+01 +2.328535E-01 +1.375485E+03 
 +6.060425E+02 -1.661145E+01 +1.777744E+00 -1.661145E+01 +6.870205E+02 +1.267550E+01 +1.777744E+00 +1.267550E+01 +1.312303E+03 
 +6.992933E+02 +2.050734E+01 +1.499172E+01 +2.050734E+01 +6.255907E+02 +1.162535E+01 +1.499172E+01 +1.162535E+01 +1.347463E+03 
 +5.826473E+02 +2.527655E+01 +8.004547E+00 +2.527655E+01 +5.545975E+02 +1.750679E+01 +8.004547E+00 +1.750679E+01 +1.332789E+03 
 +6.684832E+02 +1.288707E+01 +1.254364E+01 +1.288707E+01 +6.119988E+02 +2.253489E+01 +1.254364E+01 +2.253489E+01 +1.374643E+03 
 +6.705845E+02 +2.147257E+01 -2.016485E+01 +2.147257E+01 +6.424354E+02 -4.351981E+00 -2.016485E+01 -4.351981E+00 +1.342637E+03 
 +6.264867E+02 -1.824311E+01 -2.571922E+00 -1.824311E+01 +5.826136E+02 -1.126636E+01 -2.571922E+00 -1.126636E+01 +1.308385E+03 
 +6.001730E+02 -8.370294E+00 -9.476175E+00 -8.370294E+00 +5.458773E+02 +9.951485E+00 -9.476175E+00 +9.951485E+00 +1.264205E+03 
 +5.862307E+02 +3.670453E+01 +2.361795E+01 +3.670453E+01 +6.148176E+02 +1.026172E+01 +2.361795E+01 +1.026172E+01 +1.296708E+03 
 +5.551790E+02 -3.348701E+01 -2.633814E+01 -3.348701E+01 +5.558274E+02 +2.415195E+01 -2.633814E+01 +2.415195E+01 +1.322454E+03 
 +6.556957E+02 -3.221310E+01 +4.591213E+00 -3.221310E+01 +5.873846E+02 +2.043381E+01 +4.591213E+00 +2.043381E+01 +1.318898E+03 
 +5.847776E+02 -1.602181E+01 +7.695653E+00 -1.602181E+01 +6.672551E+02 -1.118534E+01 +7.695653E+00 -1.118534E+01 +1.317401E+03 
 +6.242589E+02 -1.007271E+01 +2.680316E+01 -1.007271E+01 +6.404398E+02 +2.199100E+01 +2.680316E+01 +2.199100E+01 +1.441802E+03 
 +6.725296E+02 -2.912774E+01 -1.229940E+00 -2.912774E+01 +5.528395E+02 +2.665350E+00 -1.229940E+00 +2.665350E+00 +1.315975E+03 
 +5.439622E+02 -7.312045E+00 -3.316959E-01 -7.312045E+00 +5.620366E+02 +3.790084E+01 -3.316959E-01 +3.790084E+01 +1.427723E+03 
 +6.680246E+02 -2.817424E+01 -4.784235E+01 -2.817424E+01 +6.361876E+02 +1.822513E+00 -4.784235E+01 +1.822513E+00 +1.309289E+03 
 +5.505105E+02 +1.988408E+01 -6.107722E+00 +1.988408E+01 +5.713771E+02 -2.646177E+01 -6.107722E+00 -2.646177E+01 +1.337556E+03 
 +5.854854E+02 -1.566571E+01 +1.300624E+01 -1.566571E+01 +5.797652E+02 +3.102211E+01 +1.300624E+01 +3.102211E+01 +1.386461E+03 
 +6.178959E+02 -5.113173E+00 +2.699109E+01 -5.113173E+00 +5.997443E+02 +3.109450E+00 +2.699109E+01 +3.109450E+00 +1.415282E+03 
 +5.736522E+02 +1.511851E+01 -2.455054E+00 +1.511851E+01 +6.046610E+02 +6.286869E+00 -2.455054E+00 +6.286869E+00 +1.219294E+03 
 +6.015900E+02 +9.834316E+00 +5.437549E+00 +9.834316E+00 +6.225164E+02 +2.532060E+01 +5.437549E+00 +2.532060E+01 +1.460110E+03 
 +7.031179E+02 +1.256187E+01 -3.917705E-01 +1.256187E+01 +5.534630E+02 -6.558852E+00 -3.917705E-01 -6.558852E+00 +1.332096E+03 
 +5.852351E+02 -1.572988E+01 +2.450536E+01 -1.572988E+01 +6.063630E+02 +1.117556E+00 +2.450536E+01 +1.117556E+00 +1.271751E+03 
 +6.036249E+02 +5.535076E+00 -3.286237E+01 +5.535076E+00 +6.370112E+02 +3.020323E+01 -3.286237E+01 +3.020323E+01 +1.362250E+03 
 +5.461826E+02 -1.391410E+01 -1.456289E+01 -1.391410E+01 +5.422292E+02 +2.183343E+01 -1.456289E+01 +2.183343E+01 +1.348610E+03 
 +6.051602E+02 -3.838396E+01 -8.312336E+00 -3.838396E+01 +5.976361E+02 -7.775149E+00 -8.312336E+00 -7.775149E+00 +1.411317E+03 
 +5.982319E+02 -6.228288E+00 -1.297441E+01 -6.228288E+00 +6.172022E+02 +2.414235E+01 -1.297441E+01 +2.414235E+01 +1.401899E+03 
 +6.438060E+02 +1.527864E+01 +2.781556E+00 +1.527864E+01 +6.269957E+02 +1.343901E+01 +2.781556E+00 +1.343901E+01 +1.299056E+03 
 +6.158479E+02 -8.957305E+00 +2.380262E+00 -8.957305E+00 +5.917806E+02 +1.680168E+01 +2.380262E+00 +1.680168E+01 +1.284176E+03 
 +5.638133E+02 +1.399261E+01 +1.967443E+01 +1.399261E+01 +5.342720E+02 -5.301912E+00 +1.967443E+01 -5.301912E+00 +1.316468E+03 
 +7.074103E+02 +4.272483E+01 -1.483675E+01 +4.272483E+01 +5.956569E+02 -1.316000E+00 -1.483675E+01 -1.316000E+00 +1.296815E+03 
 +5.378327E+02 +9.013305E+00 +7.805473E+00 +9.013305E+00 +5.737965E+02 -3.313131E+01 +7.805473E+00 -3.313131E+01 +1.408062E+03 
 +5.772369E+02 -3.368205E+01 -2.784422E+01 -3.368205E+01 +6.055613E+02 -1.631825E+01 -2.784422E+01 -1.631825E+01 +1.281006E+03 
 +6.078472E+02 +4.722236E+00 +7.038818E+00 +4.722236E+00 +6.157109E+02 -7.315173E+00 +7.038818E+00 -7.315173E+00 +1.343155E+03 
 +5.202563E+02 +1.831875E+01 +4.825473E+00 +1.831875E+01 +5.264929E+02 -1.821265E+01 +4.825473E+00 -1.821265E+01 +1.337925E+03 
 +6.563543E+02 +5.777626E+01 -1.512584E+01 +5.777626E+01 +5.953436E+02 +9.550357E+00 -1.512584E+01 +9.550357E+00 +1.303910E+03 
 +6.127131E+02 +2.104264E+01 -3.583988E+00 +2.104264E+01 +6.271352E+02 +1.704948E+01 -3.583988E+00 +1.704948E+01 +1.437051E+03 
 +6.160516E+02 -3.415541E+01 +2.702291E+00 -3.415541E+01 +5.765216E+02 -4.943782E+00 +2.702291E+00 -4.943782E+00 +1.275171E+03 
 +6.084921E+02 -2.332511E+01 +1.631428E+01 -2.332511E+01 +6.299243E+02 +2.616301E+01 +1.631428E+01 +2.616301E+01 +1.406939E+03 
 +6.600151E+02 -3.321934E+01 -1.073991E+01 -3.321934E+01 +6.291857E+02 +4.481707E+01 -1.073991E+01 +4.481707E+01 +1.367323E+03 
 +5.268260E+02 +2.807075E+01 -2.034867E+00 +2.807075E+01 +6.156184E+02 -8.991191E+00 -2.034867E+00 -8.991191E+00 +1.256884E+03 
 +7.568416E+02 -1.244159E+01 +2.779596E-01 -1.244159E+01 +7.003383E+02 -2.886117E+01 +2.779596E-01 -2.886117E+01 +1.411440E+03 
 +6.352970E+02 -7.031684E+01 +2.277199E+01 -7.031684E+01 +6.705291E+02 +1.261891E+01 +2.277199E+01 +1.261891E+01 +1.354893E+03 
 +6.257343E+02 -3.994118E+01 -3.790133E+00 -3.994118E+01 +5.791198E+02 -1.751352E+01 -3.790133E+00 -1.751352E+01 +1.279815E+03 
 +5.823608E+02 +2.561422E+00 +2.440213E+00 +2.561422E+00 +5.477500E+02 +6.742845E+00 +2.440213E+00 +6.742845E+00 +1.394119E+03 
 +6.432656E+02 -4.169836E+00 +6.812539E+00 -4.169836E+00 +6.358612E+02 +4.089330E+01 +6.812539E+00 +4.089330E+01 +1.417199E+03 
 +6.782285E+02 -1.759277E+01 +2.455178E+01 -1.759277E+01 +6.593905E+02 +2.056465E+01 +2.455178E+01 +2.056465E+01 +1.378558E+03 
 +5.575855E+02 +2.421260E+01 -1.474676E+01 +2.421260E+01 +5.774573E+02 +9.554414E+00 -1.474676E+01 +9.554414E+00 +1.409698E+03 
 +6.721396E+02 -4.019246E+01 +1.123851E+01 -4.019246E+01 +5.702551E+02 +6.958559E+00 +1.123851E+01 +6.958559E+00 +1.292444E+03 
 +6.152403E+02 -4.967958E+01 +3.275759E+00 -4.967958E+01 +6.638849E+02 +1.343643E+01 +3.275759E+00 +1.343643E+01 +1.306508E+03 
 +6.224976E+02 +3.073965E+01 -3.467084E+01 +3.073965E+01 +6.789858E+02 -1.276902E+01 -3.467084E+01 -1.276902E+01 +1.348844E+03 
 +5.469545E+02 -8.638110E+00 -1.510817E+01 -8.638110E+00 +6.325514E+02 +4.487381E+00 -1.510817E+01 +4.487381E+00 +1.264177E+03 
 +5.792585E+02 +7.413334E+00 +2.901925E+01 +7.413334E+00 +6.094803E+02 +2.850193E+01 +2.901925E+01 +2.850193E+01 +1.433778E+03 
 +6.009613E+02 -1.363046E+01 +1.355790E+01 -1.363046E+01 +5.503792E+02 -5.292533E+00 +1.355790E+01 -5.292533E+00 +1.274973E+03 
 +5.925938E+02 -1.150277E+01 -2.501958E+01 -1.150277E+01 +5.987894E+02 +2.305672E+00 -2.501958E+01 +2.305672E+00 +1.319887E+03 
 +6.133285E+02 +6.796080E+00 +9.088181E+00 +6.796080E+00 +5.970064E+02 +1.394671E+00 +9.088181E+00 +1.394671E+00 +1.342321E+03 
 +5.733703E+02 -2.733294E+01 -4.552872E+00 -2.733294E+01 +5.773520E+02 -1.527367E+01 -4.552872E+00 -1.527367E+01 +1.261736E+03 
 +6.069022E+02 -1.170743E+01 +7.416806E+00 -1.170743E+01 +6.145328E+02 -1.115895E+00 +7.416806E+00 -1.115895E+00 +1.383001E+03 
 +6.249766E+02 -4.872307E+01 +4.104634E+00 -4.872307E+01 +6.233813E+02 +2.353270E+01 +4.104634E+00 +2.353270E+01 +1.309900E+03 
 +6.754424E+02 +5.963054E+00 +1.733451E-01 +5.963054E+00 +6.698618E+02 +1.948922E+01 +1.733451E-01 +1.948922E+01 +1.386472E+03 
 +6.444873E+02 +7.198333E+01 -1.714864E+01 +7.198333E+01 +6.202966E+02 +1.283717E+01 -1.714864E+01 +1.283717E+01 +1.322228E+03 
 +6.684810E+02 -3.370777E+01 -1.475238E+01 -3.370777E+01 +6.155142E+02 +3.132498E+00 -1.475238E+01 +3.132498E+00 +1.348235E+03 
 +6.307292E+02 -2.095479E+01 +6.548464E+00 -2.095479E+01 +6.153190E+02 +6.229899E+00 +6.548464E+00 +6.229899E+00 +1.408216E+03 
 +5.671197E+02 +2.307256E+01 -3.841660E+01 +2.307256E+01 +5.805872E+02 +4.642677E+00 -3.841660E+01 +4.642677E+00 +1.317492E+03 
 +5.365963E+02 +2.892801E+00 +2.968566E+00 +2.892801E+00 +5.983004E+02 -1.511956E+01 +2.968566E+00 -1.511956E+01 +1.320488E+03 
 +5.831083E+02 +7.036072E+00 +1.927081E+00 +7.036072E+00 +5.498280E+02 -1.959270E+00 +1.927081E+00 -1.959270E+00 +1.436742E+03 
 +6.035231E+02 -5.000061E+00 +1.845632E+01 -5.000061E+00 +5.980820E+02 -3.374879E+00 +1.845632E+01 -3.374879E+00 +1.477602E+03 
 +5.829102E+02 +2.330842E+01 +2.643779E+01 +2.330842E+01 +6.239166E+02 -2.488559E+00 +2.643779E+01 -2.488559E+00 +1.372733E+03 
 +5.593873E+02 -8.983041E+00 +5.317535E+00 -8.983041E+00 +6.043743E+02 -1.792979E+01 +5.317535E+00 -1.792979E+01 +1.398437E+03 
 +5.612069E+02 +3.280356E+01 -9.846219E+00 +3.280356E+01 +5.877299E+02 -2.999816E+00 -9.846219E+00 -2.999816E+00 +1.248952E+03 
 +6.342971E+02 +5.486051E+01 -2.596438E+01 +5.486051E+01 +6.513547E+02 +1.169199E+01 -2.596438E+01 +1.169199E+01 +1.370977E+03 
 +6.478204E+02 -2.995822E+01 -1.303646E+01 -2.995822E+01 +6.397324E+02 +8.813095E+00 -1.303646E+01 +8.813095E+00 +1.277732E+03 
 +6.748453E+02 -3.688267E+01 -1.331522E+01 -3.688267E+01 +6.169200E+02 +6.872063E+00 -1.331522E+01 +6.872063E+00 +1.336810E+03 
 +6.350811E+02 -2.324611E+01 +1.888788E+01 -2.324611E+01 +6.416182E+02 +6.703901E+00 +1.888788E+01 +6.703901E+00 +1.377672E+03 
 +5.804608E+02 +6.578440E+00 -3.936305E+00 +6.578440E+00 +5.894806E+02 -1.007852E+01 -3.936305E+00 -1.007852E+01 +1.403967E+03 
 +6.924686E+02 +3.260835E+01 -1.837324E+01 +3.260835E+01 +5.968383E+02 +2.339062E+00 -1.837324E+01 +2.339062E+00 +1.324068E+03 
 +5.827331E+02 +1.143727E+01 -2.038504E+00 +1.143727E+01 +6.620838E+02 +4.218439E+00 -2.038504E+00 +4.218439E+00 +1.364589E+03 
 +5.963220E+02 +2.051347E+00 -3.103930E+01 +2.051347E+00 +6.416345E+02 +3.708258E+00 -3.103930E+01 +3.708258E+00 +1.348619E+03 
 +6.480952E+02 +3.831028E+01 -2.366197E+00 +3.831028E+01 +5.713427E+02 +1.017557E+00 -2.366197E+00 +1.017557E+00 +1.289473E+03 
 +5.449991E+02 +7.683876E+00 +2.479982E+00 +7.683876E+00 +5.723533E+02 -1.851603E+01 +2.479982E+00 -1.851603E+01 +1.313067E+03 
 +6.249306E+02 -1.752095E+01 -1.069221E+01 -1.752095E+01 +6.118345E+02 +4.620352E+00 -1.069221E+01 +4.620352E+00 +1.328007E+03 
 +6.653785E+02 +2.774248E+01 -8.940794E+00 +2.774248E+01 +6.020829E+02 -4.632939E+00 -8.940794E+00 -4.632939E+00 +1.368113E+03 
 +5.704295E+02 -1.283341E-01 +1.695808E+01 -1.283341E-01 +5.701988E+02 -3.763604E+00 +1.695808E+01 -3.763604E+00 +1.388943E+03 
 +6.460934E+02 -1.353972E+01 +9.489085E-01 -1.353972E+01 +6.898249E+02 -6.563022E-01 +9.489085E-01 -6.563022E-01 +1.390819E+03 
 +5.590308E+02 -8.057463E+00 -2.161432E+00 -8.057463E+00 +6.698184E+02 +2.803093E+00 -2.161432E+00 +2.803093E+00 +1.300343E+03 
 +6.873352E+02 -1.956169E+00 +1.392869E+01 -1.956169E+00 +6.493181E+02 +9.947983E+00 +1.392869E+01 +9.947983E+00 +1.358004E+03 
 +6.284922E+02 -2.089970E+01 +9.084691E+00 -2.089970E+01 +7.131066E+02 +1.556150E+01 +9.084691E+00 +1.556150E+01 +1.352728E+03 
 +6.110090E+02 -2.805238E-01 -2.827670E+01 -2.805238E-01 +6.261733E+02 +5.915962E+00 -2.827670E+01 +5.915962E+00 +1.487838E+03 
 +6.499369E+02 +3.789267E+01 -2.633483E-01 +3.789267E+01 +6.232324E+02 +3.108726E-01 -2.633483E-01 +3.108726E-01 +1.311097E+03 
 +6.601609E+02 +2.253129E+01 -5.364326E+00 +2.253129E+01 +7.298541E+02 -8.476580E+00 -5.364326E+00 -8.476580E+00 +1.351397E+03 
 +5.928027E+02 -2.446916E+01 -1.781192E+01 -2.446916E+01 +6.267994E+02 +1.063694E+01 -1.781192E+01 +1.063694E+01 +1.343612E+03 
 +5.448358E+02 -4.717782E+00 +1.212666E+01 -4.717782E+00 +6.165860E+02 -2.062414E+00 +1.212666E+01 -2.062414E+00 +1.321890E+03 
 +5.705612E+02 +2.903785E+01 -6.992981E+00 +2.903785E+01 +6.858311E+02 -2.968310E+00 -6.992981E+00 -2.968310E+00 +1.298915E+03 
 +6.629205E+02 +1.641645E+00 +3.086559E+00 +1.641645E+00 +6.484654E+02 -4.353967E+01 +3.086559E+00 -4.353967E+01 +1.405422E+03 
 +6.025815E+02 -2.156741E+01 -2.346776E+01 -2.156741E+01 +6.198679E+02 -1.469141E+01 -2.346776E+01 -1.469141E+01 +1.334933E+03 
 +6.391473E+02 +1.667396E+01 +2.526017E+01 +1.667396E+01 +6.337029E+02 -2.776055E+01 +2.526017E+01 -2.776055E+01 +1.415675E+03 
 +6.015301E+02 -2.360441E+01 -3.358199E+01 -2.360441E+01 +6.514236E+02 -3.923351E+00 -3.358199E+01 -3.923351E+00 +1.293697E+03 
 +6.576323E+02 +3.230024E+00 +2.601420E+00 +3.230024E+00 +6.350146E+02 -1.718698E+01 +2.601420E+00 -1.718698E+01 +1.472179E+03 
 +6.089630E+02 +2.653930E+00 -1.985133E+01 +2.653930E+00 +5.963546E+02 -1.826744E+01 -1.985133E+01 -1.826744E+01 +1.375699E+03 
 +5.992629E+02 -3.651712E+01 +1.655997E+01 -3.651712E+01 +7.304356E+02 -1.605974E+01 +1.655997E+01 -1.605974E+01 +1.296036E+03 
 +6.039686E+02 -2.662537E+01 +1.574289E+00 -2.662537E+01 +7.129150E+02 +4.382742E+00 +1.574289E+00 +4.382742E+00 +1.352050E+03 
 +6.838583E+02 -1.523102E+01 +2.220027E+01 -1.523102E+01 +5.296747E+02 +2.991184E+00 +2.220027E+01 +2.991184E+00 +1.300534E+03 
 +5.215739E+02 -1.582929E+01 +1.044078E+00 -1.582929E+01 +5.655450E+02 +1.227158E+01 +1.044078E+00 +1.227158E+01 +1.400390E+03 
 +6.626403E+02 +4.757947E+01 -1.030064E+01 +4.757947E+01 +6.915838E+02 -1.443755E+01 -1.030064E+01 -1.443755E+01 +1.340709E+03 
 +6.266925E+02 +2.300556E+01 -1.811145E+01 +2.300556E+01 +5.867191E+02 -8.848940E+00 -1.811145E+01 -8.848940E+00 +1.412392E+03 
 +5.732461E+02 -6.700033E+00 +4.757122E+00 -6.700033E+00 +5.598694E+02 -4.193998E-01 +4.757122E+00 -4.193998E-01 +1.346119E+03 
 +6.019189E+02 +1.519168E+01 +3.299675E+01 +1.519168E+01 +5.982665E+02 +3.058009E+01 +3.299675E+01 +3.058009E+01 +1.344727E+03 
 +5.806901E+02 -3.812261E+00 -7.615974E+00 -3.812261E+00 +5.380819E+02 +1.783099E+01 -7.615974E+00 +1.783099E+01 +1.332503E+03 
 +6.309590E+02 -7.466332E+00 -3.035161E+00 -7.466332E+00 +6.532208E+02 +1.265624E+01 -3.035161E+00 +1.265624E+01 +1.402029E+03 
 +6.157195E+02 -1.148470E+01 -3.965972E+01 -1.148470E+01 +7.181437E+02 -1.073639E+01 -3.965972E+01 -1.073639E+01 +1.324922E+03 
 +7.143323E+02 +4.503393E+00 -1.036833E+01 +4.503393E+00 +5.189625E+02 -2.353047E+01 -1.036833E+01 -2.353047E+01 +1.280717E+03 
 +6.209172E+02 +7.467937E+00 -7.068485E+00 +7.467937E+00 +5.888263E+02 -1.153494E+01 -7.068485E+00 -1.153494E+01 +1.433289E+03 
 +5.763130E+02 +1.682082E+01 -2.119329E+01 +1.682082E+01 +6.024760E+02 -1.030025E+01 -2.119329E+01 -1.030025E+01 +1.309497E+03 
 +6.323563E+02 -7.343376E-02 -2.505567E+01 -7.343376E-02 +6.584861E+02 -2.682148E+01 -2.505567E+01 -2.682148E+01 +1.365300E+03 
 +6.360538E+02 -2.223827E+01 +1.725647E+01 -2.223827E+01 +6.132657E+02 +1.319748E+01 +1.725647E+01 +1.319748E+01 +1.354893E+03 
 +5.772383E+02 +2.012751E+01 -1.863882E+01 +2.012751E+01 +5.535089E+02 +1.203468E+01 -1.863882E+01 +1.203468E+01 +1.378170E+03 
 +6.373610E+02 -3.089234E+01 +1.477541E+01 -3.089234E+01 +6.514880E+02 +2.158978E+00 +1.477541E+01 +2.158978E+00 +1.355032E+03 
 +6.122822E+02 +1.628972E+01 +5.375569E+00 +1.628972E+01 +5.725448E+02 -1.757186E+00 +5.375569E+00 -1.757186E+00 +1.290677E+03 
 +5.341427E+02 +7.411637E+00 -1.133220E+01 +7.411637E+00 +5.216145E+02 +1.375630E+01 -1.133220E+01 +1.375630E+01 +1.385744E+03 
 +5.501967E+02 -1.111887E+00 +6.497582E+00 -1.111887E+00 +5.665209E+02 -6.546969E+00 +6.497582E+00 -6.546969E+00 +1.365189E+03 
 +6.025878E+02 +1.228972E+01 -2.248748E+01 +1.228972E+01 +5.475252E+02 -1.768936E+01 -2.248748E+01 -1.768936E+01 +1.336875E+03 
 +5.621683E+02 +2.290389E+00 -4.784575E+00 +2.290389E+00 +5.766169E+02 +2.051790E+01 -4.784575E+00 +2.051790E+01 +1.391545E+03 
 +6.006002E+02 +1.204510E+01 +1.377193E+01 +1.204510E+01 +6.386339E+02 +2.437414E+01 +1.377193E+01 +2.437414E+01 +1.318644E+03 
 +6.377452E+02 +1.559114E+01 -1.931414E+01 +1.559114E+01 +6.618423E+02 +9.088260E+00 -1.931414E+01 +9.088260E+00 +1.325316E+03 
 +5.846688E+02 -2.919828E+00 -2.065009E+01 -2.919828E+00 +5.854252E+02 +2.469964E+01 -2.065009E+01 +2.469964E+01 +1.345381E+03 
 +5.889373E+02 +2.655906E+01 -9.645404E-01 +2.655906E+01 +7.012926E+02 +1.803165E+01 -9.645404E-01 +1.803165E+01 +1.344319E+03 
 +6.437739E+02 -1.313962E+01 +1.213978E+01 -1.313962E+01 +6.452339E+02 +1.817576E+01 +1.213978E+01 +1.817576E+01 +1.370473E+03 
 +5.994656E+02 -4.540913E+01 -1.029114E-01 -4.540913E+01 +6.002701E+02 -1.076487E+01 -1.029114E-01 -1.076487E+01 +1.262565E+03 
 +5.765658E+02 -6.098357E+00 +1.528454E+01 -6.098357E+00 +6.420806E+02 +2.873435E+00 +1.528454E+01 +2.873435E+00 +1.362849E+03 
 +5.850262E+02 +5.007384E-01 +4.896207E+00 +5.007384E-01 +5.817087E+02 +1.109689E+01 +4.896207E+00 +1.109689E+01 +1.392635E+03 
 +5.791153E+02 +2.203502E+00 -9.831735E+00 +2.203502E+00 +5.460913E+02 -1.484831E+01 -9.831735E+00 -1.484831E+01 +1.382118E+03 
 +7.187944E+02 -6.084427E+00 +1.318654E+01 -6.084427E+00 +6.124271E+02 +1.332386E+01 +1.318654E+01 +1.332386E+01 +1.364518E+03 
 +5.371130E+02 -5.743455E+00 -2.099213E+01 -5.743455E+00 +6.409508E+02 -1.845608E+01 -2.099213E+01 -1.845608E+01 +1.324420E+03 
 +6.326326E+02 -1.065925E+01 +2.050795E+01 -1.065925E+01 +6.547148E+02 +1.857495E+01 +2.050795E+01 +1.857495E+01 +1.369845E+03 
 +6.003877E+02 -1.099471E+01 +5.758524E+00 -1.099471E+01 +6.196757E+02 -5.077173E-01 +5.758524E+00 -5.077173E-01 +1.344421E+03 
 +5.517427E+02 +1.681639E+01 +2.996335E+00 +1.681639E+01 +5.683763E+02 +2.115650E+01 +2.996335E+00 +2.115650E+01 +1.339581E+03 
 +6.484920E+02 +1.580540E+01 +1.041189E+01 +1.580540E+01 +5.990032E+02 +7.304590E+00 +1.041189E+01 +7.304590E+00 +1.412486E+03 
 +5.687509E+02 +3.750877E+01 +9.721953E+00 +3.750877E+01 +5.626832E+02 +8.960833E+00 +9.721953E+00 +8.960833E+00 +1.370549E+03 
 +6.442032E+02 -3.816806E+01 +1.705760E+01 -3.816806E+01 +5.809773E+02 +1.278387E+01 +1.705760E+01 +1.278387E+01 +1.299378E+03 
 +5.677145E+02 +2.194022E+00 +5.972334E+00 +2.194022E+00 +5.738087E+02 +4.980014E+01 +5.972334E+00 +4.980014E+01 +1.352890E+03 
 +7.273491E+02 -2.720983E+01 +1.679194E-01 -2.720983E+01 +5.886943E+02 +7.584639E+00 +1.679194E-01 +7.584639E+00 +1.364542E+03 
 +5.877251E+02 -4.076354E+01 +3.030905E+00 -4.076354E+01 +5.862810E+02 -8.021186E+00 +3.030905E+00 -8.021186E+00 +1.317364E+03 
 +6.935016E+02 +1.699663E+01 -6.034716E+00 +1.699663E+01 +5.851935E+02 -6.019759E+00 -6.034716E+00 -6.019759E+00 +1.355630E+03 
 +5.803093E+02 +2.444483E+01 +7.218856E+00 +2.444483E+01 +5.882503E+02 +1.691081E+01 +7.218856E+00 +1.691081E+01 +1.308320E+03 
 +5.679924E+02 -2.604198E+01 -2.655930E+01 -2.604198E+01 +5.560612E+02 +3.533080E+01 -2.655930E+01 +3.533080E+01 +1.399683E+03 
 +6.366227E+02 +3.274067E+01 +2.442228E+00 +3.274067E+01 +6.447805E+02 +3.147736E+00 +2.442228E+00 +3.147736E+00 +1.327570E+03 
 +5.516542E+02 -2.188971E+01 -1.858310E+01 -2.188971E+01 +5.605247E+02 -6.387965E+00 -1.858310E+01 -6.387965E+00 +1.386625E+03 
 +6.196316E+02 -5.785075E+00 +1.897290E+01 -5.785075E+00 +6.040831E+02 -7.397627E+00 +1.897290E+01 -7.397627E+00 +1.377146E+03 
 +5.700804E+02 +3.128520E+01 +3.686225E+00 +3.128520E+01 +6.097042E+02 -1.486318E+01 +3.686225E+00 -1.486318E+01 +1.339010E+03 
 +6.954194E+02 +8.280953E+00 +1.926071E+01 +8.280953E+00 +5.938843E+02 +9.142513E-01 +1.926071E+01 +9.142513E-01 +1.273085E+03 
 +6.213249E+02 -1.599793E+01 +1.553196E+01 -1.599793E+01 +6.098373E+02 -4.238499E+00 +1.553196E+01 -4.238499E+00 +1.503558E+03 
 +6.021003E+02 -6.087809E+01 +1.460853E+01 -6.087809E+01 +5.931599E+02 +2.033747E+01 +1.460853E+01 +2.033747E+01 +1.310265E+03 
 +5.633013E+02 -1.355348E+00 -1.502639E+01 -1.355348E+00 +5.600678E+02 +1.252884E+01 -1.502639E+01 +1.252884E+01 +1.423988E+03 
 +6.512804E+02 -6.135808E+00 -8.675011E+00 -6.135808E+00 +5.742055E+02 -4.791094E+00 -8.675011E+00 -4.791094E+00 +1.329482E+03 
 +6.533716E+02 -4.749734E+01 +4.167520E-01 -4.749734E+01 +6.155972E+02 +2.530385E-01 +4.167520E-01 +2.530385E-01 +1.327065E+03 
 +5.844465E+02 -2.007701E+01 +1.455766E+01 -2.007701E+01 +5.740644E+02 -3.142743E-01 +1.455766E+01 -3.142743E-01 +1.373930E+03 
 +6.615917E+02 +1.046479E+01 -3.537177E+01 +1.046479E+01 +5.796354E+02 -1.089051E+01 -3.537177E+01 -1.089051E+01 +1.297369E+03 
 +5.830588E+02 -1.233383E+01 -4.118557E+00 -1.233383E+01 +5.923348E+02 -4.917734E-01 -4.118557E+00 -4.917734E-01 +1.440610E+03 
 +5.989533E+02 -1.144032E+01 +7.411625E+00 -1.144032E+01 +6.831976E+02 +1.099115E+01 +7.411625E+00 +1.099115E+01 +1.324757E+03 
 +7.610349E+02 +3.170605E+01 -2.093986E+01 +3.170605E+01 +6.308690E+02 +2.134830E+01 -2.093986E+01 +2.134830E+01 +1.358699E+03 
 +5.531269E+02 +2.391944E+01 +1.059575E+01 +2.391944E+01 +5.634149E+02 -1.292024E+01 +1.059575E+01 -1.292024E+01 +1.422067E+03 
 +5.709624E+02 -2.663702E+00 -2.259582E+01 -2.663702E+00 +6.020726E+02 -1.796184E+01 -2.259582E+01 -1.796184E+01 +1.368910E+03 
 +6.735753E+02 -3.670969E+01 +1.310392E+01 -3.670969E+01 +5.640750E+02 -2.114402E+00 +1.310392E+01 -2.114402E+00 +1.353749E+03 
 +6.625314E+02 +9.904600E+00 -1.000385E+01 +9.904600E+00 +5.561438E+02 -1.614969E+01 -1.000385E+01 -1.614969E+01 +1.291606E+03 
 +5.913223E+02 -7.149057E+00 +4.492392E+00 -7.149057E+00 +6.397988E+02 -1.823535E+00 +4.492392E+00 -1.823535E+00 +1.321427E+03 
 +6.166219E+02 +3.559591E+01 +6.979210E+00 +3.559591E+01 +6.598692E+02 -8.706774E+00 +6.979210E+00 -8.706774E+00 +1.336115E+03 
 +5.679359E+02 -1.700787E+01 +7.173810E+00 -1.700787E+01 +5.731428E+02 -2.610616E+00 +7.173810E+00 -2.610616E+00 +1.401577E+03 
 +6.957029E+02 -3.389661E+01 -1.537069E+01 -3.389661E+01 +5.690709E+02 -1.163158E+01 -1.537069E+01 -1.163158E+01 +1.292387E+03 
 +5.807604E+02 -1.229609E+01 -1.425242E+01 -1.229609E+01 +5.671965E+02 -7.402072E+00 -1.425242E+01 -7.402072E+00 +1.353204E+03 
 +5.408207E+02 -9.509721E+00 -2.572991E+01 -9.509721E+00 +5.472899E+02 +1.071873E+01 -2.572991E+01 +1.071873E+01 +1.366003E+03 
 +6.359320E+02 +4.757384E+01 -1.370991E+01 +4.757384E+01 +5.873151E+02 -9.554393E+00 -1.370991E+01 -9.554393E+00 +1.292564E+03 
 +5.602649E+02 +8.112104E+00 +1.146039E+01 +8.112104E+00 +5.571226E+02 +6.651476E-03 +1.146039E+01 +6.651476E-03 +1.468029E+03 
 +5.392634E+02 +3.478229E+01 -2.742192E+00 +3.478229E+01 +5.883773E+02 -4.912919E+00 -2.742192E+00 -4.912919E+00 +1.313603E+03 
 +6.033217E+02 +1.846142E+01 +1.393075E+01 +1.846142E+01 +5.754272E+02 +3.882340E+01 +1.393075E+01 +3.882340E+01 +1.386792E+03 
 +5.860372E+02 +2.290059E+00 +9.239264E+00 +2.290059E+00 +6.011805E+02 +3.848365E+01 +9.239264E+00 +3.848365E+01 +1.367909E+03 
 +5.895770E+02 +2.129656E+01 +1.090066E+01 +2.129656E+01 +5.912336E+02 +1.595042E+01 +1.090066E+01 +1.595042E+01 +1.408292E+03 
 +6.832448E+02 -3.457149E+01 -9.262753E+00 -3.457149E+01 +5.831609E+02 -7.213170E+00 -9.262753E+00 -7.213170E+00 +1.331851E+03 
 +6.054255E+02 -3.807868E+00 -7.922464E+00 -3.807868E+00 +5.946766E+02 +1.136226E+00 -7.922464E+00 +1.136226E+00 +1.335260E+03 
 +5.771291E+02 +1.042884E+01 +2.155156E+01 +1.042884E+01 +5.749413E+02 -1.501442E+01 +2.155156E+01 -1.501442E+01 +1.418554E+03 
 +6.415088E+02 -1.583442E+01 -1.218575E+01 -1.583442E+01 +6.226688E+02 +1.808215E-01 -1.218575E+01 +1.808215E-01 +1.363242E+03 
 +6.578343E+02 -1.841310E+01 -9.154379E-01 -1.841310E+01 +6.015125E+02 -6.576777E+00 -9.154379E-01 -6.576777E+00 +1.349278E+03 
 +5.749301E+02 +1.730215E+01 -2.820263E+01 +1.730215E+01 +5.901130E+02 -2.699179E+01 -2.820263E+01 -2.699179E+01 +1.406773E+03 
 +6.941023E+02 +1.331062E+01 -1.143294E+01 +1.331062E+01 +5.949248E+02 +8.074263E+00 -1.143294E+01 +8.074263E+00 +1.335291E+03 
 +6.222772E+02 +1.893252E+00 +1.142956E+01 +1.893252E+00 +5.718462E+02 +2.078658E+01 +1.142956E+01 +2.078658E+01 +1.415360E+03 
 +6.535139E+02 -9.980158E+00 -1.118308E+01 -9.980158E+00 +5.558867E+02 -1.455579E+01 -1.118308E+01 -1.455579E+01 +1.310884E+03 
 +6.156891E+02 +1.604401E+01 -5.437341E+00 +1.604401E+01 +5.563917E+02 -3.482212E+01 -5.437341E+00 -3.482212E+01 +1.343702E+03 
 +6.430731E+02 -2.769970E+01 +1.649927E+01 -2.769970E+01 +5.917325E+02 -2.787706E+01 +1.649927E+01 -2.787706E+01 +1.376596E+03 
 +6.232457E+02 +1.668068E+01 -9.254144E+00 +1.668068E+01 +6.195643E+02 -7.634625E-01 -9.254144E+00 -7.634625E-01 +1.365091E+03 
 +5.252722E+02 +5.618576E+00 -6.361497E+00 +5.618576E+00 +5.296147E+02 +2.054423E+01 -6.361497E+00 +2.054423E+01 +1.363793E+03 
 +6.339836E+02 -2.653583E+01 -1.409383E+01 -2.653583E+01 +5.532864E+02 -1.531507E+01 -1.409383E+01 -1.531507E+01 +1.317248E+03 
 +5.841685E+02 +2.241430E-01 -3.658755E+01 +2.241430E-01 +6.470558E+02 -2.723445E+00 -3.658755E+01 -2.723445E+00 +1.394960E+03 
 +6.233657E+02 +2.948346E+00 +2.960414E+00 +2.948346E+00 +5.545462E+02 +1.309873E+01 +2.960414E+00 +1.309873E+01 +1.340684E+03 
 +6.305353E+02 -2.158171E+01 +6.847132E+00 -2.158171E+01 +6.256411E+02 +3.770531E+00 +6.847132E+00 +3.770531E+00 +1.363749E+03 
 +6.770834E+02 +3.391824E+00 +3.018592E+00 +3.391824E+00 +6.182320E+02 -1.432027E+01 +3.018592E+00 -1.432027E+01 +1.348280E+03 
 +5.605620E+02 +1.414346E+01 +8.801189E+00 +1.414346E+01 +5.840031E+02 -4.767731E-01 +8.801189E+00 -4.767731E-01 +1.379683E+03 
 +5.882577E+02 -1.380189E+00 +2.340492E+00 -1.380189E+00 +6.109717E+02 +2.991050E+00 +2.340492E+00 +2.991050E+00 +1.335043E+03 
 +5.823909E+02 +4.019187E+00 +2.077255E+01 +4.019187E+00 +6.049883E+02 +1.877446E+01 +2.077255E+01 +1.877446E+01 +1.410540E+03 
 +6.874009E+02 +3.660590E+01 +1.076087E+01 +3.660590E+01 +6.121401E+02 -5.391093E+00 +1.076087E+01 -5.391093E+00 +1.391220E+03 
 +5.374527E+02 -3.266569E+01 +1.905012E+01 -3.266569E+01 +6.376788E+02 +1.947819E+01 +1.905012E+01 +1.947819E+01 +1.297760E+03 
 +6.389395E+02 -1.837535E+01 +1.434789E+01 -1.837535E+01 +6.207347E+02 +3.502796E+01 +1.434789E+01 +3.502796E+01 +1.372286E+03 
 +6.535601E+02 +1.568838E+01 -2.751126E+01 +1.568838E+01 +6.191231E+02 +1.329598E+01 -2.751126E+01 +1.329598E+01 +1.315135E+03 
 +6.101837E+02 +1.875236E+01 +2.080870E+01 +1.875236E+01 +5.565507E+02 -1.460842E-01 +2.080870E+01 -1.460842E-01 +1.376137E+03 
 +5.592069E+02 -1.449098E+01 -1.716640E+01 -1.449098E+01 +5.453074E+02 +1.798053E+01 -1.716640E+01 +1.798053E+01 +1.331316E+03 
 +5.619023E+02 +3.775069E-01 -2.963840E+00 +3.775069E-01 +5.895182E+02 -3.596563E+00 -2.963840E+00 -3.596563E+00 +1.397573E+03 
 +5.811481E+02 +3.891870E+00 +5.931163E+00 +3.891870E+00 +6.345263E+02 +1.600939E+00 +5.931163E+00 +1.600939E+00 +1.298874E+03 
 +6.264203E+02 +5.228968E+00 +1.251005E+01 +5.228968E+00 +6.080244E+02 -2.470597E+01 +1.251005E+01 -2.470597E+01 +1.453226E+03 
 +5.855303E+02 -1.059326E+01 +2.462877E+01 -1.059326E+01 +6.193204E+02 -8.514828E+00 +2.462877E+01 -8.514828E+00 +1.286601E+03 
 +5.991155E+02 -1.838678E-01 +3.122048E+01 -1.838678E-01 +6.636707E+02 +3.612060E+00 +3.122048E+01 +3.612060E+00 +1.469754E+03 
 +5.620585E+02 +5.289315E+00 -3.332449E+01 +5.289315E+00 +6.103615E+02 -1.878895E+01 -3.332449E+01 -1.878895E+01 +1.318018E+03 
 +6.408690E+02 -1.045429E+01 +2.343952E+01 -1.045429E+01 +6.337426E+02 +1.645506E+01 +2.343952E+01 +1.645506E+01 +1.419033E+03 
 +6.222580E+02 +2.490341E+01 -2.676483E+01 +2.490341E+01 +5.719711E+02 +1.384421E+01 -2.676483E+01 +1.384421E+01 +1.336243E+03 
 +6.212337E+02 -4.494902E+00 -1.028696E+01 -4.494902E+00 +5.841973E+02 +1.984391E+01 -1.028696E+01 +1.984391E+01 +1.424055E+03 
 +6.105002E+02 +2.133099E+01 -1.250005E+01 +2.133099E+01 +6.445317E+02 +1.409195E+01 -1.250005E+01 +1.409195E+01 +1.300256E+03 
 +6.044860E+02 +1.911586E+01 -1.005929E+01 +1.911586E+01 +5.720605E+02 -9.161238E+00 -1.005929E+01 -9.161238E+00 +1.372415E+03 
 +5.663414E+02 +9.635793E+00 -5.362722E+00 +9.635793E+00 +5.712823E+02 +1.660364E+01 -5.362722E+00 +1.660364E+01 +1.354096E+03 
 +6.566896E+02 -2.859083E+01 -1.188438E+01 -2.859083E+01 +5.735837E+02 -1.615742E+01 -1.188438E+01 -1.615742E+01 +1.291751E+03 
 +6.311159E+02 -5.988000E+00 +6.301805E+00 -5.988000E+00 +5.510068E+02 +4.912706E+00 +6.301805E+00 +4.912706E+00 +1.285684E+03 
 +5.832268E+02 -5.611142E+00 +1.568008E+01 -5.611142E+00 +5.697076E+02 -3.137377E+01 +1.568008E+01 -3.137377E+01 +1.373997E+03 
 +6.177094E+02 -1.648041E+01 +2.024530E+01 -1.648041E+01 +5.908085E+02 +2.866676E+00 +2.024530E+01 +2.866676E+00 +1.381238E+03 
 +5.670115E+02 +2.653842E+01 -3.174978E+01 +2.653842E+01 +5.550992E+02 +6.394623E+00 -3.174978E+01 +6.394623E+00 +1.354433E+03 
 +5.894246E+02 -2.337954E+00 +1.478351E+01 -2.337954E+00 +5.519014E+02 +2.073534E+01 +1.478351E+01 +2.073534E+01 +1.357196E+03 
 +5.588647E+02 -7.835019E+00 -2.068557E+01 -7.835019E+00 +6.000415E+02 +3.261684E+00 -2.068557E+01 +3.261684E+00 +1.367686E+03 
 +6.061318E+02 -2.807069E+01 +1.366271E+01 -2.807069E+01 +6.374582E+02 +1.219631E+01 +1.366271E+01 +1.219631E+01 +1.289074E+03 
 +6.617433E+02 +2.284182E+01 -1.191547E+01 +2.284182E+01 +6.287419E+02 +1.096388E+01 -1.191547E+01 +1.096388E+01 +1.438366E+03 
 +6.391638E+02 +1.769713E+00 +2.593890E+00 +1.769713E+00 +6.149623E+02 +1.146160E+01 +2.593890E+00 +1.146160E+01 +1.311724E+03 
 +6.232518E+02 -4.896525E+00 -7.640364E+00 -4.896525E+00 +5.938558E+02 -1.827633E+01 -7.640364E+00 -1.827633E+01 +1.379867E+03 
 +6.371213E+02 +1.942009E+01 +7.162485E+00 +1.942009E+01 +5.844107E+02 +3.970650E+00 +7.162485E+00 +3.970650E+00 +1.336257E+03 
 +5.742546E+02 +1.739056E+01 -1.187883E+01 +1.739056E+01 +5.360221E+02 -1.729381E+00 -1.187883E+01 -1.729381E+00 +1.362583E+03 
 +6.533237E+02 -3.768716E+01 -5.421446E+00 -3.768716E+01 +6.299641E+02 -2.885401E+01 -5.421446E+00 -2.885401E+01 +1.362259E+03 
 +6.668179E+02 -8.073486E+00 +1.911887E-01 -8.073486E+00 +6.468766E+02 +1.595816E+01 +1.911887E-01 +1.595816E+01 +1.377722E+03 
 +7.255095E+02 +3.846835E+01 +9.469512E+00 +3.846835E+01 +5.515245E+02 -1.291752E+01 +9.469512E+00 -1.291752E+01 +1.323515E+03 
 +5.336848E+02 -6.302289E+00 +1.217176E+01 -6.302289E+00 +5.597352E+02 +1.983649E+01 +1.217176E+01 +1.983649E+01 +1.330381E+03 
 +5.902963E+02 -4.284634E+01 -1.816724E+01 -4.284634E+01 +6.225205E+02 -1.519138E+00 -1.816724E+01 -1.519138E+00 +1.298100E+03 
 +6.527769E+02 -3.225744E+01 +6.647444E-01 -3.225744E+01 +5.916777E+02 +1.802890E+01 +6.647444E-01 +1.802890E+01 +1.348299E+03 
 +5.597061E+02 +2.411550E+01 -5.848370E+00 +2.411550E+01 +5.745941E+02 +1.215159E+01 -5.848370E+00 +1.215159E+01 +1.442838E+03 
 +6.345698E+02 +1.400798E+01 +1.066713E+01 +1.400798E+01 +6.452457E+02 -2.406977E+01 +1.066713E+01 -2.406977E+01 +1.376561E+03 
 +6.252036E+02 +6.821647E-01 -1.456910E+01 +6.821647E-01 +6.285725E+02 -1.709777E+00 -1.456910E+01 -1.709777E+00 +1.343631E+03 
 +6.016112E+02 +7.181625E+00 +1.463357E+01 +7.181625E+00 +6.000450E+02 -2.334237E+01 +1.463357E+01 -2.334237E+01 +1.381854E+03 
 +6.043290E+02 +2.794318E+00 +4.012080E-01 +2.794318E+00 +5.767857E+02 +2.337098E+01 +4.012080E-01 +2.337098E+01 +1.437243E+03 
 +6.489822E+02 +8.143586E+00 -1.370735E+00 +8.143586E+00 +6.030315E+02 -1.281837E+01 -1.370735E+00 -1.281837E+01 +1.433084E+03 
 +6.210555E+02 -3.079825E+01 -2.658900E+01 -3.079825E+01 +6.393029E+02 -1.106303E+01 -2.658900E+01 -1.106303E+01 +1.330285E+03 
 +5.776982E+02 -4.976141E+01 +9.446350E+00 -4.976141E+01 +5.891893E+02 +9.395379E+00 +9.446350E+00 +9.395379E+00 +1.287357E+03 
 +7.316953E+02 +4.895382E+00 +3.161812E+00 +4.895382E+00 +5.788746E+02 -3.407672E+01 +3.161812E+00 -3.407672E+01 +1.344484E+03 
 +6.085298E+02 -1.885884E+01 +1.482569E+00 -1.885884E+01 +6.446194E+02 -1.060157E+01 +1.482569E+00 -1.060157E+01 +1.313905E+03 
 +6.025559E+02 +7.585734E+00 +1.689772E+01 +7.585734E+00 +6.124079E+02 -2.688958E+01 +1.689772E+01 -2.688958E+01 +1.388523E+03 
 +6.100932E+02 -2.854770E+01 +1.388890E+01 -2.854770E+01 +6.621807E+02 +4.286977E+00 +1.388890E+01 +4.286977E+00 +1.339762E+03 
 +6.116518E+02 -3.730123E+00 +1.803378E+01 -3.730123E+00 +6.370114E+02 +1.292908E+01 +1.803378E+01 +1.292908E+01 +1.440032E+03 
 +6.415462E+02 +2.570400E+01 -5.310898E+00 +2.570400E+01 +6.217602E+02 -1.171526E+01 -5.310898E+00 -1.171526E+01 +1.291179E+03 
 +6.149562E+02 +4.353870E+01 -1.508690E+01 +4.353870E+01 +5.914354E+02 -8.970406E+00 -1.508690E+01 -8.970406E+00 +1.354824E+03 
 +5.662823E+02 +1.119445E+01 +1.257440E+01 +1.119445E+01 +5.295529E+02 -7.789085E+00 +1.257440E+01 -7.789085E+00 +1.393033E+03 
 +5.625543E+02 +2.021022E+01 -8.000473E-01 +2.021022E+01 +5.559821E+02 -2.917958E+00 -8.000473E-01 -2.917958E+00 +1.350415E+03 
 +6.074269E+02 +1.039847E+01 -9.369569E+00 +1.039847E+01 +5.961153E+02 -3.141975E-01 -9.369569E+00 -3.141975E-01 +1.380698E+03 
 +6.228982E+02 -5.164485E+01 +1.326055E+01 -5.164485E+01 +6.310009E+02 -4.367591E+00 +1.326055E+01 -4.367591E+00 +1.344329E+03 
 +5.401175E+02 +1.423463E+01 -1.288803E+01 +1.423463E+01 +5.650598E+02 -2.978638E+01 -1.288803E+01 -2.978638E+01 +1.365736E+03 
 +6.459325E+02 +3.037106E+01 +6.873047E+00 +3.037106E+01 +6.486719E+02 -4.663708E+00 +6.873047E+00 -4.663708E+00 +1.345486E+03 
 +6.392447E+02 -4.756321E+00 +4.064262E+01 -4.756321E+00 +6.304760E+02 +2.382686E+01 +4.064262E+01 +2.382686E+01 +1.369285E+03 
 +5.050193E+02 +8.684763E+00 -8.231710E+00 +8.684763E+00 +5.336152E+02 -3.161301E+00 -8.231710E+00 -3.161301E+00 +1.366588E+03 
 +6.464393E+02 +3.238870E+01 -1.302724E+00 +3.238870E+01 +6.422280E+02 -6.345844E+00 -1.302724E+00 -6.345844E+00 +1.313442E+03 
 +5.948248E+02 -4.892961E+00 -1.815235E+00 -4.892961E+00 +5.997596E+02 -2.461321E+01 -1.815235E+00 -2.461321E+01 +1.349193E+03 
 +5.517985E+02 -1.056361E+01 +2.057569E+01 -1.056361E+01 +5.404037E+02 -1.759122E+01 +2.057569E+01 -1.759122E+01 +1.441383E+03 
 +6.692806E+02 +3.822790E+01 -3.336030E+00 +3.822790E+01 +6.306951E+02 +1.749267E+01 -3.336030E+00 +1.749267E+01 +1.367396E+03 
 +6.167361E+02 -1.584236E+01 +2.452580E-01 -1.584236E+01 +6.423069E+02 -1.757715E+00 +2.452580E-01 -1.757715E+00 +1.336725E+03 
 +5.990671E+02 +2.598935E+01 +3.860784E+00 +2.598935E+01 +6.459491E+02 -2.051038E+01 +3.860784E+00 -2.051038E+01 +1.319352E+03 
 +5.065720E+02 +4.962920E+01 +1.331743E+01 +4.962920E+01 +6.392418E+02 +6.726427E+00 +1.331743E+01 +6.726427E+00 +1.273085E+03 
 +6.267510E+02 +4.380727E+01 +3.270874E+00 +4.380727E+01 +5.815726E+02 -2.391875E+01 +3.270874E+00 -2.391875E+01 +1.268085E+03 
 +5.686786E+02 -2.024363E+01 +1.259085E+01 -2.024363E+01 +6.062825E+02 -4.480095E+01 +1.259085E+01 -4.480095E+01 +1.413094E+03 
 +6.606874E+02 -1.158085E+01 -6.288346E+00 -1.158085E+01 +6.168350E+02 -6.805628E+00 -6.288346E+00 -6.805628E+00 +1.317653E+03 
 +5.524557E+02 -2.075088E+01 -2.336123E+01 -2.075088E+01 +5.909671E+02 +5.132729E+01 -2.336123E+01 +5.132729E+01 +1.423683E+03 
 +6.710840E+02 -5.441993E+01 -8.357011E+00 -5.441993E+01 +6.274935E+02 +9.046235E+00 -8.357011E+00 +9.046235E+00 +1.297841E+03 
 +6.244602E+02 -3.305966E+01 +1.208602E+01 -3.305966E+01 +6.739700E+02 +3.948200E+00 +1.208602E+01 +3.948200E+00 +1.357632E+03 
 +6.418282E+02 -1.714629E+01 +1.052085E+01 -1.714629E+01 +6.114863E+02 -3.000668E+00 +1.052085E+01 -3.000668E+00 +1.400064E+03 
 +6.146951E+02 +1.666081E+01 +1.410262E+01 +1.666081E+01 +6.120602E+02 -1.802559E+01 +1.410262E+01 -1.802559E+01 +1.291978E+03 
 +6.238521E+02 -1.557591E+01 -8.112989E+00 -1.557591E+01 +5.916904E+02 -2.329704E+01 -8.112989E+00 -2.329704E+01 +1.358014E+03 
 +6.376335E+02 +2.020813E+01 +2.355576E+01 +2.020813E+01 +5.982809E+02 -3.065948E+01 +2.355576E+01 -3.065948E+01 +1.356800E+03 
 +6.609514E+02 -2.609038E+01 -4.745168E+00 -2.609038E+01 +6.055009E+02 -2.423368E+01 -4.745168E+00 -2.423368E+01 +1.373335E+03 
 +6.040837E+02 -2.778201E+00 -2.205600E+00 -2.778201E+00 +5.733318E+02 -1.785282E+01 -2.205600E+00 -1.785282E+01 +1.405973E+03 
 +6.582957E+02 +2.352592E+01 +1.728968E+01 +2.352592E+01 +6.634790E+02 -3.299013E+00 +1.728968E+01 -3.299013E+00 +1.385194E+03 
 +6.219915E+02 -2.434598E+01 +3.639358E+00 -2.434598E+01 +7.087473E+02 +2.538081E+01 +3.639358E+00 +2.538081E+01 +1.382814E+03 
 +6.312236E+02 +6.317444E+00 -1.085992E+01 +6.317444E+00 +6.745281E+02 +3.010046E+01 -1.085992E+01 +3.010046E+01 +1.354114E+03 
 +5.993145E+02 -3.808608E+01 -1.743052E+01 -3.808608E+01 +6.816317E+02 -1.846544E+01 -1.743052E+01 -1.846544E+01 +1.351276E+03 
 +5.600288E+02 +5.121113E+01 +2.617555E+00 +5.121113E+01 +6.509196E+02 -2.502170E+00 +2.617555E+00 -2.502170E+00 +1.336862E+03 
 +6.607606E+02 +2.406428E+01 +4.909186E+00 +2.406428E+01 +6.573947E+02 +3.811607E+01 +4.909186E+00 +3.811607E+01 +1.371373E+03 
 +6.246762E+02 +3.564225E+01 -8.045821E-01 +3.564225E+01 +7.070751E+02 -8.681269E+00 -8.045821E-01 -8.681269E+00 +1.358415E+03 
 +7.088260E+02 -3.110839E+01 +1.070639E+01 -3.110839E+01 +5.933836E+02 -2.204412E+01 +1.070639E+01 -2.204412E+01 +1.330538E+03 
 +6.833715E+02 -8.530621E+00 +1.139465E+00 -8.530621E+00 +5.844082E+02 -2.024775E+01 +1.139465E+00 -2.024775E+01 +1.314235E+03 
 +6.068237E+02 +3.726531E+01 +1.063923E+01 +3.726531E+01 +6.506439E+02 -1.713619E+01 +1.063923E+01 -1.713619E+01 +1.314923E+03 
 +6.067371E+02 +9.615867E+00 +1.113579E+01 +9.615867E+00 +6.332926E+02 -2.433962E+01 +1.113579E+01 -2.433962E+01 +1.407704E+03 
 +5.297889E+02 +1.157157E+01 -5.663111E+00 +1.157157E+01 +5.738410E+02 -3.846666E+01 -5.663111E+00 -3.846666E+01 +1.293157E+03 
 +6.094244E+02 -1.823763E+01 +4.991812E-01 -1.823763E+01 +6.174412E+02 +1.074545E+01 +4.991812E-01 +1.074545E+01 +1.362410E+03 
 +5.648412E+02 +1.994960E+01 -1.121158E+01 +1.994960E+01 +5.942605E+02 +2.322160E+01 -1.121158E+01 +2.322160E+01 +1.366645E+03 
 +6.407660E+02 +4.254868E+01 +5.559190E+00 +4.254868E+01 +6.294455E+02 -1.273528E+01 +5.559190E+00 -1.273528E+01 +1.310812E+03 
 +5.730135E+02 -3.032732E+00 -1.026456E+01 -3.032732E+00 +7.146518E+02 -6.798147E-01 -1.026456E+01 -6.798147E-01 +1.304630E+03 
 +5.738159E+02 -1.001459E+01 +1.132248E+01 -1.001459E+01 +6.860073E+02 +9.612435E+00 +1.132248E+01 +9.612435E+00 +1.313030E+03 
 +5.795868E+02 -3.095473E+01 +2.036265E+01 -3.095473E+01 +6.567758E+02 +1.268677E+01 +2.036265E+01 +1.268677E+01 +1.301417E+03 
 +5.886993E+02 +2.547456E+00 -1.272231E+01 +2.547456E+00 +5.982455E+02 -1.418699E+01 -1.272231E+01 -1.418699E+01 +1.379821E+03 
 +5.695211E+02 +3.707110E+01 +9.115924E+00 +3.707110E+01 +5.605096E+02 -3.948812E+00 +9.115924E+00 -3.948812E+00 +1.325461E+03 
 +6.110851E+02 +2.608903E+01 +2.010142E+00 +2.608903E+01 +7.021796E+02 -1.708847E+01 +2.010142E+00 -1.708847E+01 +1.358605E+03 
 +5.852922E+02 -2.040134E+01 +1.999458E+01 -2.040134E+01 +6.216439E+02 -1.512914E+01 +1.999458E+01 -1.512914E+01 +1.410167E+03 
 +5.984270E+02 -1.113900E+00 -1.582538E+00 -1.113900E+00 +5.873254E+02 +2.293666E+00 -1.582538E+00 +2.293666E+00 +1.303932E+03 
 +6.848143E+02 +1.569464E+01 -3.450356E+00 +1.569464E+01 +5.935269E+02 +3.167923E+00 -3.450356E+00 +3.167923E+00 +1.291673E+03 
 +6.445534E+02 +2.033253E+01 -1.109670E+01 +2.033253E+01 +5.969719E+02 +1.814700E+01 -1.109670E+01 +1.814700E+01 +1.439856E+03 
 +6.642413E+02 -4.489572E+01 -7.987601E+00 -4.489572E+01 +5.736008E+02 -5.658907E+00 -7.987601E+00 -5.658907E+00 +1.306466E+03 
 +5.535210E+02 -1.943318E+01 +7.546396E+00 -1.943318E+01 +5.692410E+02 -8.236908E-01 +7.546396E+00 -8.236908E-01 +1.482003E+03 
 +6.027957E+02 +7.881472E+00 -1.116927E+01 +7.881472E+00 +5.829552E+02 -1.797514E+00 -1.116927E+01 -1.797514E+00 +1.361190E+03 
 +5.358975E+02 -6.085716E+00 +2.309272E+01 -6.085716E+00 +5.620414E+02 +1.565845E+00 +2.309272E+01 +1.565845E+00 +1.312775E+03 
 +5.514583E+02 -1.939206E+01 -2.761039E+01 -1.939206E+01 +5.324042E+02 -3.496342E+01 -2.761039E+01 -3.496342E+01 +1.328205E+03 
 +6.103004E+02 -2.436859E+01 +1.041136E+00 -2.436859E+01 +5.816240E+02 -2.928959E+01 +1.041136E+00 -2.928959E+01 +1.328929E+03 
 +5.792862E+02 -1.511734E+01 -2.660791E+00 -1.511734E+01 +5.918872E+02 +5.195345E+00 -2.660791E+00 +5.195345E+00 +1.405115E+03 
 +6.684562E+02 +4.595942E-01 -2.931259E+01 +4.595942E-01 +5.458441E+02 -2.786680E+00 -2.931259E+01 -2.786680E+00 +1.310932E+03 
 +5.746017E+02 +3.330510E+01 +1.814572E-02 +3.330510E+01 +5.399562E+02 -1.614224E+01 +1.814572E-02 -1.614224E+01 +1.341638E+03 
 +6.318606E+02 -7.016978E+00 +4.001409E+00 -7.016978E+00 +5.853044E+02 +1.707950E+01 +4.001409E+00 +1.707950E+01 +1.387463E+03 
 +5.819515E+02 -7.263517E-01 -6.509163E+00 -7.263517E-01 +6.248642E+02 -1.711419E+01 -6.509163E+00 -1.711419E+01 +1.411792E+03 
 +5.548684E+02 +7.487654E+00 +3.522259E+00 +7.487654E+00 +6.414865E+02 -1.029822E+01 +3.522259E+00 -1.029822E+01 +1.250964E+03 
 +6.958280E+02 -2.083077E+01 -1.864595E+00 -2.083077E+01 +6.246600E+02 +1.892520E+01 -1.864595E+00 +1.892520E+01 +1.369366E+03 
 +6.166888E+02 -2.485012E+01 -1.455069E+01 -2.485012E+01 +6.096083E+02 -8.293261E+00 -1.455069E+01 -8.293261E+00 +1.334377E+03 
 +6.440640E+02 -3.209338E+01 +8.684471E-01 -3.209338E+01 +6.597654E+02 +9.791615E+00 +8.684471E-01 +9.791615E+00 +1.350470E+03 
 +6.227154E+02 -3.809615E+01 -2.795292E+00 -3.809615E+01 +6.841759E+02 +6.215061E-01 -2.795292E+00 +6.215061E-01 +1.340080E+03 
 +5.531401E+02 -1.173674E+01 -1.898280E+01 -1.173674E+01 +5.463433E+02 +5.551433E+00 -1.898280E+01 +5.551433E+00 +1.352259E+03 
 +6.460787E+02 -5.058092E+00 +1.168965E+01 -5.058092E+00 +5.705233E+02 +3.300413E+00 +1.168965E+01 +3.300413E+00 +1.344050E+03 
 +6.200575E+02 +4.055642E+01 +8.382707E+00 +4.055642E+01 +5.958919E+02 -1.713953E+01 +8.382707E+00 -1.713953E+01 +1.306010E+03 
 +6.212730E+02 +1.797120E+00 +2.839930E+01 +1.797120E+00 +6.416711E+02 +2.143513E+01 +2.839930E+01 +2.143513E+01 +1.337037E+03 
 +6.263676E+02 +2.942784E+01 +1.956038E+00 +2.942784E+01 +6.150489E+02 -1.178460E+00 +1.956038E+00 -1.178460E+00 +1.456263E+03 
 +5.972574E+02 +1.489956E+01 +2.766414E+00 +1.489956E+01 +6.017002E+02 -1.891156E+01 +2.766414E+00 -1.891156E+01 +1.331176E+03 
 +5.613245E+02 -2.950164E+01 +1.270154E+01 -2.950164E+01 +5.657375E+02 +1.307150E+01 +1.270154E+01 +1.307150E+01 +1.385524E+03 
 +6.171475E+02 -1.859639E+01 +2.465454E+01 -1.859639E+01 +5.607017E+02 +1.592559E+01 +2.465454E+01 +1.592559E+01 +1.319045E+03 
 +6.223348E+02 +3.544126E+00 -5.137413E+00 +3.544126E+00 +5.506883E+02 +7.395099E+00 -5.137413E+00 +7.395099E+00 +1.260866E+03 
 +6.541652E+02 +1.459864E+01 +3.853353E+00 +1.459864E+01 +6.038590E+02 +1.658507E+01 +3.853353E+00 +1.658507E+01 +1.362113E+03 
 +6.866349E+02 +4.004014E+01 -1.388323E+01 +4.004014E+01 +6.568915E+02 -8.755563E+00 -1.388323E+01 -8.755563E+00 +1.337323E+03 
 +5.683062E+02 -7.547775E-01 -2.134013E+01 -7.547775E-01 +5.857498E+02 +4.303017E+00 -2.134013E+01 +4.303017E+00 +1.407598E+03 
 +6.276281E+02 +2.233968E+00 -1.287832E+01 +2.233968E+00 +5.744231E+02 -5.454028E-01 -1.287832E+01 -5.454028E-01 +1.365302E+03 
 +5.566011E+02 -5.972674E+01 -1.125607E+01 -5.972674E+01 +6.433928E+02 -1.023557E+00 -1.125607E+01 -1.023557E+00 +1.286435E+03 
 +5.777518E+02 -1.398740E+01 +9.472100E+00 -1.398740E+01 +6.004521E+02 -1.716965E+01 +9.472100E+00 -1.716965E+01 +1.380914E+03 
 +5.730679E+02 +2.497817E+01 +2.281566E+01 +2.497817E+01 +5.719586E+02 +5.139053E+00 +2.281566E+01 +5.139053E+00 +1.401458E+03 
 +6.770652E+02 +4.409753E+01 -2.667620E+00 +4.409753E+01 +6.238940E+02 +1.403762E+01 -2.667620E+00 +1.403762E+01 +1.360055E+03 
 +6.357221E+02 +5.328505E+01 +2.055485E+01 +5.328505E+01 +6.703135E+02 -1.015956E+01 +2.055485E+01 -1.015956E+01 +1.333858E+03 
 +6.279052E+02 +1.609610E+01 -2.793357E+00 +1.609610E+01 +6.204068E+02 -3.458420E+00 -2.793357E+00 -3.458420E+00 +1.454252E+03 
 +5.756864E+02 +2.901322E+01 +1.031786E+01 +2.901322E+01 +5.873556E+02 +4.641361E-01 +1.031786E+01 +4.641361E-01 +1.268330E+03 
 +5.747648E+02 +2.691799E+01 +3.959548E+00 +2.691799E+01 +6.039041E+02 -5.547697E-01 +3.959548E+00 -5.547697E-01 +1.418773E+03 
 +6.140065E+02 -1.550542E+01 -3.116199E+00 -1.550542E+01 +6.540726E+02 -1.155248E+00 -3.116199E+00 -1.155248E+00 +1.303010E+03 
 +5.785526E+02 -1.125397E+01 -2.155150E+01 -1.125397E+01 +5.636680E+02 +3.905780E+01 -2.155150E+01 +3.905780E+01 +1.415193E+03 
 +6.547755E+02 -3.775155E+01 -3.505249E+00 -3.775155E+01 +5.231160E+02 +1.414542E+01 -3.505249E+00 +1.414542E+01 +1.313805E+03 
 +5.968196E+02 -4.091101E+01 +5.715207E+00 -4.091101E+01 +6.492727E+02 +3.382052E+00 +5.715207E+00 +3.382052E+00 +1.333735E+03 
 +6.122237E+02 -1.403629E+01 +1.902699E+01 -1.403629E+01 +6.157084E+02 +1.285229E+01 +1.902699E+01 +1.285229E+01 +1.473299E+03 
 +6.621911E+02 +1.129942E+01 +1.393815E+01 +1.129942E+01 +6.356459E+02 +7.012775E+00 +1.393815E+01 +7.012775E+00 +1.346845E+03 
 +6.585832E+02 -4.561032E+01 +2.273615E+01 -4.561032E+01 +6.734269E+02 +1.740932E+01 +2.273615E+01 +1.740932E+01 +1.342646E+03 
 +5.485895E+02 +1.893673E+00 -3.212381E+01 +1.893673E+00 +6.665138E+02 +6.382709E+00 -3.212381E+01 +6.382709E+00 +1.285002E+03 
 +5.701534E+02 -4.927323E+00 -2.024838E+01 -4.927323E+00 +7.130546E+02 +4.340130E+00 -2.024838E+01 +4.340130E+00 +1.292757E+03 
 +5.934631E+02 -1.115790E+01 +8.368465E+00 -1.115790E+01 +6.331251E+02 -2.343080E+01 +8.368465E+00 -2.343080E+01 +1.424414E+03 
 +5.734006E+02 +1.792815E+01 +4.777538E+00 +1.792815E+01 +6.479847E+02 +1.017690E+01 +4.777538E+00 +1.017690E+01 +1.290188E+03 
 +5.969623E+02 +9.708387E-01 -2.746624E+01 +9.708387E-01 +6.220806E+02 +1.366922E+01 -2.746624E+01 +1.366922E+01 +1.412845E+03 
 +6.771819E+02 +1.989294E+01 +1.174026E+01 +1.989294E+01 +6.325621E+02 +1.112963E+00 +1.174026E+01 +1.112963E+00 +1.344496E+03 
 +5.908383E+02 -1.890148E+01 +3.841351E+00 -1.890148E+01 +5.554940E+02 -1.935129E+01 +3.841351E+00 -1.935129E+01 +1.318312E+03 
 +6.388278E+02 +1.691712E+01 +1.139081E+00 +1.691712E+01 +5.786055E+02 -5.715929E+00 +1.139081E+00 -5.715929E+00 +1.349861E+03 
 +6.115243E+02 -2.795149E+01 -2.062446E+01 -2.795149E+01 +6.497651E+02 -1.194073E+01 -2.062446E+01 -1.194073E+01 +1.384873E+03 
 +6.905915E+02 -2.024391E+01 -6.561115E+00 -2.024391E+01 +6.110524E+02 -4.616899E+00 -6.561115E+00 -4.616899E+00 +1.320271E+03 
 +5.475840E+02 -3.941209E+00 -1.467846E+01 -3.941209E+00 +5.630351E+02 +1.193491E+01 -1.467846E+01 +1.193491E+01 +1.360586E+03 
 +5.568274E+02 -1.115476E+01 -1.619113E+01 -1.115476E+01 +6.003579E+02 +1.451654E+01 -1.619113E+01 +1.451654E+01 +1.341690E+03 
 +5.144686E+02 +2.938117E-01 +2.072190E+01 +2.938117E-01 +5.634525E+02 +5.972586E+00 +2.072190E+01 +5.972586E+00 +1.325972E+03 
 +5.445375E+02 +1.386495E+01 -3.045693E+01 +1.386495E+01 +5.544363E+02 -4.284047E+01 -3.045693E+01 -4.284047E+01 +1.370637E+03 
 +6.087060E+02 +1.105807E+01 +2.749687E+01 +1.105807E+01 +5.478096E+02 +2.273586E+01 +2.749687E+01 +2.273586E+01 +1.347984E+03 
 +5.902615E+02 +2.971932E+01 -2.974866E+01 +2.971932E+01 +5.686263E+02 +3.208573E+01 -2.974866E+01 +3.208573E+01 +1.418858E+03 
 +5.606318E+02 +1.926114E+01 -1.284658E+01 +1.926114E+01 +6.508791E+02 +2.975057E+01 -1.284658E+01 +2.975057E+01 +1.294004E+03 
 +5.602665E+02 -2.317745E+01 +3.879884E+01 -2.317745E+01 +5.759130E+02 +5.650430E+00 +3.879884E+01 +5.650430E+00 +1.338319E+03 
 +5.802901E+02 -1.012489E+01 -1.615789E+01 -1.012489E+01 +5.684908E+02 +2.425659E+01 -1.615789E+01 +2.425659E+01 +1.430494E+03 
 +6.020686E+02 +2.277665E+01 +1.704688E+01 +2.277665E+01 +5.907673E+02 +3.354752E+01 +1.704688E+01 +3.354752E+01 +1.440032E+03 
 +5.981747E+02 -6.987295E+00 -3.624880E+00 -6.987295E+00 +5.963315E+02 -2.651473E+01 -3.624880E+00 -2.651473E+01 +1.397764E+03 
 +6.310879E+02 +5.738033E+01 +3.920391E+00 +5.738033E+01 +6.712279E+02 -1.476299E+01 +3.920391E+00 -1.476299E+01 +1.298435E+03 
 +6.221302E+02 +3.127653E+01 +3.374181E+01 +3.127653E+01 +5.866454E+02 -1.180172E+01 +3.374181E+01 -1.180172E+01 +1.346724E+03 
 +6.747358E+02 -6.511298E+00 +1.165631E+01 -6.511298E+00 +5.901555E+02 -7.634857E+00 +1.165631E+01 -7.634857E+00 +1.350504E+03 
 +6.584278E+02 -7.746784E+00 -5.151902E-01 -7.746784E+00 +5.804990E+02 -9.053068E+00 -5.151902E-01 -9.053068E+00 +1.301881E+03 
 +5.392275E+02 -1.357611E+01 -1.317862E+01 -1.357611E+01 +6.413970E+02 +3.817408E+00 -1.317862E+01 +3.817408E+00 +1.318159E+03 
 +6.687197E+02 -2.782490E+01 +3.618404E+01 -2.782490E+01 +6.204801E+02 +9.393166E+00 +3.618404E+01 +9.393166E+00 +1.315982E+03 
 +6.142919E+02 +6.527959E+00 -1.046796E+01 +6.527959E+00 +6.285406E+02 +6.553845E+00 -1.046796E+01 +6.553845E+00 +1.333787E+03 
 +5.837485E+02 -3.146703E+00 +1.436734E+01 -3.146703E+00 +6.051048E+02 -1.377250E+01 +1.436734E+01 -1.377250E+01 +1.405090E+03 
 +6.381757E+02 +3.713483E+01 +5.518289E+00 +3.713483E+01 +5.893665E+02 +2.824951E+00 +5.518289E+00 +2.824951E+00 +1.354180E+03 
 +6.320654E+02 +6.517386E+01 -2.424022E+00 +6.517386E+01 +6.078264E+02 -1.121917E+01 -2.424022E+00 -1.121917E+01 +1.317967E+03 
 +6.844739E+02 -5.129137E+00 -1.511767E+01 -5.129137E+00 +6.568602E+02 -2.586499E+00 -1.511767E+01 -2.586499E+00 +1.336453E+03 
 +6.312957E+02 -6.277480E+01 -4.588017E+00 -6.277480E+01 +6.774298E+02 +1.362344E+01 -4.588017E+00 +1.362344E+01 +1.361462E+03 
 +6.519722E+02 -2.834704E+01 -8.113636E+00 -2.834704E+01 +7.727384E+02 +5.451041E-03 -8.113636E+00 +5.451041E-03 +1.427726E+03 
 +6.802593E+02 -4.850157E+01 -1.835188E+01 -4.850157E+01 +6.689956E+02 +7.085287E+00 -1.835188E+01 +7.085287E+00 +1.361930E+03 
 +5.713657E+02 -4.152936E+00 -1.388551E+01 -4.152936E+00 +5.637665E+02 -1.138481E+01 -1.388551E+01 -1.138481E+01 +1.401106E+03 
 +5.647269E+02 +9.594349E+00 +1.829170E+01 +9.594349E+00 +6.050142E+02 -7.197384E+00 +1.829170E+01 -7.197384E+00 +1.400698E+03 
 +6.374750E+02 -4.824304E+01 -1.570154E+01 -4.824304E+01 +6.157009E+02 +1.757199E+01 -1.570154E+01 +1.757199E+01 +1.330936E+03 
 +6.813398E+02 +2.084899E+01 -9.040261E-01 +2.084899E+01 +5.470767E+02 -3.806365E+00 -9.040261E-01 -3.806365E+00 +1.279017E+03 
 +5.632455E+02 +2.537153E+00 -3.778116E-01 +2.537153E+00 +5.857327E+02 +4.548338E+00 -3.778116E-01 +4.548338E+00 +1.370238E+03 
 +6.720675E+02 +8.601257E+00 +9.436534E+00 +8.601257E+00 +6.304456E+02 +2.552971E+01 +9.436534E+00 +2.552971E+01 +1.441503E+03 
 +6.382675E+02 +5.231811E+01 -5.977015E+00 +5.231811E+01 +6.148713E+02 +4.128557E+01 -5.977015E+00 +4.128557E+01 +1.338899E+03 
 +5.935803E+02 -1.659286E+01 +2.308727E+01 -1.659286E+01 +5.662614E+02 +8.787819E-01 +2.308727E+01 +8.787819E-01 +1.321176E+03 
 +6.451989E+02 +1.145687E+01 +4.532765E+00 +1.145687E+01 +5.383849E+02 +1.818414E+01 +4.532765E+00 +1.818414E+01 +1.341009E+03 
 +4.923967E+02 +1.736202E+01 +8.165655E+00 +1.736202E+01 +5.153426E+02 +2.008775E+00 +8.165655E+00 +2.008775E+00 +1.343277E+03 
 +6.631592E+02 -1.218436E+01 -1.124868E+01 -1.218436E+01 +5.576641E+02 -1.593259E+01 -1.124868E+01 -1.593259E+01 +1.251812E+03 
 +5.813763E+02 -6.107862E-01 +1.495884E+01 -6.107862E-01 +6.155264E+02 -7.877832E-01 +1.495884E+01 -7.877832E-01 +1.423363E+03 
 +5.852390E+02 +9.081192E+00 +1.914814E+00 +9.081192E+00 +6.953909E+02 +7.678986E+00 +1.914814E+00 +7.678986E+00 +1.329471E+03 
 +6.106637E+02 +8.810835E+00 +5.646751E+00 +8.810835E+00 +6.417799E+02 -9.664569E+00 +5.646751E+00 -9.664569E+00 +1.309488E+03 
 +5.934077E+02 +5.550593E+00 -2.126823E+00 +5.550593E+00 +6.069290E+02 -1.955659E+01 -2.126823E+00 -1.955659E+01 +1.434474E+03 
 +5.741100E+02 +8.462210E-01 -1.704535E+01 +8.462210E-01 +5.453566E+02 +2.185216E+01 -1.704535E+01 +2.185216E+01 +1.422189E+03 
 +5.270966E+02 -8.377638E+00 +1.955432E+01 -8.377638E+00 +5.244650E+02 +1.129179E+01 +1.955432E+01 +1.129179E+01 +1.352809E+03 
 +6.577908E+02 +2.434403E+01 -1.203767E+01 +2.434403E+01 +5.688500E+02 +7.662270E+00 -1.203767E+01 +7.662270E+00 +1.297870E+03 
 +5.959779E+02 +1.205695E+01 -1.219861E+01 +1.205695E+01 +6.050333E+02 +1.277618E+01 -1.219861E+01 +1.277618E+01 +1.412983E+03 
 +5.936332E+02 -2.630362E+00 -6.338778E+00 -2.630362E+00 +5.572090E+02 +6.655455E+00 -6.338778E+00 +6.655455E+00 +1.417177E+03 
 +6.404855E+02 +2.509402E+01 +1.657615E+01 +2.509402E+01 +6.678067E+02 +1.206544E+01 +1.657615E+01 +1.206544E+01 +1.322350E+03 
 +6.536326E+02 -2.126160E+01 -1.176559E+00 -2.126160E+01 +6.661450E+02 +1.111033E+01 -1.176559E+00 +1.111033E+01 +1.413283E+03 
 +6.958199E+02 +1.222212E+01 +2.102069E+01 +1.222212E+01 +6.160589E+02 +2.016290E+01 +2.102069E+01 +2.016290E+01 +1.359158E+03 
 +5.921335E+02 +6.136898E+00 +1.287062E+00 +6.136898E+00 +5.764021E+02 +1.531292E+01 +1.287062E+00 +1.531292E+01 +1.340076E+03 
 +5.653389E+02 -2.891904E+01 -2.173371E+01 -2.891904E+01 +6.505370E+02 -4.241230E-01 -2.173371E+01 -4.241230E-01 +1.284210E+03 
 +6.216620E+02 +2.014705E+01 +8.773886E+00 +2.014705E+01 +6.101516E+02 -2.752219E+01 +8.773886E+00 -2.752219E+01 +1.370328E+03 
 +5.642321E+02 +5.661584E+00 -1.052461E+01 +5.661584E+00 +6.140106E+02 +1.622007E+01 -1.052461E+01 +1.622007E+01 +1.354794E+03 
 +5.981191E+02 -1.838101E+01 +2.792337E+01 -1.838101E+01 +6.317154E+02 +2.674705E+01 +2.792337E+01 +2.674705E+01 +1.335947E+03 
 +5.902067E+02 +3.556061E+01 +4.235507E+00 +3.556061E+01 +6.374396E+02 -1.070083E+01 +4.235507E+00 -1.070083E+01 +1.325258E+03 
 +5.708265E+02 +2.113864E+01 -1.778529E+01 +2.113864E+01 +5.739529E+02 -1.503651E+01 -1.778529E+01 -1.503651E+01 +1.413465E+03 
 +6.713217E+02 -2.314808E+01 +9.003749E+00 -2.314808E+01 +6.219719E+02 +1.829985E+01 +9.003749E+00 +1.829985E+01 +1.330477E+03 
 +6.233662E+02 -7.153489E+00 +1.247682E+00 -7.153489E+00 +5.988956E+02 -4.188383E+00 +1.247682E+00 -4.188383E+00 +1.298577E+03 
 +6.029739E+02 +1.423043E+01 +3.435035E+01 +1.423043E+01 +5.928968E+02 +5.485860E+00 +3.435035E+01 +5.485860E+00 +1.439421E+03 
 +6.502780E+02 -1.210801E+01 -2.640800E+01 -1.210801E+01 +6.444702E+02 -1.919002E+00 -2.640800E+01 -1.919002E+00 +1.454930E+03 
 +5.778157E+02 -8.639827E+00 +4.562138E+00 -8.639827E+00 +6.702874E+02 -1.870706E+01 +4.562138E+00 -1.870706E+01 +1.313647E+03 
 +6.779883E+02 +3.757717E+01 +3.795871E+00 +3.757717E+01 +6.631211E+02 +3.866739E+01 +3.795871E+00 +3.866739E+01 +1.410598E+03 
 +7.295897E+02 -1.376808E+01 -4.364277E+00 -1.376808E+01 +6.098771E+02 +1.032494E+01 -4.364277E+00 +1.032494E+01 +1.404023E+03 
 +6.121346E+02 -3.486101E+01 +2.122504E+01 -3.486101E+01 +6.252615E+02 +7.032893E+00 +2.122504E+01 +7.032893E+00 +1.288051E+03 
 +6.172077E+02 +3.099590E+01 +2.908161E+00 +3.099590E+01 +6.715979E+02 +1.133746E+00 +2.908161E+00 +1.133746E+00 +1.293100E+03 
 +5.555549E+02 +1.939243E+01 -1.317659E+01 +1.939243E+01 +5.591857E+02 -5.266933E+00 -1.317659E+01 -5.266933E+00 +1.426029E+03 
 +6.303037E+02 -2.606496E+01 +1.068414E+01 -2.606496E+01 +6.367843E+02 +7.582975E+00 +1.068414E+01 +7.582975E+00 +1.345804E+03 
 +5.940470E+02 +1.980635E+00 +4.173972E+00 +1.980635E+00 +5.829646E+02 +6.378348E+00 +4.173972E+00 +6.378348E+00 +1.317738E+03 
 +5.810300E+02 -3.596774E+00 +1.120743E+01 -3.596774E+00 +5.631065E+02 -2.476823E+00 +1.120743E+01 -2.476823E+00 +1.449250E+03 
 +5.379362E+02 -2.771697E+01 -2.145320E+00 -2.771697E+01 +6.692665E+02 -7.619585E+00 -2.145320E+00 -7.619585E+00 +1.282049E+03 
 +6.032573E+02 -2.858198E+01 -1.017460E+01 -2.858198E+01 +6.609118E+02 +5.975676E-01 -1.017460E+01 +5.975676E-01 +1.363524E+03 
 +6.824261E+02 +1.937359E+01 -5.003204E+00 +1.937359E+01 +5.947696E+02 -2.005284E+01 -5.003204E+00 -2.005284E+01 +1.327031E+03 
 +5.541197E+02 -7.422239E+00 -2.530723E+01 -7.422239E+00 +6.091545E+02 -8.178484E+00 -2.530723E+01 -8.178484E+00 +1.427602E+03 
 +6.734363E+02 -5.785086E+01 -6.755868E+00 -5.785086E+01 +6.194763E+02 -8.488234E+00 -6.755868E+00 -8.488234E+00 +1.367456E+03 
 +5.810180E+02 +6.494263E+00 +1.119711E+01 +6.494263E+00 +6.246110E+02 -3.769906E-01 +1.119711E+01 -3.769906E-01 +1.332676E+03 
 +6.808079E+02 -6.338624E+00 +6.791253E+00 -6.338624E+00 +6.296974E+02 -4.506785E+00 +6.791253E+00 -4.506785E+00 +1.372845E+03 
 +5.998307E+02 +1.922330E+01 +2.559385E+01 +1.922330E+01 +5.971727E+02 -2.543531E+00 +2.559385E+01 -2.543531E+00 +1.377075E+03 
 +5.573705E+02 +1.511877E+01 +1.057164E+01 +1.511877E+01 +5.764398E+02 +1.989102E+00 +1.057164E+01 +1.989102E+00 +1.379786E+03 
 +5.651575E+02 -5.045361E+01 +4.669185E+00 -5.045361E+01 +6.442488E+02 +1.294961E+00 +4.669185E+00 +1.294961E+00 +1.301265E+03 
 +6.233687E+02 -3.973962E+01 -8.892700E+00 -3.973962E+01 +6.692040E+02 +9.295714E+00 -8.892700E+00 +9.295714E+00 +1.326178E+03 
 +6.164692E+02 -7.613652E+00 -1.194619E+00 -7.613652E+00 +6.429055E+02 -2.068213E-01 -1.194619E+00 -2.068213E-01 +1.474758E+03 
 +6.668459E+02 -1.751501E+01 +1.189032E+00 -1.751501E+01 +5.938067E+02 -1.357275E+01 +1.189032E+00 -1.357275E+01 +1.305688E+03 
 +6.045414E+02 +8.542051E+00 -2.978555E+01 +8.542051E+00 +5.804052E+02 -3.944503E+00 -2.978555E+01 -3.944503E+00 +1.416776E+03 
 +5.593984E+02 +1.138594E+01 +1.701074E+01 +1.138594E+01 +5.926493E+02 -2.578663E+00 +1.701074E+01 -2.578663E+00 +1.355892E+03 
 +6.175231E+02 -3.756911E+01 +1.972089E+00 -3.756911E+01 +6.282653E+02 +3.074633E+00 +1.972089E+00 +3.074633E+00 +1.277091E+03 
 +6.454020E+02 -1.761264E+01 -8.728635E+00 -1.761264E+01 +6.651270E+02 +7.211504E+00 -8.728635E+00 +7.211504E+00 +1.413998E+03 
 +6.419974E+02 -4.915987E+01 -5.048831E+00 -4.915987E+01 +6.650945E+02 -1.382726E-01 -5.048831E+00 -1.382726E-01 +1.347898E+03 
 +6.269274E+02 -5.596739E+00 +1.716349E-01 -5.596739E+00 +5.829611E+02 +5.115204E+01 +1.716349E-01 +5.115204E+01 +1.319414E+03 
 +6.208482E+02 +1.465003E+01 +1.461801E+01 +1.465003E+01 +5.676050E+02 +1.578374E+01 +1.461801E+01 +1.578374E+01 +1.407112E+03 
 +6.361286E+02 +7.837286E+00 +9.264768E-01 +7.837286E+00 +5.925674E+02 -2.313791E+01 +9.264768E-01 -2.313791E+01 +1.448353E+03 
 +6.700930E+02 +7.741557E+01 -2.119825E+01 +7.741557E+01 +5.668843E+02 -4.246514E+00 -2.119825E+01 -4.246514E+00 +1.286599E+03 
 +5.584864E+02 +3.287909E+01 +9.797407E+00 +3.287909E+01 +5.450071E+02 +3.335934E+00 +9.797407E+00 +3.335934E+00 +1.407256E+03 
 +5.733745E+02 -4.875861E+00 -8.145432E+00 -4.875861E+00 +5.896222E+02 +1.545963E+01 -8.145432E+00 +1.545963E+01 +1.378154E+03 
 +6.931530E+02 -3.186687E+00 -1.144296E+01 -3.186687E+00 +6.381234E+02 -8.178023E+00 -1.144296E+01 -8.178023E+00 +1.353566E+03 
 +5.977712E+02 +2.544629E+01 -3.669738E+01 +2.544629E+01 +6.026677E+02 -2.888862E+00 -3.669738E+01 -2.888862E+00 +1.395961E+03 
 +5.531405E+02 -2.763969E+00 +3.285350E+01 -2.763969E+00 +5.520566E+02 +1.012020E+00 +3.285350E+01 +1.012020E+00 +1.400958E+03 
 +6.155877E+02 -1.313267E+01 -5.663248E+00 -1.313267E+01 +6.003164E+02 +4.934539E-01 -5.663248E+00 +4.934539E-01 +1.320465E+03 
 +6.467573E+02 -3.433934E+01 +7.332453E+00 -3.433934E+01 +6.327903E+02 -2.869584E+00 +7.332453E+00 -2.869584E+00 +1.380126E+03 
 +6.085759E+02 +1.102509E+00 +6.009414E+00 +1.102509E+00 +5.945757E+02 +3.757730E-01 +6.009414E+00 +3.757730E-01 +1.393760E+03 
 +6.723996E+02 +4.542639E+00 +1.096663E+01 +4.542639E+00 +5.666379E+02 -7.180317E+00 +1.096663E+01 -7.180317E+00 +1.277507E+03 
 +6.019214E+02 +5.543207E+01 +2.126819E+00 +5.543207E+01 +6.549651E+02 -5.067448E+00 +2.126819E+00 -5.067448E+00 +1.347563E+03 
 +6.182914E+02 -2.320136E+01 -1.225144E+01 -2.320136E+01 +6.689363E+02 -9.876464E+00 -1.225144E+01 -9.876464E+00 +1.436135E+03 
 +6.713727E+02 +1.917197E+01 +4.152836E+00 +1.917197E+01 +6.101340E+02 -2.662912E+01 +4.152836E+00 -2.662912E+01 +1.339627E+03 
 +5.764499E+02 +8.439842E+00 +1.387480E+01 +8.439842E+00 +5.871562E+02 -1.857508E+01 +1.387480E+01 -1.857508E+01 +1.413724E+03 
 +6.244211E+02 -5.627859E+01 +6.680506E+00 -5.627859E+01 +5.824230E+02 +2.272992E+01 +6.680506E+00 +2.272992E+01 +1.280753E+03 
 +5.862886E+02 +7.902565E+00 +8.949920E+00 +7.902565E+00 +5.576934E+02 +1.255625E+01 +8.949920E+00 +1.255625E+01 +1.397188E+03 
 +5.537919E+02 -1.333311E-01 -2.740813E+01 -1.333311E-01 +5.733965E+02 +2.091672E+01 -2.740813E+01 +2.091672E+01 +1.408924E+03 
 +5.493717E+02 +1.156862E+01 +2.345475E+00 +1.156862E+01 +5.997032E+02 +4.430501E+01 +2.345475E+00 +4.430501E+01 +1.326022E+03 
 +6.654791E+02 +1.812149E+01 -3.032837E+01 +1.812149E+01 +7.316870E+02 +2.993203E+00 -3.032837E+01 +2.993203E+00 +1.372087E+03 
 +6.520452E+02 -8.346135E+00 +2.366406E+01 -8.346135E+00 +6.755999E+02 +1.001952E+00 +2.366406E+01 +1.001952E+00 +1.441449E+03 
 +5.546294E+02 +1.738019E+01 -3.624403E+01 +1.738019E+01 +5.858063E+02 +3.901815E+01 -3.624403E+01 +3.901815E+01 +1.413830E+03 
 +6.742965E+02 -4.625826E+01 -4.452478E+00 -4.625826E+01 +6.836892E+02 -1.330953E+01 -4.452478E+00 -1.330953E+01 +1.364801E+03 
 +6.237251E+02 -4.704081E+01 -1.276581E+01 -4.704081E+01 +6.164087E+02 -1.575337E+01 -1.276581E+01 -1.575337E+01 +1.324255E+03 
 +6.730485E+02 -2.936491E+01 +3.049268E+00 -2.936491E+01 +5.659247E+02 -1.410832E+01 +3.049268E+00 -1.410832E+01 +1.298395E+03 
 +5.689611E+02 +8.608936E+00 -2.555445E+01 +8.608936E+00 +5.578742E+02 +1.749394E+01 -2.555445E+01 +1.749394E+01 +1.400648E+03 
 +5.806551E+02 -2.520217E+00 +3.894403E+00 -2.520217E+00 +5.595487E+02 -4.699603E+00 +3.894403E+00 -4.699603E+00 +1.394438E+03 
 +5.596285E+02 +3.886002E-01 +1.366000E+01 +3.886002E-01 +5.927625E+02 +2.403666E+01 +1.366000E+01 +2.403666E+01 +1.370948E+03 
 +6.873721E+02 +5.182470E+01 +5.047891E+00 +5.182470E+01 +5.850497E+02 +4.099491E+00 +5.047891E+00 +4.099491E+00 +1.320156E+03 
 +6.071745E+02 -8.584216E-01 -1.120696E+01 -8.584216E-01 +5.964424E+02 -7.346429E+00 -1.120696E+01 -7.346429E+00 +1.335732E+03 
 +5.569637E+02 -2.622393E+01 +1.617771E+00 -2.622393E+01 +5.600353E+02 +1.970987E+01 +1.617771E+00 +1.970987E+01 +1.369046E+03 
 +5.345084E+02 +1.374895E+01 +1.447630E+01 +1.374895E+01 +5.341398E+02 +2.084596E+01 +1.447630E+01 +2.084596E+01 +1.377193E+03 
 +5.919211E+02 -1.122103E+01 +6.859199E+00 -1.122103E+01 +5.886414E+02 -2.027272E+01 +6.859199E+00 -2.027272E+01 +1.405798E+03 
 +5.808861E+02 +8.357023E-01 +2.851283E+00 +8.357023E-01 +5.887119E+02 -2.290852E+01 +2.851283E+00 -2.290852E+01 +1.409038E+03 
 +5.793015E+02 +9.342058E+00 -4.541837E+00 +9.342058E+00 +5.909056E+02 -1.404577E+01 -4.541837E+00 -1.404577E+01 +1.336243E+03 
 +6.657859E+02 -3.023069E+01 -2.129875E+01 -3.023069E+01 +6.303806E+02 +2.454294E+00 -2.129875E+01 +2.454294E+00 +1.334418E+03 
 +5.946841E+02 -1.942171E+01 +8.645267E+00 -1.942171E+01 +6.211396E+02 -1.400229E+01 +8.645267E+00 -1.400229E+01 +1.303891E+03 
 +6.091101E+02 +1.241472E+01 +5.580645E+00 +1.241472E+01 +6.297388E+02 -1.356620E+01 +5.580645E+00 -1.356620E+01 +1.437813E+03 
 +5.893728E+02 -5.739271E+00 -3.538039E+00 -5.739271E+00 +6.041234E+02 +2.702982E+01 -3.538039E+00 +2.702982E+01 +1.406539E+03 
 +7.909511E+02 -2.982705E+00 -1.209237E+01 -2.982705E+00 +6.289976E+02 -7.646262E+00 -1.209237E+01 -7.646262E+00 +1.397505E+03 
 +6.555393E+02 +2.483004E+01 +1.982871E+01 +2.483004E+01 +5.973396E+02 -2.065829E+01 +1.982871E+01 -2.065829E+01 +1.419011E+03 
 +5.740619E+02 +2.720650E+01 -2.271574E+00 +2.720650E+01 +5.472611E+02 -1.048526E+01 -2.271574E+00 -1.048526E+01 +1.412455E+03 
 +5.720063E+02 +8.206404E+00 -3.549449E+01 +8.206404E+00 +6.304084E+02 +1.409331E+01 -3.549449E+01 +1.409331E+01 +1.332455E+03 
 +5.837415E+02 +1.733742E-02 +2.132290E+01 +1.733742E-02 +5.693834E+02 -1.006294E+01 +2.132290E+01 -1.006294E+01 +1.409205E+03 
 +5.602974E+02 +7.047459E+00 -2.276418E+01 +7.047459E+00 +5.327141E+02 -2.707640E+01 -2.276418E+01 -2.707640E+01 +1.344370E+03 
 +5.272839E+02 +4.593576E+01 +6.118223E+00 +4.593576E+01 +6.213108E+02 +4.595326E+00 +6.118223E+00 +4.595326E+00 +1.274304E+03 
 +7.681481E+02 -5.774726E+01 +5.608788E+00 -5.774726E+01 +6.758350E+02 -2.574398E+00 +5.608788E+00 -2.574398E+00 +1.409852E+03 
 +5.705974E+02 +1.752793E+01 -8.060348E+00 +1.752793E+01 +5.695677E+02 +2.224968E+01 -8.060348E+00 +2.224968E+01 +1.404781E+03 
 +6.842198E+02 +7.881609E+00 +2.944423E+00 +7.881609E+00 +5.337131E+02 +2.270924E+01 +2.944423E+00 +2.270924E+01 +1.302873E+03 
 +5.659785E+02 +1.258967E+01 -2.730679E+01 +1.258967E+01 +5.553199E+02 -1.885279E+01 -2.730679E+01 -1.885279E+01 +1.385080E+03 
 +5.789609E+02 -8.191361E-02 +1.129628E+01 -8.191361E-02 +5.443278E+02 -1.568538E+01 +1.129628E+01 -1.568538E+01 +1.326480E+03 
 +6.033925E+02 -1.024669E+01 -2.848119E+01 -1.024669E+01 +5.920711E+02 -2.346844E+01 -2.848119E+01 -2.346844E+01 +1.399027E+03 
 +6.433895E+02 -1.801751E+01 -6.226294E+00 -1.801751E+01 +6.143802E+02 -1.673951E+01 -6.226294E+00 -1.673951E+01 +1.338979E+03 
 +6.122012E+02 +5.000231E+00 -1.431989E+01 +5.000231E+00 +6.353120E+02 +2.497573E+01 -1.431989E+01 +2.497573E+01 +1.462726E+03 
 +5.887910E+02 -8.035548E+00 -1.049987E+01 -8.035548E+00 +6.017023E+02 -3.374667E+00 -1.049987E+01 -3.374667E+00 +1.425733E+03 
 +7.225649E+02 -4.362167E+01 +1.385892E+01 -4.362167E+01 +6.296646E+02 -1.258145E+01 +1.385892E+01 -1.258145E+01 +1.378855E+03 
 +5.713858E+02 -3.062787E+01 -7.548780E+00 -3.062787E+01 +6.603817E+02 -8.024370E+00 -7.548780E+00 -8.024370E+00 +1.312194E+03 
 +5.749682E+02 +4.332799E+00 +1.210559E+01 +4.332799E+00 +5.426104E+02 -3.100704E+01 +1.210559E+01 -3.100704E+01 +1.360923E+03 
 +7.269495E+02 +9.681074E+00 +1.086338E+01 +9.681074E+00 +6.505682E+02 -9.755241E+00 +1.086338E+01 -9.755241E+00 +1.361414E+03 
 +6.604115E+02 +8.035002E+00 -9.927932E+00 +8.035002E+00 +7.524594E+02 -3.762187E+00 -9.927932E+00 -3.762187E+00 +1.405927E+03 
 +5.751296E+02 -1.128994E+01 +1.387234E+01 -1.128994E+01 +6.026638E+02 -1.528893E+01 +1.387234E+01 -1.528893E+01 +1.371753E+03 
 +5.898206E+02 +2.034228E+00 +9.606029E-01 +2.034228E+00 +5.917977E+02 -2.642230E+01 +9.606029E-01 -2.642230E+01 +1.441690E+03 
 +5.618489E+02 +2.867704E+01 +2.150628E+01 +2.867704E+01 +5.628950E+02 -1.276425E+01 +2.150628E+01 -1.276425E+01 +1.355397E+03 
 +6.076130E+02 -5.617852E+01 -6.644059E+00 -5.617852E+01 +5.501425E+02 -8.255230E+00 -6.644059E+00 -8.255230E+00 +1.264419E+03 
 +6.247106E+02 -2.951580E+01 +1.557267E+01 -2.951580E+01 +6.146348E+02 +9.739557E+00 +1.557267E+01 +9.739557E+00 +1.385394E+03 
 +6.277391E+02 +1.536718E+01 +4.192974E+00 +1.536718E+01 +6.055876E+02 +2.153681E+01 +4.192974E+00 +2.153681E+01 +1.392034E+03 
 +5.996926E+02 -1.044105E+01 +2.551631E+01 -1.044105E+01 +6.037067E+02 +3.541493E+01 +2.551631E+01 +3.541493E+01 +1.328798E+03 
 +5.508117E+02 +2.202043E+01 -1.239976E+01 +2.202043E+01 +5.983657E+02 -1.257271E+01 -1.239976E+01 -1.257271E+01 +1.420719E+03 
 +6.236100E+02 -2.348126E+01 -1.513080E+01 -2.348126E+01 +6.373661E+02 -1.066174E+01 -1.513080E+01 -1.066174E+01 +1.328767E+03 
 +6.205232E+02 +2.229543E+01 +1.022122E+01 +2.229543E+01 +6.875018E+02 +1.633583E+00 +1.022122E+01 +1.633583E+00 +1.337388E+03 
 +6.462590E+02 -4.987191E+00 -2.020087E+01 -4.987191E+00 +6.364167E+02 -6.961988E+00 -2.020087E+01 -6.961988E+00 +1.346458E+03 
 +6.406807E+02 -1.041754E+01 +9.473432E+00 -1.041754E+01 +6.018569E+02 -2.272526E+01 +9.473432E+00 -2.272526E+01 +1.386308E+03 
 +5.572141E+02 -1.006886E+01 +9.304169E+00 -1.006886E+01 +6.531628E+02 +2.587531E+01 +9.304169E+00 +2.587531E+01 +1.333670E+03 
 +6.278329E+02 +2.349494E+00 -2.451257E+01 +2.349494E+00 +5.949618E+02 -3.219046E+01 -2.451257E+01 -3.219046E+01 +1.324238E+03 
 +6.121044E+02 -1.015658E+01 -2.077971E+01 -1.015658E+01 +6.191072E+02 -1.532575E+01 -2.077971E+01 -1.532575E+01 +1.420927E+03 
 +6.092618E+02 +4.191469E+01 -1.471400E+01 +4.191469E+01 +6.507834E+02 +2.352983E+01 -1.471400E+01 +2.352983E+01 +1.395380E+03 
 +5.846193E+02 +6.273704E+00 -1.008689E+01 +6.273704E+00 +5.822758E+02 +1.698452E+01 -1.008689E+01 +1.698452E+01 +1.407141E+03 
 +6.237578E+02 -5.004580E+00 +1.705250E+01 -5.004580E+00 +5.817667E+02 +1.576486E+01 +1.705250E+01 +1.576486E+01 +1.367679E+03 
 +6.426395E+02 -3.823621E+00 -7.681935E+00 -3.823621E+00 +5.965554E+02 +9.247223E+00 -7.681935E+00 +9.247223E+00 +1.354355E+03 
 +5.526767E+02 +2.685222E+01 +6.551149E+00 +2.685222E+01 +5.940599E+02 -1.479349E+01 +6.551149E+00 -1.479349E+01 +1.333560E+03 
 +7.131483E+02 +1.980876E+00 +4.957469E+00 +1.980876E+00 +5.826208E+02 -9.256809E+00 +4.957469E+00 -9.256809E+00 +1.311781E+03 
 +5.790619E+02 -1.515150E+01 -2.673222E+00 -1.515150E+01 +5.590660E+02 +1.098821E+01 -2.673222E+00 +1.098821E+01 +1.433377E+03 
 +5.899041E+02 -3.826531E+00 -1.710899E+01 -3.826531E+00 +5.871392E+02 +7.565229E-01 -1.710899E+01 +7.565229E-01 +1.400092E+03 
 +6.201243E+02 -5.934923E+01 +1.421537E+01 -5.934923E+01 +6.081321E+02 +9.411134E-01 +1.421537E+01 +9.411134E-01 +1.334201E+03 
 +6.486160E+02 +3.196908E+01 -3.564438E-01 +3.196908E+01 +5.787604E+02 +1.443215E+00 -3.564438E-01 +1.443215E+00 +1.302292E+03 
 +5.782148E+02 +1.318082E+01 -6.530905E+00 +1.318082E+01 +5.405939E+02 +9.770152E+00 -6.530905E+00 +9.770152E+00 +1.406094E+03 
 +6.237003E+02 +6.961751E+00 -8.625696E+00 +6.961751E+00 +5.478310E+02 +3.050389E+01 -8.625696E+00 +3.050389E+01 +1.412539E+03 
 +6.626661E+02 +4.542038E+01 +1.006452E+01 +4.542038E+01 +6.436705E+02 +7.027427E+00 +1.006452E+01 +7.027427E+00 +1.332428E+03 
 +5.799606E+02 +2.678962E+01 -1.029363E+01 +2.678962E+01 +6.865799E+02 +1.328620E+01 -1.029363E+01 +1.328620E+01 +1.333428E+03 
 +5.734691E+02 +1.500301E+01 -2.538443E+01 +1.500301E+01 +5.667377E+02 +5.269324E+00 -2.538443E+01 +5.269324E+00 +1.402824E+03 
 +6.038329E+02 -3.235726E+01 +8.466242E+00 -3.235726E+01 +5.403773E+02 -3.459338E+00 +8.466242E+00 -3.459338E+00 +1.280706E+03 
 +6.484698E+02 +2.022134E+01 +3.872092E+00 +2.022134E+01 +6.685266E+02 -2.102050E+00 +3.872092E+00 -2.102050E+00 +1.327604E+03 
 +6.291100E+02 +4.708104E+01 +8.932137E+00 +4.708104E+01 +6.235486E+02 -1.570410E-01 +8.932137E+00 -1.570410E-01 +1.344067E+03 
 +6.366495E+02 -7.292902E+00 +1.041640E+01 -7.292902E+00 +5.809644E+02 +3.120592E+01 +1.041640E+01 +3.120592E+01 +1.333493E+03 
 +6.594479E+02 -2.730480E+01 +1.158099E+01 -2.730480E+01 +6.780866E+02 +3.875571E-01 +1.158099E+01 +3.875571E-01 +1.357996E+03 
 +5.394485E+02 +3.732045E+01 -6.120495E+00 +3.732045E+01 +6.057093E+02 +7.104973E-01 -6.120495E+00 +7.104973E-01 +1.287938E+03 
 +6.139576E+02 +5.721260E+00 +1.370993E+01 +5.721260E+00 +6.214374E+02 +9.296721E+00 +1.370993E+01 +9.296721E+00 +1.328369E+03 
 +6.173359E+02 -8.597752E+00 +1.377014E+01 -8.597752E+00 +6.184526E+02 +3.780520E+01 +1.377014E+01 +3.780520E+01 +1.376151E+03 
 +5.904039E+02 +6.870415E+00 -3.043930E+01 +6.870415E+00 +6.059399E+02 +7.643251E+00 -3.043930E+01 +7.643251E+00 +1.415893E+03 
 +6.083953E+02 +1.283960E+01 +7.601132E+00 +1.283960E+01 +6.746474E+02 -9.120429E+00 +7.601132E+00 -9.120429E+00 +1.317295E+03 
 +5.869684E+02 -1.082585E+01 -7.470971E+00 -1.082585E+01 +6.038577E+02 -9.508582E+00 -7.470971E+00 -9.508582E+00 +1.405060E+03 
 +6.082501E+02 -2.810043E+01 +1.031865E+01 -2.810043E+01 +5.797374E+02 -8.818232E+00 +1.031865E+01 -8.818232E+00 +1.256664E+03 
 +6.564654E+02 +1.620992E+01 -3.549900E+00 +1.620992E+01 +6.714078E+02 +2.103470E+01 -3.549900E+00 +2.103470E+01 +1.434857E+03 
 +5.833649E+02 +8.837604E+00 +1.240133E+01 +8.837604E+00 +6.762599E+02 +1.208031E+01 +1.240133E+01 +1.208031E+01 +1.337498E+03 
 +6.165430E+02 +2.744081E+01 -1.274485E+01 +2.744081E+01 +6.308212E+02 -3.791796E+00 -1.274485E+01 -3.791796E+00 +1.393927E+03 
 +5.919051E+02 -2.722043E+00 +1.360434E+01 -2.722043E+00 +6.420035E+02 -7.636094E+00 +1.360434E+01 -7.636094E+00 +1.329584E+03 
 +6.247430E+02 -2.848283E+01 +1.404509E+01 -2.848283E+01 +6.099877E+02 +3.663537E+00 +1.404509E+01 +3.663537E+00 +1.427007E+03 
 +6.332945E+02 -2.088167E+01 -1.106683E+01 -2.088167E+01 +6.256667E+02 +7.980606E+00 -1.106683E+01 +7.980606E+00 +1.402729E+03 
 +6.799363E+02 -6.265495E+01 -1.664630E+01 -6.265495E+01 +6.149822E+02 +1.619489E+01 -1.664630E+01 +1.619489E+01 +1.325148E+03 
 +6.005965E+02 +6.697663E+01 +1.300984E+01 +6.697663E+01 +5.933315E+02 -1.277189E+01 +1.300984E+01 -1.277189E+01 +1.280757E+03 
 +6.270120E+02 -1.496824E+01 -9.489428E+00 -1.496824E+01 +6.594203E+02 +1.555834E+01 -9.489428E+00 +1.555834E+01 +1.366380E+03 
 +5.965590E+02 -1.329196E+01 -1.160460E+01 -1.329196E+01 +6.615794E+02 +3.861974E+00 -1.160460E+01 +3.861974E+00 +1.299523E+03 
 +6.610704E+02 +2.776480E+01 -1.712904E+01 +2.776480E+01 +6.044141E+02 -2.049885E+01 -1.712904E+01 -2.049885E+01 +1.318553E+03 
 +5.836630E+02 -5.376569E+01 +1.370832E+00 -5.376569E+01 +6.282475E+02 -1.867047E+01 +1.370832E+00 -1.867047E+01 +1.313808E+03 
 +5.919724E+02 +4.354898E+00 +4.294519E+01 +4.354898E+00 +5.706104E+02 -2.385027E+01 +4.294519E+01 -2.385027E+01 +1.309277E+03 
 +5.758389E+02 +5.147301E+00 -9.938046E+00 +5.147301E+00 +5.496829E+02 +9.210506E+00 -9.938046E+00 +9.210506E+00 +1.379029E+03 
 +6.019769E+02 -4.741308E+01 -7.448432E+00 -4.741308E+01 +6.735551E+02 +8.988056E+00 -7.448432E+00 +8.988056E+00 +1.332170E+03 
 +6.006425E+02 -1.707278E+01 +9.866140E+00 -1.707278E+01 +6.427955E+02 +2.270002E+00 +9.866140E+00 +2.270002E+00 +1.365946E+03 
 +5.971240E+02 -1.223243E+01 -3.946849E+00 -1.223243E+01 +5.907215E+02 -1.835077E+01 -3.946849E+00 -1.835077E+01 +1.264018E+03 
 +5.861534E+02 -6.344935E+00 -1.003896E+01 -6.344935E+00 +6.159744E+02 -8.914969E+00 -1.003896E+01 -8.914969E+00 +1.425877E+03 
 +6.656520E+02 -3.767520E+01 +7.560378E+00 -3.767520E+01 +6.354849E+02 +6.435156E+00 +7.560378E+00 +6.435156E+00 +1.317307E+03 
 +6.063510E+02 -1.816012E+01 +4.560874E+00 -1.816012E+01 +6.244392E+02 +2.427867E+01 +4.560874E+00 +2.427867E+01 +1.449506E+03 
 +5.865916E+02 +5.072659E+00 -1.104831E+01 +5.072659E+00 +6.261631E+02 -7.280139E+00 -1.104831E+01 -7.280139E+00 +1.281125E+03 
 +5.729874E+02 -3.585825E+00 +1.334227E+01 -3.585825E+00 +5.770168E+02 +8.701516E+00 +1.334227E+01 +8.701516E+00 +1.369519E+03 
 +6.265432E+02 +2.686392E+01 +1.053004E+01 +2.686392E+01 +6.244551E+02 -8.732870E+00 +1.053004E+01 -8.732870E+00 +1.427384E+03 
 +6.194005E+02 +1.816711E+01 -1.796612E+01 +1.816711E+01 +5.987347E+02 -1.269549E+01 -1.796612E+01 -1.269549E+01 +1.435547E+03 
 +5.828157E+02 -3.219261E+00 +1.524656E+01 -3.219261E+00 +5.695857E+02 +1.386560E+01 +1.524656E+01 +1.386560E+01 +1.352807E+03 
 +5.748210E+02 +6.777630E+00 -1.039750E+01 +6.777630E+00 +5.716281E+02 -1.500209E+01 -1.039750E+01 -1.500209E+01 +1.376819E+03 
 +5.509602E+02 +6.284061E+00 +1.923978E+00 +6.284061E+00 +5.604095E+02 +1.602413E+01 +1.923978E+00 +1.602413E+01 +1.378484E+03 
 +6.500230E+02 -6.038527E+00 -2.686448E+01 -6.038527E+00 +6.478237E+02 -1.574724E+01 -2.686448E+01 -1.574724E+01 +1.392928E+03 
 +5.773610E+02 -3.206865E+01 -1.352756E+01 -3.206865E+01 +6.171355E+02 -2.562459E+01 -1.352756E+01 -2.562459E+01 +1.311281E+03 
 +6.139690E+02 -6.310982E+00 -5.242828E+00 -6.310982E+00 +5.506486E+02 -2.283818E+01 -5.242828E+00 -2.283818E+01 +1.298507E+03 
 +5.166097E+02 +1.523714E+01 -5.350024E+00 +1.523714E+01 +5.070012E+02 +2.101242E+01 -5.350024E+00 +2.101242E+01 +1.338393E+03 
 +5.842499E+02 -6.162991E+00 -8.189109E+00 -6.162991E+00 +5.592121E+02 -1.448971E+01 -8.189109E+00 -1.448971E+01 +1.368224E+03 
 +6.145606E+02 -2.022991E+00 -1.350975E+01 -2.022991E+00 +5.778123E+02 +2.243649E+01 -1.350975E+01 +2.243649E+01 +1.268077E+03 
 +7.001072E+02 -3.115704E+01 -2.161435E+01 -3.115704E+01 +6.390243E+02 -3.785512E+00 -2.161435E+01 -3.785512E+00 +1.354524E+03 
 +6.174245E+02 +3.281730E+01 -1.330098E+01 +3.281730E+01 +6.744765E+02 -1.130406E+01 -1.330098E+01 -1.130406E+01 +1.336682E+03 
 +5.904803E+02 +6.605529E+00 -1.810935E+01 +6.605529E+00 +5.828932E+02 -2.765070E+00 -1.810935E+01 -2.765070E+00 +1.399595E+03 
 +6.106210E+02 -1.888950E+01 +1.804561E+01 -1.888950E+01 +5.536418E+02 +2.085154E+01 +1.804561E+01 +2.085154E+01 +1.380782E+03 
 +6.001612E+02 +1.092822E+01 -6.990358E+00 +1.092822E+01 +5.944043E+02 -4.414850E+01 -6.990358E+00 -4.414850E+01 +1.343592E+03 
 +5.829462E+02 +4.609580E+00 +4.361339E+00 +4.609580E+00 +5.830985E+02 -1.322340E+01 +4.361339E+00 -1.322340E+01 +1.309150E+03 
 +5.918386E+02 +3.164373E+01 -7.675250E+00 +3.164373E+01 +5.793110E+02 +2.666116E+01 -7.675250E+00 +2.666116E+01 +1.403874E+03 
 +5.644609E+02 +4.403775E+01 +5.704024E+00 +4.403775E+01 +5.980350E+02 -7.287982E+00 +5.704024E+00 -7.287982E+00 +1.283703E+03 
 +6.373162E+02 +3.244398E+00 -1.578478E+01 +3.244398E+00 +5.660197E+02 +2.315443E+01 -1.578478E+01 +2.315443E+01 +1.355023E+03 
 +6.420182E+02 -1.506497E+01 -1.438559E+01 -1.506497E+01 +6.538466E+02 -4.459658E+00 -1.438559E+01 -4.459658E+00 +1.295183E+03 
 +5.697263E+02 +1.293580E+01 +5.828073E+00 +1.293580E+01 +6.182374E+02 +1.553504E+01 +5.828073E+00 +1.553504E+01 +1.444404E+03 
 +6.108137E+02 -1.236045E+01 +1.236920E+01 -1.236045E+01 +5.926437E+02 +4.498031E+00 +1.236920E+01 +4.498031E+00 +1.416944E+03 
 +6.117457E+02 -1.295280E+00 -1.602655E+01 -1.295280E+00 +6.155983E+02 -2.881061E+01 -1.602655E+01 -2.881061E+01 +1.407120E+03 
 +6.867460E+02 +1.887943E+01 +1.393973E+01 +1.887943E+01 +6.558925E+02 +1.031680E+01 +1.393973E+01 +1.031680E+01 +1.340535E+03 
 +6.292003E+02 -6.354404E+01 +1.711678E+01 -6.354404E+01 +6.525797E+02 -3.362528E+00 +1.711678E+01 -3.362528E+00 +1.360194E+03 
 +6.240101E+02 -3.263210E+01 -3.827279E+00 -3.263210E+01 +6.379681E+02 +2.063455E+00 -3.827279E+00 +2.063455E+00 +1.277164E+03 
 +6.272308E+02 -3.392223E+01 +2.452246E+00 -3.392223E+01 +6.201216E+02 +4.199912E+01 +2.452246E+00 +4.199912E+01 +1.396057E+03 
 +6.573976E+02 -3.085957E+00 -2.681151E+01 -3.085957E+00 +5.496335E+02 -4.734360E+00 -2.681151E+01 -4.734360E+00 +1.287312E+03 
 +6.499536E+02 -1.393058E+01 +2.342841E+01 -1.393058E+01 +6.035138E+02 +7.027434E+00 +2.342841E+01 +7.027434E+00 +1.386321E+03 
 +6.101036E+02 +5.845743E+00 -2.494847E+01 +5.845743E+00 +6.189296E+02 +9.726053E+00 -2.494847E+01 +9.726053E+00 +1.350611E+03 
 +6.380212E+02 +5.843991E+01 +1.729884E+01 +5.843991E+01 +5.821285E+02 -1.254506E+01 +1.729884E+01 -1.254506E+01 +1.291108E+03 
 +5.164399E+02 -3.017027E+01 -9.349631E+00 -3.017027E+01 +5.348433E+02 -8.150245E-02 -9.349631E+00 -8.150245E-02 +1.400740E+03 
 +6.750079E+02 +1.185429E+01 +5.546686E+00 +1.185429E+01 +5.363603E+02 +7.222886E+00 +5.546686E+00 +7.222886E+00 +1.309959E+03 
 +6.019615E+02 +5.065158E+01 -5.303827E+00 +5.065158E+01 +6.372327E+02 +8.905574E+00 -5.303827E+00 +8.905574E+00 +1.336828E+03 
 +7.471314E+02 +2.342326E+01 +1.715219E+00 +2.342326E+01 +6.653969E+02 -1.909490E+01 +1.715219E+00 -1.909490E+01 +1.414313E+03 
 +6.872122E+02 -1.334118E+01 -1.191066E+01 -1.334118E+01 +5.891698E+02 -2.213145E+01 -1.191066E+01 -2.213145E+01 +1.339709E+03 
 +6.720811E+02 -3.694308E+01 +3.552109E+00 -3.694308E+01 +5.473613E+02 +1.597515E+01 +3.552109E+00 +1.597515E+01 +1.291370E+03 
 +6.034745E+02 +1.358776E+01 +1.262136E+01 +1.358776E+01 +5.477200E+02 -2.636443E+01 +1.262136E+01 -2.636443E+01 +1.429053E+03 
 +5.699316E+02 +5.367408E+00 -1.351779E+01 +5.367408E+00 +5.905345E+02 -6.373560E+00 -1.351779E+01 -6.373560E+00 +1.297641E+03 
 +6.273391E+02 +2.126744E+01 -2.477866E+01 +2.126744E+01 +6.403499E+02 +2.402733E+00 -2.477866E+01 +2.402733E+00 +1.359854E+03 
 +6.494670E+02 +6.833289E+00 -1.660297E+01 +6.833289E+00 +6.242915E+02 -1.134023E+01 -1.660297E+01 -1.134023E+01 +1.414467E+03 
 +5.706777E+02 -1.282705E+01 +1.310080E+01 -1.282705E+01 +5.644686E+02 +1.649286E+01 +1.310080E+01 +1.649286E+01 +1.377898E+03 
 +6.133162E+02 -1.218537E+01 -9.902906E-01 -1.218537E+01 +5.934623E+02 +1.928951E+01 -9.902906E-01 +1.928951E+01 +1.426161E+03 
 +6.053403E+02 -7.721128E+00 +1.219010E+01 -7.721128E+00 +6.262087E+02 -2.821449E+01 +1.219010E+01 -2.821449E+01 +1.412445E+03 
 +6.027224E+02 +5.106018E+01 +1.898524E+01 +5.106018E+01 +6.110585E+02 -5.833478E+00 +1.898524E+01 -5.833478E+00 +1.291713E+03 
 +5.598580E+02 +3.281016E+01 -5.513339E+00 +3.281016E+01 +5.740587E+02 -1.269785E+01 -5.513339E+00 -1.269785E+01 +1.431807E+03 
 +5.782630E+02 +4.325352E+01 +1.460588E+01 +4.325352E+01 +5.959424E+02 +1.122470E+00 +1.460588E+01 +1.122470E+00 +1.306122E+03 
 +5.789042E+02 -7.347345E+00 +1.218599E+01 -7.347345E+00 +6.043090E+02 -1.366363E+01 +1.218599E+01 -1.366363E+01 +1.327066E+03 
 +5.540580E+02 -2.610157E+01 +3.423035E-01 -2.610157E+01 +6.723867E+02 +6.803659E+00 +3.423035E-01 +6.803659E+00 +1.311876E+03 
 +7.073179E+02 -4.255166E+00 -2.264447E+01 -4.255166E+00 +6.447130E+02 -2.466381E+01 -2.264447E+01 -2.466381E+01 +1.401581E+03 
 +5.159913E+02 -1.285318E+01 -1.225545E+01 -1.285318E+01 +6.076478E+02 +1.171183E+01 -1.225545E+01 +1.171183E+01 +1.307334E+03 
 +6.026736E+02 -6.141452E+01 +2.373160E+01 -6.141452E+01 +6.548669E+02 -2.600626E+00 +2.373160E+01 -2.600626E+00 +1.327536E+03 
 +6.889619E+02 -9.505313E+00 -8.302368E+00 -9.505313E+00 +6.047415E+02 -7.219092E+00 -8.302368E+00 -7.219092E+00 +1.304186E+03 
 +6.354998E+02 +4.607030E+01 +1.173518E+01 +4.607030E+01 +6.982272E+02 +2.500439E-01 +1.173518E+01 +2.500439E-01 +1.336118E+03 
 +6.074810E+02 +6.914407E+00 +4.051054E+00 +6.914407E+00 +6.843226E+02 -9.368205E+00 +4.051054E+00 -9.368205E+00 +1.334618E+03 
 +5.743754E+02 -1.063753E+01 -4.126929E+01 -1.063753E+01 +5.896260E+02 -1.244423E-01 -4.126929E+01 -1.244423E-01 +1.447245E+03 
 +6.486277E+02 -1.697579E+00 -2.729630E+00 -1.697579E+00 +5.992118E+02 +1.312523E+01 -2.729630E+00 +1.312523E+01 +1.279614E+03 
 +5.858704E+02 -1.341553E+00 +1.050093E+01 -1.341553E+00 +6.635557E+02 -2.476135E+01 +1.050093E+01 -2.476135E+01 +1.328075E+03 
 +6.364138E+02 -2.701395E+01 -1.556430E+00 -2.701395E+01 +6.808823E+02 +7.287643E+00 -1.556430E+00 +7.287643E+00 +1.312054E+03 
 +6.425325E+02 -1.276552E+01 +9.034930E+00 -1.276552E+01 +6.056296E+02 +2.298223E+01 +9.034930E+00 +2.298223E+01 +1.338482E+03 
 +5.529661E+02 +1.291540E+01 -1.610959E+01 +1.291540E+01 +5.710233E+02 +1.211026E+01 -1.610959E+01 +1.211026E+01 +1.351094E+03 
 +6.041769E+02 -1.866075E+01 +3.591917E+01 -1.866075E+01 +5.799423E+02 -2.895066E+00 +3.591917E+01 -2.895066E+00 +1.404373E+03 
 +6.453630E+02 -3.923785E+01 -3.675150E+01 -3.923785E+01 +6.073005E+02 -1.165740E+01 -3.675150E+01 -1.165740E+01 +1.316269E+03 
 +5.420956E+02 -1.459055E+01 -2.462230E+01 -1.459055E+01 +6.101642E+02 -5.491492E+00 -2.462230E+01 -5.491492E+00 +1.413999E+03 
 +6.137618E+02 -2.206894E+01 -2.210157E+01 -2.206894E+01 +6.895991E+02 +2.144066E+01 -2.210157E+01 +2.144066E+01 +1.336339E+03 
 +6.486883E+02 -8.883609E+00 +9.499496E+00 -8.883609E+00 +6.349575E+02 -2.796667E+01 +9.499496E+00 -2.796667E+01 +1.436713E+03 
 +5.898845E+02 -1.877490E+01 -1.113855E+01 -1.877490E+01 +6.121931E+02 +2.097066E+01 -1.113855E+01 +2.097066E+01 +1.346186E+03 
 +6.487739E+02 -8.459766E+00 +9.827885E+00 -8.459766E+00 +6.175763E+02 +1.663229E+00 +9.827885E+00 +1.663229E+00 +1.368513E+03 
 +5.978666E+02 +2.929420E+01 +5.338601E+00 +2.929420E+01 +5.790154E+02 +1.320935E+01 +5.338601E+00 +1.320935E+01 +1.294349E+03 
 +6.047714E+02 +7.923487E+00 +3.754526E+01 +7.923487E+00 +5.577822E+02 +3.862538E+00 +3.754526E+01 +3.862538E+00 +1.358997E+03 
 +6.320331E+02 -1.922467E+01 -2.362960E+01 -1.922467E+01 +6.126658E+02 +1.518360E+01 -2.362960E+01 +1.518360E+01 +1.403149E+03 
 +6.329741E+02 -1.116210E+01 +1.379373E+01 -1.116210E+01 +6.015873E+02 -1.438238E+01 +1.379373E+01 -1.438238E+01 +1.302534E+03 
 +6.115524E+02 -2.152501E+01 +2.115177E+00 -2.152501E+01 +6.029509E+02 +5.161076E+00 +2.115177E+00 +5.161076E+00 +1.431279E+03 
 +6.207198E+02 -2.246502E+01 -3.555038E+01 -2.246502E+01 +6.301895E+02 +1.289934E-01 -3.555038E+01 +1.289934E-01 +1.324854E+03 
 +6.125731E+02 -2.104516E+01 -1.785112E+01 -2.104516E+01 +6.174315E+02 -1.024481E+01 -1.785112E+01 -1.024481E+01 +1.386570E+03 
 +5.613603E+02 +7.282202E+00 -7.941002E+00 +7.282202E+00 +5.628331E+02 +2.472789E+00 -7.941002E+00 +2.472789E+00 +1.321242E+03 
 +6.038279E+02 -1.786072E+00 +9.442882E+00 -1.786072E+00 +5.551653E+02 +1.971031E+01 +9.442882E+00 +1.971031E+01 +1.408456E+03 
 +5.719016E+02 +3.919127E+00 +3.564570E-01 +3.919127E+00 +5.842025E+02 -8.193871E+00 +3.564570E-01 -8.193871E+00 +1.408864E+03 
 +6.576768E+02 +3.287799E+01 -1.177657E+01 +3.287799E+01 +5.610142E+02 -1.145661E+00 -1.177657E+01 -1.145661E+00 +1.286640E+03 
 +6.424190E+02 -2.064253E+01 -4.348530E+00 -2.064253E+01 +5.254891E+02 -7.955553E+00 -4.348530E+00 -7.955553E+00 +1.277753E+03 
 +5.043714E+02 -1.373218E+01 +6.572627E+00 -1.373218E+01 +5.540246E+02 -5.166491E+00 +6.572627E+00 -5.166491E+00 +1.351001E+03 
 +5.927582E+02 +4.802711E+01 -1.032330E+01 +4.802711E+01 +6.045773E+02 +8.158687E-01 -1.032330E+01 +8.158687E-01 +1.310600E+03 
 +6.858741E+02 +4.286916E+01 +8.072932E+00 +4.286916E+01 +6.375848E+02 -1.429787E+01 +8.072932E+00 -1.429787E+01 +1.362642E+03 
 +5.487075E+02 -1.633755E+01 -1.300765E+01 -1.633755E+01 +6.750571E+02 -2.040997E+01 -1.300765E+01 -2.040997E+01 +1.322877E+03 
 +6.155829E+02 +1.204262E+01 -3.113768E+00 +1.204262E+01 +5.603954E+02 +4.544723E+00 -3.113768E+00 +4.544723E+00 +1.298909E+03 
 +5.989117E+02 +1.417015E+01 -2.492799E+00 +1.417015E+01 +5.415944E+02 -1.308743E+00 -2.492799E+00 -1.308743E+00 +1.426730E+03 
 +6.311890E+02 +1.613093E+01 +6.240778E+00 +1.613093E+01 +6.085325E+02 +1.796686E+01 +6.240778E+00 +1.796686E+01 +1.441876E+03 
 +5.773185E+02 +5.549195E+01 +4.358498E+00 +5.549195E+01 +5.634460E+02 +2.938948E-01 +4.358498E+00 +2.938948E-01 +1.271379E+03 
 +6.179233E+02 -3.769062E-02 -3.159421E+00 -3.769062E-02 +6.054526E+02 +2.172251E+01 -3.159421E+00 +2.172251E+01 +1.374653E+03 
 +5.562321E+02 -1.131413E+00 +1.507892E+01 -1.131413E+00 +5.765548E+02 +2.608692E+01 +1.507892E+01 +2.608692E+01 +1.368239E+03 
 +6.358734E+02 +2.090994E+00 +2.311588E+01 +2.090994E+00 +5.875767E+02 -5.501194E+00 +2.311588E+01 -5.501194E+00 +1.394357E+03 
 +5.843120E+02 +1.730383E+01 -4.131940E+00 +1.730383E+01 +5.563890E+02 +2.317567E+01 -4.131940E+00 +2.317567E+01 +1.401576E+03 
 +5.878742E+02 +3.633419E+01 -3.032380E-01 +3.633419E+01 +5.726362E+02 -2.223110E+01 -3.032380E-01 -2.223110E+01 +1.336175E+03 
 +5.880109E+02 +3.724953E+01 +3.509821E+00 +3.724953E+01 +5.902855E+02 -3.410348E+01 +3.509821E+00 -3.410348E+01 +1.314009E+03 
 +5.590995E+02 +4.943108E+00 +1.696594E+01 +4.943108E+00 +5.468729E+02 +2.958362E+01 +1.696594E+01 +2.958362E+01 +1.382319E+03 
 +5.694374E+02 +9.053345E+00 +9.356177E+00 +9.053345E+00 +5.371884E+02 +2.619664E+01 +9.356177E+00 +2.619664E+01 +1.397780E+03 
 +6.209773E+02 +2.006557E+00 +3.669754E+00 +2.006557E+00 +5.690446E+02 +6.287495E+00 +3.669754E+00 +6.287495E+00 +1.298668E+03 
 +6.263555E+02 -8.928100E-01 +1.538161E+01 -8.928100E-01 +5.939766E+02 -3.349121E+01 +1.538161E+01 -3.349121E+01 +1.402460E+03 
 +5.916606E+02 +1.083216E+01 -4.258337E+00 +1.083216E+01 +5.937896E+02 -1.502796E+01 -4.258337E+00 -1.502796E+01 +1.429769E+03 
 +5.826235E+02 +8.182128E+00 +2.560703E+01 +8.182128E+00 +6.170700E+02 -4.949548E+00 +2.560703E+01 -4.949548E+00 +1.297337E+03 
 +6.569175E+02 -3.379844E+01 -3.461195E+00 -3.379844E+01 +6.970944E+02 +9.196902E-02 -3.461195E+00 +9.196902E-02 +1.328371E+03 
 +6.943272E+02 -1.240046E+01 +2.170243E+00 -1.240046E+01 +5.945026E+02 -5.311638E+00 +2.170243E+00 -5.311638E+00 +1.389375E+03 
 +6.351146E+02 -4.306561E+01 -1.561754E+01 -4.306561E+01 +5.784080E+02 -1.634182E+01 -1.561754E+01 -1.634182E+01 +1.310295E+03 
 +6.088673E+02 -6.719278E+00 +5.744122E+00 -6.719278E+00 +6.075640E+02 -7.306196E+00 +5.744122E+00 -7.306196E+00 +1.412823E+03 
 +6.736687E+02 +2.572341E+01 +4.342335E+00 +2.572341E+01 +6.308293E+02 -1.281010E+01 +4.342335E+00 -1.281010E+01 +1.365612E+03 
 +5.768597E+02 -2.980514E+01 -1.117651E+00 -2.980514E+01 +6.668505E+02 -4.383966E+00 -1.117651E+00 -4.383966E+00 +1.336768E+03 
 +6.078207E+02 +3.983785E+00 -7.605551E+00 +3.983785E+00 +5.935352E+02 +2.312683E+01 -7.605551E+00 +2.312683E+01 +1.404323E+03 
 +5.445627E+02 -8.784845E-01 -1.365633E+01 -8.784845E-01 +5.548138E+02 +3.020719E+01 -1.365633E+01 +3.020719E+01 +1.341119E+03 
 +6.553395E+02 -4.668484E+01 -7.458910E+00 -4.668484E+01 +5.627207E+02 +1.042960E+01 -7.458910E+00 +1.042960E+01 +1.323102E+03 
 +5.869705E+02 -7.543725E+00 -6.819277E+00 -7.543725E+00 +5.801540E+02 -1.304649E+01 -6.819277E+00 -1.304649E+01 +1.314956E+03 
 +6.196503E+02 +2.804711E+01 +3.204586E+01 +2.804711E+01 +6.368862E+02 -1.690342E+01 +3.204586E+01 -1.690342E+01 +1.389174E+03 
 +5.423373E+02 +1.231371E+01 -1.595847E+01 +1.231371E+01 +5.835964E+02 +9.372326E+00 -1.595847E+01 +9.372326E+00 +1.399030E+03 
 +6.461458E+02 +6.408846E+00 +8.301884E+00 +6.408846E+00 +5.692726E+02 -1.874404E+01 +8.301884E+00 -1.874404E+01 +1.250282E+03 
 +6.396816E+02 -2.684384E+00 +1.381762E+00 -2.684384E+00 +5.566232E+02 +1.739441E+00 +1.381762E+00 +1.739441E+00 +1.394260E+03 
 +5.167068E+02 +7.339567E+00 +3.647504E+01 +7.339567E+00 +5.268179E+02 -3.575696E+00 +3.647504E+01 -3.575696E+00 +1.308595E+03 
 +6.922440E+02 -1.497963E+01 +2.423085E+01 -1.497963E+01 +5.933074E+02 -7.429759E+00 +2.423085E+01 -7.429759E+00 +1.291331E+03 
 +5.976003E+02 +1.778550E+01 +1.163775E+00 +1.778550E+01 +5.881573E+02 +1.090611E+01 +1.163775E+00 +1.090611E+01 +1.405014E+03 
 +6.546317E+02 -3.147167E+01 +9.558002E+00 -3.147167E+01 +6.528572E+02 +4.178047E-01 +9.558002E+00 +4.178047E-01 +1.403032E+03 
 +6.396063E+02 -1.679657E+01 +8.485964E-01 -1.679657E+01 +5.906940E+02 -3.187748E+01 +8.485964E-01 -3.187748E+01 +1.362582E+03 
 +5.627938E+02 +2.916155E+00 -7.717260E+00 +2.916155E+00 +5.846165E+02 -1.547728E+01 -7.717260E+00 -1.547728E+01 +1.380805E+03 
 +7.559295E+02 +2.481021E+01 -4.399658E-01 +2.481021E+01 +5.921293E+02 +1.638111E+01 -4.399658E-01 +1.638111E+01 +1.339246E+03 
 +5.673619E+02 -1.265134E+01 -2.867683E+01 -1.265134E+01 +5.746950E+02 -2.022374E+01 -2.867683E+01 -2.022374E+01 +1.327961E+03 
 +6.211034E+02 +4.711707E+01 +4.323781E+00 +4.711707E+01 +6.842648E+02 +3.263547E+00 +4.323781E+00 +3.263547E+00 +1.292778E+03 
 +5.633558E+02 +6.124399E+00 +3.636248E+01 +6.124399E+00 +6.228036E+02 -1.091188E+01 +3.636248E+01 -1.091188E+01 +1.356814E+03 
 +6.813387E+02 -3.736082E+01 +8.038084E+00 -3.736082E+01 +5.565079E+02 -2.878200E+01 +8.038084E+00 -2.878200E+01 +1.325468E+03 
 +6.030550E+02 -4.653277E+00 +1.747595E+01 -4.653277E+00 +5.935637E+02 -9.050966E+00 +1.747595E+01 -9.050966E+00 +1.468475E+03 
 +5.015506E+02 +4.536395E+00 -1.586170E+01 +4.536395E+00 +5.979359E+02 -1.391264E+01 -1.586170E+01 -1.391264E+01 +1.302400E+03 
 +5.972767E+02 +5.004925E-01 -1.945186E+01 +5.004925E-01 +6.088297E+02 -2.298364E+01 -1.945186E+01 -2.298364E+01 +1.424910E+03 
 +5.674825E+02 +2.039758E+01 +7.692250E+00 +2.039758E+01 +5.516546E+02 -2.276652E+01 +7.692250E+00 -2.276652E+01 +1.350589E+03 
 +5.212156E+02 +2.478074E+01 -2.013988E+01 +2.478074E+01 +5.630447E+02 +6.394448E+00 -2.013988E+01 +6.394448E+00 +1.314725E+03 
 +5.708950E+02 -2.469801E+01 +1.926145E+01 -2.469801E+01 +6.008760E+02 -1.542655E+01 +1.926145E+01 -1.542655E+01 +1.394408E+03 
 +6.330421E+02 +4.471955E+01 -6.683651E+00 +4.471955E+01 +6.154464E+02 -1.961535E+01 -6.683651E+00 -1.961535E+01 +1.378258E+03 
 +5.910383E+02 +3.537408E+01 +1.902039E+01 +3.537408E+01 +6.955838E+02 -2.001616E+01 +1.902039E+01 -2.001616E+01 +1.360276E+03 
 +6.848220E+02 -3.926049E+01 -8.814635E-01 -3.926049E+01 +6.398146E+02 +1.696315E+00 -8.814635E-01 +1.696315E+00 +1.361826E+03 
 +5.963772E+02 +7.812943E+00 +2.751303E+01 +7.812943E+00 +5.825939E+02 -6.516236E+00 +2.751303E+01 -6.516236E+00 +1.285435E+03 
 +6.499943E+02 -4.588965E+00 -1.455612E+01 -4.588965E+00 +6.080544E+02 -4.147572E+00 -1.455612E+01 -4.147572E+00 +1.312936E+03 
 +5.920062E+02 +4.734868E+00 -2.799362E+01 +4.734868E+00 +5.823658E+02 -5.738538E-01 -2.799362E+01 -5.738538E-01 +1.358744E+03 
 +6.163936E+02 +8.284171E+00 +5.445325E+00 +8.284171E+00 +6.104987E+02 +9.988540E+00 +5.445325E+00 +9.988540E+00 +1.447289E+03 
 +6.152249E+02 +1.005753E+01 +1.586650E+01 +1.005753E+01 +5.949358E+02 -1.982103E+00 +1.586650E+01 -1.982103E+00 +1.441957E+03 
 +6.188662E+02 -3.832316E+01 -8.657386E+00 -3.832316E+01 +6.301667E+02 -5.705820E+00 -8.657386E+00 -5.705820E+00 +1.312250E+03 
 +6.240742E+02 -1.382748E+01 -4.072260E+00 -1.382748E+01 +6.285642E+02 -1.066571E+01 -4.072260E+00 -1.066571E+01 +1.410015E+03 
 +5.788007E+02 -2.924367E+01 -1.179346E+01 -2.924367E+01 +5.406843E+02 -2.643957E+01 -1.179346E+01 -2.643957E+01 +1.378287E+03 
 +5.759687E+02 +9.928761E+00 -4.527725E+00 +9.928761E+00 +5.497158E+02 -2.088169E+01 -4.527725E+00 -2.088169E+01 +1.338517E+03 
 +6.526974E+02 -2.818445E+01 -1.822923E+01 -2.818445E+01 +5.406450E+02 -5.779023E+00 -1.822923E+01 -5.779023E+00 +1.306382E+03 
 +5.743979E+02 -2.766895E+01 +2.415929E+01 -2.766895E+01 +5.949801E+02 +2.269917E+01 +2.415929E+01 +2.269917E+01 +1.379152E+03 
 +6.005929E+02 +1.904010E+01 +2.948879E+01 +1.904010E+01 +6.908378E+02 -5.119248E+00 +2.948879E+01 -5.119248E+00 +1.329520E+03 
 +6.174161E+02 +2.088840E-01 -1.392719E+01 +2.088840E-01 +6.260591E+02 -6.856588E+00 -1.392719E+01 -6.856588E+00 +1.452525E+03 
 +7.136591E+02 -5.621747E+00 -1.425539E+00 -5.621747E+00 +6.296494E+02 +1.507505E+01 -1.425539E+00 +1.507505E+01 +1.329357E+03 
 +5.861062E+02 -3.772501E+01 +1.738639E+01 -3.772501E+01 +5.664656E+02 +1.204953E+01 +1.738639E+01 +1.204953E+01 +1.318632E+03 
 +7.472302E+02 -6.275909E+00 +7.487126E+00 -6.275909E+00 +5.967476E+02 +8.779314E+00 +7.487126E+00 +8.779314E+00 +1.387974E+03 
 +6.331002E+02 -1.914798E+01 -2.458623E+00 -1.914798E+01 +6.034254E+02 -1.362099E+01 -2.458623E+00 -1.362099E+01 +1.294002E+03 
 +7.604814E+02 +7.139289E+00 -2.412376E+01 +7.139289E+00 +6.116960E+02 -3.077604E+01 -2.412376E+01 -3.077604E+01 +1.393025E+03 
 +5.720394E+02 +3.562863E+00 +6.077496E+00 +3.562863E+00 +5.925515E+02 -4.009659E+01 +6.077496E+00 -4.009659E+01 +1.391549E+03 
 +5.345828E+02 -4.523370E+01 -6.948718E+00 -4.523370E+01 +5.388621E+02 +8.745535E+00 -6.948718E+00 +8.745535E+00 +1.371753E+03 
 +6.496085E+02 +4.433342E+00 +1.229790E+01 +4.433342E+00 +5.563282E+02 +2.082377E+01 +1.229790E+01 +2.082377E+01 +1.342733E+03 
 +6.648104E+02 -5.497988E+00 -8.788872E+00 -5.497988E+00 +6.099392E+02 +2.160430E+01 -8.788872E+00 +2.160430E+01 +1.315077E+03 
 +6.178909E+02 +5.681899E+01 +5.444056E+00 +5.681899E+01 +6.225676E+02 +8.497918E+00 +5.444056E+00 +8.497918E+00 +1.302281E+03 
 +5.714337E+02 +3.413459E+01 -9.848160E+00 +3.413459E+01 +6.139697E+02 +7.289916E+00 -9.848160E+00 +7.289916E+00 +1.358640E+03 
 +6.238220E+02 -1.459699E-01 +3.984958E+00 -1.459699E-01 +6.467958E+02 +2.780833E+01 +3.984958E+00 +2.780833E+01 +1.415849E+03 
 +6.185136E+02 +2.486295E+01 +1.260847E+01 +2.486295E+01 +6.045734E+02 +3.019613E+01 +1.260847E+01 +3.019613E+01 +1.467577E+03 
 +5.590299E+02 +7.465881E+00 +3.457992E+00 +7.465881E+00 +5.676966E+02 +7.469220E+00 +3.457992E+00 +7.469220E+00 +1.309024E+03 
 +5.767429E+02 -1.391598E+01 -2.643898E+01 -1.391598E+01 +6.323397E+02 -1.466509E+01 -2.643898E+01 -1.466509E+01 +1.419346E+03 
 +6.142426E+02 -1.935349E+01 +7.634374E+00 -1.935349E+01 +7.117194E+02 +2.466728E+00 +7.634374E+00 +2.466728E+00 +1.380038E+03 
 +6.617006E+02 -5.123403E+01 +4.640549E+00 -5.123403E+01 +6.347119E+02 +2.249103E+00 +4.640549E+00 +2.249103E+00 +1.354406E+03 
 +5.846833E+02 +1.093607E+01 +5.374799E+00 +1.093607E+01 +6.413716E+02 +1.591507E+01 +5.374799E+00 +1.591507E+01 +1.430155E+03 
 +6.499869E+02 -3.346152E+01 -1.493960E+01 -3.346152E+01 +6.469167E+02 -1.646223E+00 -1.493960E+01 -1.646223E+00 +1.356253E+03 
 +5.861276E+02 -1.035568E+01 +7.282043E-01 -1.035568E+01 +5.800554E+02 -5.112388E+00 +7.282043E-01 -5.112388E+00 +1.423188E+03 
 +5.783534E+02 +1.422422E+01 +4.390610E-01 +1.422422E+01 +5.709408E+02 +1.887050E+01 +4.390610E-01 +1.887050E+01 +1.401074E+03 
 +5.764628E+02 +4.090444E+00 +2.834167E+00 +4.090444E+00 +5.445352E+02 +2.080163E+01 +2.834167E+00 +2.080163E+01 +1.398310E+03 
 +5.760416E+02 +6.937267E+00 +6.951316E+00 +6.937267E+00 +5.352038E+02 +2.127173E+01 +6.951316E+00 +2.127173E+01 +1.333510E+03 
 +5.766099E+02 -3.786230E+00 -1.170329E+01 -3.786230E+00 +5.701006E+02 +1.294749E+00 -1.170329E+01 +1.294749E+00 +1.419269E+03 
 +5.210332E+02 +1.200248E+01 +2.326344E+01 +1.200248E+01 +5.905022E+02 -1.080185E+01 +2.326344E+01 -1.080185E+01 +1.331054E+03 
 +6.178060E+02 -7.819438E+00 -1.155147E+01 -7.819438E+00 +5.998357E+02 +1.354124E+00 -1.155147E+01 +1.354124E+00 +1.476875E+03 
 +6.695867E+02 -3.579618E+01 -6.824116E+00 -3.579618E+01 +5.519901E+02 +6.216328E+00 -6.824116E+00 +6.216328E+00 +1.311948E+03 
 +6.852035E+02 +1.487715E+01 -9.124326E+00 +1.487715E+01 +6.327275E+02 +8.643166E+00 -9.124326E+00 +8.643166E+00 +1.333557E+03 
 +5.194279E+02 +3.435274E+01 +4.458714E+00 +3.435274E+01 +6.611923E+02 +1.596326E+01 +4.458714E+00 +1.596326E+01 +1.241166E+03 
 +5.939632E+02 +3.190584E+00 +2.555915E+01 +3.190584E+00 +5.903126E+02 +2.342483E+01 +2.555915E+01 +2.342483E+01 +1.315470E+03 
 +6.205546E+02 -4.542387E+01 +1.786844E+01 -4.542387E+01 +6.852015E+02 -1.118429E+00 +1.786844E+01 -1.118429E+00 +1.346210E+03 
 +6.551780E+02 -4.153314E+01 +1.510359E+01 -4.153314E+01 +6.756174E+02 +1.709698E+00 +1.510359E+01 +1.709698E+00 +1.331075E+03 
 +5.911921E+02 +1.520012E+01 -3.070658E+01 +1.520012E+01 +5.696241E+02 -5.125356E+00 -3.070658E+01 -5.125356E+00 +1.398574E+03 
 +6.491765E+02 +5.523603E+00 -1.051021E+01 +5.523603E+00 +6.191173E+02 +9.026117E+00 -1.051021E+01 +9.026117E+00 +1.474526E+03 
 +6.515430E+02 -1.071976E+01 -1.053428E+01 -1.071976E+01 +7.117627E+02 -6.864408E+00 -1.053428E+01 -6.864408E+00 +1.326831E+03 
 +5.972025E+02 +1.116158E+01 +6.449707E-01 +1.116158E+01 +6.253621E+02 +6.980412E+00 +6.449707E-01 +6.980412E+00 +1.374038E+03 
 +5.684675E+02 +1.304885E+01 +5.374044E-02 +1.304885E+01 +5.600916E+02 +2.209002E+01 +5.374044E-02 +2.209002E+01 +1.359547E+03 
 +5.780726E+02 +1.918625E+01 -1.780890E+00 +1.918625E+01 +6.214655E+02 +2.149471E+01 -1.780890E+00 +2.149471E+01 +1.306739E+03 
 +5.789474E+02 -8.077304E+00 -3.425057E+01 -8.077304E+00 +5.993221E+02 -5.206133E+00 -3.425057E+01 -5.206133E+00 +1.442585E+03 
 +6.864887E+02 +1.794860E+01 -2.813370E+01 +1.794860E+01 +6.534166E+02 -1.085366E+00 -2.813370E+01 -1.085366E+00 +1.385444E+03 
 +6.335572E+02 +8.437213E+00 -1.258719E+01 +8.437213E+00 +7.008790E+02 -3.136764E+00 -1.258719E+01 -3.136764E+00 +1.403410E+03 
 +6.261624E+02 -8.030847E+00 +2.254114E+00 -8.030847E+00 +6.427573E+02 -1.019849E+00 +2.254114E+00 -1.019849E+00 +1.409633E+03 
 +6.090177E+02 -3.566137E+00 +1.259735E+01 -3.566137E+00 +6.581549E+02 +5.987914E+00 +1.259735E+01 +5.987914E+00 +1.366105E+03 
 +6.219760E+02 -1.455939E+01 -5.907672E+00 -1.455939E+01 +6.881765E+02 +1.007270E+00 -5.907672E+00 +1.007270E+00 +1.340540E+03 
 +6.731259E+02 -4.818648E+00 +1.394724E+01 -4.818648E+00 +6.764941E+02 +1.633564E+01 +1.394724E+01 +1.633564E+01 +1.505031E+03 
 +6.341920E+02 -2.990008E+01 -8.551296E+00 -2.990008E+01 +6.480486E+02 +2.843750E+01 -8.551296E+00 +2.843750E+01 +1.328945E+03 
 +6.084766E+02 -6.283672E-01 +6.453082E+00 -6.283672E-01 +5.935449E+02 +2.964555E+01 +6.453082E+00 +2.964555E+01 +1.441553E+03 
 +5.522583E+02 +5.176821E+01 +2.974586E+00 +5.176821E+01 +6.994055E+02 +1.140941E+01 +2.974586E+00 +1.140941E+01 +1.332838E+03 
 +6.691225E+02 +1.877024E+01 -2.110201E+01 +1.877024E+01 +6.688022E+02 -1.005283E+01 -2.110201E+01 -1.005283E+01 +1.348112E+03 
 +5.529373E+02 -3.802732E+01 +3.478147E+00 -3.802732E+01 +5.943238E+02 +1.693604E+01 +3.478147E+00 +1.693604E+01 +1.265241E+03 
 +6.005994E+02 -1.063655E+01 +1.943596E+01 -1.063655E+01 +5.876777E+02 +8.018929E+00 +1.943596E+01 +8.018929E+00 +1.407502E+03 
 +5.840500E+02 +1.745599E+01 +2.232630E+00 +1.745599E+01 +5.413440E+02 -4.165159E+00 +2.232630E+00 -4.165159E+00 +1.352463E+03 
 +5.752639E+02 +1.770667E+00 -2.939130E+01 +1.770667E+00 +5.517207E+02 -2.058400E+01 -2.939130E+01 -2.058400E+01 +1.376400E+03 
 +6.041882E+02 -2.699303E+01 +2.253319E+01 -2.699303E+01 +5.802258E+02 -1.674553E+01 +2.253319E+01 -1.674553E+01 +1.318921E+03 
 +5.743590E+02 +1.524986E+00 +1.001733E+01 +1.524986E+00 +5.961027E+02 -5.172705E+00 +1.001733E+01 -5.172705E+00 +1.441855E+03 
 +5.694145E+02 -1.088709E+01 -2.351203E+01 -1.088709E+01 +5.753524E+02 -2.542121E+00 -2.351203E+01 -2.542121E+00 +1.301188E+03 
 +6.094113E+02 -8.043587E-01 +2.741807E+00 -8.043587E-01 +5.606319E+02 +7.498263E+00 +2.741807E+00 +7.498263E+00 +1.363380E+03 
 +5.614930E+02 +3.672257E-01 +3.830745E+00 +3.672257E-01 +5.951192E+02 -6.672184E+00 +3.830745E+00 -6.672184E+00 +1.413184E+03 
 +5.796190E+02 +4.134643E+00 -1.654445E+01 +4.134643E+00 +5.558669E+02 -2.285114E+00 -1.654445E+01 -2.285114E+00 +1.319216E+03 
 +5.989848E+02 +4.736756E+00 +5.916232E+00 +4.736756E+00 +5.631654E+02 -1.956437E+01 +5.916232E+00 -1.956437E+01 +1.429808E+03 
 +6.175451E+02 +4.586844E+00 -8.980917E+00 +4.586844E+00 +5.752335E+02 -1.783491E+01 -8.980917E+00 -1.783491E+01 +1.396668E+03 
 +5.885513E+02 +2.368787E+01 +1.164821E+01 +2.368787E+01 +5.877459E+02 +9.836147E+00 +1.164821E+01 +9.836147E+00 +1.348284E+03 
 +5.806710E+02 -1.090796E-01 +3.255183E+01 -1.090796E-01 +6.041324E+02 -1.697275E+01 +3.255183E+01 -1.697275E+01 +1.381515E+03 
 +5.616148E+02 +8.489641E+00 -5.181009E+00 +8.489641E+00 +5.692156E+02 -1.071611E+00 -5.181009E+00 -1.071611E+00 +1.359232E+03 
 +5.774001E+02 +4.079045E+01 -1.573146E+01 +4.079045E+01 +5.741868E+02 -1.628848E+00 -1.573146E+01 -1.628848E+00 +1.312309E+03 
 +6.081144E+02 -2.153559E+01 -5.677607E+00 -2.153559E+01 +5.988552E+02 +1.198320E+00 -5.677607E+00 +1.198320E+00 +1.436552E+03 
 +5.991695E+02 -1.020370E+01 +2.895877E+01 -1.020370E+01 +6.635270E+02 +1.426044E+01 +2.895877E+01 +1.426044E+01 +1.303508E+03 
 +5.815198E+02 -1.495389E+01 +8.575771E+00 -1.495389E+01 +6.777650E+02 -2.380792E+00 +8.575771E+00 -2.380792E+00 +1.338835E+03 
 +5.973780E+02 +7.012418E+00 -2.245020E+00 +7.012418E+00 +6.175310E+02 -5.942551E+00 -2.245020E+00 -5.942551E+00 +1.491981E+03 
 +6.797495E+02 -7.037518E+00 -1.195370E+01 -7.037518E+00 +5.961475E+02 -1.777770E+01 -1.195370E+01 -1.777770E+01 +1.291183E+03 
 +6.490707E+02 +3.849202E+01 +1.950913E+01 +3.849202E+01 +6.025089E+02 -2.432418E+00 +1.950913E+01 -2.432418E+00 +1.325879E+03 
 +5.505201E+02 +3.273918E+00 +2.793184E+01 +3.273918E+00 +5.686215E+02 +3.482763E+00 +2.793184E+01 +3.482763E+00 +1.395819E+03 
 +6.806491E+02 -2.276065E+01 -3.797902E+00 -2.276065E+01 +5.938293E+02 -1.146848E+01 -3.797902E+00 -1.146848E+01 +1.322832E+03 
 +5.633817E+02 +1.506441E+00 +3.216251E+00 +1.506441E+00 +6.491414E+02 +1.236635E-01 +3.216251E+00 +1.236635E-01 +1.351219E+03 
 +6.749780E+02 +4.078864E+01 +1.028849E+00 +4.078864E+01 +5.823442E+02 -1.653088E+00 +1.028849E+00 -1.653088E+00 +1.323766E+03 
 +5.985305E+02 +3.510474E+01 +2.167125E+01 +3.510474E+01 +6.295258E+02 -7.164787E+00 +2.167125E+01 -7.164787E+00 +1.338631E+03 
 +7.322499E+02 -1.423429E+01 -9.097410E+00 -1.423429E+01 +6.564901E+02 -1.349840E+00 -9.097410E+00 -1.349840E+00 +1.376627E+03 
 +5.374527E+02 +1.225804E+01 +1.749472E+01 +1.225804E+01 +6.691191E+02 -1.289334E+01 +1.749472E+01 -1.289334E+01 +1.304928E+03 
 +6.085380E+02 -2.329943E+01 -2.110673E+01 -2.329943E+01 +5.947272E+02 +2.251018E+01 -2.110673E+01 +2.251018E+01 +1.447342E+03 
 +6.982276E+02 -3.202378E+01 +2.298502E+01 -3.202378E+01 +5.972291E+02 +1.508259E+01 +2.298502E+01 +1.508259E+01 +1.343828E+03 
 +6.272183E+02 +3.581301E+00 +9.123322E-01 +3.581301E+00 +6.246907E+02 -8.876995E+00 +9.123322E-01 -8.876995E+00 +1.463013E+03 
 +7.060414E+02 +1.090476E+01 +2.831176E+00 +1.090476E+01 +6.223710E+02 +1.096984E+01 +2.831176E+00 +1.096984E+01 +1.361786E+03 
 +5.696066E+02 -1.167957E+01 -1.535453E+01 -1.167957E+01 +5.665933E+02 +2.412957E+01 -1.535453E+01 +2.412957E+01 +1.411292E+03 
 +5.665444E+02 +2.003809E+01 +7.858801E-01 +2.003809E+01 +5.487440E+02 +1.784310E+01 +7.858801E-01 +1.784310E+01 +1.397531E+03 
 +5.629995E+02 +5.078018E+00 -1.602056E+01 +5.078018E+00 +6.035188E+02 +3.100260E+00 -1.602056E+01 +3.100260E+00 +1.373949E+03 
 +6.837833E+02 -1.477861E+01 -1.355384E+01 -1.477861E+01 +5.879626E+02 -1.435295E+01 -1.355384E+01 -1.435295E+01 +1.303179E+03 
 +5.605380E+02 -3.531027E+01 -9.914874E+00 -3.531027E+01 +6.587179E+02 +1.264823E+01 -9.914874E+00 +1.264823E+01 +1.331401E+03 
 +6.583278E+02 -2.831883E+01 +3.591108E+01 -2.831883E+01 +6.530234E+02 -1.921274E+01 +3.591108E+01 -1.921274E+01 +1.358327E+03 
 +6.054777E+02 +2.090944E+01 -2.189574E+01 +2.090944E+01 +5.747852E+02 -4.204236E+01 -2.189574E+01 -4.204236E+01 +1.400648E+03 
 +5.656140E+02 -8.778029E+00 -3.988886E+00 -8.778029E+00 +5.987938E+02 +3.499012E+00 -3.988886E+00 +3.499012E+00 +1.470405E+03 
 +6.025502E+02 -3.410229E+01 +1.612337E+01 -3.410229E+01 +5.719825E+02 -1.067784E+01 +1.612337E+01 -1.067784E+01 +1.312791E+03 
 +6.381208E+02 -2.017772E+01 -1.085616E+01 -2.017772E+01 +5.511488E+02 -1.190462E+01 -1.085616E+01 -1.190462E+01 +1.232085E+03 
 +5.450443E+02 +8.665318E+00 +2.030331E-01 +8.665318E+00 +5.633527E+02 +4.858758E+00 +2.030331E-01 +4.858758E+00 +1.345212E+03 
 +5.919973E+02 +2.332315E+01 -2.157387E+01 +2.332315E+01 +6.622762E+02 +1.224219E+01 -2.157387E+01 +1.224219E+01 +1.301531E+03 
 +6.142618E+02 -4.103262E+00 +2.940009E+01 -4.103262E+00 +6.444494E+02 +1.888045E+01 +2.940009E+01 +1.888045E+01 +1.417891E+03 
 +5.978325E+02 -3.757694E+01 -1.481199E+01 -3.757694E+01 +6.703022E+02 +1.709675E+01 -1.481199E+01 +1.709675E+01 +1.300216E+03 
 +5.747166E+02 -2.674611E+01 -2.434218E+01 -2.674611E+01 +5.842160E+02 -9.697566E+00 -2.434218E+01 -9.697566E+00 +1.439380E+03 
 +5.518400E+02 +2.342346E-01 +3.054901E+01 +2.342346E-01 +5.634746E+02 -9.504653E+00 +3.054901E+01 -9.504653E+00 +1.392946E+03 
 +6.849425E+02 -6.048532E+00 +1.051105E+00 -6.048532E+00 +5.591419E+02 +1.261134E+01 +1.051105E+00 +1.261134E+01 +1.314850E+03 
 +5.711861E+02 +2.375816E+01 -1.046050E+00 +2.375816E+01 +5.790117E+02 +2.229616E+01 -1.046050E+00 +2.229616E+01 +1.344321E+03 
 +5.862264E+02 -9.298086E+00 +1.714293E+01 -9.298086E+00 +6.056071E+02 -4.281329E+00 +1.714293E+01 -4.281329E+00 +1.428216E+03 
 +5.818941E+02 -2.663589E+01 +1.299651E+00 -2.663589E+01 +7.026376E+02 +1.174366E+01 +1.299651E+00 +1.174366E+01 +1.361674E+03 
 +6.861138E+02 +4.500124E+00 -3.315073E+01 +4.500124E+00 +7.230200E+02 +3.397988E+01 -3.315073E+01 +3.397988E+01 +1.406171E+03 
 +5.989705E+02 -2.889910E+01 -8.926543E+00 -2.889910E+01 +6.783125E+02 +3.954983E+00 -8.926543E+00 +3.954983E+00 +1.378234E+03 
 +5.696508E+02 -5.856650E+01 +6.362432E+00 -5.856650E+01 +6.463889E+02 +1.179220E+01 +6.362432E+00 +1.179220E+01 +1.338830E+03 
 +6.219233E+02 +1.625854E+01 +1.247677E+01 +1.625854E+01 +6.128607E+02 +1.856231E+01 +1.247677E+01 +1.856231E+01 +1.347332E+03 
 +4.992917E+02 +3.330714E+01 -1.430047E+01 +3.330714E+01 +6.198597E+02 -2.809304E+00 -1.430047E+01 -2.809304E+00 +1.271463E+03 
 +6.117802E+02 +1.917348E+00 -1.529111E+01 +1.917348E+00 +6.083643E+02 +2.044467E+01 -1.529111E+01 +2.044467E+01 +1.327696E+03 
 +5.715866E+02 +1.197318E+01 -7.946817E+00 +1.197318E+01 +6.118011E+02 -2.973323E-01 -7.946817E+00 -2.973323E-01 +1.319867E+03 
 +6.593326E+02 -4.801673E+00 -1.035663E+01 -4.801673E+00 +6.259244E+02 -1.889684E+01 -1.035663E+01 -1.889684E+01 +1.489437E+03 
 +5.753334E+02 -1.226756E+01 +3.000498E+01 -1.226756E+01 +5.816329E+02 -7.688679E+00 +3.000498E+01 -7.688679E+00 +1.437590E+03 
 +6.254744E+02 +1.187345E+01 -1.499210E+01 +1.187345E+01 +6.138626E+02 +2.815754E+01 -1.499210E+01 +2.815754E+01 +1.347610E+03 
 +5.953868E+02 +4.676775E+01 +2.001579E+01 +4.676775E+01 +6.075683E+02 -2.637907E+00 +2.001579E+01 -2.637907E+00 +1.331213E+03 
 +6.788288E+02 -2.042421E+01 -9.801689E-01 -2.042421E+01 +5.555607E+02 -2.160493E+00 -9.801689E-01 -2.160493E+00 +1.308284E+03 
 +6.367857E+02 -2.243610E+00 -4.847017E+00 -2.243610E+00 +6.153800E+02 +3.558590E+00 -4.847017E+00 +3.558590E+00 +1.378898E+03 
 +6.751893E+02 +3.521708E+00 +1.085552E+01 +3.521708E+00 +6.586451E+02 +1.344495E+01 +1.085552E+01 +1.344495E+01 +1.397706E+03 
 +6.398547E+02 +2.734978E+01 +2.221194E+01 +2.734978E+01 +6.091456E+02 +1.539851E+01 +2.221194E+01 +1.539851E+01 +1.355396E+03 
 +5.715209E+02 +5.320709E+00 -1.920132E+01 +5.320709E+00 +5.831046E+02 -1.235688E+01 -1.920132E+01 -1.235688E+01 +1.384809E+03 
 +7.143771E+02 -6.709819E+00 -1.233923E+01 -6.709819E+00 +5.269961E+02 +1.785449E+01 -1.233923E+01 +1.785449E+01 +1.347440E+03 
 +5.496027E+02 +1.521969E+01 -1.418069E+01 +1.521969E+01 +5.502490E+02 +2.347207E+01 -1.418069E+01 +2.347207E+01 +1.391365E+03 
 +6.140174E+02 +8.115844E+00 -5.766451E+00 +8.115844E+00 +5.800553E+02 +1.748947E+01 -5.766451E+00 +1.748947E+01 +1.319868E+03 
 +6.607889E+02 +2.962079E+01 -7.017308E+00 +2.962079E+01 +6.137988E+02 -4.839673E+00 -7.017308E+00 -4.839673E+00 +1.338857E+03 
 +5.919541E+02 +2.801415E+00 +6.084277E+00 +2.801415E+00 +5.780278E+02 +9.574066E+00 +6.084277E+00 +9.574066E+00 +1.331322E+03 
 +5.947784E+02 -6.912021E+00 -2.789371E+00 -6.912021E+00 +5.681219E+02 +8.138679E-01 -2.789371E+00 +8.138679E-01 +1.442078E+03 
 +7.369470E+02 +4.139415E+00 +1.259002E+01 +4.139415E+00 +5.951289E+02 -1.523758E+01 +1.259002E+01 -1.523758E+01 +1.341446E+03 
 +5.707360E+02 +8.085970E+00 +7.017805E-01 +8.085970E+00 +6.047413E+02 -5.408005E+00 +7.017805E-01 -5.408005E+00 +1.293417E+03 
 +7.101851E+02 -7.393151E+00 +6.130353E+00 -7.393151E+00 +6.332272E+02 +7.672389E+00 +6.130353E+00 +7.672389E+00 +1.370742E+03 
 +6.294945E+02 +1.752171E+01 -7.087290E+00 +1.752171E+01 +6.107899E+02 -3.221195E-01 -7.087290E+00 -3.221195E-01 +1.311020E+03 
 +7.118766E+02 -1.313920E+01 +7.664543E+00 -1.313920E+01 +5.530347E+02 -4.115988E+00 +7.664543E+00 -4.115988E+00 +1.333029E+03 
 +5.954264E+02 -3.909217E-01 -5.020324E+00 -3.909217E-01 +5.805398E+02 -2.496087E+01 -5.020324E+00 -2.496087E+01 +1.420399E+03 
 +5.858395E+02 -1.462630E+01 -4.234846E+00 -1.462630E+01 +5.617875E+02 +2.152130E+01 -4.234846E+00 +2.152130E+01 +1.449600E+03 
 +6.231906E+02 -4.722523E+00 -9.301842E+00 -4.722523E+00 +6.112534E+02 +2.743892E+01 -9.301842E+00 +2.743892E+01 +1.454628E+03 
 +6.016517E+02 +1.394853E+01 -3.467133E+00 +1.394853E+01 +5.894362E+02 +2.370068E+00 -3.467133E+00 +2.370068E+00 +1.337949E+03 
 +5.799089E+02 -6.406178E+00 +2.943706E+01 -6.406178E+00 +5.958279E+02 +2.540072E+01 +2.943706E+01 +2.540072E+01 +1.409382E+03 
 +5.586012E+02 +5.568146E+01 -8.741453E-02 +5.568146E+01 +6.452332E+02 +1.856962E+01 -8.741453E-02 +1.856962E+01 +1.305750E+03 
 +5.834600E+02 +1.225739E+01 -1.102905E+01 +1.225739E+01 +7.169990E+02 -8.345486E+00 -1.102905E+01 -8.345486E+00 +1.349586E+03 
 +5.812302E+02 +2.092472E+00 -1.449967E+01 +2.092472E+00 +7.129757E+02 -4.245342E+00 -1.449967E+01 -4.245342E+00 +1.353824E+03 
 +5.756584E+02 -1.599076E+01 +1.776845E+01 -1.599076E+01 +6.991987E+02 +2.033867E+00 +1.776845E+01 +2.033867E+00 +1.372054E+03 
 +5.995004E+02 +5.842730E+00 +5.535058E+00 +5.842730E+00 +6.296625E+02 -1.787429E+00 +5.535058E+00 -1.787429E+00 +1.319614E+03 
 +5.548764E+02 -3.685198E+00 -9.774053E+00 -3.685198E+00 +5.803739E+02 -3.089913E+00 -9.774053E+00 -3.089913E+00 +1.307745E+03 
 +5.882055E+02 +7.948561E+00 -5.430586E+00 +7.948561E+00 +6.253330E+02 -4.845897E-01 -5.430586E+00 -4.845897E-01 +1.352578E+03 
 +6.587090E+02 +8.314692E+00 -1.302018E+01 +8.314692E+00 +6.401709E+02 -3.575468E+00 -1.302018E+01 -3.575468E+00 +1.387839E+03 
 +6.475353E+02 +1.336387E+01 +5.038127E+00 +1.336387E+01 +6.581120E+02 +1.085601E+00 +5.038127E+00 +1.085601E+00 +1.320243E+03 
 +5.808454E+02 +1.356420E+01 -3.628737E-01 +1.356420E+01 +5.947856E+02 +9.562134E+00 -3.628737E-01 +9.562134E+00 +1.440495E+03 
 +5.262724E+02 +1.743207E+01 +1.061860E+01 +1.743207E+01 +5.050269E+02 +8.322644E+00 +1.061860E+01 +8.322644E+00 +1.439213E+03 
 +6.008303E+02 +1.095672E+01 -2.672781E+01 +1.095672E+01 +6.005029E+02 +1.243376E+01 -2.672781E+01 +1.243376E+01 +1.321697E+03 
 +5.807666E+02 -2.457094E+01 -5.561475E+00 -2.457094E+01 +5.654331E+02 -1.311347E+01 -5.561475E+00 -1.311347E+01 +1.377466E+03 
 +5.467093E+02 -8.906572E+00 +5.046019E+00 -8.906572E+00 +5.461743E+02 -1.872981E+01 +5.046019E+00 -1.872981E+01 +1.369475E+03 
 +5.895118E+02 +1.273019E+01 -8.350374E+00 +1.273019E+01 +5.928987E+02 +2.781123E+01 -8.350374E+00 +2.781123E+01 +1.286844E+03 
 +5.665508E+02 +9.589802E-01 +2.154217E+01 +9.589802E-01 +5.440850E+02 +8.266280E+00 +2.154217E+01 +8.266280E+00 +1.435373E+03 
 +5.981450E+02 -2.945532E+01 -1.251570E+00 -2.945532E+01 +5.834241E+02 -1.462118E+01 -1.251570E+00 -1.462118E+01 +1.396997E+03 
 +5.968142E+02 +1.421696E+01 -1.438270E+01 +1.421696E+01 +5.854932E+02 +2.402447E+01 -1.438270E+01 +2.402447E+01 +1.424570E+03 
 +6.213599E+02 -1.321732E+01 +6.354801E+00 -1.321732E+01 +6.045615E+02 +6.796590E+00 +6.354801E+00 +6.796590E+00 +1.385757E+03 
 +6.448959E+02 -1.470447E+01 -1.725032E+01 -1.470447E+01 +6.197136E+02 +2.609593E+00 -1.725032E+01 +2.609593E+00 +1.318540E+03 
 +5.802098E+02 +1.856901E+01 +9.861757E+00 +1.856901E+01 +6.088843E+02 -2.004001E+01 +9.861757E+00 -2.004001E+01 +1.396391E+03 
 +6.954473E+02 -1.448263E+00 -8.197247E+00 -1.448263E+00 +6.127401E+02 -2.335246E+01 -8.197247E+00 -2.335246E+01 +1.356324E+03 
 +5.841182E+02 +6.977448E+00 -4.859147E+00 +6.977448E+00 +6.423428E+02 +3.966820E+00 -4.859147E+00 +3.966820E+00 +1.328817E+03 
 +6.980494E+02 -4.758467E+01 -1.578592E-01 -4.758467E+01 +6.671099E+02 -4.682381E+00 -1.578592E-01 -4.682381E+00 +1.390299E+03 
 +6.099678E+02 -2.459871E+01 -1.498680E+00 -2.459871E+01 +6.742483E+02 +2.659273E-01 -1.498680E+00 +2.659273E-01 +1.315651E+03 
 +6.486483E+02 -3.837157E+01 +5.279736E+00 -3.837157E+01 +6.671067E+02 +4.009232E+01 +5.279736E+00 +4.009232E+01 +1.440465E+03 
 +6.784081E+02 -2.166081E+01 +1.044501E+01 -2.166081E+01 +6.292249E+02 +2.204633E+01 +1.044501E+01 +2.204633E+01 +1.297619E+03 
 +5.800764E+02 +3.075898E+01 +2.997844E+00 +3.075898E+01 +5.328237E+02 -9.508939E+00 +2.997844E+00 -9.508939E+00 +1.395922E+03 
 +6.729741E+02 +1.170117E+01 -4.262991E+00 +1.170117E+01 +5.519150E+02 -1.163163E+01 -4.262991E+00 -1.163163E+01 +1.281956E+03 
 +6.365726E+02 -1.838869E+01 +3.743724E+01 -1.838869E+01 +6.483801E+02 +1.770532E+01 +3.743724E+01 +1.770532E+01 +1.423134E+03 
 +7.075564E+02 -4.758755E+01 +6.146691E+00 -4.758755E+01 +6.224505E+02 +1.299137E+01 +6.146691E+00 +1.299137E+01 +1.378708E+03 
 +6.096791E+02 -3.402999E+01 +5.807973E+00 -3.402999E+01 +5.979084E+02 +2.454354E+01 +5.807973E+00 +2.454354E+01 +1.378936E+03 
 +6.988183E+02 +8.137684E+00 +1.220593E+01 +8.137684E+00 +5.935667E+02 -1.221057E+01 +1.220593E+01 -1.221057E+01 +1.358420E+03 
 +5.650352E+02 +2.165971E+00 +1.709011E+01 +2.165971E+00 +5.441241E+02 -8.518140E+00 +1.709011E+01 -8.518140E+00 +1.395932E+03 
 +6.977129E+02 +7.923232E+00 -8.371367E+00 +7.923232E+00 +5.583435E+02 +1.190586E+01 -8.371367E+00 +1.190586E+01 +1.332773E+03 
 +6.418792E+02 -2.966776E+01 -1.099945E+01 -2.966776E+01 +5.335701E+02 +2.258259E+01 -1.099945E+01 +2.258259E+01 +1.276978E+03 
 +6.340402E+02 -1.865491E+00 -1.187224E+01 -1.865491E+00 +5.998304E+02 -6.619707E-01 -1.187224E+01 -6.619707E-01 +1.468343E+03 
 +6.259194E+02 +4.159594E+01 +4.708835E+00 +4.159594E+01 +6.242542E+02 +1.778345E+00 +4.708835E+00 +1.778345E+00 +1.287830E+03 
 +6.814029E+02 -1.833092E+01 -8.995607E+00 -1.833092E+01 +6.743948E+02 -5.390067E+00 -8.995607E+00 -5.390067E+00 +1.372076E+03 
 +6.338278E+02 -2.725015E+01 +1.829667E+01 -2.725015E+01 +6.111049E+02 +2.384942E+01 +1.829667E+01 +2.384942E+01 +1.409482E+03 
 +6.005125E+02 +9.819773E+00 -5.193985E+00 +9.819773E+00 +6.182175E+02 -1.484897E+01 -5.193985E+00 -1.484897E+01 +1.290523E+03 
 +5.244233E+02 -3.522738E+01 +3.595960E+01 -3.522738E+01 +6.671278E+02 -1.094790E+01 +3.595960E+01 -1.094790E+01 +1.315801E+03 
 +6.070565E+02 -2.907296E+01 +1.509360E+01 -2.907296E+01 +5.969253E+02 +1.185276E+00 +1.509360E+01 +1.185276E+00 +1.400556E+03 
 +6.113926E+02 +2.779448E+00 +1.798050E+00 +2.779448E+00 +5.154279E+02 +1.678520E+01 +1.798050E+00 +1.678520E+01 +1.324757E+03 
 +5.615889E+02 -2.844525E+00 +2.286865E+00 -2.844525E+00 +5.609567E+02 +9.694418E+00 +2.286865E+00 +9.694418E+00 +1.433256E+03 
 +5.884921E+02 -1.573980E+01 -7.516924E+00 -1.573980E+01 +5.704199E+02 +3.718260E+00 -7.516924E+00 +3.718260E+00 +1.336647E+03 
 +5.276484E+02 +1.106517E+01 +3.086779E-02 +1.106517E+01 +5.485137E+02 +1.265975E+01 +3.086779E-02 +1.265975E+01 +1.374529E+03 
 +6.436517E+02 +4.169063E+01 -1.851378E+01 +4.169063E+01 +6.378985E+02 +2.914449E+01 -1.851378E+01 +2.914449E+01 +1.380898E+03 
 +6.090961E+02 +3.142600E+01 +2.122868E+01 +3.142600E+01 +7.188912E+02 +9.314725E+00 +2.122868E+01 +9.314725E+00 +1.364742E+03 
 +6.146949E+02 +2.726443E+01 -2.286148E+01 +2.726443E+01 +6.665600E+02 -1.130446E+01 -2.286148E+01 -1.130446E+01 +1.286542E+03 
 +5.686259E+02 +6.641170E+00 +1.143463E+01 +6.641170E+00 +5.399611E+02 -2.460421E+01 +1.143463E+01 -2.460421E+01 +1.420952E+03 
 +5.427802E+02 -4.391384E+00 -8.548813E+00 -4.391384E+00 +5.537567E+02 +1.357448E+01 -8.548813E+00 +1.357448E+01 +1.292517E+03 
 +5.474693E+02 -7.463984E+00 +6.020906E+00 -7.463984E+00 +5.900811E+02 -2.295863E+01 +6.020906E+00 -2.295863E+01 +1.327924E+03 
 +5.839575E+02 -2.937997E+01 -2.801157E+01 -2.937997E+01 +5.504211E+02 +6.973465E+00 -2.801157E+01 +6.973465E+00 +1.394775E+03 
 +6.749634E+02 -3.036812E+01 -8.941047E+00 -3.036812E+01 +5.402202E+02 +1.072447E+01 -8.941047E+00 +1.072447E+01 +1.286546E+03 
 +6.236605E+02 +3.326571E+01 -1.755367E+01 +3.326571E+01 +6.216639E+02 +3.475546E+01 -1.755367E+01 +3.475546E+01 +1.372841E+03 
 +5.618882E+02 +3.174142E+00 +1.704489E+01 +3.174142E+00 +6.866989E+02 -8.261953E+00 +1.704489E+01 -8.261953E+00 +1.299202E+03 
 +6.667570E+02 -1.436982E+01 -7.365078E+00 -1.436982E+01 +6.168905E+02 +9.015260E+00 -7.365078E+00 +9.015260E+00 +1.395081E+03 
 +6.007860E+02 +7.135438E+00 -1.557276E+01 +7.135438E+00 +6.875326E+02 -1.463956E+00 -1.557276E+01 -1.463956E+00 +1.363569E+03 
 +5.645286E+02 -2.638693E-01 +2.477076E+01 -2.638693E-01 +5.439597E+02 +2.045622E+00 +2.477076E+01 +2.045622E+00 +1.339056E+03 
 +5.878474E+02 +2.700112E+01 -2.629223E+01 +2.700112E+01 +5.670365E+02 +1.377662E+01 -2.629223E+01 +1.377662E+01 +1.374747E+03 
 +6.000958E+02 +6.274140E+00 -8.941151E+00 +6.274140E+00 +5.869417E+02 -7.598978E+00 -8.941151E+00 -7.598978E+00 +1.312668E+03 
 +6.659776E+02 +5.576693E+00 -6.224041E+00 +5.576693E+00 +5.854493E+02 -3.473090E+01 -6.224041E+00 -3.473090E+01 +1.315356E+03 
 +6.116521E+02 +2.412993E+01 +8.829020E+00 +2.412993E+01 +6.741447E+02 +1.139992E+01 +8.829020E+00 +1.139992E+01 +1.383472E+03 
 +7.381713E+02 +6.565820E+01 +1.078509E+00 +6.565820E+01 +6.681183E+02 -2.275074E+00 +1.078509E+00 -2.275074E+00 +1.370983E+03 
 +5.915978E+02 +2.662903E+00 +5.446264E+00 +2.662903E+00 +5.710193E+02 +4.834877E+00 +5.446264E+00 +4.834877E+00 +1.416102E+03 
 +5.934450E+02 -2.513665E+01 +1.878955E+01 -2.513665E+01 +6.186630E+02 -1.649264E+00 +1.878955E+01 -1.649264E+00 +1.309963E+03 
 +6.192555E+02 -2.847408E+01 -3.202923E+00 -2.847408E+01 +6.217358E+02 -2.265765E+00 -3.202923E+00 -2.265765E+00 +1.297356E+03 
 +5.858337E+02 -3.760804E+00 -1.249262E+01 -3.760804E+00 +5.962562E+02 -5.639409E+00 -1.249262E+01 -5.639409E+00 +1.456851E+03 
 +6.175087E+02 -4.555968E+01 +7.558126E+00 -4.555968E+01 +5.880531E+02 +1.451546E+01 +7.558126E+00 +1.451546E+01 +1.329817E+03 
 +7.125244E+02 -3.196173E+01 +2.105130E+01 -3.196173E+01 +6.000241E+02 -4.961013E+00 +2.105130E+01 -4.961013E+00 +1.378881E+03 
 +5.613937E+02 +1.916710E+01 +2.287198E+01 +1.916710E+01 +6.060073E+02 +2.782375E+00 +2.287198E+01 +2.782375E+00 +1.342251E+03 
 +6.765226E+02 +4.831035E+00 -2.548642E+01 +4.831035E+00 +5.723781E+02 +8.274879E-01 -2.548642E+01 +8.274879E-01 +1.311752E+03 
 +6.119769E+02 -1.349079E+01 +1.129650E+01 -1.349079E+01 +5.971889E+02 -6.167057E+00 +1.129650E+01 -6.167057E+00 +1.267745E+03 
 +6.525424E+02 +3.617101E+01 +4.073078E-01 +3.617101E+01 +6.235080E+02 +1.484153E+01 +4.073078E-01 +1.484153E+01 +1.313443E+03 
 +6.083705E+02 +7.690421E+01 +2.015186E+00 +7.690421E+01 +5.937038E+02 +1.602177E+01 +2.015186E+00 +1.602177E+01 +1.309622E+03 
 +5.837355E+02 +2.368414E+01 +1.760272E+01 +2.368414E+01 +6.280014E+02 +1.307035E+01 +1.760272E+01 +1.307035E+01 +1.325091E+03 
 +6.262890E+02 -7.059024E+00 +1.084439E+01 -7.059024E+00 +6.009963E+02 +5.392727E+00 +1.084439E+01 +5.392727E+00 +1.359877E+03 
 +5.802234E+02 +6.506574E+00 +1.441141E+00 +6.506574E+00 +6.303211E+02 +1.839267E+01 +1.441141E+00 +1.839267E+01 +1.341701E+03 
 +5.630276E+02 -9.581078E+00 -2.010199E+01 -9.581078E+00 +5.690565E+02 +1.554424E+01 -2.010199E+01 +1.554424E+01 +1.411537E+03 
 +6.430661E+02 -7.175831E+01 +9.444974E+00 -7.175831E+01 +6.222583E+02 +1.141588E+00 +9.444974E+00 +1.141588E+00 +1.365267E+03 
 +6.740117E+02 +4.710581E-02 -1.331840E+01 +4.710581E-02 +5.757434E+02 +3.322559E+00 -1.331840E+01 +3.322559E+00 +1.315520E+03 
 +5.614458E+02 -6.527865E+00 -5.473528E+00 -6.527865E+00 +5.936226E+02 +9.503132E-02 -5.473528E+00 +9.503132E-02 +1.402474E+03 
 +5.935989E+02 -1.699185E+01 +2.511013E-01 -1.699185E+01 +5.786096E+02 -1.835432E+01 +2.511013E-01 -1.835432E+01 +1.331836E+03 
 +5.932169E+02 +2.284484E+00 -1.691274E+01 +2.284484E+00 +5.675990E+02 -1.448623E+01 -1.691274E+01 -1.448623E+01 +1.390977E+03 
 +5.791378E+02 +1.969007E+01 -3.715116E+01 +1.969007E+01 +5.704695E+02 +8.923338E+00 -3.715116E+01 +8.923338E+00 +1.331186E+03 
 +5.595400E+02 +4.434583E+00 +4.003691E+01 +4.434583E+00 +5.557981E+02 +1.557389E+01 +4.003691E+01 +1.557389E+01 +1.368295E+03 
 +6.497244E+02 -1.843328E+01 -3.376643E-01 -1.843328E+01 +5.615403E+02 +1.011951E+01 -3.376643E-01 +1.011951E+01 +1.289812E+03 
 +5.647899E+02 -1.072303E+00 -3.417222E+00 -1.072303E+00 +5.688427E+02 -4.338564E+01 -3.417222E+00 -4.338564E+01 +1.342034E+03 
 +6.326832E+02 -1.078939E+01 -1.744574E+01 -1.078939E+01 +6.541002E+02 -2.725015E+01 -1.744574E+01 -2.725015E+01 +1.378972E+03 
 +6.934502E+02 +1.280420E+01 -5.974881E+00 +1.280420E+01 +6.469673E+02 +6.897331E+00 -5.974881E+00 +6.897331E+00 +1.315462E+03 
 +5.291208E+02 +2.210524E+01 -1.549869E+01 +2.210524E+01 +5.075591E+02 +1.657833E+01 -1.549869E+01 +1.657833E+01 +1.337730E+03 
 +5.710953E+02 +3.730814E+00 +5.650563E+00 +3.730814E+00 +5.807782E+02 -2.829557E+01 +5.650563E+00 -2.829557E+01 +1.379932E+03 
 +6.870734E+02 -2.209394E+01 -6.018747E+00 -2.209394E+01 +5.641655E+02 -2.330355E+01 -6.018747E+00 -2.330355E+01 +1.312176E+03 
 +5.952651E+02 +2.096084E+01 +6.943764E+00 +2.096084E+01 +5.365281E+02 +3.951263E+00 +6.943764E+00 +3.951263E+00 +1.290809E+03 
 +6.982279E+02 +2.977017E+01 -1.025207E+00 +2.977017E+01 +6.160825E+02 -1.597885E+01 -1.025207E+00 -1.597885E+01 +1.333645E+03 
 +5.855367E+02 +1.234971E+01 -5.196130E+00 +1.234971E+01 +6.062296E+02 -3.176052E+00 -5.196130E+00 -3.176052E+00 +1.330906E+03 
 +6.132289E+02 +2.780511E+01 +1.847764E+01 +2.780511E+01 +6.323127E+02 +2.198259E+00 +1.847764E+01 +2.198259E+00 +1.315781E+03 
 +6.393483E+02 +2.650099E+00 -1.933727E+01 +2.650099E+00 +6.014030E+02 -4.565476E+00 -1.933727E+01 -4.565476E+00 +1.428604E+03 
 +5.413533E+02 -9.589945E+00 -1.650045E+01 -9.589945E+00 +5.330632E+02 -1.212758E+01 -1.650045E+01 -1.212758E+01 +1.383708E+03 
 +6.430549E+02 -7.563838E-01 +5.205645E+00 -7.563838E-01 +6.004033E+02 +2.163147E+01 +5.205645E+00 +2.163147E+01 +1.370051E+03 
 +5.836848E+02 +1.207272E+01 -3.841332E+00 +1.207272E+01 +5.819977E+02 -1.408999E+01 -3.841332E+00 -1.408999E+01 +1.332374E+03 
 +5.812631E+02 -3.055962E+00 -1.879612E+01 -3.055962E+00 +5.973749E+02 +4.000367E+01 -1.879612E+01 +4.000367E+01 +1.340508E+03 
 +6.575414E+02 -4.732913E+00 +3.743081E+01 -4.732913E+00 +6.205546E+02 +1.091474E+01 +3.743081E+01 +1.091474E+01 +1.420169E+03 
 +5.875046E+02 +2.766123E+01 +4.400888E+00 +2.766123E+01 +6.562900E+02 +1.227368E+01 +4.400888E+00 +1.227368E+01 +1.311676E+03 
 +6.938870E+02 +2.486906E+01 +1.612187E+01 +2.486906E+01 +6.523594E+02 +1.131415E+01 +1.612187E+01 +1.131415E+01 +1.426336E+03 
 +5.667451E+02 -3.839922E+01 -1.336083E+01 -3.839922E+01 +6.732900E+02 -1.481065E+01 -1.336083E+01 -1.481065E+01 +1.307693E+03 
 +6.726204E+02 -3.285355E+01 +5.642255E+00 -3.285355E+01 +6.108724E+02 -4.253515E+00 +5.642255E+00 -4.253515E+00 +1.346128E+03 
 +5.402869E+02 -1.183509E+01 +1.931475E+01 -1.183509E+01 +6.531457E+02 +3.851485E+00 +1.931475E+01 +3.851485E+00 +1.317840E+03 
 +6.827653E+02 +2.956156E+01 -6.865317E+00 +2.956156E+01 +6.330262E+02 -2.683476E+01 -6.865317E+00 -2.683476E+01 +1.328013E+03 
 +5.459982E+02 -9.788320E+00 +5.315447E-01 -9.788320E+00 +5.594615E+02 -2.344428E+01 +5.315447E-01 -2.344428E+01 +1.398452E+03 
 +6.875881E+02 -3.312722E+00 -8.553544E+00 -3.312722E+00 +5.780174E+02 -1.170651E+01 -8.553544E+00 -1.170651E+01 +1.282921E+03 
 +6.224937E+02 -5.115266E+01 -5.952881E+00 -5.115266E+01 +6.401441E+02 -2.583757E+01 -5.952881E+00 -2.583757E+01 +1.336224E+03 
 +6.062541E+02 -1.152135E+01 +1.396156E+01 -1.152135E+01 +6.246925E+02 -6.679626E+00 +1.396156E+01 -6.679626E+00 +1.403455E+03 
 +6.044695E+02 -1.078225E+01 +2.378362E+01 -1.078225E+01 +5.626290E+02 -2.663652E+01 +2.378362E+01 -2.663652E+01 +1.329888E+03 
 +6.970931E+02 +3.242057E+00 +6.870703E+00 +3.242057E+00 +5.819682E+02 -6.852580E+00 +6.870703E+00 -6.852580E+00 +1.312939E+03 
 +5.988623E+02 -2.040614E+01 -6.389776E+00 -2.040614E+01 +6.255201E+02 -3.431433E+01 -6.389776E+00 -3.431433E+01 +1.382571E+03 
 +5.513189E+02 -7.616679E+01 -1.664499E+01 -7.616679E+01 +6.327310E+02 -2.592113E+01 -1.664499E+01 -2.592113E+01 +1.291877E+03 
 +5.873289E+02 +1.076249E+01 +9.088181E+00 +1.076249E+01 +5.889684E+02 +9.621490E-01 +9.088181E+00 +9.621490E-01 +1.382026E+03 
 +6.086677E+02 +7.731146E+00 -1.016771E+01 +7.731146E+00 +5.605602E+02 -3.081915E+01 -1.016771E+01 -3.081915E+01 +1.415648E+03 
 +6.822343E+02 -1.108558E+01 +4.001722E+00 -1.108558E+01 +5.581910E+02 +1.864787E+01 +4.001722E+00 +1.864787E+01 +1.312941E+03 
 +5.699174E+02 -9.140784E+00 -1.328193E+01 -9.140784E+00 +5.352842E+02 -1.575847E+01 -1.328193E+01 -1.575847E+01 +1.389633E+03 
 +6.210652E+02 +1.300641E+00 +1.464850E+01 +1.300641E+00 +5.576438E+02 +1.050684E+01 +1.464850E+01 +1.050684E+01 +1.335261E+03 
 +5.543239E+02 -1.414611E+00 +3.426925E+01 -1.414611E+00 +5.880707E+02 +8.883574E+00 +3.426925E+01 +8.883574E+00 +1.392612E+03 
 +5.986309E+02 -3.782469E+00 -1.084790E+01 -3.782469E+00 +7.033939E+02 +1.818638E+00 -1.084790E+01 +1.818638E+00 +1.316689E+03 
 +6.271648E+02 -7.304101E+00 -1.834696E+01 -7.304101E+00 +6.213483E+02 +8.208348E-01 -1.834696E+01 +8.208348E-01 +1.361470E+03 
 +5.853320E+02 +3.872446E+00 +1.383496E+01 +3.872446E+00 +5.477482E+02 -1.609692E+01 +1.383496E+01 -1.609692E+01 +1.460670E+03 
 +6.646844E+02 +6.462466E+01 +1.830688E+00 +6.462466E+01 +5.821642E+02 +3.304074E+00 +1.830688E+00 +3.304074E+00 +1.343842E+03 
 +6.791398E+02 -1.534410E+01 -3.702391E+00 -1.534410E+01 +6.414839E+02 -1.475012E+01 -3.702391E+00 -1.475012E+01 +1.326932E+03 
 +5.497170E+02 +1.839485E+00 +5.118845E-01 +1.839485E+00 +5.407736E+02 +1.139296E+01 +5.118845E-01 +1.139296E+01 +1.346307E+03 
 +5.512905E+02 -1.828586E+01 +5.335474E+00 -1.828586E+01 +5.220799E+02 +3.075073E+00 +5.335474E+00 +3.075073E+00 +1.359291E+03 
 +5.427335E+02 -2.518582E+00 -7.073068E-01 -2.518582E+00 +5.553923E+02 +1.563408E+01 -7.073068E-01 +1.563408E+01 +1.476852E+03 
 +6.103208E+02 +2.051416E+01 +3.882298E-01 +2.051416E+01 +5.980685E+02 -6.520823E+00 +3.882298E-01 -6.520823E+00 +1.303620E+03 
 +5.680488E+02 +2.251340E+00 -8.453238E-01 +2.251340E+00 +5.657163E+02 -3.220655E+01 -8.453238E-01 -3.220655E+01 +1.374537E+03 
 +6.508309E+02 +2.160943E+01 -6.483654E+00 +2.160943E+01 +5.602676E+02 +1.278168E+01 -6.483654E+00 +1.278168E+01 +1.303863E+03 
 +6.029815E+02 -1.276110E+01 -6.803216E-01 -1.276110E+01 +6.584688E+02 +4.537514E+01 -6.803216E-01 +4.537514E+01 +1.365858E+03 
 +6.520336E+02 -3.186359E+01 -1.336908E+01 -3.186359E+01 +6.593241E+02 -3.336280E+01 -1.336908E+01 -3.336280E+01 +1.315728E+03 
 +5.920724E+02 -1.881441E+01 +9.032545E+00 -1.881441E+01 +6.007327E+02 -1.650453E+01 +9.032545E+00 -1.650453E+01 +1.408431E+03 
 +5.900906E+02 +4.830462E+01 +5.351499E-01 +4.830462E+01 +5.684310E+02 -6.497303E+00 +5.351499E-01 -6.497303E+00 +1.321775E+03 
 +6.767438E+02 +1.884755E+01 -2.798907E+01 +1.884755E+01 +6.230701E+02 -3.552848E+01 -2.798907E+01 -3.552848E+01 +1.409243E+03 
 +6.236783E+02 +2.981462E+00 -1.703228E+01 +2.981462E+00 +6.406872E+02 +2.878406E+00 -1.703228E+01 +2.878406E+00 +1.353435E+03 
 +5.428726E+02 +3.221130E+01 -4.961823E+00 +3.221130E+01 +6.951320E+02 +3.407750E+00 -4.961823E+00 +3.407750E+00 +1.308006E+03 
 +6.427643E+02 +1.125367E+01 +2.365104E+01 +1.125367E+01 +6.660233E+02 +1.170032E+00 +2.365104E+01 +1.170032E+00 +1.372857E+03 
 +6.200432E+02 +2.297079E+01 -4.554939E+00 +2.297079E+01 +6.050392E+02 +9.156722E+00 -4.554939E+00 +9.156722E+00 +1.348672E+03 
 +6.434097E+02 +4.057124E+01 +1.239326E+01 +4.057124E+01 +6.032481E+02 -9.220769E+00 +1.239326E+01 -9.220769E+00 +1.417759E+03 
 +6.565665E+02 +4.975709E+01 -9.130342E+00 +4.975709E+01 +5.705630E+02 +8.785531E+00 -9.130342E+00 +8.785531E+00 +1.290677E+03 
 +5.961031E+02 -3.208637E+00 +1.170574E+01 -3.208637E+00 +5.878806E+02 -9.901043E+00 +1.170574E+01 -9.901043E+00 +1.432580E+03 
 +6.588935E+02 -3.934389E+01 -5.705987E+00 -3.934389E+01 +6.260731E+02 +1.152444E+01 -5.705987E+00 +1.152444E+01 +1.383470E+03 
 +5.877955E+02 +8.754025E+00 +1.662119E+01 +8.754025E+00 +5.890116E+02 +4.030382E+01 +1.662119E+01 +4.030382E+01 +1.372784E+03 
 +5.591265E+02 -8.855399E-01 -1.134763E+00 -8.855399E-01 +5.542032E+02 +3.279732E+01 -1.134763E+00 +3.279732E+01 +1.407200E+03 
 +6.743315E+02 -2.307284E+01 +8.560624E+00 -2.307284E+01 +5.810370E+02 +1.740436E+01 +8.560624E+00 +1.740436E+01 +1.308639E+03 
 +6.185778E+02 +2.743883E+00 -1.620868E+01 +2.743883E+00 +5.588066E+02 -1.908719E+01 -1.620868E+01 -1.908719E+01 +1.367201E+03 
 +6.375667E+02 -4.105683E+00 +1.992082E+01 -4.105683E+00 +5.923344E+02 -2.096845E+01 +1.992082E+01 -2.096845E+01 +1.374055E+03 
 +5.947101E+02 -3.013674E+00 +3.727822E+01 -3.013674E+00 +6.329370E+02 +2.460532E+01 +3.727822E+01 +2.460532E+01 +1.421501E+03 
 +6.073762E+02 -3.038113E+01 -1.090359E+01 -3.038113E+01 +6.381351E+02 +1.833102E+01 -1.090359E+01 +1.833102E+01 +1.356121E+03 
 +6.197616E+02 -2.749201E+01 -8.035557E+00 -2.749201E+01 +5.450171E+02 -1.586143E+01 -8.035557E+00 -1.586143E+01 +1.298674E+03 
 +5.547512E+02 +1.391495E+01 +2.317635E+01 +1.391495E+01 +5.433276E+02 -4.198722E+01 +2.317635E+01 -4.198722E+01 +1.308995E+03 
 +5.872126E+02 +6.984848E+00 -1.671047E+01 +6.984848E+00 +5.618344E+02 -2.242568E+00 -1.671047E+01 -2.242568E+00 +1.378011E+03 
 +5.846686E+02 +2.399424E+00 -1.792031E+01 +2.399424E+00 +5.725916E+02 -7.351599E+00 -1.792031E+01 -7.351599E+00 +1.374127E+03 
 +5.904676E+02 -7.589231E+00 +1.390084E+01 -7.589231E+00 +5.881334E+02 +8.703202E+00 +1.390084E+01 +8.703202E+00 +1.367949E+03 
 +5.969409E+02 +1.477650E+00 -2.920718E+01 +1.477650E+00 +6.051586E+02 -3.062690E+00 -2.920718E+01 -3.062690E+00 +1.326165E+03 
 +6.000939E+02 -1.937356E+01 -1.325088E+01 -1.937356E+01 +6.158176E+02 -1.535451E+01 -1.325088E+01 -1.535451E+01 +1.415894E+03 
 +6.332983E+02 -2.669321E+01 -1.617033E+01 -2.669321E+01 +5.953290E+02 -9.490515E-01 -1.617033E+01 -9.490515E-01 +1.357177E+03 
 +6.244774E+02 -5.057077E+01 +1.783512E+01 -5.057077E+01 +6.174022E+02 +1.528380E+01 +1.783512E+01 +1.528380E+01 +1.322964E+03 
 +6.265011E+02 -1.353088E+01 -3.016209E+01 -1.353088E+01 +5.603321E+02 +1.583331E+01 -3.016209E+01 +1.583331E+01 +1.310572E+03 
 +5.809044E+02 -3.393041E+01 +1.607058E+01 -3.393041E+01 +5.686116E+02 +2.561022E+01 +1.607058E+01 +2.561022E+01 +1.376504E+03 
 +5.878943E+02 -7.769899E+00 -2.600821E+01 -7.769899E+00 +5.894848E+02 +1.512814E-01 -2.600821E+01 +1.512814E-01 +1.333974E+03 
 +5.566186E+02 -5.361353E+00 +4.426690E+00 -5.361353E+00 +5.908397E+02 -9.592545E+00 +4.426690E+00 -9.592545E+00 +1.406403E+03 
 +5.151494E+02 +1.891989E+01 +1.235153E+01 +1.891989E+01 +6.000629E+02 +9.561456E-01 +1.235153E+01 +9.561456E-01 +1.277264E+03 
 +7.550525E+02 -3.056270E+01 +1.156443E+01 -3.056270E+01 +6.381617E+02 -3.064403E+01 +1.156443E+01 -3.064403E+01 +1.368343E+03 
 +6.510543E+02 -2.548169E+01 -7.627219E+00 -2.548169E+01 +6.477888E+02 +2.561085E+01 -7.627219E+00 +2.561085E+01 +1.383438E+03 
 +5.852258E+02 +4.063760E+01 -6.622072E+00 +4.063760E+01 +6.489527E+02 +5.409110E+00 -6.622072E+00 +5.409110E+00 +1.336377E+03 
 +6.132972E+02 +8.195079E+00 -4.787230E+00 +8.195079E+00 +6.384562E+02 -1.061315E+01 -4.787230E+00 -1.061315E+01 +1.333172E+03 
 +6.176479E+02 -2.329129E+01 -3.516058E+01 -2.329129E+01 +6.000889E+02 -2.723055E+01 -3.516058E+01 -2.723055E+01 +1.369040E+03 
 +5.998622E+02 -2.101633E+00 -1.782097E+01 -2.101633E+00 +5.847783E+02 +1.406491E+01 -1.782097E+01 +1.406491E+01 +1.346857E+03 
 +6.226301E+02 +3.102152E+01 -2.736718E+01 +3.102152E+01 +5.831757E+02 +4.092519E+01 -2.736718E+01 +4.092519E+01 +1.410482E+03 
 +6.115254E+02 +7.915520E-01 +7.015466E+00 +7.915520E-01 +6.211673E+02 +9.333804E-01 +7.015466E+00 +9.333804E-01 +1.332925E+03 
 +6.296957E+02 -2.436449E+01 -6.645863E+00 -2.436449E+01 +6.243865E+02 +7.311311E+00 -6.645863E+00 +7.311311E+00 +1.383728E+03 
 +6.702148E+02 -3.321333E+01 -7.344460E-01 -3.321333E+01 +6.596066E+02 -5.933884E+00 -7.344460E-01 -5.933884E+00 +1.352914E+03 
 +6.219911E+02 -3.222358E+00 -2.339875E+01 -3.222358E+00 +6.161208E+02 -6.532546E+00 -2.339875E+01 -6.532546E+00 +1.450073E+03 
 +5.829373E+02 +1.241617E+01 +1.553753E+01 +1.241617E+01 +5.935429E+02 +9.946706E+00 +1.553753E+01 +9.946706E+00 +1.335842E+03 
 +6.009964E+02 +1.556060E+01 +2.146625E+01 +1.556060E+01 +6.026649E+02 +6.125976E+00 +2.146625E+01 +6.125976E+00 +1.381092E+03 
 +6.160882E+02 +3.624048E+00 -9.797508E+00 +3.624048E+00 +5.806726E+02 +1.648256E+01 -9.797508E+00 +1.648256E+01 +1.350831E+03 
 +5.838110E+02 -7.377432E-01 -6.154793E+00 -7.377432E-01 +6.061721E+02 +1.473543E+00 -6.154793E+00 +1.473543E+00 +1.446657E+03 
 +6.653755E+02 +2.546986E+01 -1.270664E+01 +2.546986E+01 +6.346689E+02 -9.467155E+00 -1.270664E+01 -9.467155E+00 +1.305087E+03 
 +5.821888E+02 -6.667831E+01 +5.319989E-01 -6.667831E+01 +6.100995E+02 +2.173911E+00 +5.319989E-01 +2.173911E+00 +1.296819E+03 
 +6.177843E+02 -1.258474E+01 +6.031929E+00 -1.258474E+01 +6.358217E+02 -1.232380E+01 +6.031929E+00 -1.232380E+01 +1.355528E+03 
 +5.848371E+02 +1.794893E+01 -1.444925E+01 +1.794893E+01 +6.601805E+02 +9.311565E+00 -1.444925E+01 +9.311565E+00 +1.308129E+03 
 +7.236913E+02 -2.093942E+01 -7.347727E+00 -2.093942E+01 +6.319268E+02 +2.638640E+00 -7.347727E+00 +2.638640E+00 +1.379035E+03 
 +5.580477E+02 -1.409704E+01 -1.038416E+01 -1.409704E+01 +5.672428E+02 -1.423367E+01 -1.038416E+01 -1.423367E+01 +1.305310E+03 
 +5.923676E+02 +1.777981E+01 +1.039937E+01 +1.777981E+01 +6.312379E+02 -2.496826E+01 +1.039937E+01 -2.496826E+01 +1.310833E+03 
 +5.089174E+02 +3.801318E+01 +1.673069E+00 +3.801318E+01 +6.648744E+02 -8.051296E+00 +1.673069E+00 -8.051296E+00 +1.265152E+03 
 +6.026345E+02 -2.538289E+01 +6.430633E+00 -2.538289E+01 +5.829601E+02 +1.811755E+01 +6.430633E+00 +1.811755E+01 +1.407045E+03 
 +5.972310E+02 +1.557267E+01 +1.345005E+01 +1.557267E+01 +6.085170E+02 -1.273743E+01 +1.345005E+01 -1.273743E+01 +1.337796E+03 
 +7.572968E+02 +2.398322E+01 -1.330959E+01 +2.398322E+01 +6.682914E+02 +2.012410E+01 -1.330959E+01 +2.012410E+01 +1.419896E+03 
 +6.414476E+02 +1.658158E+01 +8.998265E+00 +1.658158E+01 +6.686389E+02 +2.592171E+01 +8.998265E+00 +2.592171E+01 +1.340370E+03 
 +6.143117E+02 +3.757089E+01 -1.208969E+01 +3.757089E+01 +5.772968E+02 +6.245944E+00 -1.208969E+01 +6.245944E+00 +1.397751E+03 
 +5.271168E+02 -7.033616E+00 +4.074540E+01 -7.033616E+00 +5.127739E+02 +4.233034E+01 +4.074540E+01 +4.233034E+01 +1.344410E+03 
 +5.627282E+02 -1.034036E+01 -2.348065E+01 -1.034036E+01 +5.771511E+02 +1.866936E+01 -2.348065E+01 +1.866936E+01 +1.348044E+03 
 +5.813813E+02 +3.011368E+01 -6.286602E+00 +3.011368E+01 +6.274433E+02 +1.171660E+01 -6.286602E+00 +1.171660E+01 +1.343158E+03 
 +6.590963E+02 +3.222086E+01 +1.734747E+01 +3.222086E+01 +5.891663E+02 +5.253375E-01 +1.734747E+01 +5.253375E-01 +1.324838E+03 
 +5.614906E+02 -1.804173E+01 +1.601623E+00 -1.804173E+01 +6.902147E+02 -5.854129E+00 +1.601623E+00 -5.854129E+00 +1.332817E+03 
 +6.511298E+02 +2.572555E+00 +1.126142E+01 +2.572555E+00 +6.305178E+02 +1.366665E+01 +1.126142E+01 +1.366665E+01 +1.411664E+03 
 +5.457457E+02 -8.746269E+00 +1.962326E+01 -8.746269E+00 +5.521476E+02 -7.132297E+00 +1.962326E+01 -7.132297E+00 +1.368030E+03 
 +6.221321E+02 -9.045897E+00 -5.315050E+00 -9.045897E+00 +6.153940E+02 +1.214247E+00 -5.315050E+00 +1.214247E+00 +1.441205E+03 
 +6.448513E+02 +7.339048E+00 +2.160269E+01 +7.339048E+00 +6.422463E+02 +2.078506E+01 +2.160269E+01 +2.078506E+01 +1.354288E+03 
 +6.385675E+02 +9.270922E+00 -1.152558E+01 +9.270922E+00 +6.393589E+02 -1.618395E+01 -1.152558E+01 -1.618395E+01 +1.360900E+03 
 +5.826041E+02 +1.572697E+01 -2.655721E+01 +1.572697E+01 +7.098151E+02 -3.938799E+00 -2.655721E+01 -3.938799E+00 +1.372903E+03 
 +5.951304E+02 -2.466924E+01 +1.463883E+01 -2.466924E+01 +6.598405E+02 +5.365859E+00 +1.463883E+01 +5.365859E+00 +1.331125E+03 
 +6.382311E+02 +2.394608E+01 -1.398774E+01 +2.394608E+01 +6.468773E+02 -1.932808E+00 -1.398774E+01 -1.932808E+00 +1.353284E+03 
 +5.720692E+02 +3.404623E+01 +6.829357E-01 +3.404623E+01 +7.131089E+02 -6.187438E+00 +6.829357E-01 -6.187438E+00 +1.330053E+03 
 +6.652883E+02 -5.190358E+01 -2.247402E+00 -5.190358E+01 +5.831930E+02 +1.715934E+01 -2.247402E+00 +1.715934E+01 +1.325887E+03 
 +7.024506E+02 -2.998997E+01 -1.327044E+01 -2.998997E+01 +5.594934E+02 +1.438446E+01 -1.327044E+01 +1.438446E+01 +1.313376E+03 
 +6.300251E+02 +1.782235E+01 -1.379326E+00 +1.782235E+01 +5.754844E+02 -3.894385E+00 -1.379326E+00 -3.894385E+00 +1.409450E+03 
 +6.566113E+02 +3.190725E+01 -1.139714E+01 +3.190725E+01 +5.838983E+02 -6.559778E+00 -1.139714E+01 -6.559778E+00 +1.370301E+03 
 +6.361337E+02 -1.709334E+01 +1.384996E+01 -1.709334E+01 +6.031786E+02 +4.205063E+00 +1.384996E+01 +4.205063E+00 +1.284309E+03 
 +6.428741E+02 -3.375866E+00 +1.954045E+01 -3.375866E+00 +6.314776E+02 +6.557273E+00 +1.954045E+01 +6.557273E+00 +1.406393E+03 
 +6.706652E+02 -2.989614E+01 +9.005711E+00 -2.989614E+01 +6.605035E+02 -2.055021E+00 +9.005711E+00 -2.055021E+00 +1.354053E+03 
 +6.888473E+02 +9.753882E+00 +1.373772E+01 +9.753882E+00 +7.093374E+02 -9.364270E+00 +1.373772E+01 -9.364270E+00 +1.429577E+03 
 +6.277037E+02 +4.737828E+01 +3.767266E+00 +4.737828E+01 +6.428443E+02 -1.576376E+01 +3.767266E+00 -1.576376E+01 +1.300162E+03 
 +5.408181E+02 -8.591215E+00 -1.080339E+01 -8.591215E+00 +5.705511E+02 -1.336160E+01 -1.080339E+01 -1.336160E+01 +1.351300E+03 
 +6.695887E+02 -4.568042E+01 +2.631962E+01 -4.568042E+01 +6.443784E+02 -7.078734E+00 +2.631962E+01 -7.078734E+00 +1.325949E+03 
 +5.980978E+02 +8.136287E+00 +1.268908E+01 +8.136287E+00 +5.855704E+02 -2.797691E+01 +1.268908E+01 -2.797691E+01 +1.344411E+03 
 +6.053658E+02 -3.474201E+01 +2.215935E+01 -3.474201E+01 +6.602708E+02 +4.668363E+00 +2.215935E+01 +4.668363E+00 +1.320388E+03 
 +5.950703E+02 +8.268356E+00 +1.899584E+01 +8.268356E+00 +5.891715E+02 -8.922631E+00 +1.899584E+01 -8.922631E+00 +1.489288E+03 
 +6.519221E+02 +4.183856E+01 -1.098006E+01 +4.183856E+01 +5.569717E+02 -3.328592E+00 -1.098006E+01 -3.328592E+00 +1.263811E+03 
 +5.658279E+02 -3.344567E-02 +1.115337E+01 -3.344567E-02 +5.869486E+02 +2.397259E+01 +1.115337E+01 +2.397259E+01 +1.380478E+03 
 +6.016609E+02 +2.377760E+00 -2.727715E+01 +2.377760E+00 +5.938334E+02 +7.161555E+00 -2.727715E+01 +7.161555E+00 +1.376825E+03 
 +5.799236E+02 -9.056529E+00 +1.746939E+01 -9.056529E+00 +5.467745E+02 -5.959973E+00 +1.746939E+01 -5.959973E+00 +1.421253E+03 
 +6.307261E+02 -3.131098E+01 -9.639244E+00 -3.131098E+01 +5.994164E+02 -1.360309E+01 -9.639244E+00 -1.360309E+01 +1.316275E+03 
 +5.842734E+02 -3.667057E+01 -1.197331E+01 -3.667057E+01 +6.157933E+02 -2.274405E+01 -1.197331E+01 -2.274405E+01 +1.371681E+03 
 +6.422011E+02 -3.133686E+01 +6.477176E+00 -3.133686E+01 +5.757401E+02 -2.014247E+01 +6.477176E+00 -2.014247E+01 +1.281779E+03 
 +5.671415E+02 +2.669560E+01 -6.093870E+00 +2.669560E+01 +6.298331E+02 -6.239722E+00 -6.093870E+00 -6.239722E+00 +1.259898E+03 
 +6.162733E+02 -1.021656E+01 -2.542487E+01 -1.021656E+01 +6.588573E+02 -6.419904E+00 -2.542487E+01 -6.419904E+00 +1.300425E+03 
 +5.628781E+02 -1.098489E+01 +6.166028E+00 -1.098489E+01 +5.923647E+02 +1.140741E+01 +6.166028E+00 +1.140741E+01 +1.337138E+03 
 +5.787074E+02 +9.261386E+00 -1.285802E+01 +9.261386E+00 +5.908259E+02 +3.181899E+01 -1.285802E+01 +3.181899E+01 +1.394250E+03 
 +5.537327E+02 +7.260554E+00 -2.344731E+01 +7.260554E+00 +5.691186E+02 +1.372168E+01 -2.344731E+01 +1.372168E+01 +1.292462E+03 
 +5.755154E+02 -1.718088E+01 -1.116485E+01 -1.718088E+01 +5.526698E+02 -3.294495E+01 -1.116485E+01 -3.294495E+01 +1.329252E+03 
 +6.377211E+02 -1.057282E+01 -1.333500E+01 -1.057282E+01 +6.418500E+02 -3.170406E+01 -1.333500E+01 -3.170406E+01 +1.379133E+03 
 +5.947011E+02 +2.416817E+01 -6.333255E+00 +2.416817E+01 +5.776508E+02 +3.195408E+01 -6.333255E+00 +3.195408E+01 +1.381590E+03 
 +5.170556E+02 -1.122649E+01 -7.121191E+00 -1.122649E+01 +5.290845E+02 +1.085668E+01 -7.121191E+00 +1.085668E+01 +1.389748E+03 
 +6.416755E+02 -5.841828E+01 -1.776160E+01 -5.841828E+01 +6.369662E+02 +6.951237E+00 -1.776160E+01 +6.951237E+00 +1.322878E+03 
 +6.660410E+02 +7.922838E+00 -2.490721E+01 +7.922838E+00 +6.750514E+02 +3.337447E+01 -2.490721E+01 +3.337447E+01 +1.474015E+03 
 +6.129909E+02 +4.236617E+01 -3.844768E+00 +4.236617E+01 +5.803179E+02 -6.319005E+00 -3.844768E+00 -6.319005E+00 +1.293898E+03 
 +5.771382E+02 +1.244963E+01 -2.534192E+01 +1.244963E+01 +5.439225E+02 -3.266343E+01 -2.534192E+01 -3.266343E+01 +1.350930E+03 
 +5.833956E+02 -1.761699E+00 +3.677648E+00 -1.761699E+00 +6.037098E+02 -1.304715E+00 +3.677648E+00 -1.304715E+00 +1.373592E+03 
 +6.013822E+02 -8.964285E-01 +2.541434E+00 -8.964285E-01 +5.282859E+02 +5.216235E+00 +2.541434E+00 +5.216235E+00 +1.275786E+03 
 +5.900229E+02 +1.600714E+01 +2.061988E+01 +1.600714E+01 +5.887277E+02 -3.952510E+01 +2.061988E+01 -3.952510E+01 +1.409061E+03 
 +6.148455E+02 +3.789688E+01 +1.298823E+01 +3.789688E+01 +5.474239E+02 -8.261553E-01 +1.298823E+01 -8.261553E-01 +1.284394E+03 
 +6.069057E+02 -8.618830E+00 +1.657754E+01 -8.618830E+00 +6.226221E+02 +7.064776E+00 +1.657754E+01 +7.064776E+00 +1.427736E+03 
 +6.364348E+02 -5.793146E+00 -2.545514E+01 -5.793146E+00 +6.719484E+02 -3.174631E+01 -2.545514E+01 -3.174631E+01 +1.373897E+03 
 +5.751614E+02 +5.009273E+01 -7.154075E+00 +5.009273E+01 +6.540132E+02 +8.417530E+00 -7.154075E+00 +8.417530E+00 +1.289944E+03 
 +6.390336E+02 +1.677021E+01 -6.501265E+00 +1.677021E+01 +6.434196E+02 +1.984060E+01 -6.501265E+00 +1.984060E+01 +1.400305E+03 
 +5.551475E+02 +1.633972E+01 -4.929348E+00 +1.633972E+01 +6.046597E+02 -1.920062E+01 -4.929348E+00 -1.920062E+01 +1.275566E+03 
 +6.493213E+02 -3.593920E+00 -5.332027E+00 -3.593920E+00 +5.869315E+02 -1.253089E+01 -5.332027E+00 -1.253089E+01 +1.299829E+03 
 +4.828900E+02 -9.396334E+00 -3.244535E+01 -9.396334E+00 +6.318882E+02 +2.640114E+00 -3.244535E+01 +2.640114E+00 +1.284743E+03 
 +6.338781E+02 +2.057522E+01 +1.814910E+01 +2.057522E+01 +6.365949E+02 +6.365968E+00 +1.814910E+01 +6.365968E+00 +1.444079E+03 
 +5.833170E+02 +9.325121E+00 +1.851274E+01 +9.325121E+00 +6.712357E+02 +1.843894E+01 +1.851274E+01 +1.843894E+01 +1.324181E+03 
 +5.941874E+02 +3.273600E+01 +1.678525E+01 +3.273600E+01 +6.586630E+02 +2.273103E+00 +1.678525E+01 +2.273103E+00 +1.377226E+03 
 +5.700453E+02 -4.157754E+01 -5.014068E+00 -4.157754E+01 +6.245726E+02 -1.501728E+01 -5.014068E+00 -1.501728E+01 +1.317591E+03 
 +6.578531E+02 +3.717608E+01 +8.737753E+00 +3.717608E+01 +6.315108E+02 +2.041416E+00 +8.737753E+00 +2.041416E+00 +1.325089E+03 
 +7.051498E+02 +3.048366E+01 +2.741310E+01 +3.048366E+01 +6.241075E+02 -1.339629E+00 +2.741310E+01 -1.339629E+00 +1.360571E+03 
 +5.871006E+02 +2.907600E+00 -2.540383E+01 +2.907600E+00 +5.475493E+02 -1.473739E+01 -2.540383E+01 -1.473739E+01 +1.339414E+03 
 +5.377704E+02 -6.193738E+00 -6.497738E+00 -6.193738E+00 +5.855819E+02 +2.115246E+01 -6.497738E+00 +2.115246E+01 +1.416822E+03 
 +6.610748E+02 -9.222074E+00 -1.825595E+00 -9.222074E+00 +5.955657E+02 +2.642134E+01 -1.825595E+00 +2.642134E+01 +1.347554E+03 
 +5.899513E+02 +1.824521E+00 -2.933109E+01 +1.824521E+00 +6.235001E+02 -2.848881E+01 -2.933109E+01 -2.848881E+01 +1.317422E+03 
 +6.183814E+02 +2.156749E+01 -2.566297E+00 +2.156749E+01 +6.267156E+02 -2.662956E+01 -2.566297E+00 -2.662956E+01 +1.374062E+03 
 +6.312518E+02 +8.078180E+00 +7.249527E+00 +8.078180E+00 +7.234429E+02 -4.314148E+01 +7.249527E+00 -4.314148E+01 +1.355839E+03 
 +6.577594E+02 -3.333129E+01 -9.301300E-02 -3.333129E+01 +7.291913E+02 -6.158973E+00 -9.301300E-02 -6.158973E+00 +1.382458E+03 
 +6.433971E+02 +6.214949E+00 +1.817841E+00 +6.214949E+00 +6.071595E+02 -2.267746E+00 +1.817841E+00 -2.267746E+00 +1.381175E+03 
 +5.876126E+02 -1.231826E+01 -4.514384E-01 -1.231826E+01 +6.123423E+02 -3.534954E+01 -4.514384E-01 -3.534954E+01 +1.332614E+03 
 +5.841061E+02 +1.893925E+01 -5.004665E+00 +1.893925E+01 +6.859522E+02 -3.265543E+00 -5.004665E+00 -3.265543E+00 +1.345883E+03 
 +6.197786E+02 +3.873680E+01 -8.315884E-01 +3.873680E+01 +6.721069E+02 +2.701169E+00 -8.315884E-01 +2.701169E+00 +1.331672E+03 
 +5.901782E+02 +4.348888E+01 +9.409420E+00 +4.348888E+01 +6.813283E+02 -3.737564E+00 +9.409420E+00 -3.737564E+00 +1.289658E+03 
 +5.658557E+02 -3.197099E+01 -1.570801E+01 -3.197099E+01 +6.812036E+02 +7.424747E+00 -1.570801E+01 +7.424747E+00 +1.311124E+03 
 +6.901365E+02 +1.190544E+00 -1.208729E+01 +1.190544E+00 +5.920688E+02 +1.306611E+01 -1.208729E+01 +1.306611E+01 +1.322607E+03 
 +6.052022E+02 -4.427504E+01 -2.647286E+01 -4.427504E+01 +6.065183E+02 -2.119622E+01 -2.647286E+01 -2.119622E+01 +1.326832E+03 
 +6.697872E+02 -3.989978E+01 -2.142972E+00 -3.989978E+01 +5.479236E+02 -1.260046E+00 -2.142972E+00 -1.260046E+00 +1.293515E+03 
 +5.866111E+02 +2.426209E+01 +1.585123E+01 +2.426209E+01 +5.653375E+02 +1.560995E+01 +1.585123E+01 +1.560995E+01 +1.415437E+03 
 +6.387203E+02 +1.289111E+01 -2.707489E+01 +1.289111E+01 +5.894039E+02 +2.262341E+01 -2.707489E+01 +2.262341E+01 +1.282158E+03 
 +7.132175E+02 +8.196956E+00 +4.338811E+00 +8.196956E+00 +6.335427E+02 +3.019951E+01 +4.338811E+00 +3.019951E+01 +1.383833E+03 
 +6.778223E+02 -4.368027E+01 +7.816548E+00 -4.368027E+01 +6.373979E+02 -9.965014E+00 +7.816548E+00 -9.965014E+00 +1.387578E+03 
 +5.765424E+02 -9.972681E+00 +7.985719E+00 -9.972681E+00 +5.941562E+02 -4.944161E+00 +7.985719E+00 -4.944161E+00 +1.387173E+03 
 +6.545723E+02 +3.200673E+01 +7.157271E+00 +3.200673E+01 +6.836882E+02 +6.880345E+00 +7.157271E+00 +6.880345E+00 +1.351409E+03 
 +5.802976E+02 -4.026917E+01 +1.051146E+01 -4.026917E+01 +6.245158E+02 +1.857618E+01 +1.051146E+01 +1.857618E+01 +1.279785E+03 
 +5.800772E+02 -4.554476E+00 -1.649180E+01 -4.554476E+00 +6.406420E+02 -5.516569E+00 -1.649180E+01 -5.516569E+00 +1.393501E+03 
 +5.699604E+02 -2.071125E+01 -1.297566E+01 -2.071125E+01 +6.599826E+02 -9.042839E+00 -1.297566E+01 -9.042839E+00 +1.314069E+03 
 +5.282082E+02 -8.658832E+00 +1.147846E+01 -8.658832E+00 +6.454758E+02 -5.548003E+00 +1.147846E+01 -5.548003E+00 +1.253804E+03 
 +6.398591E+02 +1.561244E+01 -5.335586E+00 +1.561244E+01 +6.978926E+02 +1.476549E+01 -5.335586E+00 +1.476549E+01 +1.384347E+03 
 +5.570554E+02 +2.038742E+01 -2.539952E+01 +2.038742E+01 +6.573326E+02 -7.153385E+00 -2.539952E+01 -7.153385E+00 +1.342180E+03 
 +5.454437E+02 -1.922960E+01 +3.163646E+00 -1.922960E+01 +5.534454E+02 -2.256719E+01 +3.163646E+00 -2.256719E+01 +1.334051E+03 
 +5.472016E+02 -1.509156E+00 -7.419664E+00 -1.509156E+00 +5.489373E+02 -1.210711E+01 -7.419664E+00 -1.210711E+01 +1.384110E+03 
 +6.533971E+02 +1.425153E+01 -4.118148E+00 +1.425153E+01 +5.517611E+02 +1.012416E+01 -4.118148E+00 +1.012416E+01 +1.314710E+03 
 +6.569168E+02 -1.067469E+01 +7.497819E+00 -1.067469E+01 +5.828604E+02 -2.308387E+00 +7.497819E+00 -2.308387E+00 +1.310515E+03 
 +6.734683E+02 -3.919336E+01 -1.632715E+00 -3.919336E+01 +5.830927E+02 -7.904565E+00 -1.632715E+00 -7.904565E+00 +1.330489E+03 
 +6.034236E+02 +2.513802E+01 -2.899177E+00 +2.513802E+01 +5.723937E+02 +3.902612E+01 -2.899177E+00 +3.902612E+01 +1.376916E+03 
 +6.665762E+02 +2.919930E+00 +4.799428E+00 +2.919930E+00 +6.116469E+02 -1.598230E+01 +4.799428E+00 -1.598230E+01 +1.283097E+03 
 +5.763840E+02 -1.008709E+01 -8.778049E+00 -1.008709E+01 +6.328668E+02 +6.654235E+00 -8.778049E+00 +6.654235E+00 +1.281948E+03 
 +6.257050E+02 +1.230005E-01 +7.097870E+00 +1.230005E-01 +7.013210E+02 +1.887271E+01 +7.097870E+00 +1.887271E+01 +1.314459E+03 
 +6.212439E+02 -1.578912E+01 +2.243122E+01 -1.578912E+01 +6.280104E+02 +2.206013E+00 +2.243122E+01 +2.206013E+00 +1.412560E+03 
 +5.897276E+02 -2.850637E+01 -4.294614E+01 -2.850637E+01 +5.288553E+02 +3.091420E+01 -4.294614E+01 +3.091420E+01 +1.270942E+03 
 +5.708452E+02 +2.370824E+01 -9.155568E+00 +2.370824E+01 +5.772275E+02 +1.632496E+01 -9.155568E+00 +1.632496E+01 +1.366810E+03 
 +6.100862E+02 -1.842952E+00 -1.664330E+01 -1.842952E+00 +6.176042E+02 +1.336560E+01 -1.664330E+01 +1.336560E+01 +1.403279E+03 
 +5.968389E+02 -3.827743E+01 -2.737724E+01 -3.827743E+01 +6.679876E+02 -1.528438E+01 -2.737724E+01 -1.528438E+01 +1.310952E+03 
 +6.193769E+02 -1.735263E+01 +8.531038E+00 -1.735263E+01 +6.159018E+02 -5.305410E+00 +8.531038E+00 -5.305410E+00 +1.405492E+03 
 +6.497907E+02 -1.391460E+01 -1.660106E+01 -1.391460E+01 +6.362678E+02 -1.552724E+01 -1.660106E+01 -1.552724E+01 +1.338093E+03 
 +6.649271E+02 -1.135487E+01 -5.693267E+00 -1.135487E+01 +6.920633E+02 +2.446523E-01 -5.693267E+00 +2.446523E-01 +1.395931E+03 
 +6.281047E+02 -1.411122E+01 +3.012118E+00 -1.411122E+01 +6.711210E+02 -4.347361E+00 +3.012118E+00 -4.347361E+00 +1.317965E+03 
 +6.282372E+02 -9.967094E+00 +2.464960E+00 -9.967094E+00 +6.749184E+02 -1.991085E+00 +2.464960E+00 -1.991085E+00 +1.310273E+03 
 +5.957676E+02 +1.790799E+00 -9.261553E+00 +1.790799E+00 +5.740369E+02 +3.064012E+00 -9.261553E+00 +3.064012E+00 +1.385393E+03 
 +5.924636E+02 +2.977029E+01 +1.162122E+01 +2.977029E+01 +5.406667E+02 -8.679592E-01 +1.162122E+01 -8.679592E-01 +1.365824E+03 
 +7.356524E+02 -2.352406E+00 +1.517702E+00 -2.352406E+00 +5.991793E+02 +1.864916E-01 +1.517702E+00 +1.864916E-01 +1.364331E+03 
 +6.353325E+02 +1.208867E+01 -1.728049E+00 +1.208867E+01 +6.422258E+02 +1.313548E+01 -1.728049E+00 +1.313548E+01 +1.328380E+03 
 +5.902711E+02 -2.122488E+01 -1.258262E+01 -2.122488E+01 +6.196355E+02 -1.865253E+00 -1.258262E+01 -1.865253E+00 +1.328965E+03 
 +5.889308E+02 +1.054809E+01 +1.609973E+01 +1.054809E+01 +5.815977E+02 -2.485359E+01 +1.609973E+01 -2.485359E+01 +1.325807E+03 
 +6.896961E+02 +1.080447E+01 -6.830763E+00 +1.080447E+01 +5.348614E+02 +7.611541E+00 -6.830763E+00 +7.611541E+00 +1.301363E+03 
 +5.102458E+02 -1.688605E+01 -1.259736E+01 -1.688605E+01 +5.553831E+02 +1.265750E+01 -1.259736E+01 +1.265750E+01 +1.381741E+03 
 +6.446970E+02 +7.017425E-01 +1.167717E+00 +7.017425E-01 +6.212488E+02 -1.775218E+00 +1.167717E+00 -1.775218E+00 +1.314790E+03 
 +5.882176E+02 -1.995099E+01 -3.086498E+01 -1.995099E+01 +6.028996E+02 -2.173130E+01 -3.086498E+01 -2.173130E+01 +1.256180E+03 
 +6.420172E+02 +7.074250E+00 +8.745424E+00 +7.074250E+00 +6.551570E+02 -3.988391E+00 +8.745424E+00 -3.988391E+00 +1.384268E+03 
 +6.193239E+02 +1.565157E+01 -9.913943E+00 +1.565157E+01 +6.959895E+02 +1.667711E+01 -9.913943E+00 +1.667711E+01 +1.340818E+03 
 +5.550684E+02 +1.211410E+01 +5.469924E+00 +1.211410E+01 +6.850752E+02 +1.335666E+01 +5.469924E+00 +1.335666E+01 +1.326451E+03 
 +6.364694E+02 -3.990086E+01 +6.354308E+00 -3.990086E+01 +6.488459E+02 -3.792736E+01 +6.354308E+00 -3.792736E+01 +1.375776E+03 
 +5.709424E+02 -3.795600E+01 +6.884763E-01 -3.795600E+01 +6.524374E+02 +3.300300E+00 +6.884763E-01 +3.300300E+00 +1.338008E+03 
 +6.377265E+02 -2.154949E+01 -2.452920E+01 -2.154949E+01 +5.973848E+02 +3.495152E-02 -2.452920E+01 +3.495152E-02 +1.299956E+03 
 +6.371859E+02 +4.170607E+00 -8.528102E+00 +4.170607E+00 +5.974187E+02 -3.114096E+01 -8.528102E+00 -3.114096E+01 +1.372413E+03 
 +5.194091E+02 +9.581860E+00 -2.453111E+01 +9.581860E+00 +5.436143E+02 +2.163705E+00 -2.453111E+01 +2.163705E+00 +1.384480E+03 
 +5.569143E+02 +8.890128E+00 +5.545474E-01 +8.890128E+00 +5.438591E+02 +4.222137E+00 +5.545474E-01 +4.222137E+00 +1.342647E+03 
 +6.187498E+02 +1.248959E+01 +1.191717E+01 +1.248959E+01 +5.516199E+02 +1.303170E+01 +1.191717E+01 +1.303170E+01 +1.296743E+03 
 +5.961453E+02 +1.464793E+00 +1.409349E+01 +1.464793E+00 +5.884821E+02 -1.946293E+01 +1.409349E+01 -1.946293E+01 +1.274156E+03 
 +6.623722E+02 -1.025521E+01 -6.118176E+00 -1.025521E+01 +6.104249E+02 +3.598865E+00 -6.118176E+00 +3.598865E+00 +1.390770E+03 
 +6.280152E+02 -5.635975E+01 +1.675159E+01 -5.635975E+01 +6.303056E+02 +6.740194E+00 +1.675159E+01 +6.740194E+00 +1.332890E+03 
 +6.294549E+02 -4.405993E+01 +1.186756E+01 -4.405993E+01 +6.168239E+02 -1.152806E+01 +1.186756E+01 -1.152806E+01 +1.329727E+03 
 +6.185125E+02 -3.209809E+01 -2.689251E+00 -3.209809E+01 +6.413019E+02 -2.135114E+01 -2.689251E+00 -2.135114E+01 +1.317589E+03 
 +5.962615E+02 +1.418436E+01 +4.259869E+00 +1.418436E+01 +5.899310E+02 -4.564083E+00 +4.259869E+00 -4.564083E+00 +1.393858E+03 
 +5.729397E+02 -2.284159E+01 -1.004270E+01 -2.284159E+01 +5.840175E+02 +1.281690E+01 -1.004270E+01 +1.281690E+01 +1.389648E+03 
 +5.897028E+02 -2.639888E+01 +1.444209E+01 -2.639888E+01 +6.857426E+02 -1.460587E+00 +1.444209E+01 -1.460587E+00 +1.331946E+03 
 +6.518782E+02 -1.406516E+01 -2.099636E+01 -1.406516E+01 +6.451636E+02 +3.076640E+00 -2.099636E+01 +3.076640E+00 +1.395878E+03 
 +5.931953E+02 +2.292838E+01 -1.714378E+00 +2.292838E+01 +5.998003E+02 +2.767907E+01 -1.714378E+00 +2.767907E+01 +1.339688E+03 
 +5.776934E+02 +4.459015E+01 -2.602202E+00 +4.459015E+01 +6.139634E+02 +1.937245E+01 -2.602202E+00 +1.937245E+01 +1.301232E+03 
 +7.015443E+02 +4.416483E+00 +1.162390E+01 +4.416483E+00 +5.791956E+02 -1.516846E+00 +1.162390E+01 -1.516846E+00 +1.330366E+03 
 +5.816545E+02 -1.904073E+01 +2.928405E+00 -1.904073E+01 +5.536525E+02 -8.094595E+00 +2.928405E+00 -8.094595E+00 +1.371675E+03 
 +5.925491E+02 +5.756495E+00 -5.776750E+00 +5.756495E+00 +6.325672E+02 -3.450417E+01 -5.776750E+00 -3.450417E+01 +1.338517E+03 
 +6.049548E+02 +6.083143E+00 +2.212276E+01 +6.083143E+00 +6.631938E+02 -3.620487E+01 +2.212276E+01 -3.620487E+01 +1.400664E+03 
 +5.976628E+02 +5.421177E+01 -1.298947E+01 +5.421177E+01 +6.355603E+02 -9.891741E+00 -1.298947E+01 -9.891741E+00 +1.311560E+03 
 +6.204836E+02 +1.026956E+01 +5.453146E+00 +1.026956E+01 +6.682168E+02 +1.279735E+01 +5.453146E+00 +1.279735E+01 +1.357846E+03 
 +6.646779E+02 -1.495427E+01 -2.898247E+01 -1.495427E+01 +6.134377E+02 -1.554807E+01 -2.898247E+01 -1.554807E+01 +1.337662E+03 
 +6.689013E+02 +3.934584E+01 +1.654551E+01 +3.934584E+01 +6.016010E+02 +1.004682E+01 +1.654551E+01 +1.004682E+01 +1.346366E+03 
 +6.664149E+02 +5.907279E+00 +5.504346E+00 +5.907279E+00 +6.053361E+02 +2.185672E+01 +5.504346E+00 +2.185672E+01 +1.340007E+03 
 +5.561244E+02 -1.778071E+01 +1.396754E+01 -1.778071E+01 +6.389066E+02 -1.991966E+00 +1.396754E+01 -1.991966E+00 +1.320693E+03 
 +6.446669E+02 -9.569989E+00 -1.214470E+00 -9.569989E+00 +6.115358E+02 +6.642778E-01 -1.214470E+00 +6.642778E-01 +1.284628E+03 
 +5.932059E+02 -2.428503E+01 -2.664254E+01 -2.428503E+01 +6.058800E+02 -1.683591E+01 -2.664254E+01 -1.683591E+01 +1.310536E+03 
 +5.864503E+02 +2.867299E+01 -1.835916E+01 +2.867299E+01 +5.775379E+02 +2.421196E+01 -1.835916E+01 +2.421196E+01 +1.336477E+03 
 +5.691605E+02 +1.938334E+01 +1.525769E+01 +1.938334E+01 +5.648021E+02 +5.645136E+00 +1.525769E+01 +5.645136E+00 +1.406962E+03 
 +5.834018E+02 -3.027943E+00 -2.454218E+00 -3.027943E+00 +5.035889E+02 -2.851406E+01 -2.454218E+00 -2.851406E+01 +1.279101E+03 
 +6.912705E+02 +2.865111E+01 -1.544389E+00 +2.865111E+01 +5.711589E+02 -4.956835E+00 -1.544389E+00 -4.956835E+00 +1.347371E+03 
 +6.210986E+02 +6.072410E+01 -5.485229E+00 +6.072410E+01 +5.968187E+02 -1.419369E+00 -5.485229E+00 -1.419369E+00 +1.332597E+03 
 +5.754839E+02 +3.692261E+00 -4.381433E+00 +3.692261E+00 +5.700245E+02 +8.823176E+00 -4.381433E+00 +8.823176E+00 +1.337860E+03 
 +5.843591E+02 -7.973948E+00 +3.466373E+01 -7.973948E+00 +5.711348E+02 +9.800073E+00 +3.466373E+01 +9.800073E+00 +1.372768E+03 
 +6.037654E+02 -1.176912E+01 -1.147414E+01 -1.176912E+01 +5.829642E+02 +2.351543E+01 -1.147414E+01 +2.351543E+01 +1.288050E+03 
 +5.682394E+02 +3.787453E-01 +1.757723E+01 +3.787453E-01 +6.125575E+02 -1.131959E+01 +1.757723E+01 -1.131959E+01 +1.412545E+03 
 +5.513295E+02 -4.165846E+01 +3.936211E+00 -4.165846E+01 +6.300604E+02 -5.901494E+00 +3.936211E+00 -5.901494E+00 +1.275231E+03 
 +6.274528E+02 -1.122728E+00 -7.500497E-01 -1.122728E+00 +6.036037E+02 +3.067889E+01 -7.500497E-01 +3.067889E+01 +1.416286E+03 
 +5.868731E+02 -1.710203E+00 -4.608234E+00 -1.710203E+00 +5.758575E+02 -2.498862E+01 -4.608234E+00 -2.498862E+01 +1.364993E+03 
 +5.714474E+02 +1.499516E+01 -3.213634E+01 +1.499516E+01 +5.729169E+02 -1.324732E+01 -3.213634E+01 -1.324732E+01 +1.345441E+03 
 +5.674176E+02 -8.984411E+00 -2.844987E+01 -8.984411E+00 +5.802853E+02 -1.493242E+01 -2.844987E+01 -1.493242E+01 +1.311686E+03 
 +5.763208E+02 +6.458976E+00 +1.698721E+01 +6.458976E+00 +5.692153E+02 +9.567173E+00 +1.698721E+01 +9.567173E+00 +1.324229E+03 
 +5.370225E+02 +1.161367E+01 -1.915081E+01 +1.161367E+01 +5.718752E+02 +8.565627E+00 -1.915081E+01 +8.565627E+00 +1.355109E+03 
 +5.914782E+02 +1.185757E+00 -2.615069E+01 +1.185757E+00 +5.452089E+02 -8.390364E+00 -2.615069E+01 -8.390364E+00 +1.358608E+03 
 +5.638116E+02 -2.765146E+00 +1.177509E+01 -2.765146E+00 +5.787202E+02 +2.495025E+01 +1.177509E+01 +2.495025E+01 +1.417630E+03 
 +5.779423E+02 +2.189588E+01 -2.940052E+00 +2.189588E+01 +5.698071E+02 +1.461745E+00 -2.940052E+00 +1.461745E+00 +1.314642E+03 
 +6.504175E+02 -2.492051E+01 -5.975554E+00 -2.492051E+01 +6.427438E+02 -6.775391E+00 -5.975554E+00 -6.775391E+00 +1.321926E+03 
 +5.919514E+02 +2.567593E+01 +2.947525E+01 +2.567593E+01 +6.537620E+02 +1.342330E+01 +2.947525E+01 +1.342330E+01 +1.336953E+03 
 +6.149170E+02 +5.223948E+00 +1.356268E+01 +5.223948E+00 +5.620104E+02 +1.045976E+01 +1.356268E+01 +1.045976E+01 +1.373498E+03 
 +5.635263E+02 +1.363347E+01 -3.970059E+00 +1.363347E+01 +5.500690E+02 +2.623834E+01 -3.970059E+00 +2.623834E+01 +1.454892E+03 
 +6.096771E+02 +1.247196E+01 -1.805368E+01 +1.247196E+01 +5.567746E+02 +9.219999E+00 -1.805368E+01 +9.219999E+00 +1.272045E+03 
 +6.692202E+02 -8.430811E+00 -4.271433E+00 -8.430811E+00 +5.774106E+02 -1.491524E+01 -4.271433E+00 -1.491524E+01 +1.281386E+03 
 +5.241738E+02 -1.143911E+00 -1.425742E+01 -1.143911E+00 +6.001522E+02 -5.206222E+00 -1.425742E+01 -5.206222E+00 +1.349059E+03 
 +6.297815E+02 +7.718635E+00 +4.013272E+01 +7.718635E+00 +6.043790E+02 +1.225031E+01 +4.013272E+01 +1.225031E+01 +1.300429E+03 
 +6.455688E+02 -2.580282E+01 +8.162933E+00 -2.580282E+01 +6.349503E+02 +2.242414E+01 +8.162933E+00 +2.242414E+01 +1.436272E+03 
 +5.629796E+02 -1.040469E+01 -2.358950E+01 -1.040469E+01 +6.164868E+02 -1.128683E+01 -2.358950E+01 -1.128683E+01 +1.263627E+03 
 +6.219698E+02 +2.478385E+01 +2.098007E+01 +2.478385E+01 +6.268413E+02 -4.989229E+00 +2.098007E+01 -4.989229E+00 +1.477657E+03 
 +7.328039E+02 +3.494216E+01 -4.357278E+00 +3.494216E+01 +5.447958E+02 +1.255114E+01 -4.357278E+00 +1.255114E+01 +1.300062E+03 
 +5.860834E+02 +1.191911E+01 -2.420299E-02 +1.191911E+01 +5.873850E+02 -9.054181E+00 -2.420299E-02 -9.054181E+00 +1.396472E+03 
 +6.018666E+02 +9.213726E+00 -2.382559E+01 +9.213726E+00 +6.344368E+02 -7.895033E+00 -2.382559E+01 -7.895033E+00 +1.439429E+03 
 +6.129315E+02 -3.002903E+01 +2.983793E+00 -3.002903E+01 +6.401444E+02 -1.344401E+01 +2.983793E+00 -1.344401E+01 +1.334084E+03 
 +6.417014E+02 -3.420745E+01 +3.742008E+00 -3.420745E+01 +6.140026E+02 +8.320854E+00 +3.742008E+00 +8.320854E+00 +1.291095E+03 
 +6.189218E+02 -3.950171E+01 +8.647964E+00 -3.950171E+01 +5.910790E+02 +9.026004E+00 +8.647964E+00 +9.026004E+00 +1.315900E+03 
 +7.410641E+02 +1.734952E+01 -7.981484E+00 +1.734952E+01 +5.784870E+02 +1.823642E+00 -7.981484E+00 +1.823642E+00 +1.354585E+03 
 +5.991249E+02 +1.609136E+01 +3.324497E+00 +1.609136E+01 +5.986478E+02 -1.925700E+01 +3.324497E+00 -1.925700E+01 +1.365742E+03 
 +6.012575E+02 -8.831225E+00 +8.311700E+00 -8.831225E+00 +5.618901E+02 +1.849223E+01 +8.311700E+00 +1.849223E+01 +1.330242E+03 
 +5.263802E+02 -1.202893E+01 +2.860291E+01 -1.202893E+01 +5.471917E+02 +1.348997E+01 +2.860291E+01 +1.348997E+01 +1.358907E+03 
 +6.779100E+02 -4.259583E+01 -7.574838E+00 -4.259583E+01 +5.822689E+02 -2.162836E+01 -7.574838E+00 -2.162836E+01 +1.275972E+03 
 +5.639440E+02 -2.775725E+01 -3.937762E+00 -2.775725E+01 +5.698902E+02 -1.615229E+01 -3.937762E+00 -1.615229E+01 +1.382427E+03 
 +6.499411E+02 +7.333877E-01 +2.246649E+01 +7.333877E-01 +5.558312E+02 +9.055586E+00 +2.246649E+01 +9.055586E+00 +1.358161E+03 
 +6.441564E+02 +1.721600E+01 -1.320189E+01 +1.721600E+01 +5.886801E+02 +1.025072E+00 -1.320189E+01 +1.025072E+00 +1.360169E+03 
 +5.711624E+02 +1.363489E+01 +3.028867E+00 +1.363489E+01 +6.228394E+02 +4.881073E+00 +3.028867E+00 +4.881073E+00 +1.312605E+03 
 +6.718348E+02 -4.805738E+01 -1.465384E+01 -4.805738E+01 +6.167200E+02 +5.206972E+00 -1.465384E+01 +5.206972E+00 +1.323905E+03 
 +6.035762E+02 -1.097303E+01 +2.230775E+00 -1.097303E+01 +6.180125E+02 +5.809827E+00 +2.230775E+00 +5.809827E+00 +1.401118E+03 
 +6.677645E+02 +1.126020E+01 +1.298527E+01 +1.126020E+01 +6.863654E+02 -1.385150E+01 +1.298527E+01 -1.385150E+01 +1.371417E+03 
 +5.923380E+02 -1.534354E+01 -1.489439E+01 -1.534354E+01 +6.041396E+02 -1.558815E+01 -1.489439E+01 -1.558815E+01 +1.387478E+03 
 +5.913260E+02 +5.977343E+00 +1.500488E+01 +5.977343E+00 +6.233715E+02 -3.664078E+00 +1.500488E+01 -3.664078E+00 +1.301125E+03 
 +6.237147E+02 -1.714768E+01 +2.038175E+00 -1.714768E+01 +5.876458E+02 +9.356272E+00 +2.038175E+00 +9.356272E+00 +1.384032E+03 
 +5.268011E+02 -2.720981E+01 +1.336934E+01 -2.720981E+01 +6.780845E+02 +9.623514E+00 +1.336934E+01 +9.623514E+00 +1.282464E+03 
 +6.465125E+02 -3.169072E+01 +3.230423E+00 -3.169072E+01 +6.642456E+02 -2.309068E+01 +3.230423E+00 -2.309068E+01 +1.351380E+03 
 +5.832086E+02 -1.000328E+01 +1.753600E+00 -1.000328E+01 +5.929684E+02 +1.456396E+01 +1.753600E+00 +1.456396E+01 +1.471864E+03 
 +5.955266E+02 +1.239598E+01 +3.011614E+00 +1.239598E+01 +6.015541E+02 +1.036239E+01 +3.011614E+00 +1.036239E+01 +1.364200E+03 
 +6.551819E+02 -1.312163E+01 +2.292029E+01 -1.312163E+01 +6.200034E+02 -2.290365E+00 +2.292029E+01 -2.290365E+00 +1.289252E+03 
 +5.688245E+02 -2.395866E+00 -1.932786E+01 -2.395866E+00 +5.748457E+02 -7.743386E+00 -1.932786E+01 -7.743386E+00 +1.373720E+03 
 +6.634762E+02 -1.893235E+01 -1.735343E+01 -1.893235E+01 +5.804623E+02 -1.588518E+00 -1.735343E+01 -1.588518E+00 +1.318218E+03 
 +5.987808E+02 +9.769213E+00 +3.142875E+01 +9.769213E+00 +6.063058E+02 -1.213686E+01 +3.142875E+01 -1.213686E+01 +1.381335E+03 
 +5.285956E+02 -1.311707E+01 -4.991835E+00 -1.311707E+01 +6.408520E+02 +7.536099E+00 -4.991835E+00 +7.536099E+00 +1.280408E+03 
 +6.260993E+02 -7.861291E+00 -1.348604E+01 -7.861291E+00 +6.418526E+02 +2.756127E+01 -1.348604E+01 +2.756127E+01 +1.482315E+03 
 +5.620129E+02 +1.231076E+01 -7.481088E+00 +1.231076E+01 +6.606334E+02 -6.365875E+00 -7.481088E+00 -6.365875E+00 +1.283480E+03 
 +6.203956E+02 +6.424971E+00 -2.486896E+01 +6.424971E+00 +6.135565E+02 -2.055173E+01 -2.486896E+01 -2.055173E+01 +1.355796E+03 
 +6.202927E+02 +9.200046E+00 -4.365263E+00 +9.200046E+00 +5.694912E+02 +4.662575E+00 -4.365263E+00 +4.662575E+00 +1.452852E+03 
 +5.728542E+02 -3.790144E+01 -2.074789E+00 -3.790144E+01 +5.838365E+02 +1.802576E+01 -2.074789E+00 +1.802576E+01 +1.315831E+03 
 +5.814986E+02 -2.258047E+01 +8.117852E+00 -2.258047E+01 +5.813454E+02 -7.877618E+00 +8.117852E+00 -7.877618E+00 +1.262253E+03 
 +5.443261E+02 +1.536415E+01 +3.356010E+00 +1.536415E+01 +5.723682E+02 -9.461401E+00 +3.356010E+00 -9.461401E+00 +1.373775E+03 
 +5.662859E+02 -9.036224E+00 -1.785128E+00 -9.036224E+00 +6.304420E+02 -1.379354E+00 -1.785128E+00 -1.379354E+00 +1.264467E+03 
 +5.989448E+02 -3.583663E+00 +1.136219E+01 -3.583663E+00 +6.059458E+02 +1.585695E+01 +1.136219E+01 +1.585695E+01 +1.409538E+03 
 +5.986968E+02 -4.034528E+01 +2.089459E+00 -4.034528E+01 +5.558223E+02 -1.489220E+00 +2.089459E+00 -1.489220E+00 +1.277330E+03 
 +6.751854E+02 +6.269407E+00 +1.193530E+01 +6.269407E+00 +5.809875E+02 -1.083460E+01 +1.193530E+01 -1.083460E+01 +1.330167E+03 
 +6.251522E+02 +4.129991E+01 -3.134820E-01 +4.129991E+01 +6.210816E+02 -4.384353E+00 -3.134820E-01 -4.384353E+00 +1.320030E+03 
 +5.959255E+02 +3.612522E+01 +1.193689E+01 +3.612522E+01 +6.039225E+02 +6.205933E+00 +1.193689E+01 +6.205933E+00 +1.327035E+03 
 +7.081361E+02 +2.973909E+00 +9.453494E-02 +2.973909E+00 +6.244241E+02 +1.317204E+01 +9.453494E-02 +1.317204E+01 +1.346778E+03 
 +5.822059E+02 -1.266959E+01 +2.357438E+01 -1.266959E+01 +6.474420E+02 +2.374298E+01 +2.357438E+01 +2.374298E+01 +1.343307E+03 
 +6.029010E+02 +1.366296E+01 -1.802457E+01 +1.366296E+01 +6.336186E+02 -5.755727E+00 -1.802457E+01 -5.755727E+00 +1.443594E+03 
 +6.645242E+02 +3.172341E+01 +5.924969E+00 +3.172341E+01 +5.967815E+02 -2.072216E+01 +5.924969E+00 -2.072216E+01 +1.392354E+03 
 +6.232053E+02 +5.153977E+00 -1.711151E+01 +5.153977E+00 +5.946637E+02 -2.131740E+01 -1.711151E+01 -2.131740E+01 +1.388629E+03 
 +5.699418E+02 -2.874051E+00 -1.808948E+01 -2.874051E+00 +6.155097E+02 +1.578600E+00 -1.808948E+01 +1.578600E+00 +1.304107E+03 
 +7.357411E+02 +3.338973E+00 +1.090977E+01 +3.338973E+00 +5.988036E+02 +2.408357E+01 +1.090977E+01 +2.408357E+01 +1.384875E+03 
 +6.799578E+02 -6.326539E+00 -1.167201E+01 -6.326539E+00 +5.273571E+02 +2.859070E+00 -1.167201E+01 +2.859070E+00 +1.334313E+03 
 +5.511822E+02 +5.034235E+00 +1.443702E+01 +5.034235E+00 +5.587361E+02 +9.270439E+00 +1.443702E+01 +9.270439E+00 +1.437460E+03 
 +6.457593E+02 +8.927232E-01 -1.847373E+01 +8.927232E-01 +5.954485E+02 +2.641290E+01 -1.847373E+01 +2.641290E+01 +1.336979E+03 
 +6.112045E+02 +4.671529E+01 -6.664618E+00 +4.671529E+01 +6.742581E+02 -1.487817E+01 -6.664618E+00 -1.487817E+01 +1.325860E+03 
 +5.940542E+02 +5.872394E+00 +6.285806E+00 +5.872394E+00 +6.321943E+02 +4.010371E+01 +6.285806E+00 +4.010371E+01 +1.339799E+03 
 +5.941012E+02 -1.141163E+00 +2.233568E+01 -1.141163E+00 +6.371971E+02 -1.422731E+00 +2.233568E+01 -1.422731E+00 +1.322686E+03 
 +6.861263E+02 +2.290779E+01 -1.590719E+01 +2.290779E+01 +5.823008E+02 -9.954851E+00 -1.590719E+01 -9.954851E+00 +1.290268E+03 
 +6.422195E+02 -2.090993E+01 -1.130233E+01 -2.090993E+01 +5.860327E+02 -6.037292E+00 -1.130233E+01 -6.037292E+00 +1.348989E+03 
 +6.038563E+02 +3.937051E+01 -1.382447E+01 +3.937051E+01 +5.657086E+02 +8.446213E-02 -1.382447E+01 +8.446213E-02 +1.268327E+03 
 +6.752434E+02 +4.982896E+00 +2.114333E+01 +4.982896E+00 +5.844142E+02 +1.444232E+01 +2.114333E+01 +1.444232E+01 +1.342292E+03 
 +6.420649E+02 -1.200693E+01 +1.449773E+01 -1.200693E+01 +5.752827E+02 +1.749264E+01 +1.449773E+01 +1.749264E+01 +1.342603E+03 
 +5.750741E+02 -3.248239E+00 -3.030864E+01 -3.248239E+00 +5.787421E+02 -5.837832E+00 -3.030864E+01 -5.837832E+00 +1.341521E+03 
 +6.121315E+02 -6.235981E+00 +1.757760E+01 -6.235981E+00 +5.870974E+02 +1.823098E+01 +1.757760E+01 +1.823098E+01 +1.332276E+03 
 +5.551217E+02 -1.116413E+01 -1.669197E+01 -1.116413E+01 +6.148560E+02 +3.699651E+01 -1.669197E+01 +3.699651E+01 +1.379326E+03 
 +5.962089E+02 +3.817863E+01 -9.308970E+00 +3.817863E+01 +6.029124E+02 +2.362486E+01 -9.308970E+00 +2.362486E+01 +1.352675E+03 
 +5.677274E+02 -2.096573E+00 -4.427710E+00 -2.096573E+00 +5.634028E+02 -2.781985E+00 -4.427710E+00 -2.781985E+00 +1.373931E+03 
 +6.397891E+02 -8.894509E+00 +1.673491E+01 -8.894509E+00 +6.324611E+02 +8.500805E+00 +1.673491E+01 +8.500805E+00 +1.354129E+03 
 +6.018295E+02 +2.914406E+00 -1.540602E+01 +2.914406E+00 +6.052939E+02 +1.697330E+01 -1.540602E+01 +1.697330E+01 +1.446990E+03 
 +5.928074E+02 +4.391634E+01 +4.747368E+00 +4.391634E+01 +6.235308E+02 -1.138317E+01 +4.747368E+00 -1.138317E+01 +1.278368E+03 
 +5.535511E+02 -1.486155E+01 -1.439292E+01 -1.486155E+01 +6.794905E+02 +3.977469E+00 -1.439292E+01 +3.977469E+00 +1.333187E+03 
 +5.924745E+02 -1.854651E+00 +1.442794E+01 -1.854651E+00 +5.964971E+02 +9.544312E+00 +1.442794E+01 +9.544312E+00 +1.367295E+03 
 +5.583795E+02 +2.138822E+00 +1.344940E-01 +2.138822E+00 +6.806489E+02 +3.524258E+00 +1.344940E-01 +3.524258E+00 +1.296035E+03 
 +6.055149E+02 +1.481633E+01 -4.391862E+00 +1.481633E+01 +6.367343E+02 +2.291641E+00 -4.391862E+00 +2.291641E+00 +1.392024E+03 
 +6.435967E+02 +1.794736E+01 -9.356267E+00 +1.794736E+01 +5.971224E+02 -1.093534E+01 -9.356267E+00 -1.093534E+01 +1.379451E+03 
 +6.251624E+02 -5.334724E+01 +9.555192E+00 -5.334724E+01 +6.028635E+02 +3.678511E+00 +9.555192E+00 +3.678511E+00 +1.290560E+03 
 +6.461650E+02 -3.102660E+01 +6.840698E+00 -3.102660E+01 +5.768466E+02 -1.063057E+01 +6.840698E+00 -1.063057E+01 +1.311771E+03 
 +5.900430E+02 +1.302348E+01 +5.204583E+00 +1.302348E+01 +5.960180E+02 -1.568288E+01 +5.204583E+00 -1.568288E+01 +1.360474E+03 
 +5.748358E+02 -7.379802E+00 -6.215204E+00 -7.379802E+00 +5.702873E+02 -1.138428E+01 -6.215204E+00 -1.138428E+01 +1.334574E+03 
 +5.661934E+02 +2.611396E+01 -7.513745E+00 +2.611396E+01 +5.552596E+02 -8.614882E+00 -7.513745E+00 -8.614882E+00 +1.428141E+03 
 +5.240638E+02 +2.543215E+01 +1.747555E+01 +2.543215E+01 +5.739364E+02 -6.325843E+00 +1.747555E+01 -6.325843E+00 +1.248562E+03 
 +6.416373E+02 +9.475247E+00 -1.130223E+01 +9.475247E+00 +5.794034E+02 +1.919136E+01 -1.130223E+01 +1.919136E+01 +1.306295E+03 
 +6.271718E+02 -1.705292E+01 -3.286700E+01 -1.705292E+01 +6.230377E+02 -6.509382E+00 -3.286700E+01 -6.509382E+00 +1.356401E+03 
 +6.800898E+02 -3.815729E+01 -8.378437E+00 -3.815729E+01 +6.331943E+02 +1.551896E+01 -8.378437E+00 +1.551896E+01 +1.342662E+03 
 +5.872031E+02 -2.455695E+01 -7.152818E+00 -2.455695E+01 +5.976801E+02 +1.853337E+01 -7.152818E+00 +1.853337E+01 +1.342819E+03 
 +6.615176E+02 +1.368960E+01 +5.119149E+00 +1.368960E+01 +5.881486E+02 +5.007030E+00 +5.119149E+00 +5.007030E+00 +1.294487E+03 
 +5.955019E+02 -9.979198E+00 -1.536981E+01 -9.979198E+00 +6.063120E+02 -1.744981E+01 -1.536981E+01 -1.744981E+01 +1.428833E+03 
 +5.707274E+02 +4.875991E+00 +1.277610E+01 +4.875991E+00 +7.240782E+02 -2.597471E+01 +1.277610E+01 -2.597471E+01 +1.344575E+03 
 +6.696959E+02 +2.569773E+01 +3.106124E+01 +2.569773E+01 +7.419763E+02 -3.066931E+01 +3.106124E+01 -3.066931E+01 +1.367217E+03 
 +6.416354E+02 +4.215680E+01 -1.019457E+01 +4.215680E+01 +6.736392E+02 -1.770937E+01 -1.019457E+01 -1.770937E+01 +1.385922E+03 
 +7.017181E+02 +1.086275E+01 +1.994841E+01 +1.086275E+01 +6.083062E+02 +1.801538E+00 +1.994841E+01 +1.801538E+00 +1.346781E+03 
 +5.903054E+02 -1.257515E+01 +1.228263E+01 -1.257515E+01 +5.795552E+02 -1.901009E+01 +1.228263E+01 -1.901009E+01 +1.382657E+03 
 +6.447714E+02 -1.807497E+01 -2.985117E+01 -1.807497E+01 +6.510836E+02 +1.135783E+01 -2.985117E+01 +1.135783E+01 +1.355608E+03 
 +6.371379E+02 +1.053879E+01 -6.768400E+00 +1.053879E+01 +6.632038E+02 +1.852112E+01 -6.768400E+00 +1.852112E+01 +1.297440E+03 
 +6.022803E+02 -2.242092E+01 -1.683227E+01 -2.242092E+01 +6.303448E+02 -6.420610E-01 -1.683227E+01 -6.420610E-01 +1.447976E+03 
 +6.259318E+02 -6.434142E+00 +1.428826E+01 -6.434142E+00 +5.980656E+02 -6.963482E+00 +1.428826E+01 -6.963482E+00 +1.323440E+03 
 +5.832783E+02 +1.493786E+01 +6.733270E+00 +1.493786E+01 +6.099863E+02 -9.854030E+00 +6.733270E+00 -9.854030E+00 +1.330219E+03 
 +6.221113E+02 +9.926564E+00 -4.235964E+01 +9.926564E+00 +6.146672E+02 +2.297060E+01 -4.235964E+01 +2.297060E+01 +1.373249E+03 
 +7.041273E+02 -1.198933E+01 -8.749102E-01 -1.198933E+01 +7.117003E+02 +1.456717E+01 -8.749102E-01 +1.456717E+01 +1.364253E+03 
 +6.335888E+02 +3.507603E+01 +2.699848E+01 +3.507603E+01 +6.971909E+02 -1.423841E+01 +2.699848E+01 -1.423841E+01 +1.350522E+03 
 +6.154966E+02 -1.738389E+01 +2.242649E+01 -1.738389E+01 +6.221714E+02 -2.058215E+01 +2.242649E+01 -2.058215E+01 +1.434456E+03 
 +6.234064E+02 -5.679471E+01 +2.337016E+01 -5.679471E+01 +5.725923E+02 +1.048294E+01 +2.337016E+01 +1.048294E+01 +1.299177E+03 
 +5.669193E+02 -1.972528E+01 -1.999103E+01 -1.972528E+01 +5.937210E+02 +2.985885E+00 -1.999103E+01 +2.985885E+00 +1.312702E+03 
 +6.077471E+02 -2.939557E+01 -2.073209E+00 -2.939557E+01 +6.452944E+02 -3.120152E+01 -2.073209E+00 -3.120152E+01 +1.402411E+03 
 +5.806353E+02 -1.644216E+01 -1.954068E+01 -1.644216E+01 +6.372834E+02 +2.576571E+00 -1.954068E+01 +2.576571E+00 +1.278410E+03 
 +5.459797E+02 +1.104663E+01 +2.001147E+01 +1.104663E+01 +6.235532E+02 +2.285415E+01 +2.001147E+01 +2.285415E+01 +1.329828E+03 
 +5.712085E+02 -2.052435E+01 -1.257317E+01 -2.052435E+01 +6.322413E+02 +4.438460E+00 -1.257317E+01 +4.438460E+00 +1.325075E+03 
 +6.520472E+02 -4.067019E+00 +1.191377E+01 -4.067019E+00 +5.981963E+02 -2.036086E+01 +1.191377E+01 -2.036086E+01 +1.439983E+03 
 +6.256464E+02 -5.246795E+00 +5.378899E+00 -5.246795E+00 +5.637423E+02 -1.175258E+01 +5.378899E+00 -1.175258E+01 +1.338837E+03 
 +6.462976E+02 +1.726486E+01 -9.629662E+00 +1.726486E+01 +5.660743E+02 +2.182161E+00 -9.629662E+00 +2.182161E+00 +1.366742E+03 
 +6.211281E+02 +2.762377E+00 +3.391063E+01 +2.762377E+00 +6.066840E+02 -1.027655E+01 +3.391063E+01 -1.027655E+01 +1.343121E+03 
 +5.638726E+02 -4.205040E+00 +2.243786E+01 -4.205040E+00 +6.084417E+02 -7.006824E+00 +2.243786E+01 -7.006824E+00 +1.405991E+03 
 +5.699083E+02 -1.327281E+01 +3.065406E+01 -1.327281E+01 +5.890176E+02 +4.767175E+00 +3.065406E+01 +4.767175E+00 +1.421130E+03 
 +6.309795E+02 -2.382433E+01 -1.037854E+01 -2.382433E+01 +5.822095E+02 -4.684462E+00 -1.037854E+01 -4.684462E+00 +1.308540E+03 
 +6.003917E+02 -1.774453E+01 +2.860419E+01 -1.774453E+01 +6.227061E+02 +1.939968E+00 +2.860419E+01 +1.939968E+00 +1.404575E+03 
 +6.718841E+02 -2.811857E+01 +5.880370E+00 -2.811857E+01 +6.200154E+02 -9.708227E+00 +5.880370E+00 -9.708227E+00 +1.370077E+03 
 +5.851226E+02 +2.149163E+01 +1.071751E+01 +2.149163E+01 +6.812266E+02 -9.972865E+00 +1.071751E+01 -9.972865E+00 +1.341958E+03 
 +6.969990E+02 +4.671101E+00 -2.234911E+01 +4.671101E+00 +6.199628E+02 -7.577401E+00 -2.234911E+01 -7.577401E+00 +1.343776E+03 
 +5.851830E+02 -2.635936E+01 +1.552600E+01 -2.635936E+01 +5.585653E+02 +4.775396E+00 +1.552600E+01 +4.775396E+00 +1.341366E+03 
 +5.258047E+02 -3.344686E+00 +2.147175E-01 -3.344686E+00 +5.510265E+02 -1.363515E+01 +2.147175E-01 -1.363515E+01 +1.333444E+03 
 +5.734722E+02 -7.971590E+00 +1.205534E+01 -7.971590E+00 +5.907726E+02 -2.014508E+00 +1.205534E+01 -2.014508E+00 +1.393918E+03 
 +6.859338E+02 +2.510438E+01 +2.944822E-01 +2.510438E+01 +5.667763E+02 +2.351742E+01 +2.944822E-01 +2.351742E+01 +1.354801E+03 
 +6.413378E+02 +1.413349E+01 +1.494787E+01 +1.413349E+01 +5.462422E+02 +2.555535E+01 +1.494787E+01 +2.555535E+01 +1.302629E+03 
 +5.713823E+02 +1.334778E+00 -1.321124E+01 +1.334778E+00 +5.559476E+02 -2.074119E+01 -1.321124E+01 -2.074119E+01 +1.371021E+03 
 +6.888116E+02 +5.596626E+01 +1.712730E+01 +5.596626E+01 +6.290457E+02 +9.815777E+00 +1.712730E+01 +9.815777E+00 +1.353879E+03 
 +6.325897E+02 +5.518614E+01 +3.841929E+00 +5.518614E+01 +6.798063E+02 +5.502081E+00 +3.841929E+00 +5.502081E+00 +1.286134E+03 
 +5.918917E+02 +4.622941E-01 +2.250671E+01 +4.622941E-01 +5.767554E+02 -1.084663E+01 +2.250671E+01 -1.084663E+01 +1.366483E+03 
 +5.739774E+02 +1.913815E+01 -1.102959E+01 +1.913815E+01 +5.887360E+02 -4.643579E+00 -1.102959E+01 -4.643579E+00 +1.386243E+03 
 +5.802430E+02 -4.183853E+01 -6.732475E-01 -4.183853E+01 +6.753525E+02 -1.011352E+01 -6.732475E-01 -1.011352E+01 +1.370186E+03 
 +6.007228E+02 +2.801823E+01 +1.874444E+00 +2.801823E+01 +6.875785E+02 -9.191288E-01 +1.874444E+00 -9.191288E-01 +1.323950E+03 
 +6.131906E+02 +2.258521E+01 +4.997153E+00 +2.258521E+01 +6.017483E+02 +2.901088E+01 +4.997153E+00 +2.901088E+01 +1.346609E+03 
 +5.596589E+02 -9.967887E+00 -4.074244E+00 -9.967887E+00 +5.764788E+02 +2.077366E+01 -4.074244E+00 +2.077366E+01 +1.381823E+03 
 +7.292772E+02 -2.131897E+01 -8.782393E+00 -2.131897E+01 +6.144648E+02 -1.242088E+01 -8.782393E+00 -1.242088E+01 +1.376040E+03 
 +6.101629E+02 -9.925935E-01 -1.913192E+01 -9.925935E-01 +5.774987E+02 +1.815685E+01 -1.913192E+01 +1.815685E+01 +1.445309E+03 
 +5.547414E+02 +1.194814E+01 +1.318768E+01 +1.194814E+01 +5.736042E+02 -5.111093E+00 +1.318768E+01 -5.111093E+00 +1.388409E+03 
 +6.348089E+02 +3.273065E+01 -1.092204E+01 +3.273065E+01 +6.152789E+02 -5.421906E+00 -1.092204E+01 -5.421906E+00 +1.315281E+03 
 +5.924496E+02 +2.660781E+01 -8.379903E-01 +2.660781E+01 +6.092630E+02 -6.246336E+00 -8.379903E-01 -6.246336E+00 +1.442336E+03 
 +6.044451E+02 -8.240037E+00 -1.876450E+01 -8.240037E+00 +5.493527E+02 +6.181182E+00 -1.876450E+01 +6.181182E+00 +1.331047E+03 
 +5.724166E+02 -2.480331E+00 -5.732394E+00 -2.480331E+00 +5.582578E+02 +8.522485E+00 -5.732394E+00 +8.522485E+00 +1.369714E+03 
 +5.590335E+02 -3.292828E+00 +1.874267E+01 -3.292828E+00 +6.143251E+02 -2.409453E+01 +1.874267E+01 -2.409453E+01 +1.301745E+03 
 +6.883199E+02 -1.264396E+01 +5.368589E+00 -1.264396E+01 +6.402169E+02 -9.959411E+00 +5.368589E+00 -9.959411E+00 +1.334495E+03 
 +5.842697E+02 +1.172787E+01 -1.818250E+01 +1.172787E+01 +5.956230E+02 +3.032225E+00 -1.818250E+01 +3.032225E+00 +1.385347E+03 
 +6.203264E+02 -2.298754E+01 +5.126399E+00 -2.298754E+01 +5.986224E+02 +2.592128E+01 +5.126399E+00 +2.592128E+01 +1.254963E+03 
 +5.243535E+02 -4.669966E+01 -7.055832E+00 -4.669966E+01 +6.465168E+02 +1.019531E+01 -7.055832E+00 +1.019531E+01 +1.325923E+03 
 +6.647723E+02 +2.108140E+01 -1.598328E+00 +2.108140E+01 +5.946052E+02 -4.269279E+00 -1.598328E+00 -4.269279E+00 +1.325086E+03 
 +5.811826E+02 -2.562920E+00 -5.122284E+00 -2.562920E+00 +5.778376E+02 -9.729169E+00 -5.122284E+00 -9.729169E+00 +1.359333E+03 
 +6.743533E+02 -8.400786E+00 +9.259314E+00 -8.400786E+00 +6.540278E+02 -2.280009E+01 +9.259314E+00 -2.280009E+01 +1.349947E+03 
 +6.012502E+02 -2.038697E+01 +1.281241E+01 -2.038697E+01 +6.446091E+02 -4.154041E+00 +1.281241E+01 -4.154041E+00 +1.395794E+03 
 +6.678580E+02 -5.797110E+01 +1.520116E+01 -5.797110E+01 +6.240977E+02 -2.556395E+00 +1.520116E+01 -2.556395E+00 +1.349980E+03 
 +5.834804E+02 -2.239351E+01 -1.376124E+01 -2.239351E+01 +5.851911E+02 +3.642919E+00 -1.376124E+01 +3.642919E+00 +1.403748E+03 
 +7.146962E+02 +2.102330E+01 -7.172603E+00 +2.102330E+01 +5.687856E+02 +2.260437E+00 -7.172603E+00 +2.260437E+00 +1.316244E+03 
 +6.656047E+02 +1.703561E+01 +9.267723E+00 +1.703561E+01 +6.384650E+02 +2.041543E+01 +9.267723E+00 +2.041543E+01 +1.371071E+03 
 +5.948068E+02 -5.394274E+00 +8.220965E+00 -5.394274E+00 +5.879425E+02 +2.193739E+01 +8.220965E+00 +2.193739E+01 +1.424583E+03 
 +5.946746E+02 +4.854438E+01 -1.145852E+01 +4.854438E+01 +6.174683E+02 +2.082473E+01 -1.145852E+01 +2.082473E+01 +1.337774E+03 
 +6.310180E+02 -2.053038E+01 -1.588080E-01 -2.053038E+01 +6.450114E+02 -8.800860E-01 -1.588080E-01 -8.800860E-01 +1.460617E+03 
 +6.469528E+02 +2.728555E+01 -5.707175E+00 +2.728555E+01 +5.898521E+02 +3.657370E+01 -5.707175E+00 +3.657370E+01 +1.338479E+03 
 +6.525674E+02 +5.278301E+01 +6.646811E+00 +5.278301E+01 +6.138426E+02 +1.093479E+01 +6.646811E+00 +1.093479E+01 +1.333065E+03 
 +5.823400E+02 +4.087441E+00 +6.185099E+00 +4.087441E+00 +5.741894E+02 +1.932781E+01 +6.185099E+00 +1.932781E+01 +1.432818E+03 
 +7.277782E+02 +5.131312E+01 -7.013658E-01 +5.131312E+01 +6.302426E+02 +2.462666E+01 -7.013658E-01 +2.462666E+01 +1.323866E+03 
 +5.675321E+02 -4.125424E+00 -1.453435E+01 -4.125424E+00 +6.542569E+02 +2.994055E+00 -1.453435E+01 +2.994055E+00 +1.296908E+03 
 +6.821134E+02 -3.536910E+01 +6.061098E+00 -3.536910E+01 +6.293412E+02 +2.122593E+00 +6.061098E+00 +2.122593E+00 +1.341270E+03 
 +6.025843E+02 -3.072366E+01 -1.937892E+01 -3.072366E+01 +6.077208E+02 +2.850293E+01 -1.937892E+01 +2.850293E+01 +1.375978E+03 
 +5.413368E+02 -3.436924E+01 +6.105330E+00 -3.436924E+01 +6.344495E+02 -1.529452E+00 +6.105330E+00 -1.529452E+00 +1.306682E+03 
 +6.458788E+02 +1.793331E+01 +2.118333E+01 +1.793331E+01 +5.822804E+02 -2.345172E+00 +2.118333E+01 -2.345172E+00 +1.287698E+03 
 +5.518822E+02 +1.659157E+01 -1.214909E+01 +1.659157E+01 +5.541892E+02 -5.095388E+00 -1.214909E+01 -5.095388E+00 +1.360448E+03 
 +6.440746E+02 +7.676077E+00 -2.121240E+01 +7.676077E+00 +5.918817E+02 +1.700872E+01 -2.121240E+01 +1.700872E+01 +1.310304E+03 
 +5.845635E+02 -1.991008E+00 -5.631649E+00 -1.991008E+00 +5.557761E+02 -1.482357E+01 -5.631649E+00 -1.482357E+01 +1.385595E+03 
 +6.321138E+02 -1.466054E+01 -4.501664E+01 -1.466054E+01 +5.828201E+02 -1.846364E+01 -4.501664E+01 -1.846364E+01 +1.413307E+03 
 +5.388511E+02 +1.740601E+01 +3.694248E+01 +1.740601E+01 +5.290144E+02 +9.689678E-01 +3.694248E+01 +9.689678E-01 +1.338240E+03 
 +5.896886E+02 +4.914845E+00 +1.023118E+01 +4.914845E+00 +5.584396E+02 +3.706947E+01 +1.023118E+01 +3.706947E+01 +1.371567E+03 
 +5.968054E+02 +3.755890E+00 -2.200131E+01 +3.755890E+00 +5.951642E+02 +1.694089E+01 -2.200131E+01 +1.694089E+01 +1.348893E+03 
 +5.652554E+02 +1.698880E+00 +9.370600E+00 +1.698880E+00 +5.946642E+02 -8.005342E+00 +9.370600E+00 -8.005342E+00 +1.369890E+03 
 +5.884471E+02 +5.013791E+01 -1.964782E+01 +5.013791E+01 +5.991806E+02 -1.248618E+01 -1.964782E+01 -1.248618E+01 +1.307338E+03 
 +5.363378E+02 -8.870515E+00 +2.044678E+01 -8.870515E+00 +5.698449E+02 +1.056041E+01 +2.044678E+01 +1.056041E+01 +1.446355E+03 
 +7.067195E+02 -4.123895E+01 -1.470628E+01 -4.123895E+01 +5.934666E+02 +3.897440E+00 -1.470628E+01 +3.897440E+00 +1.333539E+03 
 +5.803099E+02 +8.378581E-01 +1.195829E+01 +8.378581E-01 +5.781779E+02 +2.601759E+01 +1.195829E+01 +2.601759E+01 +1.422785E+03 
 +6.888798E+02 -4.631475E+00 -4.189672E-01 -4.631475E+00 +5.727074E+02 +1.403932E+01 -4.189672E-01 +1.403932E+01 +1.334151E+03 
 +5.221918E+02 -1.309868E+01 -5.014700E-01 -1.309868E+01 +5.238143E+02 -1.376230E+01 -5.014700E-01 -1.376230E+01 +1.318579E+03 
 +5.597377E+02 +8.884351E+00 -2.112035E+01 +8.884351E+00 +5.795059E+02 -9.398547E+00 -2.112035E+01 -9.398547E+00 +1.398241E+03 
 +5.930331E+02 +1.056650E+01 -4.242096E+00 +1.056650E+01 +6.336360E+02 +7.923512E+00 -4.242096E+00 +7.923512E+00 +1.333447E+03 
 +6.453712E+02 +8.796348E+00 -7.946302E+00 +8.796348E+00 +6.298961E+02 -1.422823E+01 -7.946302E+00 -1.422823E+01 +1.357657E+03 
 +5.544818E+02 -1.527056E+01 +2.268748E+01 -1.527056E+01 +6.475030E+02 -2.991080E+00 +2.268748E+01 -2.991080E+00 +1.295494E+03 
 +5.996576E+02 +4.767714E+01 -9.321444E+00 +4.767714E+01 +6.832993E+02 +6.135327E-01 -9.321444E+00 +6.135327E-01 +1.363464E+03 
 +5.871843E+02 +9.575511E+00 -3.639704E+00 +9.575511E+00 +6.639579E+02 -2.939563E+00 -3.639704E+00 -2.939563E+00 +1.305938E+03 
 +5.896702E+02 +1.193556E+01 +4.543248E+00 +1.193556E+01 +6.163505E+02 -1.961726E+01 +4.543248E+00 -1.961726E+01 +1.404966E+03 
 +6.933101E+02 +5.777467E+01 -3.217505E+00 +5.777467E+01 +6.340306E+02 -1.229916E+00 -3.217505E+00 -1.229916E+00 +1.281327E+03 
 +6.150742E+02 +3.546442E+01 -1.164533E+00 +3.546442E+01 +6.437176E+02 +1.109657E+01 -1.164533E+00 +1.109657E+01 +1.347640E+03 
 +6.853507E+02 -2.600614E+01 +2.083632E+01 -2.600614E+01 +6.842388E+02 -1.638517E+01 +2.083632E+01 -1.638517E+01 +1.366554E+03 
 +6.441959E+02 +2.329719E+01 -8.990794E+00 +2.329719E+01 +6.258107E+02 +3.053812E+00 -8.990794E+00 +3.053812E+00 +1.434563E+03 
 +6.122493E+02 -1.575592E+01 +1.586164E+01 -1.575592E+01 +6.617438E+02 -6.109534E+00 +1.586164E+01 -6.109534E+00 +1.289293E+03 
 +6.141583E+02 -4.636960E+00 -1.893814E+01 -4.636960E+00 +6.726169E+02 +3.423547E+00 -1.893814E+01 +3.423547E+00 +1.330452E+03 
 +5.634915E+02 -3.040452E+01 +7.254498E+00 -3.040452E+01 +6.891169E+02 -5.337727E+00 +7.254498E+00 -5.337727E+00 +1.320494E+03 
 +6.343102E+02 -4.912348E+01 -5.271188E+00 -4.912348E+01 +6.951475E+02 -2.062754E+01 -5.271188E+00 -2.062754E+01 +1.341316E+03 
 +6.421347E+02 +1.958012E-01 +5.039163E+00 +1.958012E-01 +6.303969E+02 +3.189530E+00 +5.039163E+00 +3.189530E+00 +1.302956E+03 
 +6.512135E+02 -4.354129E+00 +4.859551E+01 -4.354129E+00 +6.178485E+02 -3.739949E+01 +4.859551E+01 -3.739949E+01 +1.404643E+03 
 +5.883466E+02 +1.403503E+01 +2.867012E+01 +1.403503E+01 +5.680111E+02 -2.206545E+01 +2.867012E+01 -2.206545E+01 +1.368295E+03 
 +7.062874E+02 -4.214814E+01 +6.178803E+00 -4.214814E+01 +5.906177E+02 +8.227070E-01 +6.178803E+00 +8.227070E-01 +1.349477E+03 
 +5.729841E+02 +1.865982E+00 -2.043827E+01 +1.865982E+00 +6.266760E+02 -1.308914E+00 -2.043827E+01 -1.308914E+00 +1.394876E+03 
 +5.491490E+02 -5.531923E+00 -1.110932E+01 -5.531923E+00 +6.335206E+02 -1.026699E+01 -1.110932E+01 -1.026699E+01 +1.256043E+03 
 +7.102050E+02 -3.973971E+01 +2.581023E+01 -3.973971E+01 +6.199247E+02 -1.266355E+00 +2.581023E+01 -1.266355E+00 +1.354291E+03 
 +6.321505E+02 +7.216438E+00 -3.584105E+01 +7.216438E+00 +6.333002E+02 +3.592451E+00 -3.584105E+01 +3.592451E+00 +1.377297E+03 
 +6.086868E+02 +8.389204E-01 +7.760940E+00 +8.389204E-01 +5.773211E+02 -1.979481E+01 +7.760940E+00 -1.979481E+01 +1.385960E+03 
 +6.024305E+02 +4.125410E+01 +1.207980E+01 +4.125410E+01 +6.132134E+02 -8.800622E+00 +1.207980E+01 -8.800622E+00 +1.281277E+03 
 +6.251962E+02 +1.169597E+01 -1.446043E+01 +1.169597E+01 +5.592114E+02 -1.766309E+00 -1.446043E+01 -1.766309E+00 +1.340791E+03 
 +7.001996E+02 -1.002666E+01 +8.875808E+00 -1.002666E+01 +5.512558E+02 +1.825590E+01 +8.875808E+00 +1.825590E+01 +1.367118E+03 
 +5.784021E+02 -2.227751E+00 -8.781807E+00 -2.227751E+00 +5.718822E+02 -2.505477E+00 -8.781807E+00 -2.505477E+00 +1.397037E+03 
 +6.264337E+02 -1.732575E+01 -8.608992E+00 -1.732575E+01 +5.943320E+02 -1.254556E+01 -8.608992E+00 -1.254556E+01 +1.246637E+03 
 +5.433915E+02 -2.751337E+01 +4.732169E+01 -2.751337E+01 +5.645006E+02 -2.755500E+01 +4.732169E+01 -2.755500E+01 +1.350130E+03 
 +5.803923E+02 -5.820807E+00 -1.968693E+01 -5.820807E+00 +5.568951E+02 -1.281552E+01 -1.968693E+01 -1.281552E+01 +1.360326E+03 
 +6.588326E+02 -3.802325E+01 +1.078099E+01 -3.802325E+01 +5.962502E+02 +1.104434E+01 +1.078099E+01 +1.104434E+01 +1.322337E+03 
 +5.428004E+02 +1.317277E+01 -1.804998E+01 +1.317277E+01 +5.485786E+02 -2.036717E+00 -1.804998E+01 -2.036717E+00 +1.370566E+03 
 +6.157172E+02 +2.763304E+01 +8.576365E+00 +2.763304E+01 +5.658670E+02 -3.154004E+01 +8.576365E+00 -3.154004E+01 +1.354363E+03 
 +5.911538E+02 -4.568758E+00 -9.752977E-01 -4.568758E+00 +5.770769E+02 -1.403963E+01 -9.752977E-01 -1.403963E+01 +1.382115E+03 
 +5.663381E+02 +7.964652E-01 -4.618904E+01 +7.964652E-01 +5.681970E+02 +7.140799E+00 -4.618904E+01 +7.140799E+00 +1.347617E+03 
 +5.832572E+02 -2.439534E+00 -1.876622E+01 -2.439534E+00 +5.764583E+02 +8.626102E+00 -1.876622E+01 +8.626102E+00 +1.289973E+03 
 +6.334409E+02 +2.012060E+00 -6.079410E+00 +2.012060E+00 +6.111661E+02 -1.042257E+01 -6.079410E+00 -1.042257E+01 +1.439933E+03 
 +6.062174E+02 -3.308112E+00 -9.820498E+00 -3.308112E+00 +6.135844E+02 +3.812836E+00 -9.820498E+00 +3.812836E+00 +1.300545E+03 
 +5.675287E+02 +2.036760E+01 +1.438587E+01 +2.036760E+01 +5.822431E+02 +7.414958E+00 +1.438587E+01 +7.414958E+00 +1.378782E+03 
 +5.637984E+02 -7.075646E+00 -2.336549E+01 -7.075646E+00 +5.505040E+02 -1.645712E+01 -2.336549E+01 -1.645712E+01 +1.338251E+03 
 +6.669405E+02 -5.498547E+01 +8.276130E+00 -5.498547E+01 +6.300879E+02 +7.118713E-01 +8.276130E+00 +7.118713E-01 +1.311778E+03 
 +5.342877E+02 -2.666609E+01 +1.410530E+01 -2.666609E+01 +7.107462E+02 -9.711329E+00 +1.410530E+01 -9.711329E+00 +1.299287E+03 
 +5.520432E+02 +1.248186E+01 -6.996148E+00 +1.248186E+01 +7.189046E+02 -5.386027E+00 -6.996148E+00 -5.386027E+00 +1.327500E+03 
 +6.143943E+02 +3.873059E+00 -2.550804E+01 +3.873059E+00 +7.289268E+02 -1.297731E+01 -2.550804E+01 -1.297731E+01 +1.352085E+03 
 +6.765477E+02 +2.111679E+01 -1.070813E+01 +2.111679E+01 +6.192441E+02 -4.549526E+01 -1.070813E+01 -4.549526E+01 +1.358594E+03 
 +6.247028E+02 -1.033373E+01 +1.425989E+01 -1.033373E+01 +6.094859E+02 +8.415046E+00 +1.425989E+01 +8.415046E+00 +1.354672E+03 
 +5.310598E+02 +1.176761E+01 -2.996216E+00 +1.176761E+01 +5.768381E+02 +1.615346E+01 -2.996216E+00 +1.615346E+01 +1.398265E+03 
 +6.260331E+02 -4.040495E+00 +2.322414E+01 -4.040495E+00 +5.657765E+02 +2.919520E+01 +2.322414E+01 +2.919520E+01 +1.354096E+03 
 +5.971013E+02 +4.034720E-01 +1.410474E+01 +4.034720E-01 +5.614444E+02 -1.634705E+01 +1.410474E+01 -1.634705E+01 +1.314585E+03 
 +5.974952E+02 -1.797129E+01 +1.688099E+01 -1.797129E+01 +6.000352E+02 -3.628296E+01 +1.688099E+01 -3.628296E+01 +1.374253E+03 
 +6.939752E+02 +2.456547E+01 +3.370391E+01 +2.456547E+01 +6.476099E+02 +2.009936E+01 +3.370391E+01 +2.009936E+01 +1.333274E+03 
 +6.095011E+02 +3.925033E+01 +2.122481E+00 +3.925033E+01 +6.182761E+02 +8.777351E+00 +2.122481E+00 +8.777351E+00 +1.306437E+03 
 +6.336888E+02 -3.752983E+01 +2.119105E+01 -3.752983E+01 +6.504797E+02 +2.001924E+01 +2.119105E+01 +2.001924E+01 +1.406359E+03 
 +6.243151E+02 -3.134596E+01 +3.104048E+01 -3.134596E+01 +6.624922E+02 +1.232612E+01 +3.104048E+01 +1.232612E+01 +1.345788E+03 
 +7.028123E+02 -2.661364E+00 +1.029142E+01 -2.661364E+00 +5.968818E+02 -7.273969E+00 +1.029142E+01 -7.273969E+00 +1.366614E+03 
 +6.453820E+02 -1.668604E+01 -7.230848E+00 -1.668604E+01 +5.931214E+02 -3.630303E+00 -7.230848E+00 -3.630303E+00 +1.375866E+03 
 +6.455281E+02 -2.744937E+01 -1.164964E+00 -2.744937E+01 +6.720207E+02 -3.245044E+01 -1.164964E+00 -3.245044E+01 +1.344341E+03 
 +5.694653E+02 +5.287446E+00 +8.579360E-01 +5.287446E+00 +6.779583E+02 -5.051018E+00 +8.579360E-01 -5.051018E+00 +1.343603E+03 
 +6.362609E+02 -5.684582E+01 +1.025800E+01 -5.684582E+01 +6.123877E+02 +9.203196E+00 +1.025800E+01 +9.203196E+00 +1.304105E+03 
 +6.304687E+02 -3.492050E+01 -1.588735E+01 -3.492050E+01 +5.965994E+02 -1.463542E+01 -1.588735E+01 -1.463542E+01 +1.316211E+03 
 +6.254018E+02 +3.882827E+01 -6.760471E-01 +3.882827E+01 +6.185125E+02 +8.962200E+00 -6.760471E-01 +8.962200E+00 +1.322769E+03 
 +5.734313E+02 +2.347616E+01 +4.427925E+00 +2.347616E+01 +5.485227E+02 -2.856231E+01 +4.427925E+00 -2.856231E+01 +1.273285E+03 
 +5.756542E+02 -2.002444E+01 -1.439676E+01 -2.002444E+01 +5.675572E+02 -1.647105E+01 -1.439676E+01 -1.647105E+01 +1.339361E+03 
 +7.174779E+02 -6.845271E+00 -1.212529E+01 -6.845271E+00 +5.860821E+02 -1.009711E+01 -1.212529E+01 -1.009711E+01 +1.284154E+03 
 +5.482570E+02 -3.394774E+01 +1.043799E+01 -3.394774E+01 +5.243154E+02 -1.063642E+01 +1.043799E+01 -1.063642E+01 +1.363663E+03 
 +6.211091E+02 -9.079787E+00 -2.176655E+01 -9.079787E+00 +5.296575E+02 -3.581223E+00 -2.176655E+01 -3.581223E+00 +1.329700E+03 
 +6.018138E+02 -2.329781E+01 -3.271418E+00 -2.329781E+01 +6.141569E+02 +4.974003E+00 -3.271418E+00 +4.974003E+00 +1.343286E+03 
 +5.720671E+02 -1.746051E+01 +1.206756E+01 -1.746051E+01 +5.923010E+02 +3.662436E+00 +1.206756E+01 +3.662436E+00 +1.416368E+03 
 +6.002126E+02 -9.928336E+00 -2.408161E+00 -9.928336E+00 +6.034280E+02 +6.664983E+00 -2.408161E+00 +6.664983E+00 +1.322562E+03 
 +6.917012E+02 +6.930127E+00 -3.990304E+00 +6.930127E+00 +6.099830E+02 -2.949920E+00 -3.990304E+00 -2.949920E+00 +1.398800E+03 
 +5.913973E+02 -5.635184E+01 -8.380589E+00 -5.635184E+01 +6.465074E+02 -1.673973E+01 -8.380589E+00 -1.673973E+01 +1.305184E+03 
 +5.792333E+02 -1.896255E+01 -1.834095E+01 -1.896255E+01 +5.630586E+02 +2.960286E+00 -1.834095E+01 +2.960286E+00 +1.398384E+03 
 +6.036608E+02 +8.159270E+00 -1.380393E+00 +8.159270E+00 +5.206841E+02 +2.562119E+01 -1.380393E+00 +2.562119E+01 +1.335318E+03 
 +5.856851E+02 +1.193808E+01 -1.490599E+01 +1.193808E+01 +5.709903E+02 +2.779762E+01 -1.490599E+01 +2.779762E+01 +1.380229E+03 
 +6.161104E+02 +8.315899E+00 -3.354818E+01 +8.315899E+00 +5.994194E+02 +2.612868E+01 -3.354818E+01 +2.612868E+01 +1.373401E+03 
 +6.580132E+02 +3.097584E+01 -2.178431E+00 +3.097584E+01 +5.888206E+02 +4.220174E+00 -2.178431E+00 +4.220174E+00 +1.255966E+03 
 +5.552645E+02 +3.299463E+01 +3.616344E+00 +3.299463E+01 +5.177039E+02 -1.350121E+01 +3.616344E+00 -1.350121E+01 +1.350660E+03 
 +5.737802E+02 +2.534150E+01 -2.857201E+01 +2.534150E+01 +5.872626E+02 +5.430560E+00 -2.857201E+01 +5.430560E+00 +1.377358E+03 
 +6.029153E+02 +1.103444E+01 +2.355962E+01 +1.103444E+01 +6.139672E+02 -6.769167E-01 +2.355962E+01 -6.769167E-01 +1.313149E+03 
 +5.796187E+02 +1.498954E+01 +5.072039E+00 +1.498954E+01 +5.647352E+02 -1.750002E+01 +5.072039E+00 -1.750002E+01 +1.353624E+03 
 +5.480071E+02 +1.947082E+01 +3.541254E+00 +1.947082E+01 +5.381205E+02 -3.495846E+01 +3.541254E+00 -3.495846E+01 +1.331805E+03 
 +5.903711E+02 -1.559730E+00 +7.484816E-01 -1.559730E+00 +6.022658E+02 +1.199038E+00 +7.484816E-01 +1.199038E+00 +1.394017E+03 
 +6.261465E+02 -4.932123E+00 +3.625606E+01 -4.932123E+00 +5.454026E+02 +7.391633E+00 +3.625606E+01 +7.391633E+00 +1.317108E+03 
 +5.876351E+02 +3.192922E+01 -4.684852E+00 +3.192922E+01 +5.191909E+02 -5.050660E+00 -4.684852E+00 -5.050660E+00 +1.279055E+03 
 +5.397862E+02 +6.367382E+00 -1.343097E+01 +6.367382E+00 +6.055485E+02 -6.378163E+00 -1.343097E+01 -6.378163E+00 +1.386157E+03 
 +5.773240E+02 +1.225381E+00 +2.226965E+00 +1.225381E+00 +6.160524E+02 -1.422326E+01 +2.226965E+00 -1.422326E+01 +1.282964E+03 
 +7.082782E+02 -4.131068E+01 -1.052371E+01 -4.131068E+01 +5.993462E+02 +3.167445E+01 -1.052371E+01 +3.167445E+01 +1.316639E+03 
 +5.978609E+02 -9.047522E+00 -1.758132E+01 -9.047522E+00 +6.973629E+02 -1.548354E+00 -1.758132E+01 -1.548354E+00 +1.334164E+03 
 +6.196658E+02 +2.449368E+01 -5.431681E+00 +2.449368E+01 +6.150828E+02 -1.671767E+00 -5.431681E+00 -1.671767E+00 +1.320669E+03 
 +6.269428E+02 +1.688881E+01 -4.846205E+00 +1.688881E+01 +6.025774E+02 +2.067638E+01 -4.846205E+00 +2.067638E+01 +1.304592E+03 
 +5.552922E+02 +1.426209E+01 +1.474062E+01 +1.426209E+01 +5.962957E+02 +1.077583E+00 +1.474062E+01 +1.077583E+00 +1.436400E+03 
 +6.274716E+02 +5.744983E+01 +4.938104E-02 +5.744983E+01 +5.662137E+02 -3.259350E+01 +4.938104E-02 -3.259350E+01 +1.306545E+03 
 +6.158410E+02 +3.380420E+01 -9.765234E+00 +3.380420E+01 +6.329343E+02 +1.966460E+01 -9.765234E+00 +1.966460E+01 +1.306457E+03 
 +6.675460E+02 -3.629720E+01 +1.824220E+01 -3.629720E+01 +5.801615E+02 +2.121603E+01 +1.824220E+01 +2.121603E+01 +1.334670E+03 
 +5.580673E+02 -1.656190E+01 +1.223954E+01 -1.656190E+01 +6.474913E+02 +1.221845E+01 +1.223954E+01 +1.221845E+01 +1.313400E+03 
 +6.580379E+02 -1.479208E+01 -1.693322E+01 -1.479208E+01 +6.577149E+02 +3.159654E+01 -1.693322E+01 +3.159654E+01 +1.473560E+03 
 +6.706926E+02 +1.413332E+01 +8.092016E+00 +1.413332E+01 +6.326288E+02 -7.739834E+00 +8.092016E+00 -7.739834E+00 +1.325749E+03 
 +7.199036E+02 +1.423007E+01 +2.255654E+01 +1.423007E+01 +6.293790E+02 +2.953158E+00 +2.255654E+01 +2.953158E+00 +1.344965E+03 
 +6.956547E+02 -4.526164E+01 +1.843086E+01 -4.526164E+01 +6.139877E+02 +2.526090E+01 +1.843086E+01 +2.526090E+01 +1.357544E+03 
 +5.929729E+02 +2.394205E+01 -3.700435E+01 +2.394205E+01 +6.174839E+02 +1.499641E+01 -3.700435E+01 +1.499641E+01 +1.346732E+03 
 +6.434916E+02 +3.069497E+01 +2.797902E+00 +3.069497E+01 +6.658887E+02 +1.896827E+01 +2.797902E+00 +1.896827E+01 +1.371354E+03 
 +6.242477E+02 -3.875029E+01 -1.871632E+01 -3.875029E+01 +7.126694E+02 +1.327561E+01 -1.871632E+01 +1.327561E+01 +1.356852E+03 
 +6.867598E+02 +3.650998E+01 -4.004029E+00 +3.650998E+01 +6.221705E+02 -2.629551E+01 -4.004029E+00 -2.629551E+01 +1.415176E+03 
 +6.389650E+02 +1.799507E+01 -1.544703E+01 +1.799507E+01 +6.195263E+02 +5.561017E+00 -1.544703E+01 +5.561017E+00 +1.312608E+03 
 +6.107386E+02 -1.992376E+01 +5.903147E+00 -1.992376E+01 +6.026462E+02 -1.034115E+01 +5.903147E+00 -1.034115E+01 +1.366400E+03 
 +5.916190E+02 +3.020355E+00 +2.258371E+00 +3.020355E+00 +6.388959E+02 -1.953381E+01 +2.258371E+00 -1.953381E+01 +1.395372E+03 
 +6.356857E+02 +1.811530E+01 +2.517675E+01 +1.811530E+01 +6.009501E+02 +5.869237E+00 +2.517675E+01 +5.869237E+00 +1.307280E+03 
 +6.129896E+02 +8.539917E+00 +6.383750E+00 +8.539917E+00 +6.521143E+02 -1.833410E+01 +6.383750E+00 -1.833410E+01 +1.359127E+03 
 +5.808462E+02 +2.844477E+01 +7.346033E+00 +2.844477E+01 +5.799892E+02 +5.570347E+00 +7.346033E+00 +5.570347E+00 +1.244487E+03 
 +6.062438E+02 -3.824122E+01 -1.687704E+01 -3.824122E+01 +6.145306E+02 +1.450259E+01 -1.687704E+01 +1.450259E+01 +1.330535E+03 
 +5.823980E+02 -2.540205E+01 -7.425551E+00 -2.540205E+01 +6.387154E+02 -2.064408E+01 -7.425551E+00 -2.064408E+01 +1.299468E+03 
 +6.455551E+02 +2.023588E+01 -1.940274E+00 +2.023588E+01 +6.550755E+02 -3.033079E+01 -1.940274E+00 -3.033079E+01 +1.461024E+03 
 +5.783024E+02 -4.825898E+00 +1.463795E+00 -4.825898E+00 +6.049326E+02 -5.036178E+00 +1.463795E+00 -5.036178E+00 +1.290555E+03 
 +6.602548E+02 -2.089783E+01 +2.224564E+01 -2.089783E+01 +5.520772E+02 +2.482772E+00 +2.224564E+01 +2.482772E+00 +1.321800E+03 
 +6.524185E+02 +2.606573E+01 -3.789990E+00 +2.606573E+01 +6.135355E+02 -2.646948E+00 -3.789990E+00 -2.646948E+00 +1.328859E+03 
 +5.824510E+02 +4.605972E+01 +5.151729E+00 +4.605972E+01 +6.064165E+02 -1.423445E+01 +5.151729E+00 -1.423445E+01 +1.356663E+03 
 +6.030027E+02 +1.858426E+01 +5.244337E+00 +1.858426E+01 +5.839810E+02 +2.039303E+01 +5.244337E+00 +2.039303E+01 +1.381211E+03 
 +5.595431E+02 -1.370436E+01 +1.289302E+01 -1.370436E+01 +5.965272E+02 -4.702411E+00 +1.289302E+01 -4.702411E+00 +1.419500E+03 
 +5.874379E+02 -5.994283E+01 +1.171502E+01 -5.994283E+01 +6.303181E+02 +5.036211E+00 +1.171502E+01 +5.036211E+00 +1.288040E+03 
 +5.987531E+02 +1.296593E+01 +1.643239E+01 +1.296593E+01 +6.146246E+02 +1.798356E+01 +1.643239E+01 +1.798356E+01 +1.369628E+03 
 +5.718091E+02 +1.142969E+01 +6.182002E-02 +1.142969E+01 +6.434802E+02 -8.587875E+00 +6.182002E-02 -8.587875E+00 +1.349917E+03 
 +6.179554E+02 -1.228362E+01 +2.059013E+01 -1.228362E+01 +6.864065E+02 +4.928743E+00 +2.059013E+01 +4.928743E+00 +1.351382E+03 
 +6.462651E+02 -5.250877E+01 -1.233862E+01 -5.250877E+01 +6.389713E+02 -6.350504E+00 -1.233862E+01 -6.350504E+00 +1.303625E+03 
 +4.898031E+02 -2.479994E+01 -9.415635E+00 -2.479994E+01 +5.427366E+02 -2.146769E+01 -9.415635E+00 -2.146769E+01 +1.389201E+03 
 +6.538423E+02 +2.855315E+01 +1.518204E+01 +2.855315E+01 +6.152720E+02 -1.908770E+01 +1.518204E+01 -1.908770E+01 +1.295023E+03 
 +6.387123E+02 +2.099064E+01 -1.161963E-01 +2.099064E+01 +6.224001E+02 -1.434984E+01 -1.161963E-01 -1.434984E+01 +1.409182E+03 
 +5.805820E+02 -2.084594E+00 -1.090733E+01 -2.084594E+00 +5.729124E+02 +1.722365E+01 -1.090733E+01 +1.722365E+01 +1.425352E+03 
 +6.161729E+02 -1.412995E+01 +4.204045E+00 -1.412995E+01 +7.048294E+02 +1.396289E+01 +4.204045E+00 +1.396289E+01 +1.333636E+03 
 +5.772555E+02 -2.759980E+00 -9.040134E-01 -2.759980E+00 +6.492953E+02 -1.426756E+01 -9.040134E-01 -1.426756E+01 +1.357310E+03 
 +5.794255E+02 +2.867363E+01 -1.270151E-01 +2.867363E+01 +6.936555E+02 -4.710731E+00 -1.270151E-01 -4.710731E+00 +1.332019E+03 
 +6.993154E+02 +7.735645E+00 +2.843770E+01 +7.735645E+00 +6.381160E+02 -2.124979E+00 +2.843770E+01 -2.124979E+00 +1.320696E+03 
 +5.382137E+02 +5.469857E+00 +6.215633E+00 +5.469857E+00 +5.537885E+02 -3.867050E+01 +6.215633E+00 -3.867050E+01 +1.356722E+03 
 +6.006916E+02 -3.268098E+01 -8.121407E+00 -3.268098E+01 +5.526475E+02 -3.344835E+01 -8.121407E+00 -3.344835E+01 +1.359987E+03 
 +6.402567E+02 +1.625321E+01 -2.959922E+00 +1.625321E+01 +5.812014E+02 -1.788928E+00 -2.959922E+00 -1.788928E+00 +1.274858E+03 
 +5.425279E+02 +2.169034E+01 -2.867502E+01 +2.169034E+01 +6.252178E+02 -2.005938E+01 -2.867502E+01 -2.005938E+01 +1.234047E+03 
 +5.836545E+02 -8.362409E-01 +8.744689E+00 -8.362409E-01 +6.037213E+02 -5.126069E+00 +8.744689E+00 -5.126069E+00 +1.349043E+03 
 +5.072039E+02 +6.422919E+00 -2.773930E+01 +6.422919E+00 +5.455799E+02 -2.424756E+01 -2.773930E+01 -2.424756E+01 +1.344659E+03 
 +5.735402E+02 +1.813721E+01 +2.992320E+00 +1.813721E+01 +5.684468E+02 -1.873791E+01 +2.992320E+00 -1.873791E+01 +1.326840E+03 
 +6.148676E+02 +1.784777E+01 -1.148439E+01 +1.784777E+01 +5.846848E+02 +1.979989E+01 -1.148439E+01 +1.979989E+01 +1.370569E+03 
 +5.978929E+02 -2.447490E+01 +2.874707E+00 -2.447490E+01 +6.276998E+02 +4.870878E+00 +2.874707E+00 +4.870878E+00 +1.310104E+03 
 +5.757054E+02 +3.375229E+00 -2.715146E+01 +3.375229E+00 +5.785997E+02 +4.274662E+00 -2.715146E+01 +4.274662E+00 +1.349296E+03 
 +5.935240E+02 +1.677742E+01 +1.385455E+01 +1.677742E+01 +5.853161E+02 +2.352017E+00 +1.385455E+01 +2.352017E+00 +1.415610E+03 
 +6.678360E+02 +4.016626E+01 +1.824873E+01 +4.016626E+01 +6.612151E+02 +3.070524E+00 +1.824873E+01 +3.070524E+00 +1.352276E+03 
 +5.830121E+02 +4.412529E+01 +9.458529E+00 +4.412529E+01 +6.667894E+02 -1.539818E+01 +9.458529E+00 -1.539818E+01 +1.305561E+03 
 +6.043551E+02 +2.718885E+01 -2.055172E+00 +2.718885E+01 +6.608026E+02 -2.329019E+00 -2.055172E+00 -2.329019E+00 +1.308157E+03 
 +6.475912E+02 +8.422515E+00 +3.273089E+00 +8.422515E+00 +6.155211E+02 -3.773981E+00 +3.273089E+00 -3.773981E+00 +1.363314E+03 
 +5.490168E+02 +6.383139E+00 -5.590065E+00 +6.383139E+00 +5.655806E+02 -3.622681E+01 -5.590065E+00 -3.622681E+01 +1.359224E+03 
 +6.527983E+02 -1.712754E+01 -7.518982E+00 -1.712754E+01 +6.165887E+02 +2.180312E+01 -7.518982E+00 +2.180312E+01 +1.347673E+03 
 +5.816212E+02 -1.217683E+01 +2.230970E+01 -1.217683E+01 +6.020989E+02 +1.446106E+01 +2.230970E+01 +1.446106E+01 +1.361763E+03 
 +6.519636E+02 +4.818237E+01 -9.395789E-02 +4.818237E+01 +5.531454E+02 +4.506803E+00 -9.395789E-02 +4.506803E+00 +1.321476E+03 
 +6.399334E+02 -1.194664E+01 -2.491298E+00 -1.194664E+01 +5.708633E+02 +4.719428E+00 -2.491298E+00 +4.719428E+00 +1.300543E+03 
 +5.786210E+02 -2.768985E+01 +1.089914E+01 -2.768985E+01 +5.895471E+02 +3.435237E+01 +1.089914E+01 +3.435237E+01 +1.406055E+03 
 +6.281882E+02 -2.167636E+01 -1.315644E+01 -2.167636E+01 +5.248917E+02 +1.174619E+01 -1.315644E+01 +1.174619E+01 +1.305941E+03 
 +6.206210E+02 +7.005599E+00 -1.101434E+01 +7.005599E+00 +6.527531E+02 +4.372777E+00 -1.101434E+01 +4.372777E+00 +1.342067E+03 
 +5.843990E+02 -1.613498E+00 -2.210226E+00 -1.613498E+00 +6.482143E+02 +5.434531E+00 -2.210226E+00 +5.434531E+00 +1.401102E+03 
 +6.418138E+02 +2.861294E+01 -1.830161E+01 +2.861294E+01 +6.236703E+02 -6.254358E+00 -1.830161E+01 -6.254358E+00 +1.299678E+03 
 +6.333536E+02 +3.619101E+01 -1.732043E+01 +3.619101E+01 +7.207429E+02 -1.080794E+00 -1.732043E+01 -1.080794E+00 +1.372946E+03 
 +6.800427E+02 -1.861499E+00 +2.426268E+01 -1.861499E+00 +6.313954E+02 +1.406746E+01 +2.426268E+01 +1.406746E+01 +1.387408E+03 
 +5.812875E+02 +1.048764E+01 -1.139961E+01 +1.048764E+01 +5.912654E+02 -3.016779E+01 -1.139961E+01 -3.016779E+01 +1.396998E+03 
 +6.986273E+02 -1.577756E+01 -5.547266E+00 -1.577756E+01 +5.770503E+02 -8.394158E+00 -5.547266E+00 -8.394158E+00 +1.302004E+03 
 +6.079157E+02 -1.551147E+01 +1.363966E+01 -1.551147E+01 +6.972908E+02 +3.092742E+01 +1.363966E+01 +3.092742E+01 +1.390341E+03 
 +6.938799E+02 -2.440392E+01 +3.060817E+00 -2.440392E+01 +6.359030E+02 +6.046277E+00 +3.060817E+00 +6.046277E+00 +1.364894E+03 
 +6.546974E+02 -5.582937E+00 +7.648085E+00 -5.582937E+00 +5.936956E+02 +2.739947E+01 +7.648085E+00 +2.739947E+01 +1.332021E+03 
 +5.810698E+02 +1.100379E+01 +1.700510E+01 +1.100379E+01 +5.839246E+02 -7.860610E+00 +1.700510E+01 -7.860610E+00 +1.366305E+03 
 +6.923900E+02 -2.306452E+01 -1.117021E+00 -2.306452E+01 +5.451112E+02 -4.985179E+00 -1.117021E+00 -4.985179E+00 +1.310206E+03 
 +5.977698E+02 +2.182654E+01 -6.065645E+00 +2.182654E+01 +5.942786E+02 +5.288675E+00 -6.065645E+00 +5.288675E+00 +1.455975E+03 
 +6.148300E+02 -1.519206E+01 -3.766952E+00 -1.519206E+01 +5.600400E+02 -6.335632E+00 -3.766952E+00 -6.335632E+00 +1.323804E+03 
 +5.670805E+02 -1.438223E+01 +8.718656E+00 -1.438223E+01 +5.576035E+02 -1.863030E+00 +8.718656E+00 -1.863030E+00 +1.422823E+03 
 +5.857849E+02 -3.926413E+01 -6.143126E+00 -3.926413E+01 +5.823456E+02 -2.647726E+01 -6.143126E+00 -2.647726E+01 +1.316497E+03 
 +6.081865E+02 +2.823923E+01 -2.158241E+01 +2.823923E+01 +6.473950E+02 -1.522318E+01 -2.158241E+01 -1.522318E+01 +1.405676E+03 
 +6.061978E+02 +3.979236E+01 -4.239147E+00 +3.979236E+01 +6.219733E+02 -1.952024E+01 -4.239147E+00 -1.952024E+01 +1.280771E+03 
 +5.762834E+02 +3.250719E+01 +9.013230E+00 +3.250719E+01 +6.412764E+02 +9.962720E+00 +9.013230E+00 +9.962720E+00 +1.324702E+03 
 +5.848572E+02 +8.808300E+00 -1.390666E+01 +8.808300E+00 +5.807106E+02 +3.674150E+01 -1.390666E+01 +3.674150E+01 +1.334732E+03 
 +5.747614E+02 -3.027719E+01 +1.124169E+01 -3.027719E+01 +6.141513E+02 +1.423760E+01 +1.124169E+01 +1.423760E+01 +1.332272E+03 
 +6.158403E+02 -2.789366E+01 +4.338805E+00 -2.789366E+01 +6.100602E+02 -9.785155E+00 +4.338805E+00 -9.785155E+00 +1.416740E+03 
 +7.192543E+02 +1.079184E+01 -2.200694E+01 +1.079184E+01 +6.516952E+02 +2.378163E+01 -2.200694E+01 +2.378163E+01 +1.331986E+03 
 +5.610033E+02 -4.214830E+01 -3.393839E+01 -4.214830E+01 +6.558946E+02 -9.301100E+00 -3.393839E+01 -9.301100E+00 +1.314184E+03 
 +6.319797E+02 -3.092821E+01 -3.663269E+00 -3.092821E+01 +6.142211E+02 -6.985711E+00 -3.663269E+00 -6.985711E+00 +1.424197E+03 
 +6.463828E+02 -2.110917E+01 +6.066445E+00 -2.110917E+01 +6.645529E+02 -3.186144E+00 +6.066445E+00 -3.186144E+00 +1.359195E+03 
 +5.320310E+02 -2.500069E+01 -5.311631E+00 -2.500069E+01 +5.760257E+02 -2.182292E+00 -5.311631E+00 -2.182292E+00 +1.417187E+03 
 +5.937037E+02 +1.202466E+01 +1.087418E+01 +1.202466E+01 +5.774879E+02 +1.515584E+01 +1.087418E+01 +1.515584E+01 +1.278110E+03 
 +6.033778E+02 -3.386533E-01 -1.944294E+01 -3.386533E-01 +5.697165E+02 -1.214332E+01 -1.944294E+01 -1.214332E+01 +1.352756E+03 
 +5.843457E+02 -6.701603E+00 +4.713151E+01 -6.701603E+00 +6.413660E+02 +1.542611E+01 +4.713151E+01 +1.542611E+01 +1.311206E+03 
 +6.875426E+02 +1.311395E+01 -4.369951E-01 +1.311395E+01 +6.948140E+02 -3.492994E+01 -4.369951E-01 -3.492994E+01 +1.389108E+03 
 +6.056211E+02 -1.835689E+01 +3.119256E+01 -1.835689E+01 +6.443043E+02 -3.640999E-01 +3.119256E+01 -3.640999E-01 +1.312451E+03 
 +6.037666E+02 -2.335531E+01 -3.522847E+01 -2.335531E+01 +6.775106E+02 -1.737124E+00 -3.522847E+01 -1.737124E+00 +1.341467E+03 
 +6.526136E+02 +5.030409E+00 +7.059020E+00 +5.030409E+00 +7.002280E+02 -5.913602E+00 +7.059020E+00 -5.913602E+00 +1.357321E+03 
 +6.062382E+02 +2.894263E+00 +2.546335E+00 +2.894263E+00 +6.070047E+02 +7.047563E+00 +2.546335E+00 +7.047563E+00 +1.338650E+03 
 +6.539152E+02 -7.872041E+00 +8.863085E+00 -7.872041E+00 +5.827474E+02 -9.904343E+00 +8.863085E+00 -9.904343E+00 +1.374549E+03 
 +5.739999E+02 -1.149273E+01 -2.691153E+01 -1.149273E+01 +5.610916E+02 +1.752207E+00 -2.691153E+01 +1.752207E+00 +1.329296E+03 
 +5.514366E+02 -3.725427E+00 -2.227556E+01 -3.725427E+00 +5.446785E+02 -1.143261E+01 -2.227556E+01 -1.143261E+01 +1.393338E+03 
 +5.498327E+02 -4.222445E+00 -1.003421E+01 -4.222445E+00 +6.074910E+02 +2.494498E+01 -1.003421E+01 +2.494498E+01 +1.292922E+03 
 +6.600817E+02 -1.653681E+01 -1.190400E+01 -1.653681E+01 +5.781053E+02 +1.222649E+01 -1.190400E+01 +1.222649E+01 +1.287200E+03 
 +6.215473E+02 +1.800554E-02 +2.926477E+00 +1.800554E-02 +5.529850E+02 -6.456086E+00 +2.926477E+00 -6.456086E+00 +1.378340E+03 
 +6.684564E+02 +1.969081E+01 +1.026378E+01 +1.969081E+01 +5.895952E+02 +3.422790E+00 +1.026378E+01 +3.422790E+00 +1.294074E+03 
 +6.405099E+02 +4.769988E+00 -2.965773E+00 +4.769988E+00 +6.434890E+02 +1.626610E+01 -2.965773E+00 +1.626610E+01 +1.460132E+03 
 +5.987452E+02 +1.433000E+01 -8.911032E-01 +1.433000E+01 +6.293685E+02 -6.988690E-01 -8.911032E-01 -6.988690E-01 +1.288603E+03 
 +5.857347E+02 -6.892863E-01 -3.956014E+00 -6.892863E-01 +6.177779E+02 +1.572441E+01 -3.956014E+00 +1.572441E+01 +1.386346E+03 
 +6.433068E+02 -3.061992E+01 +9.277852E+00 -3.061992E+01 +6.246099E+02 +2.506555E+01 +9.277852E+00 +2.506555E+01 +1.397910E+03 
 +5.958062E+02 -5.476244E+00 -2.715119E+01 -5.476244E+00 +5.876343E+02 +2.528046E+01 -2.715119E+01 +2.528046E+01 +1.353958E+03 
 +6.697125E+02 -1.529767E+00 +3.514649E+00 -1.529767E+00 +5.927353E+02 +1.859743E+01 +3.514649E+00 +1.859743E+01 +1.354590E+03 
 +6.721516E+02 +2.912894E+01 +1.312634E+01 +2.912894E+01 +6.099659E+02 +4.851217E+00 +1.312634E+01 +4.851217E+00 +1.342336E+03 
 +5.406810E+02 +5.517725E+00 -1.136894E+01 +5.517725E+00 +6.580092E+02 +6.041752E+00 -1.136894E+01 +6.041752E+00 +1.282058E+03 
 +6.394489E+02 -3.540290E-01 -2.795708E+01 -3.540290E-01 +6.366876E+02 -2.796146E+01 -2.795708E+01 -2.796146E+01 +1.362353E+03 
 +5.726893E+02 -1.709704E+01 -3.218639E+01 -1.709704E+01 +5.917399E+02 -2.423312E+01 -3.218639E+01 -2.423312E+01 +1.402155E+03 
 +6.574987E+02 -2.948467E+01 -5.738170E+00 -2.948467E+01 +6.009001E+02 -1.354785E+01 -5.738170E+00 -1.354785E+01 +1.297634E+03 
 +5.819211E+02 +1.094844E+01 -2.300039E+01 +1.094844E+01 +6.132172E+02 +9.001829E+00 -2.300039E+01 +9.001829E+00 +1.383355E+03 
 +5.828426E+02 +8.016277E+00 -1.350907E+01 +8.016277E+00 +6.046910E+02 -4.982407E+00 -1.350907E+01 -4.982407E+00 +1.319678E+03 
 +5.629574E+02 +1.988077E+01 +1.847319E+00 +1.988077E+01 +6.156885E+02 -2.657999E+01 +1.847319E+00 -2.657999E+01 +1.327395E+03 
 +6.315941E+02 +2.130765E+01 +1.479752E+01 +2.130765E+01 +6.062853E+02 +5.613397E+00 +1.479752E+01 +5.613397E+00 +1.420493E+03 
 +5.935844E+02 +2.847621E+00 -2.103296E+00 +2.847621E+00 +5.413667E+02 +1.560370E+01 -2.103296E+00 +1.560370E+01 +1.391521E+03 
 +6.938144E+02 -2.250163E+01 +1.829285E+01 -2.250163E+01 +6.208179E+02 +2.700321E+01 +1.829285E+01 +2.700321E+01 +1.362852E+03 
 +6.669684E+02 -3.691510E+01 -5.147656E+00 -3.691510E+01 +6.050093E+02 -1.881007E+01 -5.147656E+00 -1.881007E+01 +1.392891E+03 
 +6.254850E+02 -1.129611E+00 +3.557703E+01 -1.129611E+00 +6.108857E+02 -2.104724E+01 +3.557703E+01 -2.104724E+01 +1.313556E+03 
 +6.140465E+02 -6.940310E+00 +2.395566E+00 -6.940310E+00 +5.890255E+02 +1.072918E+01 +2.395566E+00 +1.072918E+01 +1.354779E+03 
 +5.135632E+02 -5.601103E+00 -1.189806E+01 -5.601103E+00 +6.415742E+02 -2.419313E+01 -1.189806E+01 -2.419313E+01 +1.277014E+03 
 +6.007896E+02 -1.718209E+01 -1.331258E+01 -1.718209E+01 +6.417635E+02 -2.361652E+01 -1.331258E+01 -2.361652E+01 +1.353490E+03 
 +5.857006E+02 -7.689442E+00 +1.312092E+01 -7.689442E+00 +5.866196E+02 +1.380542E+00 +1.312092E+01 +1.380542E+00 +1.297647E+03 
 +6.234304E+02 +2.363126E+01 +1.890337E+01 +2.363126E+01 +5.772861E+02 -6.891417E+00 +1.890337E+01 -6.891417E+00 +1.261009E+03 
 +5.272984E+02 +8.090942E+00 +1.036684E+01 +8.090942E+00 +5.594507E+02 +1.716652E+01 +1.036684E+01 +1.716652E+01 +1.371050E+03 
 +6.033035E+02 -1.117381E+01 -2.769833E+01 -1.117381E+01 +6.282156E+02 +2.588910E+01 -2.769833E+01 +2.588910E+01 +1.329008E+03 
 +5.839431E+02 -2.825516E+00 +2.932594E+01 -2.825516E+00 +6.255353E+02 +5.372019E+00 +2.932594E+01 +5.372019E+00 +1.424577E+03 
 +5.702288E+02 +1.360417E+01 -1.038249E+01 +1.360417E+01 +6.131765E+02 -4.563418E+00 -1.038249E+01 -4.563418E+00 +1.280297E+03 
 +6.256962E+02 -1.273240E+01 -2.107340E+01 -1.273240E+01 +5.593760E+02 +4.139348E+00 -2.107340E+01 +4.139348E+00 +1.347784E+03 
 +5.847383E+02 +1.288484E+01 +7.252077E+00 +1.288484E+01 +5.687642E+02 +1.772318E+01 +7.252077E+00 +1.772318E+01 +1.414985E+03 
 +5.329861E+02 +1.449553E+00 -1.079993E+01 +1.449553E+00 +5.512689E+02 +9.846087E+00 -1.079993E+01 +9.846087E+00 +1.363525E+03 
 +6.285306E+02 +1.334923E+01 +2.107839E+01 +1.334923E+01 +5.799128E+02 -2.498129E+01 +2.107839E+01 -2.498129E+01 +1.307554E+03 
 +5.975847E+02 +2.126953E+01 -1.268991E+01 +2.126953E+01 +5.912592E+02 -1.264629E+01 -1.268991E+01 -1.264629E+01 +1.334057E+03 
 +6.456918E+02 +9.336947E+00 -6.627017E+00 +9.336947E+00 +6.645833E+02 -1.728538E+01 -6.627017E+00 -1.728538E+01 +1.412799E+03 
 +6.386194E+02 -1.979719E+01 -1.826355E+01 -1.979719E+01 +6.479598E+02 +3.236282E+00 -1.826355E+01 +3.236282E+00 +1.295243E+03 
 +5.650655E+02 +2.473668E+00 +2.702876E+01 +2.473668E+00 +5.780211E+02 -2.453541E+00 +2.702876E+01 -2.453541E+00 +1.427459E+03 
 +6.847095E+02 -4.725460E+01 +1.701632E+00 -4.725460E+01 +6.490801E+02 +1.111367E+01 +1.701632E+00 +1.111367E+01 +1.352665E+03 
 +5.598755E+02 +3.856241E+00 +2.333744E+01 +3.856241E+00 +5.801556E+02 +2.468356E+01 +2.333744E+01 +2.468356E+01 +1.381941E+03 
 +6.048256E+02 +2.048702E+00 -5.744524E+00 +2.048702E+00 +5.930405E+02 -1.203485E+01 -5.744524E+00 -1.203485E+01 +1.424469E+03 
 +6.093115E+02 +2.537246E+00 -7.217290E+00 +2.537246E+00 +6.485306E+02 +4.094496E+00 -7.217290E+00 +4.094496E+00 +1.276069E+03 
 +6.247452E+02 -2.342793E+01 +1.495410E+01 -2.342793E+01 +6.625139E+02 -4.957389E+00 +1.495410E+01 -4.957389E+00 +1.356359E+03 
 +6.138299E+02 -1.365246E+00 -1.522726E+00 -1.365246E+00 +6.384739E+02 -4.882576E+00 -1.522726E+00 -4.882576E+00 +1.342201E+03 
 +7.011783E+02 +4.721335E+01 +4.437389E-01 +4.721335E+01 +6.532955E+02 -2.720265E+00 +4.437389E-01 -2.720265E+00 +1.379243E+03 
 +5.959226E+02 -2.785415E+01 +1.375824E+01 -2.785415E+01 +6.286653E+02 +1.037078E+01 +1.375824E+01 +1.037078E+01 +1.266442E+03 
 +5.470461E+02 -1.736111E+01 -1.024649E+01 -1.736111E+01 +6.274111E+02 -1.403661E+00 -1.024649E+01 -1.403661E+00 +1.310453E+03 
 +6.470893E+02 +5.586323E+01 -1.252004E+01 +5.586323E+01 +5.994293E+02 +4.255949E+00 -1.252004E+01 +4.255949E+00 +1.320517E+03 
 +5.712327E+02 +8.515941E+00 +1.634541E+01 +8.515941E+00 +5.742677E+02 -2.299249E+01 +1.634541E+01 -2.299249E+01 +1.397333E+03 
 +6.968557E+02 +6.724721E+00 -1.332401E+01 +6.724721E+00 +6.834184E+02 +7.794131E+00 -1.332401E+01 +7.794131E+00 +1.338047E+03 
 +6.251367E+02 -8.271446E+00 +1.333414E+01 -8.271446E+00 +6.139180E+02 +2.605618E+01 +1.333414E+01 +2.605618E+01 +1.336459E+03 
 +5.788788E+02 -2.923976E+01 -3.425631E+01 -2.923976E+01 +5.618734E+02 +1.794938E+00 -3.425631E+01 +1.794938E+00 +1.364998E+03 
 +5.574597E+02 +1.224162E-01 +1.518841E+01 +1.224162E-01 +5.529792E+02 +1.260945E+01 +1.518841E+01 +1.260945E+01 +1.407489E+03 
 +6.897511E+02 +1.868626E+01 -1.172163E+01 +1.868626E+01 +6.132529E+02 +7.205926E+00 -1.172163E+01 +7.205926E+00 +1.363983E+03 
 +5.968367E+02 -1.595101E+01 -2.646919E+00 -1.595101E+01 +5.837385E+02 +1.167156E+01 -2.646919E+00 +1.167156E+01 +1.308918E+03 
 +5.689066E+02 -9.540462E+00 -2.394144E+00 -9.540462E+00 +5.827225E+02 -2.773763E+01 -2.394144E+00 -2.773763E+01 +1.377816E+03 
 +6.800409E+02 -2.708006E+01 -2.525079E+01 -2.708006E+01 +5.995776E+02 -1.411221E+01 -2.525079E+01 -1.411221E+01 +1.311975E+03 
 +5.469895E+02 +3.838802E+01 +1.131486E+01 +3.838802E+01 +6.382230E+02 -2.663989E+00 +1.131486E+01 -2.663989E+00 +1.278850E+03 
 +6.222609E+02 -2.150984E+01 +3.761697E+01 -2.150984E+01 +6.873439E+02 -1.287229E+00 +3.761697E+01 -1.287229E+00 +1.392685E+03 
 +5.982896E+02 +3.922647E+01 +5.771297E+00 +3.922647E+01 +5.662972E+02 +1.383960E+01 +5.771297E+00 +1.383960E+01 +1.264246E+03 
 +5.765574E+02 +1.946334E+01 -4.575384E+01 +1.946334E+01 +5.888945E+02 -3.603989E+00 -4.575384E+01 -3.603989E+00 +1.417279E+03 
 +6.206049E+02 -4.039576E-01 -2.379223E+00 -4.039576E-01 +7.232639E+02 -2.048090E+01 -2.379223E+00 -2.048090E+01 +1.368495E+03 
 +5.622975E+02 +5.837644E+00 -3.238771E+00 +5.837644E+00 +5.912862E+02 -8.681611E+00 -3.238771E+00 -8.681611E+00 +1.274503E+03 
 +6.715706E+02 -3.814558E+01 -6.275178E+00 -3.814558E+01 +6.794791E+02 -1.668425E+00 -6.275178E+00 -1.668425E+00 +1.363741E+03 
 +6.490678E+02 +8.305154E+00 -4.801057E+01 +8.305154E+00 +6.487913E+02 +1.717613E+01 -4.801057E+01 +1.717613E+01 +1.406822E+03 
 +5.367856E+02 +9.821788E-01 -1.830392E+01 +9.821788E-01 +5.633288E+02 +3.261565E+01 -1.830392E+01 +3.261565E+01 +1.378761E+03 
 +6.306937E+02 -1.776027E+00 +7.108200E+00 -1.776027E+00 +6.532868E+02 -1.162353E+01 +7.108200E+00 -1.162353E+01 +1.307020E+03 
 +6.454109E+02 +3.784784E+01 -8.404464E+00 +3.784784E+01 +6.106296E+02 +4.209350E+00 -8.404464E+00 +4.209350E+00 +1.304919E+03 
 +5.305220E+02 -1.380861E+01 +2.011762E+01 -1.380861E+01 +5.741497E+02 -2.444573E+01 +2.011762E+01 -2.444573E+01 +1.354306E+03 
 +6.116905E+02 -4.772645E+01 +1.870003E+01 -4.772645E+01 +6.065895E+02 -1.084878E+01 +1.870003E+01 -1.084878E+01 +1.325093E+03 
 +5.777621E+02 +1.046540E+01 -1.507517E+01 +1.046540E+01 +5.614708E+02 +1.298957E+01 -1.507517E+01 +1.298957E+01 +1.270502E+03 
 +5.955664E+02 +2.284599E+01 +9.637872E+00 +2.284599E+01 +6.268735E+02 +3.305633E+00 +9.637872E+00 +3.305633E+00 +1.381467E+03 
 +6.244792E+02 +2.820158E+01 -1.408272E+01 +2.820158E+01 +6.979145E+02 +7.803908E+00 -1.408272E+01 +7.803908E+00 +1.338690E+03 
 +6.018772E+02 +1.985513E+01 -1.103144E+01 +1.985513E+01 +6.786631E+02 -6.573057E+00 -1.103144E+01 -6.573057E+00 +1.348717E+03 
 +5.753453E+02 -3.003971E+01 -1.930845E+01 -3.003971E+01 +5.816021E+02 -7.607826E+00 -1.930845E+01 -7.607826E+00 +1.409493E+03 
 +5.724904E+02 -3.545496E+01 -2.046530E+01 -3.545496E+01 +6.270049E+02 +6.315662E+00 -2.046530E+01 +6.315662E+00 +1.308832E+03 
 +6.435831E+02 +4.071685E+00 -6.951977E+00 +4.071685E+00 +6.552158E+02 +2.108568E+01 -6.951977E+00 +2.108568E+01 +1.444046E+03 
 +5.422833E+02 +1.775948E+01 -8.998759E+00 +1.775948E+01 +6.344358E+02 +2.851390E+01 -8.998759E+00 +2.851390E+01 +1.255033E+03 
 +5.588951E+02 -1.462263E+01 -1.849676E+00 -1.462263E+01 +5.741820E+02 -9.739202E+00 -1.849676E+00 -9.739202E+00 +1.388126E+03 
 +6.079119E+02 -1.120636E+01 -1.015027E+01 -1.120636E+01 +5.612379E+02 -3.725037E+00 -1.015027E+01 -3.725037E+00 +1.362312E+03 
 +6.709166E+02 -3.179296E+01 -1.057923E+01 -3.179296E+01 +5.924644E+02 -2.808261E+01 -1.057923E+01 -2.808261E+01 +1.332210E+03 
 +5.960896E+02 -1.165277E+01 -1.322861E+01 -1.165277E+01 +5.933117E+02 -2.764858E+01 -1.322861E+01 -2.764858E+01 +1.422562E+03 
 +5.987000E+02 +1.577724E+01 -5.018608E+00 +1.577724E+01 +5.505046E+02 +2.696380E+01 -5.018608E+00 +2.696380E+01 +1.404480E+03 
 +5.515946E+02 +2.755942E+01 +1.338394E+01 +2.755942E+01 +6.746509E+02 +9.731249E+00 +1.338394E+01 +9.731249E+00 +1.328271E+03 
 +6.407985E+02 +1.813892E+01 -1.350419E+01 +1.813892E+01 +6.017022E+02 -2.438449E-01 -1.350419E+01 -2.438449E-01 +1.360609E+03 
 +5.874424E+02 -1.036009E+01 -9.210496E+00 -1.036009E+01 +5.890255E+02 +8.727621E+00 -9.210496E+00 +8.727621E+00 +1.359779E+03 
 +6.005753E+02 -3.866495E+01 +1.908420E+01 -3.866495E+01 +6.326479E+02 +3.330974E+00 +1.908420E+01 +3.330974E+00 +1.337724E+03 
 +6.103650E+02 -4.873145E+01 +1.116886E+01 -4.873145E+01 +5.832314E+02 +1.634319E+01 +1.116886E+01 +1.634319E+01 +1.276504E+03 
 +6.213091E+02 +2.130883E+01 +1.581856E+01 +2.130883E+01 +6.759684E+02 +4.761806E+00 +1.581856E+01 +4.761806E+00 +1.321152E+03 
 +6.248613E+02 -1.146366E+01 -4.379105E+00 -1.146366E+01 +6.275499E+02 +9.583012E+00 -4.379105E+00 +9.583012E+00 +1.353212E+03 
 +6.201006E+02 +4.755450E+01 +3.278342E+00 +4.755450E+01 +5.829376E+02 +1.728823E+00 +3.278342E+00 +1.728823E+00 +1.331622E+03 
 +6.556270E+02 +3.049731E+00 +2.481100E+01 +3.049731E+00 +6.454110E+02 -3.928675E+01 +2.481100E+01 -3.928675E+01 +1.377589E+03 
 +6.236127E+02 +3.034100E-01 +8.844131E+00 +3.034100E-01 +6.201996E+02 -4.271525E+01 +8.844131E+00 -4.271525E+01 +1.388300E+03 
 +5.367700E+02 -4.003946E+01 +8.834360E+00 -4.003946E+01 +6.039683E+02 -1.946708E+01 +8.834360E+00 -1.946708E+01 +1.237790E+03 
 +5.711155E+02 -1.210022E+01 -1.561948E-01 -1.210022E+01 +5.891748E+02 -1.633592E+01 -1.561948E-01 -1.633592E+01 +1.417640E+03 
 +7.437106E+02 +2.167677E+01 +7.206323E+00 +2.167677E+01 +5.990168E+02 +1.788140E+01 +7.206323E+00 +1.788140E+01 +1.327997E+03 
 +5.759469E+02 -3.834085E+00 +1.656053E+00 -3.834085E+00 +5.850444E+02 +6.075780E+00 +1.656053E+00 +6.075780E+00 +1.383502E+03 
 +7.171849E+02 +8.173080E+00 +4.688064E+00 +8.173080E+00 +5.858622E+02 +2.205988E+00 +4.688064E+00 +2.205988E+00 +1.330162E+03 
 +6.209677E+02 +2.408504E+00 +1.625114E-01 +2.408504E+00 +5.825386E+02 +1.241674E+01 +1.625114E-01 +1.241674E+01 +1.416018E+03 
 +6.578764E+02 +1.458414E+01 -1.337636E+01 +1.458414E+01 +6.477672E+02 -1.013137E+01 -1.337636E+01 -1.013137E+01 +1.337751E+03 
 +5.818012E+02 -4.859440E+01 -1.165413E+01 -4.859440E+01 +6.654516E+02 +2.121527E+01 -1.165413E+01 +2.121527E+01 +1.333284E+03 
 +5.729881E+02 -1.409508E+01 -1.085612E+01 -1.409508E+01 +5.566265E+02 -8.737773E+00 -1.085612E+01 -8.737773E+00 +1.403843E+03 
 +5.440508E+02 +4.371448E+00 +6.403869E-01 +4.371448E+00 +5.472097E+02 +1.308183E+01 +6.403869E-01 +1.308183E+01 +1.344619E+03 
 +7.207385E+02 -2.420832E+01 -5.025641E+00 -2.420832E+01 +6.683804E+02 -1.248052E+01 -5.025641E+00 -1.248052E+01 +1.345042E+03 
 +5.654588E+02 +5.508630E+00 +5.435789E-01 +5.508630E+00 +5.581196E+02 -1.074802E+01 +5.435789E-01 -1.074802E+01 +1.385100E+03 
 +5.933313E+02 -2.126556E+01 +2.122038E+01 -2.126556E+01 +5.699777E+02 -1.484563E+01 +2.122038E+01 -1.484563E+01 +1.405557E+03 
 +5.512002E+02 -2.085299E+01 -1.811992E+01 -2.085299E+01 +6.634271E+02 -1.440611E+01 -1.811992E+01 -1.440611E+01 +1.336534E+03 
 +6.241860E+02 +7.985896E+00 +2.243262E+01 +7.985896E+00 +6.197775E+02 -1.506094E+00 +2.243262E+01 -1.506094E+00 +1.402638E+03 
 +5.975313E+02 +1.184314E+01 +1.216623E+00 +1.184314E+01 +6.646468E+02 +9.754834E+00 +1.216623E+00 +9.754834E+00 +1.265508E+03 
 +6.195731E+02 +6.368227E+00 +1.552877E+01 +6.368227E+00 +6.242454E+02 +1.597244E+01 +1.552877E+01 +1.597244E+01 +1.394276E+03 
 +5.702210E+02 -4.819639E+00 -1.896116E+01 -4.819639E+00 +5.623210E+02 +2.182510E+00 -1.896116E+01 +2.182510E+00 +1.375853E+03 
 +6.642050E+02 -7.898313E+00 -8.311185E+00 -7.898313E+00 +6.548981E+02 -8.582374E+00 -8.311185E+00 -8.582374E+00 +1.400887E+03 
 +5.670222E+02 -3.021227E+01 -1.365118E+01 -3.021227E+01 +5.671816E+02 -3.906943E+01 -1.365118E+01 -3.906943E+01 +1.406271E+03 
 +7.275040E+02 -2.997607E+01 -2.466625E+00 -2.997607E+01 +5.751522E+02 -2.854564E+01 -2.466625E+00 -2.854564E+01 +1.351559E+03 
 +6.113218E+02 +1.534799E+01 +8.290699E+00 +1.534799E+01 +6.114095E+02 -4.362223E+01 +8.290699E+00 -4.362223E+01 +1.358168E+03 
 +5.895964E+02 +1.410828E+01 -1.754375E+01 +1.410828E+01 +6.056052E+02 +5.299901E+01 -1.754375E+01 +5.299901E+01 +1.286300E+03 
 +6.400801E+02 +1.306090E+01 +8.859654E+00 +1.306090E+01 +5.855231E+02 +3.387041E+01 +8.859654E+00 +3.387041E+01 +1.305667E+03 
 +5.988922E+02 +1.331979E+01 +1.202704E+01 +1.331979E+01 +6.170562E+02 +1.657720E+01 +1.202704E+01 +1.657720E+01 +1.285446E+03 
 +5.670783E+02 -1.529977E+01 -3.978130E+00 -1.529977E+01 +5.918612E+02 -1.577809E+01 -3.978130E+00 -1.577809E+01 +1.343881E+03 
 +6.531472E+02 -1.742332E+01 +1.672133E+01 -1.742332E+01 +6.294215E+02 -3.775340E+01 +1.672133E+01 -3.775340E+01 +1.404943E+03 
 +5.763396E+02 +6.808627E+00 +2.835365E+01 +6.808627E+00 +5.831333E+02 +8.413254E+00 +2.835365E+01 +8.413254E+00 +1.256312E+03 
 +5.292795E+02 +3.063054E+01 -4.420174E+00 +3.063054E+01 +5.438997E+02 -7.560390E+00 -4.420174E+00 -7.560390E+00 +1.355603E+03 
 +6.185372E+02 +1.319367E+01 +1.170596E+01 +1.319367E+01 +6.166829E+02 +1.956128E+01 +1.170596E+01 +1.956128E+01 +1.380558E+03 
 +6.324090E+02 +9.821222E+00 -1.293765E+01 +9.821222E+00 +5.965696E+02 -5.625607E+00 -1.293765E+01 -5.625607E+00 +1.355643E+03 
 +5.764821E+02 +2.256452E+01 +7.496132E+00 +2.256452E+01 +5.945941E+02 -1.750782E+01 +7.496132E+00 -1.750782E+01 +1.416052E+03 
 +5.588263E+02 +1.457062E+01 +8.142544E-01 +1.457062E+01 +5.913618E+02 +2.851407E+00 +8.142544E-01 +2.851407E+00 +1.448902E+03 
 +7.670510E+02 -9.916630E+00 -1.860476E+01 -9.916630E+00 +6.184968E+02 -1.624693E+01 -1.860476E+01 -1.624693E+01 +1.378312E+03 
 +6.155569E+02 -1.384767E+01 -1.688197E+00 -1.384767E+01 +5.945460E+02 -2.112152E+01 -1.688197E+00 -2.112152E+01 +1.353708E+03 
 +5.544662E+02 -2.734981E+01 -7.019151E+00 -2.734981E+01 +6.911929E+02 -1.236320E+01 -7.019151E+00 -1.236320E+01 +1.351847E+03 
 +6.745293E+02 +2.457352E+01 -4.239349E+00 +2.457352E+01 +6.798990E+02 +9.716077E+00 -4.239349E+00 +9.716077E+00 +1.313474E+03 
 +7.065027E+02 +5.608940E-01 -1.627627E+00 +5.608940E-01 +6.801432E+02 +8.081228E-01 -1.627627E+00 +8.081228E-01 +1.404891E+03 
 +6.097385E+02 -3.031193E+01 -9.014220E-01 -3.031193E+01 +6.822855E+02 +3.287253E+00 -9.014220E-01 +3.287253E+00 +1.337463E+03 
 +5.697732E+02 +9.372660E+00 -1.844240E-02 +9.372660E+00 +5.961006E+02 -2.215235E+01 -1.844240E-02 -2.215235E+01 +1.449857E+03 
 +5.833286E+02 +2.863475E+01 +5.595121E+00 +2.863475E+01 +6.460833E+02 +4.862092E+00 +5.595121E+00 +4.862092E+00 +1.299162E+03 
 +6.243444E+02 -1.735715E-01 -1.958031E+01 -1.735715E-01 +6.311291E+02 -1.286778E+01 -1.958031E+01 -1.286778E+01 +1.431719E+03 
 +5.444089E+02 +5.332922E+00 +1.584600E+01 +5.332922E+00 +6.304389E+02 -3.123535E+01 +1.584600E+01 -3.123535E+01 +1.295350E+03 
 +5.823780E+02 +9.543347E+00 +9.402392E+00 +9.543347E+00 +5.741875E+02 +1.518724E+01 +9.402392E+00 +1.518724E+01 +1.290014E+03 
 +6.196545E+02 +3.593711E+01 -9.494933E+00 +3.593711E+01 +6.410648E+02 -5.676717E+00 -9.494933E+00 -5.676717E+00 +1.376675E+03 
 +6.659405E+02 +1.034470E+01 +2.067864E+00 +1.034470E+01 +6.365255E+02 -1.324950E+01 +2.067864E+00 -1.324950E+01 +1.289287E+03 
 +5.997508E+02 +2.815761E+01 -3.408279E+01 +2.815761E+01 +5.817817E+02 -3.644078E+00 -3.408279E+01 -3.644078E+00 +1.385476E+03 
 +6.495558E+02 +2.033344E+00 +2.996880E+01 +2.033344E+00 +5.950409E+02 -4.406910E+00 +2.996880E+01 -4.406910E+00 +1.328082E+03 
 +6.244415E+02 +3.247165E+01 +9.335432E+00 +3.247165E+01 +5.885664E+02 +1.022541E+01 +9.335432E+00 +1.022541E+01 +1.287391E+03 
 +6.755283E+02 +3.527763E-01 -8.663681E+00 +3.527763E-01 +5.828512E+02 -2.296935E+00 -8.663681E+00 -2.296935E+00 +1.401229E+03 
 +6.465096E+02 -1.104034E+01 +3.113150E+01 -1.104034E+01 +6.097874E+02 -4.069618E+01 +3.113150E+01 -4.069618E+01 +1.296143E+03 
 +6.141840E+02 +1.062340E+01 -3.279794E+01 +1.062340E+01 +6.189382E+02 -4.582129E+00 -3.279794E+01 -4.582129E+00 +1.430847E+03 
 +6.673361E+02 -1.543862E+01 +2.301064E+01 -1.543862E+01 +6.315585E+02 +1.017956E+01 +2.301064E+01 +1.017956E+01 +1.386372E+03 
 +5.733414E+02 +9.680248E+00 +3.700585E+00 +9.680248E+00 +5.464473E+02 +1.513322E+01 +3.700585E+00 +1.513322E+01 +1.439145E+03 
 +5.569210E+02 +4.934767E+00 -3.287825E+00 +4.934767E+00 +5.910823E+02 +3.036228E+00 -3.287825E+00 +3.036228E+00 +1.363837E+03 
 +5.130330E+02 +1.826368E+01 -1.374946E+01 +1.826368E+01 +6.145070E+02 +1.596651E+00 -1.374946E+01 +1.596651E+00 +1.249623E+03 
 +5.852557E+02 +5.470407E+00 +4.935670E+00 +5.470407E+00 +5.576908E+02 +2.020102E+01 +4.935670E+00 +2.020102E+01 +1.358752E+03 
 +6.596805E+02 -4.214440E+01 +4.181682E+00 -4.214440E+01 +6.422602E+02 -5.922561E-01 +4.181682E+00 -5.922561E-01 +1.343118E+03 
 +6.189496E+02 -4.801135E+00 +2.519449E+01 -4.801135E+00 +6.372656E+02 +9.894311E+00 +2.519449E+01 +9.894311E+00 +1.386287E+03 
 +6.264896E+02 +2.481491E+01 -2.546253E+01 +2.481491E+01 +5.927487E+02 -3.032763E+01 -2.546253E+01 -3.032763E+01 +1.326295E+03 
 +6.271108E+02 -3.476756E+00 +3.085336E+01 -3.476756E+00 +6.247467E+02 -5.992038E+00 +3.085336E+01 -5.992038E+00 +1.390667E+03 
 +5.735482E+02 +4.570787E+00 -2.067435E+01 +4.570787E+00 +5.349786E+02 -1.983177E+01 -2.067435E+01 -1.983177E+01 +1.389972E+03 
 +6.240745E+02 +1.212891E+01 -9.956512E+00 +1.212891E+01 +6.061428E+02 +5.962509E+00 -9.956512E+00 +5.962509E+00 +1.390382E+03 
 +5.928376E+02 -3.350735E+01 +3.806946E-01 -3.350735E+01 +5.626371E+02 +2.881957E+01 +3.806946E-01 +2.881957E+01 +1.318045E+03 
 +6.403395E+02 +4.136274E+01 -7.077258E+00 +4.136274E+01 +5.556027E+02 -1.308334E+01 -7.077258E+00 -1.308334E+01 +1.306591E+03 
 +6.095975E+02 +2.650113E+01 +4.872257E+01 +2.650113E+01 +6.145805E+02 +1.757160E+01 +4.872257E+01 +1.757160E+01 +1.358380E+03 
 +6.208061E+02 +1.554522E+01 -3.020717E+01 +1.554522E+01 +6.651190E+02 -4.330822E+00 -3.020717E+01 -4.330822E+00 +1.327609E+03 
 +6.220690E+02 -3.069707E+01 -5.120677E+00 -3.069707E+01 +6.710254E+02 +2.332432E+01 -5.120677E+00 +2.332432E+01 +1.290207E+03 
 +6.074147E+02 -6.274806E+01 -2.791344E+01 -6.274806E+01 +6.308594E+02 +4.138721E+01 -2.791344E+01 +4.138721E+01 +1.354048E+03 
 +5.932224E+02 -3.478203E+01 -9.679500E+00 -3.478203E+01 +5.370900E+02 +6.024166E+00 -9.679500E+00 +6.024166E+00 +1.260264E+03 
 +5.922213E+02 +5.903244E+00 -3.633885E+01 +5.903244E+00 +5.894346E+02 +2.245491E+01 -3.633885E+01 +2.245491E+01 +1.413551E+03 
 +6.013098E+02 -3.046273E+01 +3.465544E+01 -3.046273E+01 +6.283196E+02 -1.594232E+01 +3.465544E+01 -1.594232E+01 +1.343497E+03 
 +5.909734E+02 -9.172194E+00 -2.198817E+01 -9.172194E+00 +6.223813E+02 -2.955537E+01 -2.198817E+01 -2.955537E+01 +1.370224E+03 
 +6.838867E+02 -3.384161E+00 -1.516141E+01 -3.384161E+00 +5.950308E+02 +1.119807E+01 -1.516141E+01 +1.119807E+01 +1.308386E+03 
 +5.818139E+02 -2.443647E+01 +2.676782E+01 -2.443647E+01 +5.611777E+02 -1.185802E+01 +2.676782E+01 -1.185802E+01 +1.425976E+03 
 +6.476458E+02 +4.614001E+01 -1.726940E+00 +4.614001E+01 +5.541078E+02 -5.203466E+00 -1.726940E+00 -5.203466E+00 +1.381518E+03 
 +6.337333E+02 +1.806504E+01 -1.825897E+00 +1.806504E+01 +5.924347E+02 +1.619256E+00 -1.825897E+00 +1.619256E+00 +1.260661E+03 
 +6.513188E+02 -2.012255E+01 -6.611412E+00 -2.012255E+01 +6.505466E+02 +4.023457E+00 -6.611412E+00 +4.023457E+00 +1.315242E+03 
 +5.383248E+02 -5.232992E+01 -4.600334E+00 -5.232992E+01 +6.087263E+02 +1.042722E+01 -4.600334E+00 +1.042722E+01 +1.330382E+03 
 +6.006345E+02 -3.100767E+01 +1.836310E+01 -3.100767E+01 +6.146382E+02 +1.252575E+01 +1.836310E+01 +1.252575E+01 +1.282280E+03 
 +5.534276E+02 +2.958978E+00 -2.645910E+00 +2.958978E+00 +5.840958E+02 -1.857449E+01 -2.645910E+00 -1.857449E+01 +1.384733E+03 
 +5.637147E+02 +4.620632E+00 +3.459660E+00 +4.620632E+00 +5.182902E+02 -2.027058E+01 +3.459660E+00 -2.027058E+01 +1.342128E+03 
 +6.087251E+02 -1.691555E+01 -1.040096E+01 -1.691555E+01 +6.033301E+02 -1.385676E+01 -1.040096E+01 -1.385676E+01 +1.464860E+03 
 +6.351476E+02 -2.323796E+01 +1.890213E+01 -2.323796E+01 +5.462057E+02 +9.340024E+00 +1.890213E+01 +9.340024E+00 +1.279752E+03 
 +5.690089E+02 -1.443414E+01 -1.131903E+00 -1.443414E+01 +5.629572E+02 -3.457723E+00 -1.131903E+00 -3.457723E+00 +1.418028E+03 
 +6.425430E+02 -2.536083E+01 +3.073516E+00 -2.536083E+01 +6.137641E+02 -1.113993E+01 +3.073516E+00 -1.113993E+01 +1.300954E+03 
 +6.835505E+02 +3.754504E+00 +2.260675E+01 +3.754504E+00 +5.984856E+02 -5.620124E+00 +2.260675E+01 -5.620124E+00 +1.347374E+03 
 +5.878698E+02 +1.584154E+01 +1.078201E+01 +1.584154E+01 +6.074211E+02 +1.749824E+01 +1.078201E+01 +1.749824E+01 +1.311319E+03 
 +6.388470E+02 +9.714965E-01 -1.238428E+01 +9.714965E-01 +5.784055E+02 +2.923356E+01 -1.238428E+01 +2.923356E+01 +1.297231E+03 
 +5.778356E+02 +6.310582E+00 -3.021963E+01 +6.310582E+00 +5.691243E+02 +4.044256E+01 -3.021963E+01 +4.044256E+01 +1.384540E+03 
 +5.813837E+02 +3.641377E+01 -7.638222E-01 +3.641377E+01 +6.463961E+02 +4.682395E+00 -7.638222E-01 +4.682395E+00 +1.281855E+03 
 +6.561713E+02 +1.787360E+01 +3.700045E+00 +1.787360E+01 +6.129037E+02 -2.126468E+01 +3.700045E+00 -2.126468E+01 +1.451546E+03 
 +5.858744E+02 -3.199891E-01 +1.549694E+01 -3.199891E-01 +5.571192E+02 +6.711213E-01 +1.549694E+01 +6.711213E-01 +1.387731E+03 
 +6.755900E+02 +5.676072E+01 -1.514531E+01 +5.676072E+01 +5.730162E+02 +8.319321E+00 -1.514531E+01 +8.319321E+00 +1.294388E+03 
 +5.718972E+02 +4.046865E+00 -3.278420E+00 +4.046865E+00 +6.116345E+02 -1.124302E+01 -3.278420E+00 -1.124302E+01 +1.344115E+03 
 +5.737484E+02 +1.365409E+01 +1.684969E+01 +1.365409E+01 +5.721233E+02 -2.900331E+00 +1.684969E+01 -2.900331E+00 +1.419992E+03 
 +5.477969E+02 -1.403357E+01 +1.717282E+01 -1.403357E+01 +5.640517E+02 -9.622967E+00 +1.717282E+01 -9.622967E+00 +1.378483E+03 
 +7.333438E+02 -1.448518E+01 +1.932434E+01 -1.448518E+01 +5.940536E+02 -2.287337E+01 +1.932434E+01 -2.287337E+01 +1.316719E+03 
 +5.726146E+02 +2.892216E+01 +1.297747E+01 +2.892216E+01 +5.405145E+02 -1.217397E+01 +1.297747E+01 -1.217397E+01 +1.323637E+03 
 +6.736000E+02 -5.810825E+00 -1.800059E+00 -5.810825E+00 +5.876967E+02 -1.006835E+01 -1.800059E+00 -1.006835E+01 +1.317746E+03 
 +5.940745E+02 -4.211575E+01 -1.797863E+01 -4.211575E+01 +6.374697E+02 -2.159540E+01 -1.797863E+01 -2.159540E+01 +1.288797E+03 
 +6.470440E+02 +6.564594E+01 -4.032964E+01 +6.564594E+01 +6.443073E+02 +2.193039E+01 -4.032964E+01 +2.193039E+01 +1.416000E+03 
 +6.497391E+02 +5.774106E+01 -1.834155E+01 +5.774106E+01 +7.225822E+02 -4.714830E+00 -1.834155E+01 -4.714830E+00 +1.377301E+03 
 +5.976632E+02 -1.999306E+01 -1.214087E+01 -1.999306E+01 +5.919163E+02 +2.093222E+01 -1.214087E+01 +2.093222E+01 +1.370899E+03 
 +5.691862E+02 +1.333391E+01 +1.227219E+01 +1.333391E+01 +5.672208E+02 +2.620341E+00 +1.227219E+01 +2.620341E+00 +1.391322E+03 
 +6.203302E+02 +1.610330E+01 +1.346693E+01 +1.610330E+01 +5.686595E+02 -2.492560E+01 +1.346693E+01 -2.492560E+01 +1.386115E+03 
 +6.311646E+02 +3.442348E+01 -3.315553E+01 +3.442348E+01 +6.135225E+02 +5.591652E+00 -3.315553E+01 +5.591652E+00 +1.326211E+03 
 +6.590123E+02 -4.286085E+01 +6.009471E+00 -4.286085E+01 +6.149434E+02 -1.391406E+01 +6.009471E+00 -1.391406E+01 +1.364048E+03 
 +6.326267E+02 -2.672112E+01 -6.616274E+00 -2.672112E+01 +5.792054E+02 +2.648429E+00 -6.616274E+00 +2.648429E+00 +1.288980E+03 
 +6.347258E+02 +5.428003E+01 -7.635055E+00 +5.428003E+01 +6.340874E+02 -1.095635E+01 -7.635055E+00 -1.095635E+01 +1.328725E+03 
 +5.612770E+02 -2.154681E+01 +8.790986E+00 -2.154681E+01 +6.789852E+02 -2.930779E+01 +8.790986E+00 -2.930779E+01 +1.342983E+03 
 +6.299866E+02 -4.734629E+01 +2.029633E+01 -4.734629E+01 +6.439662E+02 -8.240706E+00 +2.029633E+01 -8.240706E+00 +1.367685E+03 
 +6.565593E+02 -1.956300E+01 +7.106274E+00 -1.956300E+01 +6.936188E+02 +1.752363E+01 +7.106274E+00 +1.752363E+01 +1.389169E+03 
 +6.002379E+02 -6.584885E+00 -4.013947E+00 -6.584885E+00 +6.939329E+02 +9.922246E+00 -4.013947E+00 +9.922246E+00 +1.334124E+03 
 +5.611073E+02 -1.385946E+01 +9.411108E+00 -1.385946E+01 +6.930554E+02 -7.315750E+00 +9.411108E+00 -7.315750E+00 +1.301030E+03 
 +6.224124E+02 -9.958568E+00 +1.966534E+01 -9.958568E+00 +6.087496E+02 +5.427243E+00 +1.966534E+01 +5.427243E+00 +1.377549E+03 
 +6.158035E+02 -3.138001E+01 -1.954778E+01 -3.138001E+01 +7.119255E+02 +1.390555E+01 -1.954778E+01 +1.390555E+01 +1.375155E+03 
 +6.470564E+02 +1.975971E+01 +3.010154E+01 +1.975971E+01 +6.850520E+02 -2.664901E+00 +3.010154E+01 -2.664901E+00 +1.379495E+03 
 +6.092744E+02 -2.664305E+01 -3.569383E+00 -2.664305E+01 +6.783968E+02 +5.217135E+00 -3.569383E+00 +5.217135E+00 +1.320721E+03 
 +5.763484E+02 -1.497082E+00 +5.789095E+00 -1.497082E+00 +6.404958E+02 +1.764301E+01 +5.789095E+00 +1.764301E+01 +1.362083E+03 
 +5.583713E+02 -2.323485E+00 +1.403668E+01 -2.323485E+00 +5.824467E+02 -2.209330E+01 +1.403668E+01 -2.209330E+01 +1.358356E+03 
 +6.681995E+02 +2.414281E+01 -3.166557E+01 +2.414281E+01 +5.908031E+02 -1.603665E+01 -3.166557E+01 -1.603665E+01 +1.303306E+03 
 +5.921348E+02 -1.957551E+00 -1.324609E+01 -1.957551E+00 +5.854424E+02 -1.440053E+01 -1.324609E+01 -1.440053E+01 +1.435590E+03 
 +6.217671E+02 -9.208979E+00 +3.387445E+01 -9.208979E+00 +5.993480E+02 -9.618258E+00 +3.387445E+01 -9.618258E+00 +1.373432E+03 
 +6.150087E+02 -3.754159E+01 -6.753801E+00 -3.754159E+01 +6.926749E+02 +1.293098E+01 -6.753801E+00 +1.293098E+01 +1.361143E+03 
 +5.979686E+02 -1.642793E+01 -1.034776E+01 -1.642793E+01 +6.248430E+02 +5.849484E-01 -1.034776E+01 +5.849484E-01 +1.439019E+03 
 +6.429686E+02 -2.057943E+01 -9.704344E+00 -2.057943E+01 +5.810494E+02 -4.709330E+00 -9.704344E+00 -4.709330E+00 +1.312779E+03 
 +6.266574E+02 +3.047502E+01 +1.032794E+01 +3.047502E+01 +5.900072E+02 -1.539350E+01 +1.032794E+01 -1.539350E+01 +1.335979E+03 
 +6.077699E+02 +2.313735E+01 -8.340807E+00 +2.313735E+01 +6.678542E+02 -6.707879E+00 -8.340807E+00 -6.707879E+00 +1.349669E+03 
 +5.695961E+02 -1.257845E+01 -1.565312E+01 -1.257845E+01 +6.779188E+02 -1.158744E+01 -1.565312E+01 -1.158744E+01 +1.324755E+03 
 +6.679883E+02 +3.813652E+00 -2.716457E+00 +3.813652E+00 +6.069073E+02 -5.508305E+00 -2.716457E+00 -5.508305E+00 +1.310369E+03 
 +5.708107E+02 +2.486756E+00 +2.941385E+01 +2.486756E+00 +5.581074E+02 -1.044376E+01 +2.941385E+01 -1.044376E+01 +1.367526E+03 
 +6.660594E+02 +4.984966E+01 -8.151910E+00 +4.984966E+01 +5.840492E+02 -2.049612E+00 -8.151910E+00 -2.049612E+00 +1.317419E+03 
 +5.889407E+02 +1.267482E+01 -8.672504E-01 +1.267482E+01 +6.448600E+02 +2.322700E+01 -8.672504E-01 +2.322700E+01 +1.355602E+03 
 +6.396440E+02 -1.428874E+01 +8.239729E-01 -1.428874E+01 +7.107879E+02 +8.333829E+00 +8.239729E-01 +8.333829E+00 +1.371757E+03 
 +6.714662E+02 +4.711763E+01 -3.188386E+00 +4.711763E+01 +6.768996E+02 -3.009943E+00 -3.188386E+00 -3.009943E+00 +1.342066E+03 
 +6.787502E+02 -1.691855E+01 -9.342934E+00 -1.691855E+01 +6.672499E+02 -1.051045E+01 -9.342934E+00 -1.051045E+01 +1.388449E+03 
 +5.594310E+02 +1.379210E+01 +1.999651E+00 +1.379210E+01 +5.561871E+02 -4.290325E+01 +1.999651E+00 -4.290325E+01 +1.342449E+03 
 +5.639509E+02 -1.824978E+01 +9.190707E-01 -1.824978E+01 +5.691771E+02 +2.039004E+00 +9.190707E-01 +2.039004E+00 +1.399578E+03 
 +5.557657E+02 +1.471700E+01 -1.177283E+00 +1.471700E+01 +6.380408E+02 +5.817521E+00 -1.177283E+00 +5.817521E+00 +1.295949E+03 
 +6.165009E+02 +1.693536E+01 -2.673031E+01 +1.693536E+01 +6.713765E+02 +9.430734E+00 -2.673031E+01 +9.430734E+00 +1.356815E+03 
 +6.282045E+02 +1.529390E+01 +1.895254E+01 +1.529390E+01 +6.889074E+02 +1.048831E+01 +1.895254E+01 +1.048831E+01 +1.325772E+03 
 +6.505881E+02 -3.080886E+01 +6.625206E+00 -3.080886E+01 +6.806221E+02 -2.380372E-01 +6.625206E+00 -2.380372E-01 +1.322053E+03 
 +5.867794E+02 -1.773942E+01 +1.050001E+01 -1.773942E+01 +6.024060E+02 -4.613504E+01 +1.050001E+01 -4.613504E+01 +1.372935E+03 
 +6.207729E+02 +2.700044E+00 +2.956263E+01 +2.700044E+00 +6.830507E+02 -2.614909E+01 +2.956263E+01 -2.614909E+01 +1.315456E+03 
 +5.816550E+02 -6.542774E+00 +2.186776E+01 -6.542774E+00 +5.729561E+02 -4.094822E+00 +2.186776E+01 -4.094822E+00 +1.378057E+03 
 +5.498722E+02 +5.795403E+00 +5.367986E+00 +5.795403E+00 +5.500917E+02 +3.098834E+01 +5.367986E+00 +3.098834E+01 +1.426112E+03 
 +5.895735E+02 +3.599993E+00 +1.421095E+01 +3.599993E+00 +5.942484E+02 +1.728615E+01 +1.421095E+01 +1.728615E+01 +1.338154E+03 
 +5.442435E+02 +2.100252E+01 +1.777007E+01 +2.100252E+01 +5.940333E+02 -2.684431E+01 +1.777007E+01 -2.684431E+01 +1.329141E+03 
 +6.832606E+02 +2.583046E+01 +1.105026E+01 +2.583046E+01 +6.059415E+02 -1.138555E+01 +1.105026E+01 -1.138555E+01 +1.335326E+03 
 +5.791183E+02 -1.443852E+01 +1.708997E+00 -1.443852E+01 +5.545495E+02 -1.784212E+01 +1.708997E+00 -1.784212E+01 +1.356630E+03 
 +6.513314E+02 +2.015192E+01 -9.553591E+00 +2.015192E+01 +5.832606E+02 +1.623188E+01 -9.553591E+00 +1.623188E+01 +1.291232E+03 
 +6.406516E+02 +1.881161E+01 -4.459024E+00 +1.881161E+01 +6.040785E+02 +7.425895E+00 -4.459024E+00 +7.425895E+00 +1.404550E+03 
 +5.864161E+02 +1.069723E+01 +1.569805E+01 +1.069723E+01 +6.127292E+02 -4.480282E+00 +1.569805E+01 -4.480282E+00 +1.333761E+03 
 +6.056415E+02 -4.818402E+01 +5.957573E+00 -4.818402E+01 +6.248660E+02 +1.642745E+01 +5.957573E+00 +1.642745E+01 +1.304564E+03 
 +5.872949E+02 +5.501942E+00 -1.251539E+01 +5.501942E+00 +6.084129E+02 +1.559762E+01 -1.251539E+01 +1.559762E+01 +1.427317E+03 
 +6.095460E+02 +3.261778E+01 -4.100547E+00 +3.261778E+01 +6.473415E+02 +3.127096E+00 -4.100547E+00 +3.127096E+00 +1.281432E+03 
 +6.135138E+02 -1.545117E+01 +1.528777E+01 -1.545117E+01 +5.881821E+02 -9.362729E+00 +1.528777E+01 -9.362729E+00 +1.446506E+03 
 +5.958407E+02 -1.277653E+01 -2.182901E+01 -1.277653E+01 +7.042632E+02 -1.024589E+01 -2.182901E+01 -1.024589E+01 +1.364627E+03 
 +6.371695E+02 +7.910551E+01 -1.696357E+01 +7.910551E+01 +6.115483E+02 +3.389656E+00 -1.696357E+01 +3.389656E+00 +1.371624E+03 
 +6.508862E+02 +5.685953E+00 -2.182202E+01 +5.685953E+00 +5.939952E+02 -5.513285E+00 -2.182202E+01 -5.513285E+00 +1.300289E+03 
 +6.436219E+02 +6.497858E+00 -3.055993E+01 +6.497858E+00 +6.437599E+02 +1.488284E+01 -3.055993E+01 +1.488284E+01 +1.369464E+03 
 +6.473771E+02 -1.049951E+01 +1.507680E+01 -1.049951E+01 +6.862151E+02 -8.389719E+00 +1.507680E+01 -8.389719E+00 +1.322797E+03 
 +6.134124E+02 +5.201059E+01 +5.183179E+00 +5.201059E+01 +7.039620E+02 +5.745073E-01 +5.183179E+00 +5.745073E-01 +1.316998E+03 
 +6.095947E+02 +4.013388E+01 +1.884661E+00 +4.013388E+01 +6.939575E+02 -9.775070E+00 +1.884661E+00 -9.775070E+00 +1.351482E+03 
 +6.841978E+02 -2.770406E+00 -2.148566E+01 -2.770406E+00 +5.380690E+02 +5.949138E+00 -2.148566E+01 +5.949138E+00 +1.296483E+03 
 +5.642218E+02 +1.160670E+01 +2.595910E+01 +1.160670E+01 +5.976807E+02 +8.218236E+00 +2.595910E+01 +8.218236E+00 +1.397192E+03 
 +6.669586E+02 +1.938682E+01 +5.003978E+00 +1.938682E+01 +6.101361E+02 -1.959881E+01 +5.003978E+00 -1.959881E+01 +1.416732E+03 
 +6.024940E+02 -6.791066E+00 -3.366334E+00 -6.791066E+00 +5.598562E+02 +2.617236E+00 -3.366334E+00 +2.617236E+00 +1.407818E+03 
 +6.310507E+02 -6.354019E+00 -2.990650E+01 -6.354019E+00 +5.968240E+02 +1.724640E+00 -2.990650E+01 +1.724640E+00 +1.302334E+03 
 +5.980343E+02 +5.535718E+00 +1.556989E+01 +5.535718E+00 +5.898569E+02 +2.442051E+01 +1.556989E+01 +2.442051E+01 +1.429919E+03 
 +5.891636E+02 -2.393423E+00 +1.865636E+01 -2.393423E+00 +6.376139E+02 -5.097182E+00 +1.865636E+01 -5.097182E+00 +1.332270E+03 
 +6.787383E+02 +9.929033E-02 +3.988252E+00 +9.929033E-02 +6.048821E+02 -2.562285E+01 +3.988252E+00 -2.562285E+01 +1.310230E+03 
 +5.531493E+02 -2.593165E+01 +1.531393E+01 -2.593165E+01 +5.791476E+02 +1.230069E+01 +1.531393E+01 +1.230069E+01 +1.380405E+03 
 +6.247084E+02 -3.238876E+01 -1.290171E+01 -3.238876E+01 +6.025779E+02 +1.882896E+01 -1.290171E+01 +1.882896E+01 +1.348100E+03 
 +5.522831E+02 -4.511573E+00 +1.135533E+01 -4.511573E+00 +5.569059E+02 +6.459860E-01 +1.135533E+01 +6.459860E-01 +1.354364E+03 
 +6.206555E+02 -9.957888E+00 +5.040267E+00 -9.957888E+00 +5.617082E+02 +1.279482E+01 +5.040267E+00 +1.279482E+01 +1.299589E+03 
 +6.229171E+02 +4.384187E+00 +8.333093E-01 +4.384187E+00 +5.730265E+02 +1.759759E+01 +8.333093E-01 +1.759759E+01 +1.359803E+03 
 +6.288403E+02 -5.088742E+00 -1.579539E+01 -5.088742E+00 +6.218386E+02 -3.586085E+01 -1.579539E+01 -3.586085E+01 +1.441183E+03 
 +6.563315E+02 +1.652699E+01 -3.923020E+01 +1.652699E+01 +6.062444E+02 +1.768173E+01 -3.923020E+01 +1.768173E+01 +1.383605E+03 
 +6.462032E+02 -2.202908E+01 -2.080977E+01 -2.202908E+01 +6.683211E+02 +1.402632E+01 -2.080977E+01 +1.402632E+01 +1.366826E+03 
 +5.497289E+02 -6.184235E+00 +4.807267E+00 -6.184235E+00 +5.791430E+02 +2.450627E+01 +4.807267E+00 +2.450627E+01 +1.347336E+03 
 +5.632371E+02 -1.226408E+01 +2.044584E+01 -1.226408E+01 +5.312382E+02 +5.177522E+00 +2.044584E+01 +5.177522E+00 +1.364885E+03 
 +5.800631E+02 -1.973400E+01 +1.810766E+01 -1.973400E+01 +6.226074E+02 +1.616069E+01 +1.810766E+01 +1.616069E+01 +1.386180E+03 
 +6.178920E+02 -8.263457E+01 +6.832661E-01 -8.263457E+01 +6.354304E+02 -1.310447E+01 +6.832661E-01 -1.310447E+01 +1.298698E+03 
 +6.428100E+02 +5.181813E+00 +2.031312E+01 +5.181813E+00 +6.026971E+02 -2.038709E-01 +2.031312E+01 -2.038709E-01 +1.416231E+03 
 +5.367260E+02 +3.520659E+00 -1.255660E+01 +3.520659E+00 +6.805861E+02 +8.725122E+00 -1.255660E+01 +8.725122E+00 +1.274485E+03 
 +6.252451E+02 -3.444657E+01 +4.968317E-01 -3.444657E+01 +6.838964E+02 -8.051298E+00 +4.968317E-01 -8.051298E+00 +1.348346E+03 
 +5.831174E+02 -3.176242E+01 +1.247855E+00 -3.176242E+01 +6.954547E+02 +5.450299E+00 +1.247855E+00 +5.450299E+00 +1.347065E+03 
 +6.055516E+02 +8.177272E+00 -4.822689E+01 +8.177272E+00 +6.348127E+02 +4.351969E+00 -4.822689E+01 +4.351969E+00 +1.381192E+03 
 +6.556963E+02 -2.664876E+01 -4.483307E+00 -2.664876E+01 +6.159913E+02 -1.547612E+01 -4.483307E+00 -1.547612E+01 +1.351991E+03 
 +6.725135E+02 -3.046125E+01 +1.439479E+01 -3.046125E+01 +6.503518E+02 +1.097787E+01 +1.439479E+01 +1.097787E+01 +1.404559E+03 
 +6.502895E+02 +3.989547E+00 +4.212800E+01 +3.989547E+00 +6.286241E+02 +6.968189E+00 +4.212800E+01 +6.968189E+00 +1.365661E+03 
 +6.183835E+02 -2.317302E+01 -5.509212E+00 -2.317302E+01 +6.169945E+02 -5.702558E+00 -5.509212E+00 -5.702558E+00 +1.298538E+03 
 +5.749845E+02 +1.845465E+01 -2.049419E+01 +1.845465E+01 +6.378977E+02 +1.373643E+00 -2.049419E+01 +1.373643E+00 +1.388760E+03 
 +7.266514E+02 -2.263513E+01 -1.920583E+01 -2.263513E+01 +5.898183E+02 -2.830600E+01 -1.920583E+01 -2.830600E+01 +1.344067E+03 
 +5.450567E+02 -1.762560E+01 -3.593196E+00 -1.762560E+01 +5.608873E+02 +3.383726E+00 -3.593196E+00 +3.383726E+00 +1.410947E+03 
 +5.498390E+02 +1.864736E+01 +4.107528E+01 +1.864736E+01 +5.265727E+02 +3.483002E+00 +4.107528E+01 +3.483002E+00 +1.268673E+03 
 +6.078295E+02 +2.017682E+01 -2.288776E+01 +2.017682E+01 +6.006700E+02 -1.389669E+01 -2.288776E+01 -1.389669E+01 +1.431279E+03 
 +6.469127E+02 +1.467943E+01 +1.428918E+01 +1.467943E+01 +6.435143E+02 +3.692875E+01 +1.428918E+01 +3.692875E+01 +1.353831E+03 
 +5.391652E+02 +1.558862E+01 +1.218939E+01 +1.558862E+01 +5.611696E+02 +8.823525E+00 +1.218939E+01 +8.823525E+00 +1.374687E+03 
 +5.966323E+02 -9.649226E+00 +8.087696E+00 -9.649226E+00 +5.656324E+02 -6.439018E+00 +8.087696E+00 -6.439018E+00 +1.373684E+03 
 +6.168261E+02 -2.879339E+01 -3.235183E+00 -2.879339E+01 +7.245652E+02 -2.389624E+00 -3.235183E+00 -2.389624E+00 +1.372377E+03 
 +6.666310E+02 -1.678267E+00 -1.057662E+01 -1.678267E+00 +7.690206E+02 +1.303723E+01 -1.057662E+01 +1.303723E+01 +1.384744E+03 
 +6.458030E+02 +1.120175E+01 -1.041066E+01 +1.120175E+01 +6.348266E+02 +1.641239E+01 -1.041066E+01 +1.641239E+01 +1.347173E+03 
 +5.829272E+02 +1.281219E+01 -3.316829E+00 +1.281219E+01 +6.070226E+02 -1.207893E+01 -3.316829E+00 -1.207893E+01 +1.401493E+03 
 +6.498134E+02 -2.746196E+01 -8.394786E+00 -2.746196E+01 +7.197643E+02 -1.988746E+01 -8.394786E+00 -1.988746E+01 +1.357009E+03 
 +6.238213E+02 -2.223436E+00 -1.711222E+01 -2.223436E+00 +6.746341E+02 -7.022308E+00 -1.711222E+01 -7.022308E+00 +1.325147E+03 
 +5.729818E+02 -1.061313E+01 +2.373869E+01 -1.061313E+01 +6.120123E+02 -1.674993E+01 +2.373869E+01 -1.674993E+01 +1.383565E+03 
 +6.415814E+02 +5.605326E+01 -5.339807E+00 +5.605326E+01 +6.248979E+02 +5.672597E+00 -5.339807E+00 +5.672597E+00 +1.330468E+03 
 +6.080206E+02 +9.386455E+00 -1.430931E+01 +9.386455E+00 +6.200561E+02 +1.741462E+01 -1.430931E+01 +1.741462E+01 +1.368374E+03 
 +5.338145E+02 +1.080630E+01 -5.335803E+00 +1.080630E+01 +5.368760E+02 -7.842593E+00 -5.335803E+00 -7.842593E+00 +1.357788E+03 
 +5.227990E+02 -7.280571E+00 +2.011224E+01 -7.280571E+00 +5.390273E+02 -6.641470E+00 +2.011224E+01 -6.641470E+00 +1.352509E+03 
 +6.085795E+02 +1.981281E+01 +9.846025E+00 +1.981281E+01 +5.924809E+02 +1.307547E+01 +9.846025E+00 +1.307547E+01 +1.371176E+03 
 +5.709266E+02 +2.689634E+01 +3.284965E+00 +2.689634E+01 +5.504133E+02 +2.109200E+00 +3.284965E+00 +2.109200E+00 +1.347620E+03 
 +5.581728E+02 +1.206165E+00 -1.599277E+01 +1.206165E+00 +5.409832E+02 -1.497032E+01 -1.599277E+01 -1.497032E+01 +1.437188E+03 
 +5.799810E+02 +1.745856E+01 +3.017722E+01 +1.745856E+01 +5.785062E+02 -2.614271E+01 +3.017722E+01 -2.614271E+01 +1.423716E+03 
 +5.762714E+02 -5.017402E+01 -1.728612E+01 -5.017402E+01 +5.435856E+02 -4.035604E+00 -1.728612E+01 -4.035604E+00 +1.296313E+03 
 +7.038715E+02 -2.789799E+01 -1.794372E+01 -2.789799E+01 +6.206390E+02 -1.129964E+01 -1.794372E+01 -1.129964E+01 +1.357122E+03 
 +5.912388E+02 +1.764945E+01 -2.913612E+01 +1.764945E+01 +5.647820E+02 -2.307379E+01 -2.913612E+01 -2.307379E+01 +1.411482E+03 
 +6.092921E+02 -2.825501E+01 +9.745525E+00 -2.825501E+01 +5.710005E+02 +1.345505E+01 +9.745525E+00 +1.345505E+01 +1.310353E+03 
 +5.683053E+02 +7.470767E+00 +3.594362E+00 +7.470767E+00 +5.823093E+02 -4.041779E+01 +3.594362E+00 -4.041779E+01 +1.329435E+03 
 +6.183139E+02 +1.634279E+01 +1.792887E+01 +1.634279E+01 +6.253066E+02 -8.789128E+00 +1.792887E+01 -8.789128E+00 +1.360460E+03 
 +5.425230E+02 -1.047433E+01 +6.661540E+00 -1.047433E+01 +5.325071E+02 -1.330853E+01 +6.661540E+00 -1.330853E+01 +1.388266E+03 
 +6.476959E+02 -1.547617E+01 +2.295275E+01 -1.547617E+01 +5.804174E+02 -7.658818E+00 +2.295275E+01 -7.658818E+00 +1.362411E+03 
 +5.668767E+02 -1.563276E+01 +1.918511E+01 -1.563276E+01 +5.925669E+02 -1.806407E+00 +1.918511E+01 -1.806407E+00 +1.379308E+03 
 +6.327255E+02 -1.487049E+01 -5.921954E+00 -1.487049E+01 +6.190774E+02 -1.746089E+01 -5.921954E+00 -1.746089E+01 +1.362904E+03 
 +6.415222E+02 +6.604758E+00 +1.013729E+01 +6.604758E+00 +6.524775E+02 -6.163203E+00 +1.013729E+01 -6.163203E+00 +1.311163E+03 
 +5.863720E+02 -4.182819E+01 +3.088510E+01 -4.182819E+01 +6.438743E+02 +7.760630E+00 +3.088510E+01 +7.760630E+00 +1.326657E+03 
 +7.236524E+02 -2.657358E+00 -6.626713E+00 -2.657358E+00 +6.281941E+02 -2.206039E-01 -6.626713E+00 -2.206039E-01 +1.371560E+03 
 +6.362507E+02 +1.497556E+01 -9.142262E+00 +1.497556E+01 +6.242504E+02 -2.012263E+01 -9.142262E+00 -2.012263E+01 +1.474724E+03 
 +6.865882E+02 +2.996087E+01 +2.413731E+01 +2.996087E+01 +7.049622E+02 -2.115848E+01 +2.413731E+01 -2.115848E+01 +1.373005E+03 
 +6.322089E+02 -1.873418E+01 -7.433397E-01 -1.873418E+01 +6.318912E+02 -9.678340E+00 -7.433397E-01 -9.678340E+00 +1.329654E+03 
 +6.922004E+02 +1.480224E+00 +6.407531E+00 +1.480224E+00 +5.905265E+02 -1.006414E+01 +6.407531E+00 -1.006414E+01 +1.330629E+03 
 +6.012634E+02 +2.339068E+01 -1.992716E+01 +2.339068E+01 +6.119449E+02 +9.054935E+00 -1.992716E+01 +9.054935E+00 +1.360375E+03 
 +6.174343E+02 -1.939668E+01 +1.549271E+01 -1.939668E+01 +6.220220E+02 +1.788791E+01 +1.549271E+01 +1.788791E+01 +1.337413E+03 
 +5.829151E+02 -1.954806E+00 -2.647168E+01 -1.954806E+00 +5.764545E+02 -2.011247E+01 -2.647168E+01 -2.011247E+01 +1.366369E+03 
 +6.899191E+02 -3.857954E+00 +1.516008E+01 -3.857954E+00 +6.590399E+02 +4.559087E+00 +1.516008E+01 +4.559087E+00 +1.444583E+03 
 +5.762119E+02 -2.104991E-02 -2.995934E+01 -2.104991E-02 +6.832109E+02 +3.040841E+00 -2.995934E+01 +3.040841E+00 +1.290115E+03 
 +5.301307E+02 +2.035527E+01 -9.251775E+00 +2.035527E+01 +5.849261E+02 -4.977887E+01 -9.251775E+00 -4.977887E+01 +1.413039E+03 
 +5.648308E+02 -1.948933E+01 -4.682503E+00 -1.948933E+01 +6.899691E+02 -2.420602E+00 -4.682503E+00 -2.420602E+00 +1.350652E+03 
 +7.422902E+02 -4.344588E+01 +1.414111E+01 -4.344588E+01 +6.586635E+02 -1.092502E+01 +1.414111E+01 -1.092502E+01 +1.372051E+03 
 +5.594742E+02 -8.909421E+00 +4.150294E+00 -8.909421E+00 +6.404042E+02 -1.005241E+01 +4.150294E+00 -1.005241E+01 +1.261990E+03 
 +6.256684E+02 -1.855517E-01 +1.053496E+01 -1.855517E-01 +6.282296E+02 +9.643477E+00 +1.053496E+01 +9.643477E+00 +1.443177E+03 
 +6.555383E+02 +1.860575E+01 +1.678741E+01 +1.860575E+01 +6.563533E+02 +8.107597E+00 +1.678741E+01 +8.107597E+00 +1.339750E+03 
 +6.174102E+02 -8.860078E+00 +2.885101E+01 -8.860078E+00 +6.294811E+02 -2.239534E+01 +2.885101E+01 -2.239534E+01 +1.377471E+03 
 +5.852999E+02 +4.712954E+01 -6.362878E+00 +4.712954E+01 +6.641269E+02 -1.104119E+01 -6.362878E+00 -1.104119E+01 +1.291814E+03 
 +6.479700E+02 +2.547183E+01 -4.697565E+00 +2.547183E+01 +6.101409E+02 +9.311307E+00 -4.697565E+00 +9.311307E+00 +1.423687E+03 
 +6.177399E+02 -4.570230E+01 -4.140953E+00 -4.570230E+01 +6.390458E+02 -1.739693E+00 -4.140953E+00 -1.739693E+00 +1.311167E+03 
 +5.641252E+02 +7.874451E+00 -2.483378E+01 +7.874451E+00 +5.641913E+02 +3.363568E+01 -2.483378E+01 +3.363568E+01 +1.347129E+03 
 +5.502772E+02 -8.107402E-01 -2.595962E+01 -8.107402E-01 +5.587797E+02 -8.718786E+00 -2.595962E+01 -8.718786E+00 +1.329441E+03 
 +6.133990E+02 -1.259382E+00 -2.634112E+00 -1.259382E+00 +6.224990E+02 -6.581974E+00 -2.634112E+00 -6.581974E+00 +1.426469E+03 
 +6.180365E+02 -5.171071E+00 +2.096195E+01 -5.171071E+00 +6.239708E+02 +6.348266E+00 +2.096195E+01 +6.348266E+00 +1.348511E+03 
 +6.348193E+02 +1.753075E+01 +4.132486E+00 +1.753075E+01 +5.620056E+02 +1.052673E+01 +4.132486E+00 +1.052673E+01 +1.291303E+03 
 +4.939362E+02 -8.037925E+00 -1.774349E+01 -8.037925E+00 +5.236210E+02 +3.555067E+00 -1.774349E+01 +3.555067E+00 +1.365167E+03 
 +6.909436E+02 -3.368828E+01 +9.009483E-01 -3.368828E+01 +5.695391E+02 -2.137973E+01 +9.009483E-01 -2.137973E+01 +1.318186E+03 
 +5.691271E+02 +6.956991E+00 +8.429413E+00 +6.956991E+00 +5.629850E+02 -7.328469E+00 +8.429413E+00 -7.328469E+00 +1.316675E+03 
 +5.729522E+02 +1.341477E+01 +3.677143E+01 +1.341477E+01 +6.483776E+02 -1.360923E+01 +3.677143E+01 -1.360923E+01 +1.334892E+03 
 +6.808569E+02 +5.438726E+01 +6.968407E+00 +5.438726E+01 +6.642394E+02 -2.554105E+01 +6.968407E+00 -2.554105E+01 +1.387791E+03 
 +6.075599E+02 +1.087117E+01 -3.629248E+01 +1.087117E+01 +6.942979E+02 -5.728081E+00 -3.629248E+01 -5.728081E+00 +1.346973E+03 
 +5.829396E+02 -6.931357E+00 +9.132985E-01 -6.931357E+00 +6.439202E+02 -2.794872E+00 +9.132985E-01 -2.794872E+00 +1.381834E+03 
 +6.445850E+02 -2.042481E+01 +1.057745E+01 -2.042481E+01 +5.493454E+02 +2.134938E+01 +1.057745E+01 +2.134938E+01 +1.275680E+03 
 +5.969139E+02 -9.301789E+00 +1.047282E+01 -9.301789E+00 +6.132368E+02 -1.064575E+00 +1.047282E+01 -1.064575E+00 +1.389119E+03 
 +6.323775E+02 -8.504601E+00 -2.064446E+00 -8.504601E+00 +5.447583E+02 +6.986850E-01 -2.064446E+00 +6.986850E-01 +1.295347E+03 
 +5.859534E+02 +2.474524E+00 +2.007841E+01 +2.474524E+00 +6.040635E+02 -8.320204E+00 +2.007841E+01 -8.320204E+00 +1.397207E+03 
 +5.760544E+02 +1.399701E+00 -9.332566E+00 +1.399701E+00 +5.791581E+02 -5.171072E+00 -9.332566E+00 -5.171072E+00 +1.324860E+03 
 +5.810862E+02 +3.039831E+01 +4.034672E+00 +3.039831E+01 +6.198464E+02 +2.710577E+01 +4.034672E+00 +2.710577E+01 +1.356349E+03 
 +6.273881E+02 +9.987193E+00 -1.792367E+01 +9.987193E+00 +5.973516E+02 +1.752977E+01 -1.792367E+01 +1.752977E+01 +1.318178E+03 
 +6.688179E+02 -1.758161E+01 +1.004042E+01 -1.758161E+01 +6.362369E+02 -2.930301E+01 +1.004042E+01 -2.930301E+01 +1.398672E+03 
 +6.266484E+02 +7.884458E+01 +3.250967E+00 +7.884458E+01 +6.188393E+02 +2.128410E+01 +3.250967E+00 +2.128410E+01 +1.313064E+03 
 +6.251638E+02 +1.020540E+01 +3.047733E+00 +1.020540E+01 +6.561065E+02 -6.633371E-01 +3.047733E+00 -6.633371E-01 +1.374050E+03 
 +6.301697E+02 +5.958734E+00 -2.537669E+00 +5.958734E+00 +7.543470E+02 -2.346719E+00 -2.537669E+00 -2.346719E+00 +1.396572E+03 
 +6.962131E+02 -5.764339E+01 +1.378552E+01 -5.764339E+01 +7.369752E+02 +2.101770E+01 +1.378552E+01 +2.101770E+01 +1.417092E+03 
 +5.967082E+02 -6.413311E+00 +2.737944E+01 -6.413311E+00 +6.917151E+02 +9.543190E+00 +2.737944E+01 +9.543190E+00 +1.297264E+03 
 +6.590797E+02 +3.781248E+01 +1.825909E+01 +3.781248E+01 +6.693059E+02 +9.212324E+00 +1.825909E+01 +9.212324E+00 +1.347300E+03 
 +5.667280E+02 +3.671890E+01 -9.016302E-01 +3.671890E+01 +6.395754E+02 -8.456923E+00 -9.016302E-01 -8.456923E+00 +1.345944E+03 
 +6.863140E+02 -1.460728E+01 +4.529755E+00 -1.460728E+01 +6.090376E+02 -6.132728E+00 +4.529755E+00 -6.132728E+00 +1.357809E+03 
 +6.246116E+02 -8.696712E+00 +7.451161E+00 -8.696712E+00 +6.378742E+02 -3.158656E+01 +7.451161E+00 -3.158656E+01 +1.358740E+03 
 +5.728567E+02 +9.222349E+00 +1.311419E+01 +9.222349E+00 +6.793162E+02 -1.616952E+01 +1.311419E+01 -1.616952E+01 +1.303867E+03 
 +6.063730E+02 -5.054252E+00 -1.783232E+01 -5.054252E+00 +5.976603E+02 -2.139914E+01 -1.783232E+01 -2.139914E+01 +1.394754E+03 
 +6.861586E+02 +8.825155E+00 +8.128511E-01 +8.825155E+00 +5.803717E+02 -1.260983E+01 +8.128511E-01 -1.260983E+01 +1.343393E+03 
 +5.696432E+02 -1.731397E+00 -7.667664E+00 -1.731397E+00 +5.942650E+02 +2.131019E+01 -7.667664E+00 +2.131019E+01 +1.299312E+03 
 +6.539635E+02 +1.228859E+01 +1.922227E+01 +1.228859E+01 +5.646539E+02 -5.486815E+00 +1.922227E+01 -5.486815E+00 +1.276867E+03 
 +5.521358E+02 +2.220923E+00 +2.350319E+01 +2.220923E+00 +5.395047E+02 +1.361321E+01 +2.350319E+01 +1.361321E+01 +1.390467E+03 
 +6.637699E+02 +3.772976E+01 -1.548019E+01 +3.772976E+01 +6.454376E+02 -4.428981E+00 -1.548019E+01 -4.428981E+00 +1.331843E+03 
 +6.584045E+02 +5.368489E+01 -1.742844E+01 +5.368489E+01 +6.123956E+02 -3.574087E+01 -1.742844E+01 -3.574087E+01 +1.346878E+03 
 +5.993530E+02 -1.260244E+00 +1.816910E+01 -1.260244E+00 +6.325601E+02 +9.341252E+00 +1.816910E+01 +9.341252E+00 +1.347397E+03 
 +5.769218E+02 -3.505617E+01 +3.846727E+00 -3.505617E+01 +5.525614E+02 +3.213122E+01 +3.846727E+00 +3.213122E+01 +1.298675E+03 
 +6.083915E+02 -2.661353E+00 +2.765967E+01 -2.661353E+00 +6.058568E+02 +3.750247E-01 +2.765967E+01 +3.750247E-01 +1.447739E+03 
 +5.667231E+02 +3.133917E+00 +3.029249E+00 +3.133917E+00 +5.899897E+02 +1.457230E+01 +3.029249E+00 +1.457230E+01 +1.386285E+03 
 +5.483879E+02 -1.029585E+01 -2.909210E+01 -1.029585E+01 +5.304114E+02 +8.071549E+00 -2.909210E+01 +8.071549E+00 +1.348100E+03 
 +5.664343E+02 +2.824158E+01 +1.474713E+01 +2.824158E+01 +5.489365E+02 +7.171460E+00 +1.474713E+01 +7.171460E+00 +1.375096E+03 
 +5.219837E+02 -6.627759E-01 -7.559579E+00 -6.627759E-01 +5.331879E+02 +3.192728E-01 -7.559579E+00 +3.192728E-01 +1.411377E+03 
 +6.241786E+02 -3.698218E+00 +2.627316E+01 -3.698218E+00 +6.101483E+02 +4.007485E+01 +2.627316E+01 +4.007485E+01 +1.408597E+03 
 +5.617496E+02 -1.504169E+01 -2.796305E+01 -1.504169E+01 +5.285468E+02 +2.180781E+01 -2.796305E+01 +2.180781E+01 +1.344978E+03 
 +5.698651E+02 -1.867929E+01 -4.058337E+01 -1.867929E+01 +5.843315E+02 -1.876122E+01 -4.058337E+01 -1.876122E+01 +1.353893E+03 
 +5.968525E+02 -1.552819E+01 +1.857040E+01 -1.552819E+01 +6.027869E+02 -1.689487E+00 +1.857040E+01 -1.689487E+00 +1.333593E+03 
 +6.071862E+02 +3.694833E+00 +8.435537E+00 +3.694833E+00 +5.634231E+02 -2.177944E+01 +8.435537E+00 -2.177944E+01 +1.330419E+03 
 +5.675480E+02 +3.640995E+01 +6.241196E+00 +3.640995E+01 +5.664937E+02 -7.562054E-01 +6.241196E+00 -7.562054E-01 +1.420619E+03 
 +6.128895E+02 -1.107020E+01 -4.265891E+01 -1.107020E+01 +5.589939E+02 -1.433614E+01 -4.265891E+01 -1.433614E+01 +1.324838E+03 
 +5.746830E+02 +1.496393E+01 +1.467105E+01 +1.496393E+01 +5.771044E+02 +9.841956E+00 +1.467105E+01 +9.841956E+00 +1.406953E+03 
 +6.317706E+02 +9.388812E+00 -1.103545E+01 +9.388812E+00 +6.165285E+02 +2.252282E+01 -1.103545E+01 +2.252282E+01 +1.347950E+03 
 +5.915808E+02 -2.442556E+01 +3.031986E+01 -2.442556E+01 +6.280500E+02 -1.053987E+01 +3.031986E+01 -1.053987E+01 +1.294298E+03 
 +5.572047E+02 -1.691346E+00 -1.314614E+00 -1.691346E+00 +5.654142E+02 -2.411844E+01 -1.314614E+00 -2.411844E+01 +1.347386E+03 
 +6.018189E+02 +3.776395E+01 -1.809192E+01 +3.776395E+01 +6.735295E+02 -3.726237E+00 -1.809192E+01 -3.726237E+00 +1.329956E+03 
 +6.515420E+02 -1.470835E+01 +2.174309E+01 -1.470835E+01 +5.990792E+02 +3.325881E+01 +2.174309E+01 +3.325881E+01 +1.320101E+03 
 +5.800566E+02 -4.389590E+01 +2.406786E+01 -4.389590E+01 +6.992580E+02 -9.843298E+00 +2.406786E+01 -9.843298E+00 +1.328219E+03 
 +6.798057E+02 -2.851591E+01 +2.021795E+01 -2.851591E+01 +6.752814E+02 +2.640036E+01 +2.021795E+01 +2.640036E+01 +1.352364E+03 
 +6.307002E+02 -3.047169E+01 +1.198500E+01 -3.047169E+01 +6.251578E+02 -6.659807E+00 +1.198500E+01 -6.659807E+00 +1.361112E+03 
 +5.864172E+02 +3.044682E+01 -1.742082E+01 +3.044682E+01 +5.997186E+02 -3.144715E+01 -1.742082E+01 -3.144715E+01 +1.383907E+03 
 +6.389902E+02 -3.226526E+00 -1.082111E+01 -3.226526E+00 +6.043309E+02 -2.028542E+00 -1.082111E+01 -2.028542E+00 +1.399697E+03 
 +6.014054E+02 -9.709072E+00 -4.442828E+01 -9.709072E+00 +5.796879E+02 +2.485619E+00 -4.442828E+01 +2.485619E+00 +1.338157E+03 
 +6.014398E+02 +2.234731E+01 +1.293686E+01 +2.234731E+01 +6.719860E+02 +1.138508E+01 +1.293686E+01 +1.138508E+01 +1.294830E+03 
 +6.134000E+02 +8.465869E+00 +1.126240E+01 +8.465869E+00 +7.064288E+02 +1.902351E+01 +1.126240E+01 +1.902351E+01 +1.384367E+03 
 +6.660409E+02 -2.365333E+01 -6.632891E-02 -2.365333E+01 +6.440790E+02 +2.195937E+01 -6.632891E-02 +2.195937E+01 +1.338402E+03 
 +5.717851E+02 -1.526412E+01 +2.833227E+01 -1.526412E+01 +5.994109E+02 -5.185342E-01 +2.833227E+01 -5.185342E-01 +1.426220E+03 
 +6.327939E+02 -2.249201E+01 -1.518246E+01 -2.249201E+01 +6.509425E+02 -8.263276E+00 -1.518246E+01 -8.263276E+00 +1.329274E+03 
 +5.335577E+02 +1.718328E+01 +4.012479E+01 +1.718328E+01 +5.854169E+02 -5.358318E+00 +4.012479E+01 -5.358318E+00 +1.354507E+03 
 +6.063790E+02 +1.415982E+01 -3.422531E+01 +1.415982E+01 +6.533597E+02 +6.266312E+00 -3.422531E+01 +6.266312E+00 +1.366552E+03 
 +6.346783E+02 +1.241693E+01 +2.244814E+01 +1.241693E+01 +6.135571E+02 +1.269372E+01 +2.244814E+01 +1.269372E+01 +1.467262E+03 
 +6.085967E+02 -2.954315E+01 -2.675996E+01 -2.954315E+01 +5.946679E+02 -1.263441E+01 -2.675996E+01 -1.263441E+01 +1.343747E+03 
 +6.218589E+02 -2.808022E+00 +9.827367E+00 -2.808022E+00 +6.526147E+02 +1.495821E+01 +9.827367E+00 +1.495821E+01 +1.320545E+03 
 +5.886987E+02 -8.582108E+00 -1.976442E+01 -8.582108E+00 +6.968575E+02 -2.464469E+00 -1.976442E+01 -2.464469E+00 +1.289759E+03 
 +6.474557E+02 +5.954997E+00 -5.148032E+00 +5.954997E+00 +6.311986E+02 -3.178048E+00 -5.148032E+00 -3.178048E+00 +1.417743E+03 
 +5.171740E+02 -7.760309E+00 -7.716858E+00 -7.760309E+00 +6.086946E+02 -3.143475E+00 -7.716858E+00 -3.143475E+00 +1.278678E+03 
 +5.955099E+02 +5.855052E+00 -3.139270E+01 +5.855052E+00 +5.971956E+02 +2.301979E+01 -3.139270E+01 +2.301979E+01 +1.464616E+03 
 +5.819908E+02 -9.242619E+00 -1.224444E+01 -9.242619E+00 +6.596443E+02 +1.657004E+01 -1.224444E+01 +1.657004E+01 +1.338767E+03 
 +6.495764E+02 +5.467023E+01 -4.050487E+00 +5.467023E+01 +6.385093E+02 -2.420869E+01 -4.050487E+00 -2.420869E+01 +1.359463E+03 
 +5.799915E+02 +8.705049E+00 -9.298362E+00 +8.705049E+00 +6.673082E+02 +6.144562E+00 -9.298362E+00 +6.144562E+00 +1.312390E+03 
 +5.583682E+02 -2.181145E+01 -9.915045E+00 -2.181145E+01 +6.247722E+02 -8.432215E+00 -9.915045E+00 -8.432215E+00 +1.353443E+03 
 +7.099910E+02 -4.941211E+01 +3.749332E+00 -4.941211E+01 +6.354598E+02 +4.767525E-01 +3.749332E+00 +4.767525E-01 +1.348586E+03 
 +6.004390E+02 -1.268323E+01 -1.491240E+01 -1.268323E+01 +5.852579E+02 +4.634520E+01 -1.491240E+01 +4.634520E+01 +1.417850E+03 
 +6.205429E+02 -4.420789E+01 -1.045220E+01 -4.420789E+01 +5.769365E+02 +3.173738E+00 -1.045220E+01 +3.173738E+00 +1.293785E+03 
 +7.151618E+02 -1.605457E+01 +3.075598E+00 -1.605457E+01 +5.894926E+02 -5.958872E+00 +3.075598E+00 -5.958872E+00 +1.349318E+03 
 +5.244665E+02 +5.831134E+00 +4.971053E+00 +5.831134E+00 +6.303082E+02 +2.087276E+01 +4.971053E+00 +2.087276E+01 +1.324338E+03 
 +6.017504E+02 +1.038294E+00 +5.989842E+00 +1.038294E+00 +6.726115E+02 -9.511570E+00 +5.989842E+00 -9.511570E+00 +1.357869E+03 
 +6.664977E+02 +2.087154E+01 +2.209745E+01 +2.087154E+01 +6.593011E+02 -4.906044E+00 +2.209745E+01 -4.906044E+00 +1.412439E+03 
 +6.434308E+02 -7.724731E+00 +9.389082E+00 -7.724731E+00 +5.682462E+02 +3.512727E+01 +9.389082E+00 +3.512727E+01 +1.405787E+03 
 +7.168698E+02 -1.196663E+01 -7.682220E+00 -1.196663E+01 +6.193777E+02 +7.152649E+00 -7.682220E+00 +7.152649E+00 +1.357081E+03 
 +6.776304E+02 +8.515469E+00 +4.183156E+00 +8.515469E+00 +6.405991E+02 -6.611080E+00 +4.183156E+00 -6.611080E+00 +1.415132E+03 
 +6.283541E+02 -3.874140E+01 +2.061834E+01 -3.874140E+01 +6.384743E+02 +1.312410E+01 +2.061834E+01 +1.312410E+01 +1.417969E+03 
 +5.837407E+02 +1.582914E+01 +4.810954E+00 +1.582914E+01 +5.964594E+02 +2.136677E+00 +4.810954E+00 +2.136677E+00 +1.428008E+03 
 +6.243102E+02 +2.578980E+01 -7.615512E+00 +2.578980E+01 +6.597179E+02 +8.795912E+00 -7.615512E+00 +8.795912E+00 +1.304394E+03 
 +6.192605E+02 +1.446640E+01 +6.750922E+00 +1.446640E+01 +5.735001E+02 +3.964493E+00 +6.750922E+00 +3.964493E+00 +1.400633E+03 
 +5.874049E+02 -2.266905E+01 -2.810851E+01 -2.266905E+01 +5.646408E+02 -2.422068E+01 -2.810851E+01 -2.422068E+01 +1.412930E+03 
 +5.672119E+02 -3.154786E+01 -1.376741E+01 -3.154786E+01 +5.606469E+02 -4.133298E+00 -1.376741E+01 -4.133298E+00 +1.243473E+03 
 +5.857094E+02 -1.181792E+01 -1.326619E+01 -1.181792E+01 +5.891249E+02 +2.355724E+01 -1.326619E+01 +2.355724E+01 +1.417797E+03 
 +5.851995E+02 -1.291873E+01 -1.890002E+01 -1.291873E+01 +5.592734E+02 +2.245634E+01 -1.890002E+01 +2.245634E+01 +1.415986E+03 
 +5.803693E+02 -2.197108E+01 +5.232621E+00 -2.197108E+01 +6.870203E+02 +9.228374E+00 +5.232621E+00 +9.228374E+00 +1.333786E+03 
 +6.695599E+02 -1.856337E+01 -6.451452E+00 -1.856337E+01 +6.155111E+02 -3.077793E+01 -6.451452E+00 -3.077793E+01 +1.380431E+03 
 +6.638762E+02 +2.764434E+01 +2.508207E+01 +2.764434E+01 +6.013279E+02 -9.179497E+00 +2.508207E+01 -9.179497E+00 +1.309388E+03 
 +5.656216E+02 +2.230373E+01 +1.501221E+01 +2.230373E+01 +5.791057E+02 +6.242960E+00 +1.501221E+01 +6.242960E+00 +1.295692E+03 
 +5.777673E+02 -6.868237E+00 -7.247202E-01 -6.868237E+00 +7.106912E+02 -3.044113E+00 -7.247202E-01 -3.044113E+00 +1.360626E+03 
 +5.903967E+02 +3.215162E+00 +7.012850E+00 +3.215162E+00 +6.929316E+02 +1.659649E+01 +7.012850E+00 +1.659649E+01 +1.299616E+03 
 +5.380065E+02 -5.544400E+00 +5.094815E+00 -5.544400E+00 +5.674124E+02 -5.967030E+00 +5.094815E+00 -5.967030E+00 +1.384047E+03 
 +6.899740E+02 -1.974409E+01 -2.338588E+00 -1.974409E+01 +5.748871E+02 -1.392236E+01 -2.338588E+00 -1.392236E+01 +1.308357E+03 
 +5.829326E+02 -4.421034E+00 -8.175410E+00 -4.421034E+00 +5.822735E+02 -1.892329E+01 -8.175410E+00 -1.892329E+01 +1.423029E+03 
 +6.210380E+02 +2.065140E+00 -2.816355E+01 +2.065140E+00 +5.638583E+02 +1.605403E+01 -2.816355E+01 +1.605403E+01 +1.347398E+03 
 +6.170948E+02 -9.679857E+00 -8.410127E-01 -9.679857E+00 +6.190496E+02 +2.126145E+01 -8.410127E-01 +2.126145E+01 +1.433118E+03 
 +6.026606E+02 -1.452526E+01 +1.955659E+01 -1.452526E+01 +6.408439E+02 +1.707969E+00 +1.955659E+01 +1.707969E+00 +1.324340E+03 
 +5.937349E+02 -1.096542E+01 +9.585388E-01 -1.096542E+01 +6.222749E+02 +1.435044E+01 +9.585388E-01 +1.435044E+01 +1.384380E+03 
 +5.914531E+02 +3.978168E+00 +5.205623E+00 +3.978168E+00 +5.492552E+02 +4.183021E+00 +5.205623E+00 +4.183021E+00 +1.322362E+03 
 +6.011512E+02 -3.416671E+00 -2.836061E+01 -3.416671E+00 +5.852046E+02 +1.782850E+01 -2.836061E+01 +1.782850E+01 +1.470548E+03 
 +6.192153E+02 -5.663789E+00 +7.441875E+00 -5.663789E+00 +6.019034E+02 +2.500863E+01 +7.441875E+00 +2.500863E+01 +1.327554E+03 
 +5.732440E+02 +5.050406E+00 +1.176995E+01 +5.050406E+00 +7.179655E+02 +6.671454E+00 +1.176995E+01 +6.671454E+00 +1.363755E+03 
 +6.894214E+02 +2.513890E+01 -3.777151E+01 +2.513890E+01 +7.256979E+02 +2.210813E+01 -3.777151E+01 +2.210813E+01 +1.374347E+03 
 +5.878398E+02 -3.179663E+01 -3.699196E+00 -3.179663E+01 +5.806707E+02 +4.793516E+00 -3.699196E+00 +4.793516E+00 +1.305950E+03 
 +6.452897E+02 -2.029853E+01 -8.094616E+00 -2.029853E+01 +5.532822E+02 +1.125955E+00 -8.094616E+00 +1.125955E+00 +1.290709E+03 
 +6.553460E+02 -1.191022E+01 -1.239126E+00 -1.191022E+01 +5.887629E+02 -1.149715E+01 -1.239126E+00 -1.149715E+01 +1.351414E+03 
 +6.109058E+02 +2.215501E+00 +1.216572E+01 +2.215501E+00 +5.863331E+02 +1.437015E+00 +1.216572E+01 +1.437015E+00 +1.417008E+03 
 +5.741928E+02 -4.920425E+00 -2.157883E+01 -4.920425E+00 +5.822583E+02 +2.153695E+01 -2.157883E+01 +2.153695E+01 +1.398562E+03 
 +5.560750E+02 +8.914077E-02 +2.799410E+00 +8.914077E-02 +5.254797E+02 +2.242710E+01 +2.799410E+00 +2.242710E+01 +1.356617E+03 
 +6.379629E+02 +5.963295E+00 +2.053766E+01 +5.963295E+00 +6.057974E+02 -3.627906E+01 +2.053766E+01 -3.627906E+01 +1.311736E+03 
 +5.893953E+02 +1.002265E+01 -1.300344E+01 +1.002265E+01 +5.539303E+02 -2.908718E-01 -1.300344E+01 -2.908718E-01 +1.427535E+03 
 +6.221851E+02 +1.602266E+00 +3.419954E+01 +1.602266E+00 +5.940294E+02 +1.774206E+01 +3.419954E+01 +1.774206E+01 +1.324247E+03 
 +6.302122E+02 +2.541755E-01 -2.467972E+01 +2.541755E-01 +6.175439E+02 +3.157154E+01 -2.467972E+01 +3.157154E+01 +1.353499E+03 
 +5.652807E+02 +1.482356E+01 +1.339049E+01 +1.482356E+01 +5.584153E+02 +4.790829E+00 +1.339049E+01 +4.790829E+00 +1.346532E+03 
 +5.724596E+02 -2.997293E+00 +1.908329E+01 -2.997293E+00 +5.665024E+02 +9.091878E+00 +1.908329E+01 +9.091878E+00 +1.421373E+03 
 +6.346934E+02 +3.731210E+01 -2.502441E+01 +3.731210E+01 +6.122993E+02 -1.561738E+01 -2.502441E+01 -1.561738E+01 +1.330515E+03 
 +5.358778E+02 +2.896217E+00 -1.963014E+01 +2.896217E+00 +5.510086E+02 -4.564420E+00 -1.963014E+01 -4.564420E+00 +1.359203E+03 
 +5.888320E+02 -4.820380E+00 +5.158266E+00 -4.820380E+00 +5.690540E+02 -1.210366E+00 +5.158266E+00 -1.210366E+00 +1.340961E+03 
 +5.619692E+02 +1.523709E+01 -1.362625E+01 +1.523709E+01 +5.239420E+02 +2.698681E+00 -1.362625E+01 +2.698681E+00 +1.361489E+03 
 +6.410609E+02 +1.423618E-01 +8.650145E+00 +1.423618E-01 +6.180437E+02 +1.224007E+01 +8.650145E+00 +1.224007E+01 +1.332286E+03 
 +5.848270E+02 -8.465393E+00 -2.760364E+01 -8.465393E+00 +6.209689E+02 -5.013285E+00 -2.760364E+01 -5.013285E+00 +1.422357E+03 
 +6.026286E+02 +4.610949E+01 +3.235083E+00 +4.610949E+01 +6.317367E+02 -1.419592E-01 +3.235083E+00 -1.419592E-01 +1.318944E+03 
 +6.086609E+02 +6.574147E+00 +2.868378E+01 +6.574147E+00 +5.996188E+02 -2.215950E+01 +2.868378E+01 -2.215950E+01 +1.379611E+03 
 +5.999910E+02 -1.046738E+01 -3.689584E-01 -1.046738E+01 +5.593820E+02 +3.938576E+01 -3.689584E-01 +3.938576E+01 +1.331447E+03 
 +6.214133E+02 +3.241389E+00 -4.319675E+00 +3.241389E+00 +6.019535E+02 +3.995766E+01 -4.319675E+00 +3.995766E+01 +1.442802E+03 
 +6.138534E+02 +4.081081E+01 +1.781813E+01 +4.081081E+01 +5.570246E+02 -1.154585E+01 +1.781813E+01 -1.154585E+01 +1.270816E+03 
 +6.532859E+02 +1.109413E+01 -4.767633E+00 +1.109413E+01 +6.766165E+02 -1.133799E+00 -4.767633E+00 -1.133799E+00 +1.356562E+03 
 +6.220381E+02 -4.710132E-01 +6.375807E+00 -4.710132E-01 +6.019708E+02 +2.693428E+01 +6.375807E+00 +2.693428E+01 +1.418562E+03 
 +5.369218E+02 -3.775138E+00 -3.174081E+01 -3.775138E+00 +5.204785E+02 +2.604447E+01 -3.174081E+01 +2.604447E+01 +1.385645E+03 
 +7.165591E+02 +7.455257E+00 -1.885424E+01 +7.455257E+00 +5.868198E+02 -2.318332E+01 -1.885424E+01 -2.318332E+01 +1.374611E+03 
 +6.428175E+02 +8.546708E+00 +1.570144E+01 +8.546708E+00 +5.566588E+02 -2.111792E+01 +1.570144E+01 -2.111792E+01 +1.312556E+03 
 +4.868674E+02 -1.941313E+01 -3.907708E+00 -1.941313E+01 +5.421678E+02 +1.569794E+01 -3.907708E+00 +1.569794E+01 +1.375113E+03 
 +6.034175E+02 +3.078252E+01 +2.255249E+01 +3.078252E+01 +5.998759E+02 +8.174370E+00 +2.255249E+01 +8.174370E+00 +1.302918E+03 
 +5.544609E+02 +1.223094E+01 -1.230208E+01 +1.223094E+01 +6.533957E+02 +1.481221E+00 -1.230208E+01 +1.481221E+00 +1.333572E+03 
 +7.237080E+02 -4.100220E+01 +1.904915E+01 -4.100220E+01 +6.797816E+02 +1.758908E+01 +1.904915E+01 +1.758908E+01 +1.390107E+03 
 +6.171545E+02 +5.769892E+00 -6.292676E+00 +5.769892E+00 +7.429787E+02 +1.157968E+01 -6.292676E+00 +1.157968E+01 +1.373349E+03 
 +5.701643E+02 +1.376043E+01 -1.523396E+00 +1.376043E+01 +6.707310E+02 -8.744742E+00 -1.523396E+00 -8.744742E+00 +1.330068E+03 
 +5.836821E+02 -4.005949E+00 -2.225241E+01 -4.005949E+00 +6.608521E+02 -8.530732E+00 -2.225241E+01 -8.530732E+00 +1.346684E+03 
 +6.804833E+02 -1.711128E+01 -6.760271E-01 -1.711128E+01 +6.498698E+02 +1.478507E+01 -6.760271E-01 +1.478507E+01 +1.382761E+03 
 +6.457849E+02 -2.017205E+01 -1.299899E+01 -2.017205E+01 +6.902195E+02 +1.179178E+00 -1.299899E+01 +1.179178E+00 +1.374093E+03 
 +6.001346E+02 -5.765879E+01 +1.153696E+01 -5.765879E+01 +6.526173E+02 +3.590231E-01 +1.153696E+01 +3.590231E-01 +1.305396E+03 
 +6.040126E+02 -5.937830E-01 +1.459676E+01 -5.937830E-01 +6.296715E+02 +2.369464E+00 +1.459676E+01 +2.369464E+00 +1.455810E+03 
 +5.727509E+02 -7.013080E+00 +2.459187E+01 -7.013080E+00 +5.946049E+02 -2.364869E+01 +2.459187E+01 -2.364869E+01 +1.330475E+03 
 +6.103449E+02 -4.872169E+00 +1.167065E+01 -4.872169E+00 +5.839080E+02 +2.784628E+01 +1.167065E+01 +2.784628E+01 +1.389557E+03 
 +6.227849E+02 +3.173636E+01 +1.604341E+00 +3.173636E+01 +5.865060E+02 +2.412318E+01 +1.604341E+00 +2.412318E+01 +1.381306E+03 
 +6.431932E+02 -2.025893E+01 -6.960758E-01 -2.025893E+01 +6.623741E+02 +1.644418E+01 -6.960758E-01 +1.644418E+01 +1.454078E+03 
 +5.546861E+02 -5.793330E+01 +2.597254E+01 -5.793330E+01 +6.687026E+02 +2.783588E+00 +2.597254E+01 +2.783588E+00 +1.330420E+03 
 +6.281456E+02 +4.002375E+00 -6.408082E+00 +4.002375E+00 +5.795084E+02 -1.993544E+00 -6.408082E+00 -1.993544E+00 +1.376679E+03 
 +7.062225E+02 -2.643040E+01 -7.308282E+00 -2.643040E+01 +5.492936E+02 -9.739089E-01 -7.308282E+00 -9.739089E-01 +1.371843E+03 
 +6.211356E+02 +3.791722E+01 -4.102107E+00 +3.791722E+01 +6.461334E+02 +6.513912E+00 -4.102107E+00 +6.513912E+00 +1.326537E+03 
 +6.031532E+02 +1.259802E+01 +1.382223E+01 +1.259802E+01 +5.980196E+02 -9.067611E+00 +1.382223E+01 -9.067611E+00 +1.389939E+03 
 +6.222013E+02 -2.206454E+01 +2.241733E+00 -2.206454E+01 +5.272010E+02 -1.681489E+00 +2.241733E+00 -1.681489E+00 +1.266730E+03 
 +6.012285E+02 +3.931985E+01 -4.030709E+00 +3.931985E+01 +5.635882E+02 +1.968417E+01 -4.030709E+00 +1.968417E+01 +1.312486E+03 
 +6.408870E+02 -1.428691E+01 +1.055750E+01 -1.428691E+01 +6.205087E+02 +6.419649E-01 +1.055750E+01 +6.419649E-01 +1.347904E+03 
 +5.771351E+02 +3.046461E+00 +2.600380E+01 +3.046461E+00 +5.890640E+02 -3.499535E+01 +2.600380E+01 -3.499535E+01 +1.383975E+03 
 +5.905250E+02 +7.040801E+00 -1.015269E+01 +7.040801E+00 +5.346079E+02 -4.071830E+00 -1.015269E+01 -4.071830E+00 +1.359662E+03 
 +5.616202E+02 -3.389480E+00 -7.145285E+00 -3.389480E+00 +5.948432E+02 -8.018537E+00 -7.145285E+00 -8.018537E+00 +1.428636E+03 
 +6.112983E+02 +6.622946E+01 -9.576456E+00 +6.622946E+01 +6.243736E+02 -1.162967E+01 -9.576456E+00 -1.162967E+01 +1.296262E+03 
 +6.161794E+02 +2.134101E+01 +1.167582E+01 +2.134101E+01 +5.879562E+02 -3.164801E+00 +1.167582E+01 -3.164801E+00 +1.440165E+03 
 +6.076074E+02 +1.917794E+01 -1.895218E+01 +1.917794E+01 +6.711378E+02 +1.642751E-01 -1.895218E+01 +1.642751E-01 +1.289521E+03 
 +5.658668E+02 +2.265796E+01 +3.839862E+00 +2.265796E+01 +5.758961E+02 +1.129556E+01 +3.839862E+00 +1.129556E+01 +1.379976E+03 
 +6.307615E+02 -2.531865E+01 -5.046494E+00 -2.531865E+01 +5.537911E+02 +3.105545E-01 -5.046494E+00 +3.105545E-01 +1.242238E+03 
 +5.743158E+02 -1.608981E+01 -1.795748E+01 -1.608981E+01 +5.864292E+02 -6.723248E+00 -1.795748E+01 -6.723248E+00 +1.442872E+03 
 +6.077731E+02 -1.808857E+01 -7.763424E+00 -1.808857E+01 +6.345714E+02 +1.012459E+01 -7.763424E+00 +1.012459E+01 +1.293356E+03 
 +6.551955E+02 +3.234855E+01 +1.239531E+00 +3.234855E+01 +5.925703E+02 +6.249973E+00 +1.239531E+00 +6.249973E+00 +1.299035E+03 
 +6.296349E+02 -4.295960E-01 +1.382263E+01 -4.295960E-01 +6.608559E+02 +2.642478E+01 +1.382263E+01 +2.642478E+01 +1.426775E+03 
 +5.636477E+02 -9.550722E+00 +1.116404E+01 -9.550722E+00 +6.624540E+02 -1.008039E+01 +1.116404E+01 -1.008039E+01 +1.299263E+03 
 +5.892238E+02 +5.957244E+01 -1.092082E+01 +5.957244E+01 +6.045018E+02 +2.155449E+01 -1.092082E+01 +2.155449E+01 +1.293906E+03 
 +5.820711E+02 +3.342634E+00 -1.371185E+01 +3.342634E+00 +6.093342E+02 -7.863822E+00 -1.371185E+01 -7.863822E+00 +1.407992E+03 
 +5.736884E+02 +1.408388E+01 -1.411333E+00 +1.408388E+01 +6.330328E+02 -1.042539E+01 -1.411333E+00 -1.042539E+01 +1.308331E+03 
 +5.397665E+02 +3.794846E+00 -4.200078E+00 +3.794846E+00 +5.579892E+02 +4.657941E-02 -4.200078E+00 +4.657941E-02 +1.346017E+03 
 +6.002471E+02 -9.395735E+00 +2.119651E+01 -9.395735E+00 +6.059399E+02 -6.934907E+00 +2.119651E+01 -6.934907E+00 +1.381868E+03 
 +5.572384E+02 +2.347296E+00 -2.145284E+01 +2.347296E+00 +5.592691E+02 -1.718073E-01 -2.145284E+01 -1.718073E-01 +1.371227E+03 
 +6.257595E+02 -5.571481E+01 -1.198671E+01 -5.571481E+01 +5.288648E+02 -1.579897E+01 -1.198671E+01 -1.579897E+01 +1.275408E+03 
 +6.194462E+02 +3.731302E+01 -7.033314E+00 +3.731302E+01 +6.077408E+02 -2.437818E+01 -7.033314E+00 -2.437818E+01 +1.459414E+03 
 +6.533102E+02 +6.723372E+00 -2.302876E+01 +6.723372E+00 +5.462181E+02 -8.337032E+00 -2.302876E+01 -8.337032E+00 +1.311819E+03 
 +6.621331E+02 -8.245735E-01 -1.879862E+01 -8.245735E-01 +5.837245E+02 +1.138910E+01 -1.879862E+01 +1.138910E+01 +1.340760E+03 
 +6.088266E+02 -3.140911E+00 -3.013355E+00 -3.140911E+00 +5.946335E+02 -5.246127E+00 -3.013355E+00 -5.246127E+00 +1.434160E+03 
 +5.708969E+02 -1.967154E+01 -2.777527E+01 -1.967154E+01 +5.646121E+02 -2.013464E+01 -2.777527E+01 -2.013464E+01 +1.442937E+03 
 +5.760579E+02 -4.025053E+01 +2.724216E+00 -4.025053E+01 +6.497924E+02 -5.872761E+00 +2.724216E+00 -5.872761E+00 +1.314203E+03 
 +6.148492E+02 -5.204342E+00 +1.419582E+01 -5.204342E+00 +6.239797E+02 +1.859832E+01 +1.419582E+01 +1.859832E+01 +1.332132E+03 
 +6.414999E+02 -3.310293E+01 +1.610303E+01 -3.310293E+01 +5.858068E+02 +1.668622E+01 +1.610303E+01 +1.668622E+01 +1.283666E+03 
 +5.597001E+02 +1.728057E+01 +4.925278E+00 +1.728057E+01 +5.754294E+02 +7.981190E+00 +4.925278E+00 +7.981190E+00 +1.345442E+03 
 +6.977327E+02 +3.547526E+01 -1.769297E+01 +3.547526E+01 +6.365403E+02 -2.705676E+01 -1.769297E+01 -2.705676E+01 +1.342573E+03 
 +5.727590E+02 -2.204639E+01 +1.527772E+00 -2.204639E+01 +6.584319E+02 +1.160315E+01 +1.527772E+00 +1.160315E+01 +1.306557E+03 
 +6.169058E+02 -4.876317E+01 -1.292159E+00 -4.876317E+01 +6.824054E+02 -6.802799E+00 -1.292159E+00 -6.802799E+00 +1.316551E+03 
 +5.371278E+02 -1.523840E+01 -2.692208E+00 -1.523840E+01 +6.379734E+02 -2.436684E+01 -2.692208E+00 -2.436684E+01 +1.362281E+03 
 +6.355342E+02 -2.006141E+01 +7.129304E+00 -2.006141E+01 +6.183904E+02 +2.347701E+00 +7.129304E+00 +2.347701E+00 +1.296467E+03 
 +5.994639E+02 -2.947527E+01 -5.598037E+00 -2.947527E+01 +5.829795E+02 -2.309425E+00 -5.598037E+00 -2.309425E+00 +1.352636E+03 
 +5.994761E+02 +2.148521E+01 -2.784487E+00 +2.148521E+01 +5.911556E+02 -1.483874E+01 -2.784487E+00 -1.483874E+01 +1.401908E+03 
 +6.447991E+02 -8.220509E+00 -2.114049E+01 -8.220509E+00 +6.395706E+02 +1.730984E+01 -2.114049E+01 +1.730984E+01 +1.266185E+03 
 +6.439762E+02 -1.668602E+01 +1.120446E+00 -1.668602E+01 +6.071562E+02 +4.508728E+00 +1.120446E+00 +4.508728E+00 +1.352131E+03 
 +6.165399E+02 -2.811916E+01 +1.503709E+01 -2.811916E+01 +5.827815E+02 -2.341917E+01 +1.503709E+01 -2.341917E+01 +1.343957E+03 
 +6.375211E+02 -5.578665E-01 -2.376343E+01 -5.578665E-01 +6.332704E+02 +3.130307E+00 -2.376343E+01 +3.130307E+00 +1.357557E+03 
 +6.072615E+02 +1.208643E+01 +2.129967E+00 +1.208643E+01 +6.342076E+02 -1.993539E+01 +2.129967E+00 -1.993539E+01 +1.371567E+03 
 +5.597231E+02 -2.730520E+00 -1.703648E+01 -2.730520E+00 +6.495263E+02 +1.206217E+01 -1.703648E+01 +1.206217E+01 +1.296059E+03 
 +6.295609E+02 -3.265379E+01 +2.636120E+01 -3.265379E+01 +6.212139E+02 +2.932223E+01 +2.636120E+01 +2.932223E+01 +1.357654E+03 
 +6.133693E+02 -3.474631E+01 +1.330201E+01 -3.474631E+01 +6.717531E+02 -1.103741E+01 +1.330201E+01 -1.103741E+01 +1.304995E+03 
 +6.575032E+02 +2.585859E+00 +8.128434E+00 +2.585859E+00 +6.673034E+02 -4.993765E-01 +8.128434E+00 -4.993765E-01 +1.492866E+03 
 +6.102994E+02 +2.960975E+01 +1.413660E+01 +2.960975E+01 +5.846119E+02 +1.005249E+01 +1.413660E+01 +1.005249E+01 +1.326227E+03 
 +5.552408E+02 -2.857009E+01 +2.243963E+01 -2.857009E+01 +5.060451E+02 -2.348124E+01 +2.243963E+01 -2.348124E+01 +1.353477E+03 
 +7.068520E+02 +2.577673E+00 +6.822062E+00 +2.577673E+00 +6.102117E+02 -1.441385E+01 +6.822062E+00 -1.441385E+01 +1.348144E+03 
 +6.245380E+02 +3.845938E+01 -8.151206E-01 +3.845938E+01 +7.020742E+02 -6.992010E-02 -8.151206E-01 -6.992010E-02 +1.399375E+03 
 +6.804461E+02 -1.067048E+01 -7.580264E+00 -1.067048E+01 +7.595635E+02 -2.420107E+00 -7.580264E+00 -2.420107E+00 +1.362694E+03 
 +6.022732E+02 -7.575712E-01 -2.224160E+01 -7.575712E-01 +6.398563E+02 +1.244538E+01 -2.224160E+01 +1.244538E+01 +1.419761E+03 
 +5.919583E+02 +2.324204E+01 -3.007345E+00 +2.324204E+01 +5.578725E+02 +1.708003E+01 -3.007345E+00 +1.708003E+01 +1.328283E+03 
 +5.717743E+02 +2.697526E+01 -6.675522E+00 +2.697526E+01 +5.871671E+02 -1.121318E+01 -6.675522E+00 -1.121318E+01 +1.393276E+03 
 +5.599935E+02 +2.412939E+00 -2.631033E+01 +2.412939E+00 +6.425891E+02 +2.047965E+01 -2.631033E+01 +2.047965E+01 +1.298425E+03 
 +6.614847E+02 +4.199418E-01 -1.635292E+01 +4.199418E-01 +6.567857E+02 +2.676096E+01 -1.635292E+01 +2.676096E+01 +1.369435E+03 
 +5.838229E+02 +4.855074E+01 -1.182484E+01 +4.855074E+01 +5.780097E+02 +7.275198E+00 -1.182484E+01 +7.275198E+00 +1.276188E+03 
 +6.160613E+02 -5.488144E+01 +2.530018E+00 -5.488144E+01 +6.830742E+02 +2.514546E+00 +2.530018E+00 +2.514546E+00 +1.353471E+03 
 +6.521653E+02 +3.626971E+00 +5.256315E+00 +3.626971E+00 +6.208427E+02 -6.365689E+00 +5.256315E+00 -6.365689E+00 +1.291119E+03 
 +5.898952E+02 +4.695251E+00 +7.181220E+00 +4.695251E+00 +6.029561E+02 -3.088021E+01 +7.181220E+00 -3.088021E+01 +1.380914E+03 
 +5.504451E+02 -2.999317E+01 -6.817368E+00 -2.999317E+01 +6.065806E+02 +1.338001E+01 -6.817368E+00 +1.338001E+01 +1.289792E+03 
 +5.789531E+02 -1.754205E+00 -4.172097E+00 -1.754205E+00 +5.686635E+02 +8.086468E+00 -4.172097E+00 +8.086468E+00 +1.389902E+03 
 +7.550167E+02 +2.788537E+01 +6.752812E+00 +2.788537E+01 +6.075389E+02 -3.815278E+00 +6.752812E+00 -3.815278E+00 +1.356668E+03 
 +6.401424E+02 +1.555889E+01 -6.803339E+00 +1.555889E+01 +5.755804E+02 +9.385785E+00 -6.803339E+00 +9.385785E+00 +1.304977E+03 
 +5.607203E+02 +1.709406E+01 +1.112907E+01 +1.709406E+01 +6.282705E+02 -1.825688E+01 +1.112907E+01 -1.825688E+01 +1.349144E+03 
 +6.098401E+02 +3.460621E+00 -1.036878E+01 +3.460621E+00 +6.926654E+02 -1.716084E+01 -1.036878E+01 -1.716084E+01 +1.349197E+03 
 +6.104807E+02 +1.842607E+01 +1.536264E+01 +1.842607E+01 +6.346714E+02 -1.227167E+01 +1.536264E+01 -1.227167E+01 +1.411650E+03 
 +5.774795E+02 +1.758550E+00 +7.624608E+00 +1.758550E+00 +5.672419E+02 +4.763865E+01 +7.624608E+00 +4.763865E+01 +1.315330E+03 
 +5.778965E+02 +5.003144E+01 +9.785560E+00 +5.003144E+01 +6.582701E+02 +2.621820E+00 +9.785560E+00 +2.621820E+00 +1.311416E+03 
 +6.344841E+02 -3.618153E+01 -6.534618E+00 -3.618153E+01 +6.250194E+02 +8.016609E+00 -6.534618E+00 +8.016609E+00 +1.304962E+03 
 +5.816906E+02 -7.403886E+00 -2.055196E+01 -7.403886E+00 +5.942420E+02 +3.342979E+01 -2.055196E+01 +3.342979E+01 +1.384525E+03 
 +6.198715E+02 +2.956036E+01 -5.651402E+00 +2.956036E+01 +5.819994E+02 +8.049835E-01 -5.651402E+00 +8.049835E-01 +1.403688E+03 
 +5.957714E+02 +6.497387E+00 +8.218038E+00 +6.497387E+00 +5.657997E+02 +2.285113E+01 +8.218038E+00 +2.285113E+01 +1.434091E+03 
 +6.137592E+02 +2.370681E+01 -2.522716E+01 +2.370681E+01 +6.162251E+02 +2.676575E+01 -2.522716E+01 +2.676575E+01 +1.416319E+03 
 +7.099820E+02 -2.470130E+01 +1.838262E+01 -2.470130E+01 +6.078876E+02 +1.372275E+01 +1.838262E+01 +1.372275E+01 +1.342759E+03 
 +5.571568E+02 +1.620230E+00 +2.870748E+01 +1.620230E+00 +5.093678E+02 +2.630293E+01 +2.870748E+01 +2.630293E+01 +1.367866E+03 
 +6.489764E+02 +2.060583E+01 -2.532496E+01 +2.060583E+01 +5.748331E+02 +8.244645E+00 -2.532496E+01 +8.244645E+00 +1.348801E+03 
 +5.800443E+02 -7.565504E+00 +1.784154E+01 -7.565504E+00 +6.299996E+02 -2.199744E+01 +1.784154E+01 -2.199744E+01 +1.319460E+03 
 +6.299234E+02 +3.982671E+01 +4.203712E+00 +3.982671E+01 +6.490233E+02 -5.027903E+00 +4.203712E+00 -5.027903E+00 +1.319046E+03 
 +5.544897E+02 -1.863299E+01 +2.269796E+01 -1.863299E+01 +6.671921E+02 -8.605262E+00 +2.269796E+01 -8.605262E+00 +1.345025E+03 
 +6.443251E+02 -7.262749E+00 -2.426702E+01 -7.262749E+00 +6.492852E+02 -2.030840E+01 -2.426702E+01 -2.030840E+01 +1.431353E+03 
 +6.324330E+02 -6.267555E+01 -6.689765E+00 -6.267555E+01 +6.505973E+02 -1.237259E+01 -6.689765E+00 -1.237259E+01 +1.273010E+03 
 +6.047505E+02 -2.541982E+01 +7.871309E+00 -2.541982E+01 +6.877069E+02 +1.451635E+01 +7.871309E+00 +1.451635E+01 +1.352802E+03 
 +5.795609E+02 +1.421057E+01 +2.011108E+01 +1.421057E+01 +5.953197E+02 +1.464428E+01 +2.011108E+01 +1.464428E+01 +1.376004E+03 
 +5.720248E+02 -2.413387E+00 +2.441518E+01 -2.413387E+00 +6.148801E+02 +1.126341E+00 +2.441518E+01 +1.126341E+00 +1.317037E+03 
 +6.055269E+02 +1.152114E+01 -1.513513E+00 +1.152114E+01 +5.700522E+02 +1.595204E+01 -1.513513E+00 +1.595204E+01 +1.391106E+03 
 +5.721406E+02 -3.724357E+00 +3.958194E+00 -3.724357E+00 +5.271630E+02 -1.887412E+01 +3.958194E+00 -1.887412E+01 +1.318503E+03 
 +6.727614E+02 -2.593226E+01 -1.137273E+01 -2.593226E+01 +5.991508E+02 -2.171693E+01 -1.137273E+01 -2.171693E+01 +1.335830E+03 
 +6.007975E+02 +2.797130E+01 -3.193309E+01 +2.797130E+01 +6.417643E+02 +1.214943E+01 -3.193309E+01 +1.214943E+01 +1.315253E+03 
 +5.773708E+02 -5.729115E+00 +1.221961E+01 -5.729115E+00 +5.680844E+02 -1.929175E+00 +1.221961E+01 -1.929175E+00 +1.351408E+03 
 +6.472715E+02 +2.950724E+01 +6.878711E+00 +2.950724E+01 +5.670466E+02 +3.749429E+00 +6.878711E+00 +3.749429E+00 +1.262915E+03 
 +6.273499E+02 +1.454762E+00 +1.988742E+00 +1.454762E+00 +6.313762E+02 +1.980426E+01 +1.988742E+00 +1.980426E+01 +1.426195E+03 
 +6.861440E+02 -2.047069E+01 -1.281105E+01 -2.047069E+01 +7.002537E+02 -4.487076E+00 -1.281105E+01 -4.487076E+00 +1.405496E+03 
 +6.431669E+02 +1.665826E+01 +1.903070E+01 +1.665826E+01 +6.225955E+02 -1.695567E+01 +1.903070E+01 -1.695567E+01 +1.428551E+03 
 +6.032578E+02 -4.439237E+00 +5.415297E+00 -4.439237E+00 +5.806636E+02 +4.135706E+00 +5.415297E+00 +4.135706E+00 +1.416536E+03 
 +6.476005E+02 -4.265780E+01 +1.518696E+01 -4.265780E+01 +6.339458E+02 -1.488586E+01 +1.518696E+01 -1.488586E+01 +1.318642E+03 
 +6.189779E+02 +1.498166E+01 +5.729829E+00 +1.498166E+01 +6.947377E+02 -1.610200E+01 +5.729829E+00 -1.610200E+01 +1.353723E+03 
 +6.076568E+02 -3.975737E+01 -4.446195E+00 -3.975737E+01 +6.551027E+02 -1.544576E+01 -4.446195E+00 -1.544576E+01 +1.375362E+03 
 +7.048917E+02 +4.334448E+01 +6.152251E+00 +4.334448E+01 +6.311184E+02 -2.568984E+01 +6.152251E+00 -2.568984E+01 +1.375619E+03 
 +5.508335E+02 -2.240678E+01 +2.544978E+01 -2.240678E+01 +5.539727E+02 +1.092111E+01 +2.544978E+01 +1.092111E+01 +1.319840E+03 
 +5.758435E+02 +1.328320E+01 -1.956870E+01 +1.328320E+01 +5.372432E+02 -5.296926E+00 -1.956870E+01 -5.296926E+00 +1.355360E+03 
 +5.812941E+02 +1.725893E+01 -1.610147E-01 +1.725893E+01 +5.687318E+02 -2.372128E+00 -1.610147E-01 -2.372128E+00 +1.397530E+03 
 +6.604275E+02 -3.907359E+01 -3.329970E+00 -3.907359E+01 +6.612512E+02 -8.025140E+00 -3.329970E+00 -8.025140E+00 +1.333083E+03 
 +5.635477E+02 -1.083561E+00 +5.308653E+00 -1.083561E+00 +6.189714E+02 +4.523962E+00 +5.308653E+00 +4.523962E+00 +1.320828E+03 
 +5.943171E+02 +4.712214E-01 +1.259460E+01 +4.712214E-01 +5.691230E+02 +3.422182E+01 +1.259460E+01 +3.422182E+01 +1.486276E+03 
 +5.939545E+02 +9.546436E+00 +2.012747E+01 +9.546436E+00 +5.508828E+02 +1.188169E+01 +2.012747E+01 +1.188169E+01 +1.290647E+03 
 +6.490745E+02 +1.060741E+01 -2.808144E+01 +1.060741E+01 +6.490435E+02 -1.160296E+01 -2.808144E+01 -1.160296E+01 +1.391112E+03 
 +6.234874E+02 -7.791814E-01 +6.387413E+00 -7.791814E-01 +6.860405E+02 +6.024524E-01 +6.387413E+00 +6.024524E-01 +1.341085E+03 
 +5.498416E+02 -1.781880E+00 -5.584331E+00 -1.781880E+00 +5.966367E+02 -3.860368E+01 -5.584331E+00 -3.860368E+01 +1.330544E+03 
 +5.690179E+02 -4.292684E+01 -1.384548E+01 -4.292684E+01 +6.215250E+02 +5.822410E-01 -1.384548E+01 +5.822410E-01 +1.317000E+03 
 +6.104785E+02 -4.500556E+00 +1.982812E+00 -4.500556E+00 +6.780544E+02 +4.433619E+00 +1.982812E+00 +4.433619E+00 +1.344466E+03 
 +6.885030E+02 +3.960575E+01 -1.248239E+01 +3.960575E+01 +6.747295E+02 -2.982286E+01 -1.248239E+01 -2.982286E+01 +1.336407E+03 
 +6.214448E+02 +1.096338E+01 -1.699189E+01 +1.096338E+01 +6.021799E+02 -1.406661E+01 -1.699189E+01 -1.406661E+01 +1.422017E+03 
 +5.843851E+02 +1.863469E+00 +5.891624E+00 +1.863469E+00 +5.555347E+02 +1.239696E+01 +5.891624E+00 +1.239696E+01 +1.362020E+03 
 +5.565173E+02 +1.328676E+01 -2.732069E+01 +1.328676E+01 +5.500071E+02 -1.270553E+01 -2.732069E+01 -1.270553E+01 +1.380944E+03 
 +5.663549E+02 -1.142852E+01 +1.695319E+01 -1.142852E+01 +5.630069E+02 -1.022474E+01 +1.695319E+01 -1.022474E+01 +1.375706E+03 
 +5.779929E+02 +2.100374E+01 -2.680512E+01 +2.100374E+01 +6.043844E+02 -1.206553E+01 -2.680512E+01 -1.206553E+01 +1.281385E+03 
 +6.012902E+02 +1.752411E+01 +1.274850E+01 +1.752411E+01 +5.696000E+02 -1.425567E+01 +1.274850E+01 -1.425567E+01 +1.338988E+03 
 +6.062579E+02 -3.736922E+00 +1.868840E+01 -3.736922E+00 +5.519543E+02 +3.525436E+00 +1.868840E+01 +3.525436E+00 +1.393476E+03 
 +5.610244E+02 +2.828904E+00 -3.791217E+01 +2.828904E+00 +5.456573E+02 +5.807717E+00 -3.791217E+01 +5.807717E+00 +1.343911E+03 
 +5.962319E+02 +2.007426E+01 +2.498729E+01 +2.007426E+01 +6.633002E+02 +1.304235E+01 +2.498729E+01 +1.304235E+01 +1.364862E+03 
 +6.041419E+02 -4.023928E+01 -2.217459E+01 -4.023928E+01 +7.191562E+02 +1.068031E+01 -2.217459E+01 +1.068031E+01 +1.384418E+03 
 +7.477707E+02 -8.116139E+00 +3.993413E+00 -8.116139E+00 +6.790513E+02 +7.595201E-01 +3.993413E+00 +7.595201E-01 +1.405359E+03 
 +5.406591E+02 +5.140997E+01 +5.785717E+00 +5.140997E+01 +6.077852E+02 +1.399413E+00 +5.785717E+00 +1.399413E+00 +1.269098E+03 
 +7.273906E+02 -7.912824E+00 +5.218379E+00 -7.912824E+00 +6.282830E+02 -1.257007E+01 +5.218379E+00 -1.257007E+01 +1.365280E+03 
 +6.090157E+02 -3.581747E+00 -3.579556E+01 -3.581747E+00 +6.109875E+02 -4.403952E-01 -3.579556E+01 -4.403952E-01 +1.418587E+03 
 +5.594666E+02 +2.722132E+01 -1.147092E+00 +2.722132E+01 +6.562979E+02 -3.326524E+00 -1.147092E+00 -3.326524E+00 +1.300706E+03 
 +7.148159E+02 -6.462142E+00 -1.591889E+01 -6.462142E+00 +6.002111E+02 -1.767393E+01 -1.591889E+01 -1.767393E+01 +1.338413E+03 
 +5.389215E+02 +2.171665E+01 +2.539881E-01 +2.171665E+01 +5.665034E+02 -9.457055E-01 +2.539881E-01 -9.457055E-01 +1.392179E+03 
 +6.791045E+02 +2.701186E+01 -9.246759E+00 +2.701186E+01 +5.872361E+02 -8.400474E+00 -9.246759E+00 -8.400474E+00 +1.318322E+03 
 +6.741705E+02 -2.484856E+01 -1.281166E+01 -2.484856E+01 +5.758295E+02 +9.839702E-01 -1.281166E+01 +9.839702E-01 +1.331202E+03 
 +6.310433E+02 -5.760994E+01 -9.248925E+00 -5.760994E+01 +5.869615E+02 -1.040322E+01 -9.248925E+00 -1.040322E+01 +1.331826E+03 
 +7.077889E+02 -2.608177E+01 +3.257741E+00 -2.608177E+01 +6.045311E+02 -7.016928E+00 +3.257741E+00 -7.016928E+00 +1.372383E+03 
 +5.342597E+02 -2.530151E+00 -1.129598E+01 -2.530151E+00 +5.942581E+02 +1.847954E+01 -1.129598E+01 +1.847954E+01 +1.376732E+03 
 +6.470291E+02 +3.268733E+01 +2.870625E+01 +3.268733E+01 +6.395297E+02 +1.159050E+01 +2.870625E+01 +1.159050E+01 +1.358153E+03 
 +6.137807E+02 -8.774442E+00 +1.411852E+01 -8.774442E+00 +7.051246E+02 +8.614229E+00 +1.411852E+01 +8.614229E+00 +1.366641E+03 
 +5.605692E+02 -1.341604E+01 -3.097084E+00 -1.341604E+01 +6.849409E+02 +3.657223E+00 -3.097084E+00 +3.657223E+00 +1.355892E+03 
 +7.377088E+02 -8.953816E+00 +5.052520E+00 -8.953816E+00 +5.852563E+02 -6.465487E+00 +5.052520E+00 -6.465487E+00 +1.330543E+03 
 +5.966041E+02 -1.750057E+01 +2.107291E+00 -1.750057E+01 +5.869455E+02 -1.731194E+00 +2.107291E+00 -1.731194E+00 +1.415186E+03 
 +5.760623E+02 +1.082194E+01 +1.104107E+01 +1.082194E+01 +6.341894E+02 -1.980673E+01 +1.104107E+01 -1.980673E+01 +1.330960E+03 
 +6.510950E+02 +2.962333E+01 -1.997213E+01 +2.962333E+01 +6.785032E+02 +2.708314E+01 -1.997213E+01 +2.708314E+01 +1.359582E+03 
 +5.991965E+02 -1.211635E+01 -5.706457E+00 -1.211635E+01 +5.951724E+02 -1.425946E+01 -5.706457E+00 -1.425946E+01 +1.400028E+03 
 +6.170884E+02 +1.228767E+01 +1.446660E+01 +1.228767E+01 +5.842909E+02 +1.440122E+01 +1.446660E+01 +1.440122E+01 +1.427745E+03 
 +5.631401E+02 +7.175359E+00 +4.366637E+00 +7.175359E+00 +5.306461E+02 +3.005120E+01 +4.366637E+00 +3.005120E+01 +1.416787E+03 
 +5.873312E+02 -3.407795E+01 +4.314295E+00 -3.407795E+01 +5.821115E+02 -7.847095E+00 +4.314295E+00 -7.847095E+00 +1.243902E+03 
 +5.713600E+02 +4.399786E+00 +6.014608E+00 +4.399786E+00 +5.894771E+02 -2.251229E+01 +6.014608E+00 -2.251229E+01 +1.394551E+03 
 +5.772973E+02 +9.812371E+00 -2.300720E+01 +9.812371E+00 +5.445051E+02 -1.459683E+01 -2.300720E+01 -1.459683E+01 +1.331841E+03 
 +6.075800E+02 +1.839967E+01 -4.836291E+00 +1.839967E+01 +5.413031E+02 -1.731056E+00 -4.836291E+00 -1.731056E+00 +1.253411E+03 
 +5.664449E+02 -2.201513E-02 +4.305911E+01 -2.201513E-02 +5.810667E+02 +1.619350E+01 +4.305911E+01 +1.619350E+01 +1.335754E+03 
 +6.045162E+02 +1.726694E+01 -9.639512E-01 +1.726694E+01 +5.991990E+02 -1.123780E+01 -9.639512E-01 -1.123780E+01 +1.343895E+03 
 +5.657484E+02 -1.476168E+01 -2.036353E+01 -1.476168E+01 +5.590289E+02 +1.090870E+01 -2.036353E+01 +1.090870E+01 +1.358030E+03 
 +5.602841E+02 +5.867441E+00 +2.701336E+01 +5.867441E+00 +5.449764E+02 +3.446323E+01 +2.701336E+01 +3.446323E+01 +1.336122E+03 
 +5.721103E+02 -2.754653E+00 -1.424485E+01 -2.754653E+00 +5.731888E+02 +3.600294E+00 -1.424485E+01 +3.600294E+00 +1.409085E+03 
 +6.017613E+02 +1.942065E+01 +2.074958E+01 +1.942065E+01 +6.002431E+02 -2.542200E+01 +2.074958E+01 -2.542200E+01 +1.306614E+03 
 +6.241900E+02 +3.087259E+01 -1.667860E+01 +3.087259E+01 +6.245226E+02 -1.569836E+01 -1.667860E+01 -1.569836E+01 +1.360810E+03 
 +6.527682E+02 -2.062963E+01 +1.867014E+00 -2.062963E+01 +6.305110E+02 -2.513577E+00 +1.867014E+00 -2.513577E+00 +1.315572E+03 
 +6.166777E+02 +3.796093E+00 +1.623084E+01 +3.796093E+00 +6.044511E+02 -6.913788E+00 +1.623084E+01 -6.913788E+00 +1.404988E+03 
 +6.495356E+02 -1.376867E+01 -9.553797E+00 -1.376867E+01 +6.621031E+02 -1.917865E+01 -9.553797E+00 -1.917865E+01 +1.368442E+03 
 +6.264707E+02 +6.304725E+00 -1.302732E+00 +6.304725E+00 +6.759666E+02 +3.610047E+00 -1.302732E+00 +3.610047E+00 +1.364437E+03 
 +5.527612E+02 +7.706998E+00 +1.014904E+00 +7.706998E+00 +5.891967E+02 -9.063411E+00 +1.014904E+00 -9.063411E+00 +1.404917E+03 
 +6.725098E+02 +2.162575E+01 -1.690501E+00 +2.162575E+01 +5.512286E+02 +3.528138E+00 -1.690501E+00 +3.528138E+00 +1.292293E+03 
 +7.118802E+02 +5.707952E-01 +2.059837E+01 +5.707952E-01 +5.917410E+02 -2.547216E+01 +2.059837E+01 -2.547216E+01 +1.330709E+03 
 +5.362563E+02 -4.709600E+00 -1.634406E+01 -4.709600E+00 +5.329240E+02 +5.868933E+00 -1.634406E+01 +5.868933E+00 +1.396303E+03 
 +6.272173E+02 -7.163629E+00 -1.407951E+01 -7.163629E+00 +5.933320E+02 +7.597434E+00 -1.407951E+01 +7.597434E+00 +1.417220E+03 
 +6.222310E+02 +2.912754E-01 +2.229276E+01 +2.912754E-01 +5.627809E+02 +2.749271E+01 +2.229276E+01 +2.749271E+01 +1.388611E+03 
 +6.055298E+02 +1.874523E+01 -1.611133E+01 +1.874523E+01 +5.664631E+02 -3.697921E+01 -1.611133E+01 -3.697921E+01 +1.347119E+03 
 +6.849097E+02 -2.192713E+01 -5.618463E+00 -2.192713E+01 +6.640969E+02 -3.334689E+01 -5.618463E+00 -3.334689E+01 +1.399771E+03 
 +5.683241E+02 +3.192277E+01 -8.507625E-01 +3.192277E+01 +6.555629E+02 -6.682528E+00 -8.507625E-01 -6.682528E+00 +1.338474E+03 
 +6.978379E+02 -3.186800E+00 +6.143768E+00 -3.186800E+00 +6.695721E+02 -1.201464E+01 +6.143768E+00 -1.201464E+01 +1.325880E+03 
 +6.309802E+02 -6.831516E+01 -2.159591E+00 -6.831516E+01 +6.766526E+02 -3.263121E+01 -2.159591E+00 -3.263121E+01 +1.379153E+03 
 +5.761534E+02 +5.589635E+01 -1.914431E+01 +5.589635E+01 +6.944470E+02 -7.132224E+00 -1.914431E+01 -7.132224E+00 +1.348381E+03 
 +6.116711E+02 -7.242933E+00 -4.268838E+00 -7.242933E+00 +7.076909E+02 +8.066595E+00 -4.268838E+00 +8.066595E+00 +1.349270E+03 
 +5.693159E+02 +1.105110E+01 +9.008723E+00 +1.105110E+01 +6.831709E+02 -4.525047E+00 +9.008723E+00 -4.525047E+00 +1.326569E+03 
 +6.167615E+02 +1.846121E+01 -7.361959E+00 +1.846121E+01 +6.537280E+02 +2.852758E+01 -7.361959E+00 +2.852758E+01 +1.468164E+03 
 +6.837498E+02 -3.631455E+01 +7.250529E+00 -3.631455E+01 +6.248450E+02 -1.576678E+01 +7.250529E+00 -1.576678E+01 +1.342706E+03 
 +5.502750E+02 -1.208103E+01 -2.161786E+01 -1.208103E+01 +6.190236E+02 +2.280594E+01 -2.161786E+01 +2.280594E+01 +1.266015E+03 
 +6.439255E+02 -1.380001E+01 -2.400028E-01 -1.380001E+01 +5.958346E+02 +1.409562E+01 -2.400028E-01 +1.409562E+01 +1.365985E+03 
 +5.975898E+02 +1.617828E+01 +2.384162E+01 +1.617828E+01 +6.543838E+02 -9.272389E+00 +2.384162E+01 -9.272389E+00 +1.350137E+03 
 +6.135245E+02 -9.756182E+00 -1.508081E+01 -9.756182E+00 +6.144073E+02 +3.408640E+00 -1.508081E+01 +3.408640E+00 +1.384387E+03 
 +6.223616E+02 -1.089093E+01 -1.567331E+01 -1.089093E+01 +6.020301E+02 -2.939574E+01 -1.567331E+01 -2.939574E+01 +1.401855E+03 
 +5.672253E+02 -8.070023E+00 +4.560675E+01 -8.070023E+00 +6.010569E+02 +2.065888E+01 +4.560675E+01 +2.065888E+01 +1.302696E+03 
 +6.059238E+02 -1.430397E+01 -1.406963E+01 -1.430397E+01 +6.469661E+02 +6.724677E+00 -1.406963E+01 +6.724677E+00 +1.375693E+03 
 +6.668704E+02 +4.474328E+01 -6.439542E+00 +4.474328E+01 +6.270141E+02 +3.284279E+00 -6.439542E+00 +3.284279E+00 +1.301331E+03 
 +6.090803E+02 +4.673403E+01 -3.575186E+00 +4.673403E+01 +5.824319E+02 +3.615818E+01 -3.575186E+00 +3.615818E+01 +1.358640E+03 
 +6.107450E+02 +8.261225E+00 -1.993688E+01 +8.261225E+00 +5.709753E+02 -8.965638E+00 -1.993688E+01 -8.965638E+00 +1.465486E+03 
 +6.675964E+02 -1.233874E+01 -6.220171E+00 -1.233874E+01 +7.103403E+02 -1.001988E+01 -6.220171E+00 -1.001988E+01 +1.325384E+03 
 +6.432620E+02 -5.592422E+01 -6.742871E+00 -5.592422E+01 +7.266761E+02 -3.797571E+00 -6.742871E+00 -3.797571E+00 +1.354024E+03 
 +6.224847E+02 -1.123534E+01 -1.520578E+01 -1.123534E+01 +5.919731E+02 +3.116881E+01 -1.520578E+01 +3.116881E+01 +1.386845E+03 
 +5.691906E+02 +9.597243E+00 +2.492056E+01 +9.597243E+00 +5.438641E+02 +4.639003E+00 +2.492056E+01 +4.639003E+00 +1.409311E+03 
 +6.446223E+02 -2.281354E+01 +3.066273E+01 -2.281354E+01 +5.868243E+02 +3.470066E+00 +3.066273E+01 +3.470066E+00 +1.303214E+03 
 +6.283549E+02 +1.571002E+01 -1.591243E+01 +1.571002E+01 +6.465433E+02 -3.700010E+00 -1.591243E+01 -3.700010E+00 +1.437025E+03 
 +5.793743E+02 -1.716892E+01 -1.936662E+01 -1.716892E+01 +6.177055E+02 -5.584707E+00 -1.936662E+01 -5.584707E+00 +1.362023E+03 
 +6.144861E+02 +1.308119E+01 -9.309249E+00 +1.308119E+01 +6.146868E+02 +3.287695E+01 -9.309249E+00 +3.287695E+01 +1.373170E+03 
 +6.470935E+02 +2.882668E+01 -5.873623E+00 +2.882668E+01 +6.565760E+02 +2.280896E+00 -5.873623E+00 +2.280896E+00 +1.310838E+03 
 +6.216150E+02 +5.363820E+00 -1.664876E+01 +5.363820E+00 +6.043940E+02 -8.600414E-01 -1.664876E+01 -8.600414E-01 +1.478420E+03 
 +6.030477E+02 +3.497710E+01 -2.472000E-01 +3.497710E+01 +5.817504E+02 +1.339181E+01 -2.472000E-01 +1.339181E+01 +1.290093E+03 
 +6.233699E+02 +1.301916E+01 +1.530457E+00 +1.301916E+01 +5.541165E+02 -9.295992E-01 +1.530457E+00 -9.295992E-01 +1.320341E+03 
 +6.259222E+02 -1.712070E+00 -2.639427E+01 -1.712070E+00 +6.446313E+02 +2.615918E+01 -2.639427E+01 +2.615918E+01 +1.348420E+03 
 +6.625659E+02 -3.343424E+00 +1.189508E+01 -3.343424E+00 +6.228560E+02 -2.162183E+00 +1.189508E+01 -2.162183E+00 +1.388058E+03 
 +6.102323E+02 -7.545501E+00 -2.524834E+01 -7.545501E+00 +5.984335E+02 -2.457837E+01 -2.524834E+01 -2.457837E+01 +1.393363E+03 
 +5.753035E+02 -1.462076E+01 +1.110379E+00 -1.462076E+01 +5.999420E+02 +1.603138E+00 +1.110379E+00 +1.603138E+00 +1.410372E+03 
 +5.948882E+02 -5.354803E+01 -1.336104E+00 -5.354803E+01 +6.495579E+02 +5.145355E+00 -1.336104E+00 +5.145355E+00 +1.290153E+03 
 +6.124128E+02 -3.166456E+00 -1.925528E+01 -3.166456E+00 +6.664544E+02 +1.251897E+01 -1.925528E+01 +1.251897E+01 +1.423647E+03 
 +5.990635E+02 +9.323399E+00 +6.326355E+00 +9.323399E+00 +6.831912E+02 +3.341133E+00 +6.326355E+00 +3.341133E+00 +1.292451E+03 
 +5.924406E+02 -3.226851E+01 +1.453679E+01 -3.226851E+01 +5.605037E+02 -2.411736E+01 +1.453679E+01 -2.411736E+01 +1.310722E+03 
 +6.466982E+02 -7.045854E+00 +1.350935E+01 -7.045854E+00 +6.635604E+02 -5.069424E+00 +1.350935E+01 -5.069424E+00 +1.407647E+03 
 +5.643092E+02 +2.586994E+01 -1.950068E+01 +2.586994E+01 +6.189123E+02 -3.033758E-01 -1.950068E+01 -3.033758E-01 +1.314538E+03 
 +5.350697E+02 +1.486852E+01 -2.437280E+01 +1.486852E+01 +5.764641E+02 +8.771831E+00 -2.437280E+01 +8.771831E+00 +1.336255E+03 
 +6.172776E+02 -3.012079E+01 -5.425728E+00 -3.012079E+01 +6.159403E+02 +1.080010E+01 -5.425728E+00 +1.080010E+01 +1.398743E+03 
 +6.072286E+02 -5.857793E+00 +8.558218E+00 -5.857793E+00 +6.013535E+02 +2.602422E+01 +8.558218E+00 +2.602422E+01 +1.406496E+03 
 +6.186991E+02 +3.270858E+01 -2.988288E+00 +3.270858E+01 +5.588650E+02 +2.309113E+01 -2.988288E+00 +2.309113E+01 +1.230853E+03 
 +6.165416E+02 -9.290875E+00 +4.250362E+00 -9.290875E+00 +5.842884E+02 -1.699448E+01 +4.250362E+00 -1.699448E+01 +1.460623E+03 
 +6.006427E+02 -1.434467E+01 +1.682825E+01 -1.434467E+01 +5.795988E+02 -7.684018E-01 +1.682825E+01 -7.684018E-01 +1.410979E+03 
 +5.613297E+02 +5.329863E+00 +9.602877E+00 +5.329863E+00 +5.505076E+02 +3.623744E+00 +9.602877E+00 +3.623744E+00 +1.447179E+03 
 +6.299097E+02 -1.894876E+01 +2.264006E+01 -1.894876E+01 +6.163265E+02 -3.031901E+01 +2.264006E+01 -3.031901E+01 +1.313446E+03 
 +6.510232E+02 -3.561917E+01 -5.737126E+00 -3.561917E+01 +6.813449E+02 +6.694559E+00 -5.737126E+00 +6.694559E+00 +1.358494E+03 
 +5.944627E+02 -2.833386E+01 +2.461156E+00 -2.833386E+01 +6.716390E+02 +1.189008E+01 +2.461156E+00 +1.189008E+01 +1.327723E+03 
 +6.237349E+02 +6.581255E-01 +1.517288E+01 +6.581255E-01 +6.586526E+02 -2.380728E+01 +1.517288E+01 -2.380728E+01 +1.429946E+03 
 +6.014262E+02 +3.793814E+01 +1.290580E+01 +3.793814E+01 +5.644821E+02 -1.072108E+01 +1.290580E+01 -1.072108E+01 +1.270376E+03 
 +5.641572E+02 +1.528312E+01 -2.560958E+00 +1.528312E+01 +5.593827E+02 -1.822355E+01 -2.560958E+00 -1.822355E+01 +1.452563E+03 
 +7.318847E+02 +1.246178E+01 -9.475331E+00 +1.246178E+01 +5.781885E+02 -8.172423E-01 -9.475331E+00 -8.172423E-01 +1.340635E+03 
 +5.335186E+02 +8.879972E+00 -1.115456E+01 +8.879972E+00 +5.866838E+02 +9.069505E+00 -1.115456E+01 +9.069505E+00 +1.378838E+03 
 +5.607916E+02 +2.043501E+01 -1.144033E+01 +2.043501E+01 +5.843934E+02 +1.131881E+01 -1.144033E+01 +1.131881E+01 +1.351571E+03 
 +6.020043E+02 -1.471749E+01 -1.937605E+01 -1.471749E+01 +6.138977E+02 -6.194627E+00 -1.937605E+01 -6.194627E+00 +1.429876E+03 
 +6.875808E+02 -1.285994E+01 +4.777467E+00 -1.285994E+01 +5.432275E+02 -3.720767E-01 +4.777467E+00 -3.720767E-01 +1.309083E+03 
 +5.587189E+02 -1.328947E+01 +1.589408E+01 -1.328947E+01 +7.069905E+02 +2.354736E+00 +1.589408E+01 +2.354736E+00 +1.326735E+03 
 +6.002829E+02 +1.559047E-02 +4.386323E+00 +1.559047E-02 +6.085860E+02 -2.207773E+01 +4.386323E+00 -2.207773E+01 +1.334782E+03 
 +5.747147E+02 -3.689288E+01 -3.113342E+00 -3.689288E+01 +5.949855E+02 +6.433369E+00 -3.113342E+00 +6.433369E+00 +1.300794E+03 
 +6.810895E+02 -6.147873E+00 +9.203694E+00 -6.147873E+00 +6.073027E+02 +6.468498E+00 +9.203694E+00 +6.468498E+00 +1.347538E+03 
 +6.263975E+02 +1.943289E+01 +2.898765E+01 +1.943289E+01 +6.100945E+02 -1.376416E+01 +2.898765E+01 -1.376416E+01 +1.418290E+03 
 +6.350310E+02 +2.040951E+00 +1.315577E+00 +2.040951E+00 +6.142143E+02 +1.068958E+01 +1.315577E+00 +1.068958E+01 +1.312326E+03 
 +6.233079E+02 -5.031642E+01 +1.359177E+01 -5.031642E+01 +5.838218E+02 -1.293036E+01 +1.359177E+01 -1.293036E+01 +1.294435E+03 
 +5.567073E+02 -2.770072E+00 +3.251035E+01 -2.770072E+00 +5.783892E+02 +1.262455E+01 +3.251035E+01 +1.262455E+01 +1.329125E+03 
 +6.002893E+02 +2.449433E+00 +4.673258E-01 +2.449433E+00 +5.953352E+02 +1.783981E+01 +4.673258E-01 +1.783981E+01 +1.407815E+03 
 +6.103995E+02 -5.605242E+00 -2.111850E+01 -5.605242E+00 +6.013590E+02 -9.552665E+00 -2.111850E+01 -9.552665E+00 +1.435599E+03 
 +6.393186E+02 +5.018073E+01 -2.710556E+00 +5.018073E+01 +5.864045E+02 -9.702092E+00 -2.710556E+00 -9.702092E+00 +1.304900E+03 
 +5.645572E+02 +1.901498E+01 -1.505451E+01 +1.901498E+01 +5.901879E+02 -1.494449E+01 -1.505451E+01 -1.494449E+01 +1.313117E+03 
 +5.985760E+02 +1.607632E+01 +5.431077E+00 +1.607632E+01 +5.962147E+02 -1.987118E+01 +5.431077E+00 -1.987118E+01 +1.433584E+03 
 +5.947303E+02 -1.532539E+01 +1.480434E+01 -1.532539E+01 +5.829443E+02 +2.047366E+01 +1.480434E+01 +2.047366E+01 +1.402399E+03 
 +6.019053E+02 +3.333094E+01 -2.740290E+00 +3.333094E+01 +6.321564E+02 +3.352824E+00 -2.740290E+00 +3.352824E+00 +1.280447E+03 
 +6.084323E+02 -1.304287E+01 -3.449312E+00 -1.304287E+01 +5.628597E+02 -1.322063E+01 -3.449312E+00 -1.322063E+01 +1.340244E+03 
 +5.254934E+02 -8.507127E+00 -2.353809E+01 -8.507127E+00 +5.821060E+02 -6.953037E+00 -2.353809E+01 -6.953037E+00 +1.360942E+03 
 +6.798397E+02 -1.777324E+01 -5.715690E+00 -1.777324E+01 +6.105538E+02 -2.155510E+01 -5.715690E+00 -2.155510E+01 +1.381283E+03 
 +5.730416E+02 -1.878537E+01 +1.665997E+01 -1.878537E+01 +5.925632E+02 -2.764629E+01 +1.665997E+01 -2.764629E+01 +1.403062E+03 
 +6.505262E+02 +5.204960E+01 +7.031179E-02 +5.204960E+01 +6.048367E+02 -1.136594E+01 +7.031179E-02 -1.136594E+01 +1.316675E+03 
 +5.783557E+02 +2.779196E+01 +6.807153E+00 +2.779196E+01 +6.291920E+02 +9.473023E+00 +6.807153E+00 +9.473023E+00 +1.352375E+03 
 +5.741920E+02 +2.064012E+01 +2.086910E+01 +2.064012E+01 +5.623401E+02 +1.425778E+01 +2.086910E+01 +1.425778E+01 +1.372813E+03 
 +6.394662E+02 -1.643300E+01 -1.073372E+01 -1.643300E+01 +6.598983E+02 +1.632181E+01 -1.073372E+01 +1.632181E+01 +1.362471E+03 
 +5.986450E+02 -6.202876E+00 +2.334362E+01 -6.202876E+00 +6.197114E+02 -8.470190E+00 +2.334362E+01 -8.470190E+00 +1.283715E+03 
 +4.980546E+02 +9.539450E+00 -1.070285E+01 +9.539450E+00 +5.493822E+02 -5.432644E-02 -1.070285E+01 -5.432644E-02 +1.339769E+03 
 +6.409783E+02 +1.384002E+01 +2.548772E+01 +1.384002E+01 +6.397635E+02 +4.629529E+00 +2.548772E+01 +4.629529E+00 +1.388531E+03 
 +5.999401E+02 -5.815804E+01 -1.513478E+01 -5.815804E+01 +6.679332E+02 -2.976739E+00 -1.513478E+01 -2.976739E+00 +1.341626E+03 
 +6.514120E+02 +2.838187E+01 +1.225785E+00 +2.838187E+01 +5.725887E+02 +2.366017E+01 +1.225785E+00 +2.366017E+01 +1.327807E+03 
 +6.740421E+02 -2.343988E+01 -4.382572E+00 -2.343988E+01 +5.742217E+02 -1.276401E+01 -4.382572E+00 -1.276401E+01 +1.295739E+03 
 +6.210768E+02 -5.764125E+00 +2.715507E+01 -5.764125E+00 +6.222835E+02 -3.577970E+00 +2.715507E+01 -3.577970E+00 +1.430811E+03 
 +6.304500E+02 +2.890340E+01 -1.825677E+01 +2.890340E+01 +6.415927E+02 +1.985190E+01 -1.825677E+01 +1.985190E+01 +1.290659E+03 
 +6.515429E+02 +1.802317E+01 -7.942287E+00 +1.802317E+01 +6.025478E+02 +2.502134E+01 -7.942287E+00 +2.502134E+01 +1.331828E+03 
 +6.456248E+02 +1.412639E+01 -1.258312E+01 +1.412639E+01 +6.695184E+02 +7.083525E+00 -1.258312E+01 +7.083525E+00 +1.388665E+03 
 +6.072718E+02 -1.802014E+01 +1.077933E+01 -1.802014E+01 +6.246888E+02 -1.742346E+00 +1.077933E+01 -1.742346E+00 +1.451169E+03 
 +6.166345E+02 +2.418189E+01 +9.972110E-01 +2.418189E+01 +6.149690E+02 -5.690963E+00 +9.972110E-01 -5.690963E+00 +1.323389E+03 
 +6.021763E+02 +2.517751E+01 +4.578127E+00 +2.517751E+01 +5.910140E+02 +1.090384E+01 +4.578127E+00 +1.090384E+01 +1.368070E+03 
 +5.717235E+02 -1.554898E+01 +2.484171E+01 -1.554898E+01 +6.756608E+02 -1.447280E+01 +2.484171E+01 -1.447280E+01 +1.383646E+03 
 +6.795856E+02 -4.773869E+01 +1.383403E+01 -4.773869E+01 +6.073748E+02 -7.799606E+00 +1.383403E+01 -7.799606E+00 +1.325718E+03 
 +5.596653E+02 -1.141169E+01 -8.117586E-01 -1.141169E+01 +5.939949E+02 -1.387111E+01 -8.117586E-01 -1.387111E+01 +1.419798E+03 
 +5.641747E+02 -1.348341E+01 -1.820115E+01 -1.348341E+01 +6.366295E+02 -3.886036E+00 -1.820115E+01 -3.886036E+00 +1.302538E+03 
 +6.014040E+02 -7.929810E+01 -6.695382E+00 -7.929810E+01 +6.128403E+02 -3.742186E+00 -6.695382E+00 -3.742186E+00 +1.322590E+03 
 +6.825463E+02 +4.174679E+00 -6.688706E+00 +4.174679E+00 +5.576026E+02 -1.870161E+01 -6.688706E+00 -1.870161E+01 +1.304323E+03 
 +6.085626E+02 -3.130510E+01 +1.949086E+00 -3.130510E+01 +6.206983E+02 -7.939740E+00 +1.949086E+00 -7.939740E+00 +1.298145E+03 
 +5.624661E+02 -1.121394E+01 -1.067028E+00 -1.121394E+01 +5.265117E+02 +6.666699E+00 -1.067028E+00 +6.666699E+00 +1.373389E+03 
 +6.341235E+02 -9.067830E+00 +1.730514E+01 -9.067830E+00 +6.650076E+02 -7.891066E-01 +1.730514E+01 -7.891066E-01 +1.304097E+03 
 +6.658423E+02 +2.124198E+01 +3.163264E+01 +2.124198E+01 +6.851309E+02 -1.829002E+01 +3.163264E+01 -1.829002E+01 +1.398163E+03 
 +5.757646E+02 -7.390275E+00 +1.112298E+01 -7.390275E+00 +5.835877E+02 -2.160420E+01 +1.112298E+01 -2.160420E+01 +1.394576E+03 
 +7.017714E+02 +2.949172E+01 -7.851519E+00 +2.949172E+01 +6.371158E+02 +1.822649E+01 -7.851519E+00 +1.822649E+01 +1.309193E+03 
 +6.264080E+02 +5.759594E+00 -4.051826E+01 +5.759594E+00 +6.239265E+02 -1.492864E+01 -4.051826E+01 -1.492864E+01 +1.371523E+03 
 +6.082166E+02 -5.044370E+00 +1.345335E+01 -5.044370E+00 +6.489522E+02 -2.646510E+01 +1.345335E+01 -2.646510E+01 +1.271749E+03 
 +5.620677E+02 +1.340338E+00 -1.380958E+01 +1.340338E+00 +6.098198E+02 -2.700550E+00 -1.380958E+01 -2.700550E+00 +1.445882E+03 
 +6.899109E+02 -4.441101E+00 +7.770451E+00 -4.441101E+00 +5.591743E+02 -1.541818E+01 +7.770451E+00 -1.541818E+01 +1.324311E+03 
 +5.550253E+02 -2.190226E+01 +1.317666E+01 -2.190226E+01 +5.568705E+02 -7.067810E+00 +1.317666E+01 -7.067810E+00 +1.387650E+03 
 +6.293195E+02 +3.028250E+01 +3.254218E+01 +3.028250E+01 +6.196436E+02 -1.766408E+01 +3.254218E+01 -1.766408E+01 +1.430982E+03 
 +6.226635E+02 -8.641848E+00 +7.557728E+00 -8.641848E+00 +7.084550E+02 +1.477955E-02 +7.557728E+00 +1.477955E-02 +1.363634E+03 
 +6.200722E+02 -4.995432E+00 -2.444405E+01 -4.995432E+00 +6.171786E+02 +3.296871E+01 -2.444405E+01 +3.296871E+01 +1.373364E+03 
 +6.266703E+02 +1.149392E+01 +1.011042E+01 +1.149392E+01 +6.173060E+02 -3.671123E+01 +1.011042E+01 -3.671123E+01 +1.427881E+03 
 +5.348676E+02 -4.514656E+00 +5.984723E+00 -4.514656E+00 +5.226232E+02 +6.677659E+00 +5.984723E+00 +6.677659E+00 +1.396733E+03 
 +7.068561E+02 +2.614670E+00 -3.160630E+00 +2.614670E+00 +6.015461E+02 +1.170295E+01 -3.160630E+00 +1.170295E+01 +1.367178E+03 
 +6.158023E+02 +5.165621E+01 -1.649067E+01 +5.165621E+01 +6.514911E+02 -1.729895E+01 -1.649067E+01 -1.729895E+01 +1.355098E+03 
 +6.149611E+02 -6.454792E+00 -6.379170E+00 -6.454792E+00 +7.244438E+02 -8.764723E-01 -6.379170E+00 -8.764723E-01 +1.335621E+03 
 +5.859969E+02 +1.905597E+01 +4.885158E+00 +1.905597E+01 +7.102410E+02 +5.345693E-01 +4.885158E+00 +5.345693E-01 +1.345106E+03 
 +5.901188E+02 +5.639430E+00 +2.626045E+00 +5.639430E+00 +6.533900E+02 -1.514363E+01 +2.626045E+00 -1.514363E+01 +1.441147E+03 
 +5.867300E+02 +6.216521E+00 -1.474852E+01 +6.216521E+00 +5.157972E+02 -1.265838E+01 -1.474852E+01 -1.265838E+01 +1.361775E+03 
 +6.515385E+02 -1.293817E+01 -1.155347E+01 -1.293817E+01 +6.385682E+02 -2.497286E+01 -1.155347E+01 -2.497286E+01 +1.371535E+03 
 +6.343987E+02 -1.288567E+01 -1.745536E+01 -1.288567E+01 +6.279061E+02 +1.596965E+00 -1.745536E+01 +1.596965E+00 +1.393982E+03 
 +5.367621E+02 +6.713865E+00 +2.410978E+01 +6.713865E+00 +5.777715E+02 -9.544835E+00 +2.410978E+01 -9.544835E+00 +1.359536E+03 
 +6.780925E+02 +4.069252E+00 +3.655972E+00 +4.069252E+00 +5.808293E+02 +3.951506E+01 +3.655972E+00 +3.951506E+01 +1.313305E+03 
 +5.735745E+02 -1.592962E-01 +1.400056E+01 -1.592962E-01 +5.444201E+02 +2.752174E+00 +1.400056E+01 +2.752174E+00 +1.373586E+03 
 +5.885178E+02 -3.867485E+00 -1.297529E+01 -3.867485E+00 +5.778391E+02 -3.813764E+00 -1.297529E+01 -3.813764E+00 +1.376370E+03 
 +6.088112E+02 -9.640595E+00 -1.909886E+01 -9.640595E+00 +6.352531E+02 -7.986378E+00 -1.909886E+01 -7.986378E+00 +1.280737E+03 
 +6.160346E+02 -4.686802E+01 -1.290263E+01 -4.686802E+01 +6.594049E+02 +1.249388E+01 -1.290263E+01 +1.249388E+01 +1.320238E+03 
 +6.074198E+02 -2.175910E+00 +1.240581E+01 -2.175910E+00 +6.042961E+02 -1.202896E+01 +1.240581E+01 -1.202896E+01 +1.400080E+03 
 +6.209813E+02 +6.034287E-01 -1.723310E+00 +6.034287E-01 +5.916017E+02 -1.802667E+01 -1.723310E+00 -1.802667E+01 +1.391676E+03 
 +6.153466E+02 +1.606146E+01 -2.068510E+01 +1.606146E+01 +6.208245E+02 -3.053329E+00 -2.068510E+01 -3.053329E+00 +1.462674E+03 
 +5.673646E+02 +2.338750E+01 +7.841506E+00 +2.338750E+01 +6.387364E+02 -1.662817E+01 +7.841506E+00 -1.662817E+01 +1.295435E+03 
 +6.442524E+02 +1.667246E+01 +2.270609E+01 +1.667246E+01 +7.143027E+02 -2.110786E+00 +2.270609E+01 -2.110786E+00 +1.368111E+03 
 +6.039874E+02 -7.302290E+00 -2.186326E+00 -7.302290E+00 +6.136476E+02 +2.033100E+01 -2.186326E+00 +2.033100E+01 +1.419535E+03 
 +5.826600E+02 +2.055285E+01 -4.942892E+00 +2.055285E+01 +5.746197E+02 -1.469527E+01 -4.942892E+00 -1.469527E+01 +1.432595E+03 
 +6.458892E+02 +1.382712E-01 +5.206905E+00 +1.382712E-01 +6.633849E+02 -1.649983E+01 +5.206905E+00 -1.649983E+01 +1.406020E+03 
 +5.979808E+02 -2.088927E+01 -2.410973E+01 -2.088927E+01 +6.790773E+02 -2.933077E+01 -2.410973E+01 -2.933077E+01 +1.319244E+03 
 +6.035024E+02 +3.416158E+01 +1.575240E+01 +3.416158E+01 +5.830243E+02 +2.246285E+00 +1.575240E+01 +2.246285E+00 +1.354786E+03 
 +6.256445E+02 +8.953030E+00 +5.047320E+00 +8.953030E+00 +6.542996E+02 +2.112223E+00 +5.047320E+00 +2.112223E+00 +1.415158E+03 
 +5.958052E+02 +2.182416E+01 +3.004406E+01 +2.182416E+01 +5.831277E+02 +9.204598E+00 +3.004406E+01 +9.204598E+00 +1.398443E+03 
 +6.786901E+02 +3.573687E+01 +1.951371E+01 +3.573687E+01 +7.155436E+02 -5.680801E+00 +1.951371E+01 -5.680801E+00 +1.395699E+03 
 +6.067939E+02 +3.154779E+01 +1.285869E+01 +3.154779E+01 +5.773735E+02 +1.634369E+01 +1.285869E+01 +1.634369E+01 +1.360031E+03 
 +5.856916E+02 +2.601953E+01 -2.386473E+01 +2.601953E+01 +5.906818E+02 +3.131690E+00 -2.386473E+01 +3.131690E+00 +1.422803E+03 
 +5.674444E+02 +1.148143E+00 +1.864395E+01 +1.148143E+00 +6.033430E+02 +2.083756E+01 +1.864395E+01 +2.083756E+01 +1.319004E+03 
 +6.144417E+02 -3.182917E+01 -1.043293E+01 -3.182917E+01 +6.354568E+02 -2.587459E+01 -1.043293E+01 -2.587459E+01 +1.303013E+03 
 +5.683990E+02 +2.195676E+01 -7.385547E+00 +2.195676E+01 +6.980239E+02 -7.780536E+00 -7.385547E+00 -7.780536E+00 +1.340765E+03 
 +6.360603E+02 +3.811291E+01 +6.306700E-01 +3.811291E+01 +7.149434E+02 -2.654807E+00 +6.306700E-01 -2.654807E+00 +1.343216E+03 
 +5.804285E+02 +1.870168E+01 -5.850996E+00 +1.870168E+01 +6.647429E+02 +1.006809E+00 -5.850996E+00 +1.006809E+00 +1.328118E+03 
 +5.956831E+02 -1.231321E+01 +1.712310E+01 -1.231321E+01 +6.618909E+02 -2.057618E+01 +1.712310E+01 -2.057618E+01 +1.294828E+03 
 +6.273995E+02 +8.765583E+00 -7.882968E+00 +8.765583E+00 +6.713796E+02 -1.668103E+01 -7.882968E+00 -1.668103E+01 +1.396646E+03 
 +6.088723E+02 +1.690383E+01 +3.134835E+01 +1.690383E+01 +6.493389E+02 +7.893532E+00 +3.134835E+01 +7.893532E+00 +1.373297E+03 
 +5.743651E+02 -4.757841E-01 -1.154702E+01 -4.757841E-01 +5.365094E+02 -2.190389E+00 -1.154702E+01 -2.190389E+00 +1.442855E+03 
 +7.007742E+02 -4.484253E+01 +8.205878E+00 -4.484253E+01 +5.748593E+02 +8.456721E+00 +8.205878E+00 +8.456721E+00 +1.335005E+03 
 +5.505192E+02 -2.042910E+01 +4.038681E+00 -2.042910E+01 +5.677161E+02 +1.759988E+01 +4.038681E+00 +1.759988E+01 +1.348318E+03 
 +6.408163E+02 +2.004198E+01 +4.988741E+00 +2.004198E+01 +6.329275E+02 +3.864143E+00 +4.988741E+00 +3.864143E+00 +1.403386E+03 
 +6.091719E+02 +1.402644E+01 -6.659337E+00 +1.402644E+01 +5.958990E+02 -1.454525E+01 -6.659337E+00 -1.454525E+01 +1.413604E+03 
 +5.776883E+02 -9.310105E+00 +1.789861E+01 -9.310105E+00 +5.379401E+02 -3.788351E+01 +1.789861E+01 -3.788351E+01 +1.348510E+03 
 +6.562639E+02 -3.230014E+01 -6.236698E+00 -3.230014E+01 +5.061010E+02 +1.310992E+01 -6.236698E+00 +1.310992E+01 +1.299037E+03 
 +5.520001E+02 -6.237885E+00 +1.114881E+01 -6.237885E+00 +5.589861E+02 -8.413790E+00 +1.114881E+01 -8.413790E+00 +1.379127E+03 
 +5.898022E+02 +8.761551E-01 -2.924361E+01 +8.761551E-01 +5.704600E+02 +1.147841E+01 -2.924361E+01 +1.147841E+01 +1.388802E+03 
 +6.306171E+02 +1.379481E+00 +5.910023E+00 +1.379481E+00 +6.083401E+02 +8.068473E+00 +5.910023E+00 +8.068473E+00 +1.380585E+03 
 +7.041053E+02 +1.399090E+01 +3.329941E+00 +1.399090E+01 +6.294801E+02 -9.222509E+00 +3.329941E+00 -9.222509E+00 +1.349990E+03 
 +5.777173E+02 +1.420150E+01 +2.695747E+01 +1.420150E+01 +5.550023E+02 -5.511125E+00 +2.695747E+01 -5.511125E+00 +1.459591E+03 
 +6.751317E+02 -2.294944E+01 +9.958458E+00 -2.294944E+01 +5.899894E+02 -1.614576E+00 +9.958458E+00 -1.614576E+00 +1.352206E+03 
 +5.733351E+02 +7.723528E+00 +2.505698E+01 +7.723528E+00 +6.018569E+02 -1.963551E+01 +2.505698E+01 -1.963551E+01 +1.392151E+03 
 +5.704087E+02 +2.425850E+01 -2.816086E+01 +2.425850E+01 +6.065189E+02 +2.622755E+01 -2.816086E+01 +2.622755E+01 +1.365104E+03 
 +7.084656E+02 -4.344792E+01 -4.547426E+00 -4.344792E+01 +6.361979E+02 +7.989910E-01 -4.547426E+00 +7.989910E-01 +1.380339E+03 
 +6.032549E+02 -6.557740E+01 -7.676346E+00 -6.557740E+01 +6.694972E+02 +1.947958E+01 -7.676346E+00 +1.947958E+01 +1.346087E+03 
 +6.037090E+02 -3.195606E+01 -4.053250E+00 -3.195606E+01 +7.025030E+02 +2.449881E+01 -4.053250E+00 +2.449881E+01 +1.334343E+03 
 +5.956607E+02 +5.670288E+00 +1.304498E+01 +5.670288E+00 +7.142585E+02 +5.053888E+00 +1.304498E+01 +5.053888E+00 +1.381620E+03 
 +6.540977E+02 +4.223783E+01 +1.082566E+01 +4.223783E+01 +6.546389E+02 -1.252171E+01 +1.082566E+01 -1.252171E+01 +1.348336E+03 
 +6.098876E+02 +1.616963E+01 -7.423766E-01 +1.616963E+01 +6.463685E+02 -1.648233E+01 -7.423766E-01 -1.648233E+01 +1.360592E+03 
 +6.766091E+02 -2.344711E+00 +4.071319E+00 -2.344711E+00 +6.149066E+02 -4.990267E+00 +4.071319E+00 -4.990267E+00 +1.351618E+03 
 +5.587847E+02 +7.859101E+00 -2.279323E+00 +7.859101E+00 +5.822629E+02 +9.946602E+00 -2.279323E+00 +9.946602E+00 +1.382441E+03 
 +6.054037E+02 +4.538477E+00 -3.175836E+01 +4.538477E+00 +6.087582E+02 +8.743068E+00 -3.175836E+01 +8.743068E+00 +1.435351E+03 
 +5.760449E+02 +1.439798E+01 -2.075765E+01 +1.439798E+01 +6.381562E+02 -1.828384E+00 -2.075765E+01 -1.828384E+00 +1.319150E+03 
 +6.681037E+02 -3.692039E+00 +4.970386E+00 -3.692039E+00 +6.317401E+02 -5.638314E+00 +4.970386E+00 -5.638314E+00 +1.370646E+03 
 +5.638400E+02 -1.888071E+01 -2.211264E+01 -1.888071E+01 +6.010554E+02 -7.665540E+00 -2.211264E+01 -7.665540E+00 +1.438766E+03 
 +6.859487E+02 -6.365032E+00 +1.701095E-01 -6.365032E+00 +5.336421E+02 -8.607632E+00 +1.701095E-01 -8.607632E+00 +1.267876E+03 
 +5.841174E+02 +3.170087E+00 -2.229903E+01 +3.170087E+00 +6.098470E+02 -1.758259E+01 -2.229903E+01 -1.758259E+01 +1.411913E+03 
 +5.568191E+02 +1.106076E+01 -6.695476E+00 +1.106076E+01 +6.321043E+02 +5.752656E+00 -6.695476E+00 +5.752656E+00 +1.329180E+03 
 +5.945945E+02 -5.113543E+01 +9.472036E+00 -5.113543E+01 +6.579312E+02 +1.673893E+01 +9.472036E+00 +1.673893E+01 +1.327132E+03 
 +5.647233E+02 -1.144731E+01 +1.623194E+01 -1.144731E+01 +5.683179E+02 -1.050935E+01 +1.623194E+01 -1.050935E+01 +1.436918E+03 
 +6.623759E+02 -3.997880E+01 +2.092186E+01 -3.997880E+01 +5.989156E+02 +4.164551E+00 +2.092186E+01 +4.164551E+00 +1.350935E+03 
 +6.497395E+02 +2.073971E+01 +5.956748E+00 +2.073971E+01 +6.298220E+02 -3.397688E+01 +5.956748E+00 -3.397688E+01 +1.399460E+03 
 +6.430024E+02 +7.321180E+00 +5.756759E+00 +7.321180E+00 +6.753533E+02 -1.555813E+01 +5.756759E+00 -1.555813E+01 +1.412519E+03 
 +6.693661E+02 -2.360481E+01 -2.047037E+00 -2.360481E+01 +5.818725E+02 +1.102726E+01 -2.047037E+00 +1.102726E+01 +1.318329E+03 
 +5.597874E+02 +1.362501E+01 +1.451491E+01 +1.362501E+01 +5.266217E+02 +9.501954E-01 +1.451491E+01 +9.501954E-01 +1.384377E+03 
 +6.030356E+02 -1.583270E+01 +1.770782E+01 -1.583270E+01 +5.542162E+02 -1.310251E+01 +1.770782E+01 -1.310251E+01 +1.302005E+03 
 +6.106469E+02 -1.391043E+01 -2.700221E+01 -1.391043E+01 +5.743082E+02 -3.223225E+00 -2.700221E+01 -3.223225E+00 +1.328835E+03 
 +6.180135E+02 +1.782322E+01 +1.682110E-01 +1.782322E+01 +5.608026E+02 +1.775036E+01 +1.682110E-01 +1.775036E+01 +1.409086E+03 
 +5.860809E+02 -2.099964E+01 +1.742666E+01 -2.099964E+01 +5.817425E+02 +1.030478E+01 +1.742666E+01 +1.030478E+01 +1.397656E+03 
 +6.321467E+02 +3.572451E+00 -1.522695E+01 +3.572451E+00 +6.009532E+02 -1.273461E+01 -1.522695E+01 -1.273461E+01 +1.393165E+03 
 +6.670285E+02 -1.044965E+01 -2.661196E+00 -1.044965E+01 +5.915052E+02 +1.814044E+00 -2.661196E+00 +1.814044E+00 +1.255637E+03 
 +5.995942E+02 -2.280966E+01 +2.431646E+01 -2.280966E+01 +6.004833E+02 -1.273964E+01 +2.431646E+01 -1.273964E+01 +1.425040E+03 
 +6.855995E+02 -1.165667E+01 +8.510546E+00 -1.165667E+01 +5.893254E+02 -2.344923E+01 +8.510546E+00 -2.344923E+01 +1.360694E+03 
 +6.130343E+02 -6.475060E+00 +7.810935E+00 -6.475060E+00 +6.096599E+02 +2.702532E+01 +7.810935E+00 +2.702532E+01 +1.371596E+03 
 +5.808430E+02 -4.000561E+01 +2.693904E+00 -4.000561E+01 +5.965143E+02 +2.920034E+01 +2.693904E+00 +2.920034E+01 +1.351127E+03 
 +5.697161E+02 -1.680256E+01 -1.957646E+01 -1.680256E+01 +5.429402E+02 +5.257548E+00 -1.957646E+01 +5.257548E+00 +1.397347E+03 
 +5.854398E+02 +1.746398E+01 +5.041935E+00 +1.746398E+01 +6.598823E+02 +1.709553E+01 +5.041935E+00 +1.709553E+01 +1.252350E+03 
 +6.047825E+02 +4.060750E-02 -1.385056E+01 +4.060750E-02 +6.149055E+02 -2.190496E+00 -1.385056E+01 -2.190496E+00 +1.369677E+03 
 +6.087055E+02 -1.249017E+01 -7.759788E-01 -1.249017E+01 +5.735411E+02 -4.708106E+00 -7.759788E-01 -4.708106E+00 +1.352314E+03 
 +5.372108E+02 -3.701600E+00 -1.620531E+01 -3.701600E+00 +5.684332E+02 +7.218595E+00 -1.620531E+01 +7.218595E+00 +1.264559E+03 
 +6.473273E+02 -2.105130E+01 -2.292699E+01 -2.105130E+01 +6.507906E+02 -1.294652E+01 -2.292699E+01 -1.294652E+01 +1.385960E+03 
 +5.593506E+02 -1.660567E+01 -8.140917E+00 -1.660567E+01 +5.721573E+02 -7.512554E-02 -8.140917E+00 -7.512554E-02 +1.345443E+03 
 +6.230342E+02 +1.386143E+01 -3.981964E+01 +1.386143E+01 +5.977770E+02 +1.145335E+01 -3.981964E+01 +1.145335E+01 +1.405628E+03 
 +5.653638E+02 +1.151630E+01 +3.563847E+00 +1.151630E+01 +5.444293E+02 -1.902544E+01 +3.563847E+00 -1.902544E+01 +1.405305E+03 
 +6.272161E+02 +2.962492E+01 -7.271480E+00 +2.962492E+01 +6.112750E+02 +3.811568E+00 -7.271480E+00 +3.811568E+00 +1.384911E+03 
 +5.979557E+02 -4.988994E-01 -2.244900E+01 -4.988994E-01 +5.830189E+02 -1.418968E+01 -2.244900E+01 -1.418968E+01 +1.435754E+03 
 +6.683997E+02 +1.572683E+01 +1.320769E+01 +1.572683E+01 +5.465941E+02 -4.726635E+00 +1.320769E+01 -4.726635E+00 +1.287552E+03 
 +5.274365E+02 +2.056086E+00 +9.146808E+00 +2.056086E+00 +5.736272E+02 -1.134762E+01 +9.146808E+00 -1.134762E+01 +1.328313E+03 
 +6.220953E+02 -5.259065E+00 +1.818579E+01 -5.259065E+00 +5.722377E+02 -7.519643E+00 +1.818579E+01 -7.519643E+00 +1.356619E+03 
 +6.039432E+02 +3.584203E+00 +1.179641E+01 +3.584203E+00 +5.815776E+02 -1.134815E+01 +1.179641E+01 -1.134815E+01 +1.402609E+03 
 +6.685963E+02 +2.157814E+00 -1.189903E+01 +2.157814E+00 +5.982822E+02 +1.639749E+01 -1.189903E+01 +1.639749E+01 +1.330272E+03 
 +6.879636E+02 -6.023935E+00 +9.926841E+00 -6.023935E+00 +6.398832E+02 -1.225011E+01 +9.926841E+00 -1.225011E+01 +1.353734E+03 
 +6.115082E+02 -6.749178E+00 +2.703432E+01 -6.749178E+00 +6.097444E+02 -2.574829E+01 +2.703432E+01 -2.574829E+01 +1.370798E+03 
 +6.165946E+02 +4.294925E+00 +1.172394E+01 +4.294925E+00 +5.943402E+02 +7.724691E+00 +1.172394E+01 +7.724691E+00 +1.398747E+03 
 +6.183147E+02 -1.124764E+00 +1.347055E+01 -1.124764E+00 +5.918754E+02 +2.087158E+01 +1.347055E+01 +2.087158E+01 +1.383271E+03 
 +6.259895E+02 +8.943272E+00 -1.653671E+01 +8.943272E+00 +6.185096E+02 +3.238137E+01 -1.653671E+01 +3.238137E+01 +1.366715E+03 
 +6.119870E+02 +6.012463E+00 +3.063094E+01 +6.012463E+00 +6.473621E+02 -8.052179E+00 +3.063094E+01 -8.052179E+00 +1.346484E+03 
 +5.835020E+02 -2.330896E+01 +1.435693E+01 -2.330896E+01 +5.755506E+02 -3.087609E+00 +1.435693E+01 -3.087609E+00 +1.308677E+03 
 +6.995748E+02 +4.056318E+00 -1.327102E+01 +4.056318E+00 +5.856326E+02 +1.830699E+01 -1.327102E+01 +1.830699E+01 +1.353456E+03 
 +5.990425E+02 +2.195150E+01 -2.191914E+01 +2.195150E+01 +6.407383E+02 -1.276873E+01 -2.191914E+01 -1.276873E+01 +1.343719E+03 
 +6.474123E+02 -4.027515E+01 +5.671951E+00 -4.027515E+01 +6.373381E+02 -3.147917E+01 +5.671951E+00 -3.147917E+01 +1.308535E+03 
 +5.867003E+02 -3.164152E+00 -1.212664E+01 -3.164152E+00 +6.569257E+02 +2.211685E+00 -1.212664E+01 +2.211685E+00 +1.421433E+03 
 +5.609169E+02 +1.042715E+01 +1.077342E+01 +1.042715E+01 +6.187822E+02 +8.157188E+00 +1.077342E+01 +8.157188E+00 +1.302733E+03 
 +6.237449E+02 +8.143579E+00 -9.356249E+00 +8.143579E+00 +5.684622E+02 +2.801341E-01 -9.356249E+00 +2.801341E-01 +1.399745E+03 
 +6.034913E+02 -6.266613E+00 +2.224959E+01 -6.266613E+00 +6.106982E+02 -3.361130E+01 +2.224959E+01 -3.361130E+01 +1.418302E+03 
 +6.164634E+02 -9.345428E+00 -1.318048E+01 -9.345428E+00 +5.797891E+02 -3.810757E+01 -1.318048E+01 -3.810757E+01 +1.393120E+03 
 +5.654963E+02 -6.463336E+00 +4.229770E+00 -6.463336E+00 +5.937598E+02 +2.219837E+01 +4.229770E+00 +2.219837E+01 +1.340031E+03 
 +5.320469E+02 -3.131814E+01 +1.462587E+00 -3.131814E+01 +5.952747E+02 +3.043514E+00 +1.462587E+00 +3.043514E+00 +1.292909E+03 
 +6.872990E+02 -6.442260E+00 -1.754541E+01 -6.442260E+00 +6.253911E+02 +8.939210E+00 -1.754541E+01 +8.939210E+00 +1.351927E+03 
 +6.123635E+02 +1.769925E+01 +2.748506E+01 +1.769925E+01 +5.966129E+02 -2.276758E+01 +2.748506E+01 -2.276758E+01 +1.340749E+03 
 +5.338610E+02 -5.486208E+00 +5.488319E+00 -5.486208E+00 +5.172029E+02 -9.992064E+00 +5.488319E+00 -9.992064E+00 +1.326479E+03 
 +5.204469E+02 -7.203403E+00 +8.515035E+00 -7.203403E+00 +5.312646E+02 +3.910778E+00 +8.515035E+00 +3.910778E+00 +1.324398E+03 
 +5.962947E+02 -2.686568E+00 -1.211754E+01 -2.686568E+00 +6.105890E+02 -1.409144E+01 -1.211754E+01 -1.409144E+01 +1.404727E+03 
 +5.552446E+02 +1.042969E+01 -1.860802E+01 +1.042969E+01 +5.684178E+02 +1.586819E+01 -1.860802E+01 +1.586819E+01 +1.373715E+03 
 +6.310757E+02 +1.186863E+01 -1.568459E+01 +1.186863E+01 +5.722607E+02 +1.820369E+01 -1.568459E+01 +1.820369E+01 +1.361350E+03 
 +5.909486E+02 -1.100988E+01 +9.294160E+00 -1.100988E+01 +5.998362E+02 -3.007704E+01 +9.294160E+00 -3.007704E+01 +1.447250E+03 
 +5.477344E+02 +3.210107E+01 -1.130551E+01 +3.210107E+01 +6.173083E+02 -1.922347E+01 -1.130551E+01 -1.922347E+01 +1.287057E+03 
 +6.203242E+02 -6.768654E+00 +1.949397E+01 -6.768654E+00 +6.247866E+02 +1.574667E+01 +1.949397E+01 +1.574667E+01 +1.403138E+03 
 +5.912330E+02 +6.733189E+01 -6.881413E+00 +6.733189E+01 +6.478862E+02 -2.460418E+00 -6.881413E+00 -2.460418E+00 +1.294689E+03 
 +6.351573E+02 -9.277399E+00 -3.735300E+01 -9.277399E+00 +6.960336E+02 -3.248202E+00 -3.735300E+01 -3.248202E+00 +1.346093E+03 
 +5.710941E+02 -1.544502E+01 -6.310882E+00 -1.544502E+01 +6.599861E+02 +2.178818E+01 -6.310882E+00 +2.178818E+01 +1.314692E+03 
 +5.853110E+02 +6.132744E+00 +1.828123E+01 +6.132744E+00 +6.685480E+02 +5.167957E+00 +1.828123E+01 +5.167957E+00 +1.322108E+03 
 +6.884020E+02 +4.819237E+00 -7.573678E+00 +4.819237E+00 +5.606641E+02 -1.619986E+01 -7.573678E+00 -1.619986E+01 +1.342564E+03 
 +6.585015E+02 +4.548240E+01 +1.220940E+01 +4.548240E+01 +6.268364E+02 -1.496389E+01 +1.220940E+01 -1.496389E+01 +1.332188E+03 
 +5.500626E+02 +1.520920E+01 -2.289061E+00 +1.520920E+01 +6.731597E+02 -7.561521E+00 -2.289061E+00 -7.561521E+00 +1.318722E+03 
 +6.764838E+02 -2.176306E+01 +1.614622E+01 -2.176306E+01 +6.616011E+02 -1.870021E+01 +1.614622E+01 -1.870021E+01 +1.484982E+03 
 +6.173450E+02 +2.914025E+01 +2.344414E+00 +2.914025E+01 +6.474958E+02 +3.545074E+00 +2.344414E+00 +3.545074E+00 +1.336906E+03 
 +5.826099E+02 -5.063334E+00 +1.782394E+01 -5.063334E+00 +6.374792E+02 +6.465013E+00 +1.782394E+01 +6.465013E+00 +1.316038E+03 
 +5.728858E+02 -1.890947E+01 +3.169334E+01 -1.890947E+01 +5.959537E+02 +3.999632E+01 +3.169334E+01 +3.999632E+01 +1.350448E+03 
 +5.701820E+02 +2.616800E+00 -2.161941E+01 +2.616800E+00 +5.904304E+02 +1.136942E+00 -2.161941E+01 +1.136942E+00 +1.390276E+03 
 +6.709510E+02 -3.705521E+01 -9.255107E+00 -3.705521E+01 +6.699667E+02 -1.666028E+00 -9.255107E+00 -1.666028E+00 +1.342566E+03 
 +6.318334E+02 +4.729499E+01 +1.085675E+01 +4.729499E+01 +5.840908E+02 +4.543152E-01 +1.085675E+01 +4.543152E-01 +1.327545E+03 
 +6.720316E+02 +1.640450E+01 +2.241614E+01 +1.640450E+01 +5.806659E+02 +9.208415E-01 +2.241614E+01 +9.208415E-01 +1.338108E+03 
 +6.152026E+02 -2.576957E+01 -3.439106E+01 -2.576957E+01 +6.486999E+02 -1.769217E+01 -3.439106E+01 -1.769217E+01 +1.379307E+03 
 +6.162888E+02 -1.753583E+01 +8.475446E+00 -1.753583E+01 +6.962383E+02 +4.020330E+00 +8.475446E+00 +4.020330E+00 +1.311349E+03 
 +6.276390E+02 -2.040599E+01 -2.054127E+00 -2.040599E+01 +7.184013E+02 -9.572133E+00 -2.054127E+00 -9.572133E+00 +1.397661E+03 
 +5.956205E+02 +6.997280E+00 +3.995930E+01 +6.997280E+00 +6.087717E+02 -1.674883E+01 +3.995930E+01 -1.674883E+01 +1.428614E+03 
 +5.680833E+02 -1.729195E+01 -2.566080E+01 -1.729195E+01 +5.015218E+02 +9.006687E+00 -2.566080E+01 +9.006687E+00 +1.276998E+03 
 +5.578265E+02 -8.667062E+00 +1.487033E+01 -8.667062E+00 +5.441265E+02 +1.318434E+00 +1.487033E+01 +1.318434E+00 +1.382056E+03 
 +5.859681E+02 -1.938775E+01 +1.415180E+01 -1.938775E+01 +5.749599E+02 -1.326980E+01 +1.415180E+01 -1.326980E+01 +1.325615E+03 
 +6.357902E+02 -1.453593E+01 -2.697114E+00 -1.453593E+01 +5.504131E+02 -1.741439E+01 -2.697114E+00 -1.741439E+01 +1.276460E+03 
 +6.299106E+02 -3.361851E+00 +2.522676E-01 -3.361851E+00 +5.787030E+02 +1.361462E+01 +2.522676E-01 +1.361462E+01 +1.312683E+03 
 +5.894531E+02 +6.651256E+00 +2.975838E+01 +6.651256E+00 +6.072560E+02 -1.230147E+01 +2.975838E+01 -1.230147E+01 +1.356554E+03 
 +6.150413E+02 -1.773077E+01 +4.183727E+00 -1.773077E+01 +6.484058E+02 -3.489390E+00 +4.183727E+00 -3.489390E+00 +1.341682E+03 
 +6.585470E+02 +7.821832E+00 -1.936494E+01 +7.821832E+00 +6.430388E+02 -2.997588E+00 -1.936494E+01 -2.997588E+00 +1.332577E+03 
 +5.882963E+02 +6.400152E+00 +1.398956E+01 +6.400152E+00 +5.742388E+02 -3.508101E+01 +1.398956E+01 -3.508101E+01 +1.396759E+03 
 +6.414426E+02 +1.408798E+01 +4.843886E+00 +1.408798E+01 +6.263473E+02 -2.646690E+00 +4.843886E+00 -2.646690E+00 +1.425134E+03 
 +6.520764E+02 +7.645464E+00 -2.066651E+01 +7.645464E+00 +6.619442E+02 +1.356815E+01 -2.066651E+01 +1.356815E+01 +1.391571E+03 
 +6.148575E+02 -2.612658E+01 -2.492230E+01 -2.612658E+01 +6.264018E+02 -4.432250E+00 -2.492230E+01 -4.432250E+00 +1.364824E+03 
 +5.974509E+02 +5.172194E+01 -1.054812E+01 +5.172194E+01 +6.333992E+02 +1.048170E+01 -1.054812E+01 +1.048170E+01 +1.307590E+03 
 +6.404058E+02 -4.894890E+00 +2.847076E+01 -4.894890E+00 +6.641140E+02 +3.329590E+01 +2.847076E+01 +3.329590E+01 +1.411545E+03 
 +5.804483E+02 +1.239020E+01 -1.465661E+01 +1.239020E+01 +6.217551E+02 +2.205871E+01 -1.465661E+01 +2.205871E+01 +1.308501E+03 
 +5.488188E+02 +6.021902E+00 -5.897957E+00 +6.021902E+00 +5.139622E+02 +2.893349E+01 -5.897957E+00 +2.893349E+01 +1.352598E+03 
 +5.256921E+02 +2.671569E+01 -4.242870E+01 +2.671569E+01 +5.573498E+02 -1.684709E+01 -4.242870E+01 -1.684709E+01 +1.352521E+03 
 +6.798907E+02 +2.852040E+01 +2.252741E-01 +2.852040E+01 +5.917056E+02 -6.470990E+00 +2.252741E-01 -6.470990E+00 +1.336136E+03 
 +5.762111E+02 -1.796861E+01 +1.212700E+01 -1.796861E+01 +5.350267E+02 -9.513930E+00 +1.212700E+01 -9.513930E+00 +1.290308E+03 
 +6.337538E+02 +6.030385E+00 +2.348288E+01 +6.030385E+00 +6.278168E+02 -4.157691E+00 +2.348288E+01 -4.157691E+00 +1.443231E+03 
 +6.178712E+02 +1.574795E+01 +2.923814E+01 +1.574795E+01 +6.696560E+02 +1.059328E+01 +2.923814E+01 +1.059328E+01 +1.353047E+03 
 +6.738349E+02 -1.050396E+01 -2.518282E+01 -1.050396E+01 +6.408906E+02 +2.004164E+01 -2.518282E+01 +2.004164E+01 +1.383866E+03 
 +6.013672E+02 +1.330262E+01 +1.697752E+01 +1.330262E+01 +5.578345E+02 -2.286721E+01 +1.697752E+01 -2.286721E+01 +1.418271E+03 
 +6.803928E+02 +2.939697E+01 +1.287780E+01 +2.939697E+01 +5.588339E+02 +8.082864E+00 +1.287780E+01 +8.082864E+00 +1.315940E+03 
 +6.524306E+02 -2.529761E+01 +7.558102E+00 -2.529761E+01 +5.657016E+02 +1.682906E+01 +7.558102E+00 +1.682906E+01 +1.308154E+03 
 +5.510056E+02 -1.777659E+01 +7.636878E+00 -1.777659E+01 +5.388734E+02 -1.570888E+01 +7.636878E+00 -1.570888E+01 +1.451166E+03 
 +5.998020E+02 -1.664005E+01 -2.060644E+01 -1.664005E+01 +5.896302E+02 +4.232100E+00 -2.060644E+01 +4.232100E+00 +1.409207E+03 
 +6.242843E+02 +2.429943E+01 +2.598889E+01 +2.429943E+01 +6.515729E+02 +9.369185E+00 +2.598889E+01 +9.369185E+00 +1.370541E+03 
 +5.534281E+02 +9.415886E+00 +6.355513E+00 +9.415886E+00 +6.232415E+02 +1.489898E+01 +6.355513E+00 +1.489898E+01 +1.281635E+03 
 +5.789059E+02 +3.016340E-01 +2.144498E+00 +3.016340E-01 +6.313962E+02 +2.146802E+00 +2.144498E+00 +2.146802E+00 +1.495135E+03 
 +5.302266E+02 +4.043325E+01 +2.666806E+01 +4.043325E+01 +5.448760E+02 -1.928323E+01 +2.666806E+01 -1.928323E+01 +1.305979E+03 
 +6.172297E+02 +1.481366E+00 -1.425460E+01 +1.481366E+00 +5.846527E+02 -1.010080E+01 -1.425460E+01 -1.010080E+01 +1.392227E+03 
 +5.962705E+02 -1.089335E+01 -3.474362E+01 -1.089335E+01 +6.451490E+02 +8.726377E+00 -3.474362E+01 +8.726377E+00 +1.346681E+03 
 +6.180272E+02 -5.053807E+01 +7.971687E+00 -5.053807E+01 +5.907706E+02 +1.510663E+01 +7.971687E+00 +1.510663E+01 +1.310443E+03 
 +6.805267E+02 +4.625705E+01 -6.143951E-01 +4.625705E+01 +6.500034E+02 +1.506730E+01 -6.143951E-01 +1.506730E+01 +1.346764E+03 
 +6.701270E+02 -6.928267E+00 +2.574251E+01 -6.928267E+00 +6.504124E+02 +2.575525E+01 +2.574251E+01 +2.575525E+01 +1.352271E+03 
 +6.064120E+02 -6.613552E+00 -8.023246E+00 -6.613552E+00 +6.949581E+02 -1.826557E+00 -8.023246E+00 -1.826557E+00 +1.327280E+03 
 +6.128055E+02 -2.323759E+01 -2.336825E+01 -2.323759E+01 +7.128267E+02 -1.172650E+01 -2.336825E+01 -1.172650E+01 +1.330316E+03 
 +5.531544E+02 +9.884511E+00 +4.188022E+01 +9.884511E+00 +6.305450E+02 -1.099403E+01 +4.188022E+01 -1.099403E+01 +1.308838E+03 
 +6.033229E+02 +3.732259E+00 -2.960934E+01 +3.732259E+00 +5.881556E+02 -7.230257E+00 -2.960934E+01 -7.230257E+00 +1.355432E+03 
 +6.319675E+02 +6.743131E+00 +1.459031E-01 +6.743131E+00 +6.091368E+02 -2.179908E+00 +1.459031E-01 -2.179908E+00 +1.424252E+03 
 +5.719134E+02 -9.364196E+00 -2.614384E+01 -9.364196E+00 +5.723384E+02 -1.305154E+01 -2.614384E+01 -1.305154E+01 +1.370358E+03 
 +6.283361E+02 -4.739655E+00 -1.419015E+01 -4.739655E+00 +5.990374E+02 -1.881295E+01 -1.419015E+01 -1.881295E+01 +1.404688E+03 
 +5.692414E+02 +6.412294E+00 -5.957674E+00 +6.412294E+00 +6.102185E+02 +1.557216E+01 -5.957674E+00 +1.557216E+01 +1.418616E+03 
 +6.244393E+02 -1.475214E+01 -6.927135E+00 -1.475214E+01 +5.041796E+02 +1.018711E+01 -6.927135E+00 +1.018711E+01 +1.266280E+03 
 +5.512823E+02 -2.986028E+00 +1.494551E+01 -2.986028E+00 +5.278372E+02 +2.092726E+00 +1.494551E+01 +2.092726E+00 +1.380883E+03 
 +6.079586E+02 -2.403023E+00 +2.508023E+01 -2.403023E+00 +6.097440E+02 +9.448170E+00 +2.508023E+01 +9.448170E+00 +1.456361E+03 
 +5.516415E+02 +5.649517E+00 -2.940379E+01 +5.649517E+00 +6.627397E+02 +8.610358E+00 -2.940379E+01 +8.610358E+00 +1.315678E+03 
 +5.780759E+02 -3.123231E+01 +3.746279E+00 -3.123231E+01 +6.405718E+02 +4.312370E+00 +3.746279E+00 +4.312370E+00 +1.311132E+03 
 +6.665521E+02 +1.679014E+01 -3.811691E+00 +1.679014E+01 +6.116243E+02 +1.830612E+00 -3.811691E+00 +1.830612E+00 +1.289636E+03 
 +6.733489E+02 -2.010406E+00 +9.559567E+00 -2.010406E+00 +6.660998E+02 -2.116589E+00 +9.559567E+00 -2.116589E+00 +1.504784E+03 
 +6.469547E+02 -3.931877E+01 +7.273252E+00 -3.931877E+01 +6.665251E+02 +1.504087E+01 +7.273252E+00 +1.504087E+01 +1.359696E+03 
 +6.147584E+02 -2.199264E+01 +2.939070E+00 -2.199264E+01 +5.838331E+02 -1.436411E+01 +2.939070E+00 -1.436411E+01 +1.340558E+03 
 +5.887797E+02 -1.800187E+01 -2.951899E+00 -1.800187E+01 +5.717455E+02 +1.062462E+01 -2.951899E+00 +1.062462E+01 +1.310021E+03 
 +5.573514E+02 -2.126658E+00 -2.416993E+01 -2.126658E+00 +5.770641E+02 +5.339348E+00 -2.416993E+01 +5.339348E+00 +1.406839E+03 
 +5.727776E+02 -2.255309E+01 +1.309926E+01 -2.255309E+01 +6.074501E+02 -5.688863E+00 +1.309926E+01 -5.688863E+00 +1.331994E+03 
 +6.387719E+02 -5.139841E+01 +1.438526E+01 -5.139841E+01 +5.365560E+02 -1.164721E+01 +1.438526E+01 -1.164721E+01 +1.309003E+03 
 +5.258589E+02 -5.757163E+00 -1.671234E+01 -5.757163E+00 +5.546445E+02 +1.219707E+01 -1.671234E+01 +1.219707E+01 +1.343717E+03 
 +5.939030E+02 +9.471928E+00 +2.941247E+01 +9.471928E+00 +6.247911E+02 +6.667452E+00 +2.941247E+01 +6.667452E+00 +1.404660E+03 
 +5.707082E+02 -2.903377E+01 -5.160460E+00 -2.903377E+01 +6.186959E+02 +7.953024E+00 -5.160460E+00 +7.953024E+00 +1.292983E+03 
 +6.726218E+02 -3.626886E+01 +3.858482E+00 -3.626886E+01 +5.914993E+02 -9.460741E-01 +3.858482E+00 -9.460741E-01 +1.326132E+03 
 +6.452987E+02 -1.730689E+01 -8.291495E+00 -1.730689E+01 +6.106812E+02 -1.232051E+01 -8.291495E+00 -1.232051E+01 +1.383356E+03 
 +6.450895E+02 +2.749750E+01 -2.947592E+00 +2.749750E+01 +6.450757E+02 -1.122730E+01 -2.947592E+00 -1.122730E+01 +1.350623E+03 
 +6.371008E+02 +4.004326E+01 -1.011728E+01 +4.004326E+01 +5.935356E+02 +1.856269E+01 -1.011728E+01 +1.856269E+01 +1.335596E+03 
 +6.698723E+02 +1.811069E+01 +3.968328E+00 +1.811069E+01 +5.760826E+02 -2.396772E+01 +3.968328E+00 -2.396772E+01 +1.338117E+03 
 +5.617566E+02 -3.843900E+00 -1.033091E+01 -3.843900E+00 +6.499767E+02 +6.787889E-01 -1.033091E+01 +6.787889E-01 +1.285897E+03 
 +6.351866E+02 -5.897110E+01 -6.777774E+00 -5.897110E+01 +6.635443E+02 -3.033414E+01 -6.777774E+00 -3.033414E+01 +1.345653E+03 
 +6.097812E+02 +6.767923E+00 +2.900770E+01 +6.767923E+00 +5.957739E+02 -1.324232E+01 +2.900770E+01 -1.324232E+01 +1.322067E+03 
 +6.481812E+02 +2.660688E+01 -9.203431E+00 +2.660688E+01 +6.346364E+02 -1.053092E+01 -9.203431E+00 -1.053092E+01 +1.438228E+03 
 +6.069987E+02 -1.355282E+01 +1.044429E+01 -1.355282E+01 +5.557981E+02 +2.560206E+01 +1.044429E+01 +2.560206E+01 +1.298830E+03 
 +5.774938E+02 -2.607811E+00 -3.616191E+01 -2.607811E+00 +5.806885E+02 -1.003682E+01 -3.616191E+01 -1.003682E+01 +1.342579E+03 
 +6.040734E+02 +1.440536E+01 +1.892665E+01 +1.440536E+01 +6.028386E+02 +1.998098E+00 +1.892665E+01 +1.998098E+00 +1.431720E+03 
 +5.753367E+02 +2.899668E+01 -1.332782E+01 +2.899668E+01 +5.700107E+02 -1.369051E+01 -1.332782E+01 -1.369051E+01 +1.426223E+03 
 +5.629033E+02 -3.301215E+01 -5.738488E+00 -3.301215E+01 +6.045312E+02 +1.533626E+01 -5.738488E+00 +1.533626E+01 +1.273150E+03 
 +7.185852E+02 +1.318612E+00 +5.162030E-01 +1.318612E+00 +6.346379E+02 +6.548380E+00 +5.162030E-01 +6.548380E+00 +1.354451E+03 
 +6.392348E+02 +1.546085E+01 +6.491163E+00 +1.546085E+01 +6.984556E+02 +2.748091E+00 +6.491163E+00 +2.748091E+00 +1.344296E+03 
 +6.719727E+02 -1.757118E+01 +1.600456E+01 -1.757118E+01 +6.927067E+02 +1.798421E+01 +1.600456E+01 +1.798421E+01 +1.395561E+03 
 +5.487630E+02 +6.744130E+01 -7.621421E+00 +6.744130E+01 +6.372565E+02 +6.149713E+00 -7.621421E+00 +6.149713E+00 +1.283393E+03 
 +7.187739E+02 +4.528958E+01 +9.671264E+00 +4.528958E+01 +6.183794E+02 +1.084725E+01 +9.671264E+00 +1.084725E+01 +1.382536E+03 
 +6.182845E+02 +4.113240E+01 -2.358380E+01 +4.113240E+01 +6.445231E+02 -1.985560E+00 -2.358380E+01 -1.985560E+00 +1.450246E+03 
 +6.813063E+02 -2.221573E+01 +3.937405E+01 -2.221573E+01 +6.434204E+02 +5.158947E+00 +3.937405E+01 +5.158947E+00 +1.391613E+03 
 +6.002604E+02 -2.021678E+01 -6.026496E+00 -2.021678E+01 +6.501673E+02 -6.569708E+00 -6.026496E+00 -6.569708E+00 +1.314620E+03 
 +5.483563E+02 -1.617417E+00 +2.090844E+01 -1.617417E+00 +6.000312E+02 -1.941678E+01 +2.090844E+01 -1.941678E+01 +1.408455E+03 
 +6.058256E+02 +1.315172E+01 -4.796645E+00 +1.315172E+01 +5.060557E+02 -3.746703E-02 -4.796645E+00 -3.746703E-02 +1.274210E+03 
 +5.906289E+02 +2.200499E+01 -2.031582E+01 +2.200499E+01 +6.112203E+02 -1.357090E+00 -2.031582E+01 -1.357090E+00 +1.302847E+03 
 +5.795462E+02 -5.000370E+01 -2.039508E+01 -5.000370E+01 +6.596534E+02 -1.185351E+00 -2.039508E+01 -1.185351E+00 +1.310172E+03 
 +6.655745E+02 +3.027507E+01 +1.049135E+01 +3.027507E+01 +5.672737E+02 -2.686488E+00 +1.049135E+01 -2.686488E+00 +1.289924E+03 
 +5.465281E+02 -1.468635E+01 -2.386039E+01 -1.468635E+01 +5.923526E+02 -7.367067E-01 -2.386039E+01 -7.367067E-01 +1.354221E+03 
 +5.839623E+02 +1.055852E+01 -5.337367E+01 +1.055852E+01 +6.480614E+02 -1.646215E+01 -5.337367E+01 -1.646215E+01 +1.291542E+03 
 +6.549056E+02 +9.180457E+00 -1.168900E+01 +9.180457E+00 +6.530575E+02 +2.368735E+01 -1.168900E+01 +2.368735E+01 +1.455121E+03 
 +6.105134E+02 +8.765323E+00 -1.995178E+00 +8.765323E+00 +6.477183E+02 -4.310476E+00 -1.995178E+00 -4.310476E+00 +1.426260E+03 
 +6.170706E+02 -1.939291E+00 -7.937808E+00 -1.939291E+00 +6.726085E+02 +4.306005E+00 -7.937808E+00 +4.306005E+00 +1.312681E+03 
 +6.972436E+02 -7.087806E+01 -8.965482E+00 -7.087806E+01 +6.782763E+02 +2.903099E+01 -8.965482E+00 +2.903099E+01 +1.399077E+03 
 +6.070675E+02 -1.485948E+01 +1.008440E+00 -1.485948E+01 +6.172822E+02 +1.292168E+01 +1.008440E+00 +1.292168E+01 +1.381826E+03 
 +5.473207E+02 +2.150994E+01 +1.348993E+00 +2.150994E+01 +4.895786E+02 -2.309783E+01 +1.348993E+00 -2.309783E+01 +1.360610E+03 
 +5.997501E+02 -1.827187E+01 -6.854053E+00 -1.827187E+01 +5.951041E+02 -1.420786E+01 -6.854053E+00 -1.420786E+01 +1.347773E+03 
 +5.487754E+02 -8.389999E+00 +1.938826E+01 -8.389999E+00 +5.948970E+02 +2.096500E+01 +1.938826E+01 +2.096500E+01 +1.302463E+03 
 +5.128942E+02 +8.463390E+00 -1.192890E+01 +8.463390E+00 +5.805853E+02 +3.426165E+01 -1.192890E+01 +3.426165E+01 +1.374743E+03 
 +6.074922E+02 -3.179770E+01 +9.162129E+00 -3.179770E+01 +5.687478E+02 +4.810549E+00 +9.162129E+00 +4.810549E+00 +1.357190E+03 
 +5.957784E+02 -5.009533E+00 -8.690242E-01 -5.009533E+00 +5.294518E+02 -1.268985E+01 -8.690242E-01 -1.268985E+01 +1.420174E+03 
 +5.320085E+02 +1.650301E+01 -1.939770E+00 +1.650301E+01 +5.277811E+02 -1.356585E+01 -1.939770E+00 -1.356585E+01 +1.400096E+03 
 +5.897586E+02 +4.430558E+00 +2.338439E+01 +4.430558E+00 +5.707439E+02 +3.352147E+01 +2.338439E+01 +3.352147E+01 +1.368172E+03 
 +6.362288E+02 +7.422330E+00 -3.370561E+01 +7.422330E+00 +6.301504E+02 +8.489379E+00 -3.370561E+01 +8.489379E+00 +1.367895E+03 
 +7.114757E+02 +8.823275E+00 -1.794402E+01 +8.823275E+00 +6.220306E+02 +7.775767E+00 -1.794402E+01 +7.775767E+00 +1.344896E+03 
 +6.299493E+02 +2.863744E+01 -9.471525E+00 +2.863744E+01 +6.019218E+02 +1.928423E+00 -9.471525E+00 +1.928423E+00 +1.314657E+03 
 +6.401008E+02 +6.128161E+01 +1.834249E+00 +6.128161E+01 +5.451939E+02 -6.870932E+00 +1.834249E+00 -6.870932E+00 +1.302905E+03 
 +6.895907E+02 -5.388881E+00 +1.827824E+01 -5.388881E+00 +5.606688E+02 +1.341575E+01 +1.827824E+01 +1.341575E+01 +1.298990E+03 
 +5.558152E+02 +1.692949E+01 +9.236307E+00 +1.692949E+01 +5.887950E+02 +7.366010E+00 +9.236307E+00 +7.366010E+00 +1.366909E+03 
 +7.127581E+02 +1.318428E+01 +2.688390E+01 +1.318428E+01 +5.819376E+02 -7.859351E+00 +2.688390E+01 -7.859351E+00 +1.361051E+03 
 +5.248684E+02 +6.775543E+00 -2.362007E+01 +6.775543E+00 +5.449289E+02 -8.408648E+00 -2.362007E+01 -8.408648E+00 +1.385695E+03 
 +6.960561E+02 -2.970060E+01 +1.421420E+01 -2.970060E+01 +5.386658E+02 +3.279358E+01 +1.421420E+01 +3.279358E+01 +1.312120E+03 
 +5.801629E+02 -1.134591E+01 +2.276849E+01 -1.134591E+01 +5.622596E+02 -2.080402E+00 +2.276849E+01 -2.080402E+00 +1.380636E+03 
 +5.378680E+02 -1.200053E+01 -1.455298E+01 -1.200053E+01 +5.291628E+02 +1.823614E+01 -1.455298E+01 +1.823614E+01 +1.372312E+03 
 +5.870720E+02 -1.564413E+01 -8.764834E+00 -1.564413E+01 +6.158779E+02 -7.016048E+00 -8.764834E+00 -7.016048E+00 +1.397386E+03 
 +6.435737E+02 +9.304749E-01 -6.878900E+00 +9.304749E-01 +6.358815E+02 -1.404176E+01 -6.878900E+00 -1.404176E+01 +1.362875E+03 
 +5.961822E+02 +1.511476E+00 -3.675068E+01 +1.511476E+00 +6.501176E+02 -7.436991E+00 -3.675068E+01 -7.436991E+00 +1.386697E+03 
 +5.956832E+02 +4.133601E+01 +2.958290E+00 +4.133601E+01 +6.023272E+02 -2.003902E+01 +2.958290E+00 -2.003902E+01 +1.295234E+03 
 +6.541989E+02 +8.431005E+00 -9.154583E+00 +8.431005E+00 +5.975763E+02 +5.007917E+00 -9.154583E+00 +5.007917E+00 +1.325830E+03 
 +7.389034E+02 +3.352628E-02 -1.149672E+01 +3.352628E-02 +6.301554E+02 +1.064246E+01 -1.149672E+01 +1.064246E+01 +1.390168E+03 
 +6.136678E+02 +7.020512E+01 +1.615034E+01 +7.020512E+01 +6.635053E+02 -6.474451E+00 +1.615034E+01 -6.474451E+00 +1.369926E+03 
 +6.579869E+02 -1.344898E+01 +2.243077E-01 -1.344898E+01 +6.475654E+02 +1.279929E+01 +2.243077E-01 +1.279929E+01 +1.393762E+03 
 +5.866321E+02 -2.489556E+01 -2.904861E+01 -2.489556E+01 +5.688718E+02 -1.049359E+01 -2.904861E+01 -1.049359E+01 +1.358224E+03 
 +6.707574E+02 -9.253374E+00 +1.689115E+01 -9.253374E+00 +5.555030E+02 +1.020151E+01 +1.689115E+01 +1.020151E+01 +1.307345E+03 
 +5.801317E+02 -1.335482E+01 -2.671034E+01 -1.335482E+01 +5.659749E+02 +6.146494E+01 -2.671034E+01 +6.146494E+01 +1.397255E+03 
 +6.510940E+02 +5.157272E+01 +1.046514E+01 +5.157272E+01 +6.231382E+02 +8.107542E+00 +1.046514E+01 +8.107542E+00 +1.312586E+03 
 +5.429694E+02 -8.560848E+00 +2.034351E+01 -8.560848E+00 +5.625508E+02 -1.165770E+01 +2.034351E+01 -1.165770E+01 +1.392934E+03 
 +5.975930E+02 -3.106067E+01 -1.515752E-01 -3.106067E+01 +6.544885E+02 +1.876465E+00 -1.515752E-01 +1.876465E+00 +1.327457E+03 
 +5.486565E+02 +1.529868E+00 +2.695285E+01 +1.529868E+00 +6.811729E+02 -1.849262E+01 +2.695285E+01 -1.849262E+01 +1.302085E+03 
 +6.196915E+02 -1.291913E+00 +2.042954E+00 -1.291913E+00 +5.858122E+02 -2.084289E+01 +2.042954E+00 -2.084289E+01 +1.421057E+03 
 +5.563995E+02 +1.146919E+01 +4.427269E+00 +1.146919E+01 +5.848068E+02 -3.968275E+01 +4.427269E+00 -3.968275E+01 +1.359687E+03 
 +6.730577E+02 +2.451022E+01 +1.003166E+01 +2.451022E+01 +5.957713E+02 +1.655599E+01 +1.003166E+01 +1.655599E+01 +1.322946E+03 
 +5.866567E+02 -9.437366E+00 -2.161841E+01 -9.437366E+00 +6.100713E+02 -5.970002E+00 -2.161841E+01 -5.970002E+00 +1.379985E+03 
 +6.305015E+02 +1.793590E+01 +1.981055E+01 +1.793590E+01 +6.653331E+02 +7.114411E+00 +1.981055E+01 +7.114411E+00 +1.302062E+03 
 +6.587705E+02 -2.534770E+01 -1.535717E+01 -2.534770E+01 +6.632621E+02 -6.875313E+00 -1.535717E+01 -6.875313E+00 +1.388738E+03 
 +6.390844E+02 +1.552015E+01 +2.474036E+00 +1.552015E+01 +6.271744E+02 -2.468391E+01 +2.474036E+00 -2.468391E+01 +1.381911E+03 
 +6.048975E+02 -3.256671E+00 +2.822071E+01 -3.256671E+00 +5.762913E+02 +2.271617E+01 +2.822071E+01 +2.271617E+01 +1.394374E+03 
 +5.736671E+02 +3.596426E+00 +3.862815E+00 +3.596426E+00 +5.385577E+02 +1.178377E+01 +3.862815E+00 +1.178377E+01 +1.406786E+03 
 +6.368078E+02 +4.885249E+01 +1.589696E+01 +4.885249E+01 +5.563469E+02 +7.624165E+00 +1.589696E+01 +7.624165E+00 +1.276259E+03 
 +5.377161E+02 -1.003837E+01 +3.288927E+01 -1.003837E+01 +5.263365E+02 -2.460769E+01 +3.288927E+01 -2.460769E+01 +1.384481E+03 
 +5.794387E+02 +2.260026E-01 -5.551308E+00 +2.260026E-01 +5.753887E+02 -1.548687E+01 -5.551308E+00 -1.548687E+01 +1.370043E+03 
 +5.237697E+02 -1.282575E+01 -4.629670E+00 -1.282575E+01 +5.477995E+02 -1.610901E+01 -4.629670E+00 -1.610901E+01 +1.349905E+03 
 +6.858920E+02 +1.903425E+00 +1.170519E+01 +1.903425E+00 +6.207571E+02 +7.639305E+00 +1.170519E+01 +7.639305E+00 +1.348424E+03 
 +6.332704E+02 -1.163410E+01 -1.460809E+01 -1.163410E+01 +6.509412E+02 +3.590860E+00 -1.460809E+01 +3.590860E+00 +1.362012E+03 
 +6.345663E+02 -5.814387E+01 -6.218890E+00 -5.814387E+01 +5.908825E+02 -6.723942E+00 -6.218890E+00 -6.723942E+00 +1.307288E+03 
 +5.766092E+02 +1.739261E+01 +2.412297E+01 +1.739261E+01 +6.439352E+02 +3.173347E+00 +2.412297E+01 +3.173347E+00 +1.309136E+03 
 +6.361412E+02 +9.008514E+00 -1.172367E+01 +9.008514E+00 +6.447469E+02 -1.322238E+00 -1.172367E+01 -1.322238E+00 +1.399713E+03 
 +6.382917E+02 -3.242803E+01 +1.279966E+01 -3.242803E+01 +6.860961E+02 +8.232334E+00 +1.279966E+01 +8.232334E+00 +1.317356E+03 
 +5.980993E+02 -1.282066E+01 -3.424042E+00 -1.282066E+01 +6.059326E+02 +1.019870E+01 -3.424042E+00 +1.019870E+01 +1.423406E+03 
 +6.069222E+02 -3.457763E+01 -2.275643E+01 -3.457763E+01 +5.845477E+02 -7.851896E-01 -2.275643E+01 -7.851896E-01 +1.280825E+03 
 +6.399765E+02 +8.474350E+00 -1.503680E+01 +8.474350E+00 +6.818032E+02 +7.214455E+00 -1.503680E+01 +7.214455E+00 +1.416300E+03 
 +6.547499E+02 +4.437631E+01 +4.637239E+00 +4.437631E+01 +6.035604E+02 -1.884213E+01 +4.637239E+00 -1.884213E+01 +1.284633E+03 
 +5.541527E+02 -8.665364E+00 +1.426535E+00 -8.665364E+00 +5.451899E+02 -3.457526E+01 +1.426535E+00 -3.457526E+01 +1.369474E+03 
 +5.701133E+02 +1.018849E+01 -1.823485E+01 +1.018849E+01 +5.947382E+02 -3.134226E+01 -1.823485E+01 -3.134226E+01 +1.351476E+03 
 +6.114280E+02 +8.599240E+00 -1.788535E+01 +8.599240E+00 +6.246149E+02 +3.852578E+00 -1.788535E+01 +3.852578E+00 +1.276659E+03 
 +5.782780E+02 +3.169304E+01 +4.619260E+00 +3.169304E+01 +5.876563E+02 -3.880017E+01 +4.619260E+00 -3.880017E+01 +1.386539E+03 
 +5.450765E+02 +3.042437E+00 +1.756521E+01 +3.042437E+00 +6.378731E+02 -3.635932E+00 +1.756521E+01 -3.635932E+00 +1.300765E+03 
 +6.629657E+02 +2.342778E+00 +4.333297E-02 +2.342778E+00 +6.675643E+02 +2.374821E+01 +4.333297E-02 +2.374821E+01 +1.424106E+03 
 +6.110520E+02 +4.989020E-01 +2.049928E+01 +4.989020E-01 +6.818810E+02 +2.907235E+01 +2.049928E+01 +2.907235E+01 +1.370873E+03 
 +5.880569E+02 +1.064106E+01 -5.883137E+00 +1.064106E+01 +7.017455E+02 -2.248888E+01 -5.883137E+00 -2.248888E+01 +1.324696E+03 
 +6.570868E+02 +1.352953E+01 -4.260658E+00 +1.352953E+01 +7.224250E+02 -2.316304E+01 -4.260658E+00 -2.316304E+01 +1.390596E+03 
 +6.700695E+02 +3.526019E+01 -6.760191E-01 +3.526019E+01 +6.559714E+02 -2.317281E+01 -6.760191E-01 -2.317281E+01 +1.395918E+03 
 +6.088053E+02 -1.206034E+01 -8.656225E+00 -1.206034E+01 +6.723947E+02 +1.857680E+01 -8.656225E+00 +1.857680E+01 +1.389488E+03 
 +5.859539E+02 +4.064425E+00 +5.457438E+00 +4.064425E+00 +6.676273E+02 -1.304272E+01 +5.457438E+00 -1.304272E+01 +1.275060E+03 
 +5.893458E+02 -1.913166E+01 +1.596428E+01 -1.913166E+01 +6.476702E+02 +7.824668E-01 +1.596428E+01 +7.824668E-01 +1.319798E+03 
 +6.043521E+02 -1.235582E+01 -1.201738E+01 -1.235582E+01 +6.363988E+02 +3.897011E-01 -1.201738E+01 +3.897011E-01 +1.321350E+03 
 +5.925470E+02 -1.463932E+01 -4.198204E+00 -1.463932E+01 +5.905610E+02 -4.389918E+01 -4.198204E+00 -4.389918E+01 +1.352860E+03 
 +6.137601E+02 +1.743049E+01 -4.665747E+00 +1.743049E+01 +6.352626E+02 +1.924387E+01 -4.665747E+00 +1.924387E+01 +1.326036E+03 
 +5.990216E+02 +4.129866E+01 +4.085524E+01 +4.129866E+01 +5.764274E+02 +1.274902E+01 +4.085524E+01 +1.274902E+01 +1.409010E+03 
 +6.844052E+02 +2.356907E+01 +2.016190E+01 +2.356907E+01 +6.263130E+02 +1.220007E+01 +2.016190E+01 +1.220007E+01 +1.329859E+03 
 +6.264619E+02 -1.948030E+00 -4.944141E+01 -1.948030E+00 +6.213115E+02 +2.020601E+01 -4.944141E+01 +2.020601E+01 +1.415432E+03 
 +6.384444E+02 +2.185034E+01 -4.888565E+00 +2.185034E+01 +6.141870E+02 -2.556793E+01 -4.888565E+00 -2.556793E+01 +1.344004E+03 
 +5.770800E+02 -8.621404E+00 +1.458913E+01 -8.621404E+00 +6.862361E+02 +1.745324E+01 +1.458913E+01 +1.745324E+01 +1.330138E+03 
 +6.383273E+02 -2.527343E+01 +3.648878E+00 -2.527343E+01 +6.827620E+02 -1.889081E+01 +3.648878E+00 -1.889081E+01 +1.415114E+03 
 +7.423273E+02 -4.091955E+00 +1.735639E+01 -4.091955E+00 +6.228176E+02 -4.863971E+00 +1.735639E+01 -4.863971E+00 +1.344293E+03 
 +5.821663E+02 +1.842990E+01 +1.075488E+01 +1.842990E+01 +6.674926E+02 -1.039680E+01 +1.075488E+01 -1.039680E+01 +1.337094E+03 
 +6.820458E+02 -6.892086E+01 -7.420827E+00 -6.892086E+01 +6.230319E+02 -1.081035E+01 -7.420827E+00 -1.081035E+01 +1.343015E+03 
 +5.920176E+02 +6.270681E+00 +2.122834E+01 +6.270681E+00 +6.744269E+02 +3.431690E+00 +2.122834E+01 +3.431690E+00 +1.286535E+03 
 +6.406362E+02 -2.928756E+01 +1.088937E+00 -2.928756E+01 +6.273473E+02 +2.180462E+01 +1.088937E+00 +2.180462E+01 +1.393003E+03 
 +5.952822E+02 +5.258882E+00 -4.055278E+01 +5.258882E+00 +5.946105E+02 -2.109853E+01 -4.055278E+01 -2.109853E+01 +1.353262E+03 
 +5.812347E+02 +3.484290E+00 +8.988379E+00 +3.484290E+00 +6.592750E+02 +2.377332E+00 +8.988379E+00 +2.377332E+00 +1.318213E+03 
 +6.643685E+02 -4.671453E+01 -2.147920E+01 -4.671453E+01 +6.621031E+02 -5.098066E+00 -2.147920E+01 -5.098066E+00 +1.314501E+03 
 +5.714990E+02 -6.233589E+00 +1.201703E+01 -6.233589E+00 +6.112593E+02 +3.798793E+01 +1.201703E+01 +3.798793E+01 +1.376317E+03 
 +5.497944E+02 -3.130804E+01 -4.656435E+01 -3.130804E+01 +5.439699E+02 +3.881155E+01 -4.656435E+01 +3.881155E+01 +1.385808E+03 
 +6.615381E+02 +4.521560E+01 +2.956119E-01 +4.521560E+01 +5.906368E+02 -5.919796E+00 +2.956119E-01 -5.919796E+00 +1.326125E+03 
 +5.110409E+02 +2.974681E+01 -1.819994E+01 +2.974681E+01 +6.229357E+02 +1.602689E+00 -1.819994E+01 +1.602689E+00 +1.259040E+03 
 +6.446276E+02 +2.189081E+01 +4.595261E+00 +2.189081E+01 +6.798743E+02 -1.998040E+01 +4.595261E+00 -1.998040E+01 +1.381088E+03 
 +6.696874E+02 +1.757215E+01 -1.637273E+01 +1.757215E+01 +6.611756E+02 -7.600216E+00 -1.637273E+01 -7.600216E+00 +1.337082E+03 
 +6.534611E+02 -7.385174E+01 -1.471435E+01 -7.385174E+01 +6.168373E+02 -2.284169E+01 -1.471435E+01 -2.284169E+01 +1.336612E+03 
 +6.251143E+02 -1.165540E+01 -2.670764E+00 -1.165540E+01 +7.016464E+02 -9.669197E-02 -2.670764E+00 -9.669197E-02 +1.366595E+03 
 +6.123112E+02 -3.137598E+00 +9.450790E+00 -3.137598E+00 +5.943559E+02 -2.572039E+01 +9.450790E+00 -2.572039E+01 +1.404001E+03 
 +5.914821E+02 -8.037043E+00 -4.568504E+00 -8.037043E+00 +5.943035E+02 +7.121274E+00 -4.568504E+00 +7.121274E+00 +1.382085E+03 
 +5.845444E+02 -5.927331E+00 -4.264479E+00 -5.927331E+00 +5.583750E+02 +7.769186E+00 -4.264479E+00 +7.769186E+00 +1.402804E+03 
 +5.975187E+02 -1.921346E+01 -1.115988E+01 -1.921346E+01 +5.753038E+02 -6.672902E+00 -1.115988E+01 -6.672902E+00 +1.309179E+03 
 +5.651751E+02 -1.697467E+01 +2.426245E+01 -1.697467E+01 +5.898926E+02 +3.750636E+01 +2.426245E+01 +3.750636E+01 +1.443855E+03 
 +6.481740E+02 +2.243457E+01 +5.510066E+00 +2.243457E+01 +6.209349E+02 -6.445512E+00 +5.510066E+00 -6.445512E+00 +1.273706E+03 
 +6.035785E+02 +3.703571E+01 +1.851077E+00 +3.703571E+01 +7.121990E+02 -4.950096E+00 +1.851077E+00 -4.950096E+00 +1.323395E+03 
 +6.094015E+02 +4.953357E+01 +8.343239E+00 +4.953357E+01 +6.676323E+02 +2.011909E+01 +8.343239E+00 +2.011909E+01 +1.298213E+03 
 +6.863064E+02 -2.518631E+01 +1.279109E+01 -2.518631E+01 +5.575471E+02 +2.999209E-01 +1.279109E+01 +2.999209E-01 +1.278019E+03 
 +6.647884E+02 +4.542009E+00 +8.717460E+00 +4.542009E+00 +6.304388E+02 -2.157864E+01 +8.717460E+00 -2.157864E+01 +1.472720E+03 
 +6.231654E+02 -1.631054E+01 -3.571428E+01 -1.631054E+01 +6.024958E+02 -1.693164E+01 -3.571428E+01 -1.693164E+01 +1.299782E+03 
 +5.442987E+02 -3.473604E+01 +3.198669E+01 -3.473604E+01 +5.850114E+02 -1.380026E+01 +3.198669E+01 -1.380026E+01 +1.323004E+03 
 +6.886254E+02 -8.483923E+00 -8.367303E-01 -8.483923E+00 +6.234513E+02 -1.402484E+01 -8.367303E-01 -1.402484E+01 +1.324401E+03 
 +6.490430E+02 +4.044439E+00 -1.723972E+01 +4.044439E+00 +5.585583E+02 +2.589480E+01 -1.723972E+01 +2.589480E+01 +1.320006E+03 
 +6.017488E+02 +1.226860E+01 -3.773328E+01 +1.226860E+01 +6.537657E+02 +1.628769E+01 -3.773328E+01 +1.628769E+01 +1.388938E+03 
 +5.826407E+02 -4.117759E+01 -1.093786E+01 -4.117759E+01 +6.448801E+02 -2.324931E-01 -1.093786E+01 -2.324931E-01 +1.331208E+03 
 +6.536118E+02 -5.491369E+00 -3.835397E+00 -5.491369E+00 +5.633287E+02 +1.464690E+01 -3.835397E+00 +1.464690E+01 +1.293658E+03 
 +6.430692E+02 +1.567209E+01 +1.626791E+01 +1.567209E+01 +5.655302E+02 +1.188768E+01 +1.626791E+01 +1.188768E+01 +1.319738E+03 
 +5.694633E+02 +8.505964E-01 +3.864595E+01 +8.505964E-01 +5.592306E+02 +1.269398E+01 +3.864595E+01 +1.269398E+01 +1.398285E+03 
 +5.570980E+02 +1.751026E+01 -7.528045E+00 +1.751026E+01 +6.361109E+02 -9.650317E+00 -7.528045E+00 -9.650317E+00 +1.271435E+03 
 +5.955317E+02 -6.660405E+00 -6.924876E+00 -6.660405E+00 +5.722445E+02 -3.429517E+01 -6.924876E+00 -3.429517E+01 +1.362406E+03 
 +6.617465E+02 +1.727315E+01 +2.196320E+01 +1.727315E+01 +6.076846E+02 +2.250684E+01 +2.196320E+01 +2.250684E+01 +1.396366E+03 
 +6.759850E+02 +1.035069E+01 -1.517523E+01 +1.035069E+01 +6.300539E+02 +5.810501E+00 -1.517523E+01 +5.810501E+00 +1.315244E+03 
 +6.210178E+02 -4.572643E+01 +1.576923E+01 -4.572643E+01 +6.769880E+02 +1.076515E+01 +1.576923E+01 +1.076515E+01 +1.407348E+03 
 +6.258529E+02 -6.035301E+01 -3.829759E+00 -6.035301E+01 +6.241562E+02 +4.382630E+00 -3.829759E+00 +4.382630E+00 +1.303448E+03 
 +5.613806E+02 -9.968307E+00 +3.104940E+00 -9.968307E+00 +6.113235E+02 -5.406762E+00 +3.104940E+00 -5.406762E+00 +1.391710E+03 
 +5.933842E+02 +2.833710E+01 -1.726675E+01 +2.833710E+01 +6.250499E+02 +1.669331E+00 -1.726675E+01 +1.669331E+00 +1.286563E+03 
 +6.041472E+02 -3.510176E+00 +3.413905E+01 -3.510176E+00 +5.882732E+02 -2.703198E+00 +3.413905E+01 -2.703198E+00 +1.375397E+03 
 +6.102852E+02 -5.767253E+01 +1.531474E+01 -5.767253E+01 +5.974636E+02 +1.283010E+01 +1.531474E+01 +1.283010E+01 +1.283484E+03 
 +5.647456E+02 +4.743398E+00 +7.748945E+00 +4.743398E+00 +6.672173E+02 -1.800462E+01 +7.748945E+00 -1.800462E+01 +1.332431E+03 
 +5.523771E+02 +2.196881E+01 -3.649159E+00 +2.196881E+01 +5.808707E+02 -2.001821E+01 -3.649159E+00 -2.001821E+01 +1.366778E+03 
 +6.074465E+02 +3.894558E+00 -2.129240E+00 +3.894558E+00 +5.785549E+02 +1.662412E+01 -2.129240E+00 +1.662412E+01 +1.317667E+03 
 +6.179786E+02 +6.049682E+00 +6.616986E-01 +6.049682E+00 +6.417091E+02 -2.726863E+01 +6.616986E-01 -2.726863E+01 +1.367261E+03 
 +6.061838E+02 +3.442881E+01 +5.741554E+00 +3.442881E+01 +6.141384E+02 -3.228633E+01 +5.741554E+00 -3.228633E+01 +1.386229E+03 
 +5.513351E+02 +8.035460E+00 +1.530464E+01 +8.035460E+00 +6.234551E+02 -1.194852E+01 +1.530464E+01 -1.194852E+01 +1.306949E+03 
 +5.488632E+02 +1.443023E+01 -1.975914E+01 +1.443023E+01 +5.439307E+02 +1.806513E+01 -1.975914E+01 +1.806513E+01 +1.342162E+03 
 +5.332698E+02 +3.092530E+01 -1.085782E+01 +3.092530E+01 +5.566567E+02 +1.907949E+01 -1.085782E+01 +1.907949E+01 +1.313683E+03 
 +6.533676E+02 -3.876613E+00 -1.381807E+01 -3.876613E+00 +5.949084E+02 +3.901810E+01 -1.381807E+01 +3.901810E+01 +1.318081E+03 
 +6.023156E+02 -8.511479E+00 +1.082332E+01 -8.511479E+00 +5.610709E+02 +1.412969E+01 +1.082332E+01 +1.412969E+01 +1.397834E+03 
 +6.789784E+02 -2.271589E+01 -4.382449E+00 -2.271589E+01 +5.885172E+02 -2.684527E+00 -4.382449E+00 -2.684527E+00 +1.313735E+03 
 +6.124143E+02 -1.994052E+00 -1.587219E-01 -1.994052E+00 +5.950479E+02 +1.104975E+01 -1.587219E-01 +1.104975E+01 +1.266951E+03 
 +5.576788E+02 +4.298298E+01 +3.759899E+01 +4.298298E+01 +6.727286E+02 -4.913935E+00 +3.759899E+01 -4.913935E+00 +1.312285E+03 
 +6.352057E+02 -7.266450E+00 +3.108911E+00 -7.266450E+00 +7.007628E+02 +1.404254E+01 +3.108911E+00 +1.404254E+01 +1.364049E+03 
 +6.222699E+02 -5.195825E+00 -2.438188E+00 -5.195825E+00 +6.761840E+02 +1.226753E+01 -2.438188E+00 +1.226753E+01 +1.330720E+03 
 +5.876962E+02 +9.041968E+00 -8.961990E+00 +9.041968E+00 +6.087617E+02 +1.722574E+01 -8.961990E+00 +1.722574E+01 +1.392949E+03 
 +5.397676E+02 +1.831214E+01 -3.637109E+01 +1.831214E+01 +6.324034E+02 +9.400927E+00 -3.637109E+01 +9.400927E+00 +1.310885E+03 
 +6.564890E+02 -5.482672E+00 -1.008018E+01 -5.482672E+00 +6.124562E+02 -4.637311E+00 -1.008018E+01 -4.637311E+00 +1.340294E+03 
 +6.333452E+02 +1.719654E+01 -1.886967E+01 +1.719654E+01 +6.095244E+02 +1.701313E+01 -1.886967E+01 +1.701313E+01 +1.306081E+03 
 +6.098141E+02 -6.808078E+01 +4.516976E+00 -6.808078E+01 +6.787341E+02 -1.622010E+01 +4.516976E+00 -1.622010E+01 +1.354996E+03 
 +5.472473E+02 +3.410007E+01 -8.019382E+00 +3.410007E+01 +7.122338E+02 +8.377543E+00 -8.019382E+00 +8.377543E+00 +1.323786E+03 
 +6.187295E+02 +2.508652E+01 +1.685418E+01 +2.508652E+01 +6.563900E+02 +1.669662E+01 +1.685418E+01 +1.669662E+01 +1.330216E+03 
 +5.866730E+02 -3.235092E+01 -1.223126E+01 -3.235092E+01 +6.886494E+02 +6.113016E+00 -1.223126E+01 +6.113016E+00 +1.331160E+03 
 +6.324992E+02 +1.385871E+01 +7.752126E+00 +1.385871E+01 +6.636771E+02 -6.799982E+00 +7.752126E+00 -6.799982E+00 +1.334637E+03 
 +5.750036E+02 +1.517585E+01 +6.917473E+00 +1.517585E+01 +5.927930E+02 -7.599607E-01 +6.917473E+00 -7.599607E-01 +1.446197E+03 
 +6.703409E+02 -1.107292E-01 +2.379462E+00 -1.107292E-01 +6.200519E+02 -1.842168E+01 +2.379462E+00 -1.842168E+01 +1.388925E+03 
 +5.675914E+02 -1.717580E+01 +3.450422E+01 -1.717580E+01 +5.408330E+02 -2.366201E+01 +3.450422E+01 -2.366201E+01 +1.362870E+03 
 +6.530959E+02 -3.742968E+01 +1.297066E+01 -3.742968E+01 +5.938878E+02 +1.729553E+00 +1.297066E+01 +1.729553E+00 +1.348529E+03 
 +5.828032E+02 -2.584709E+01 +1.566888E+01 -2.584709E+01 +6.139837E+02 +2.280992E+01 +1.566888E+01 +2.280992E+01 +1.328267E+03 
 +6.789605E+02 -7.503634E+00 +1.688068E-01 -7.503634E+00 +6.015732E+02 -5.741998E+00 +1.688068E-01 -5.741998E+00 +1.384367E+03 
 +6.209506E+02 +2.259060E+01 -2.325076E+01 +2.259060E+01 +6.363876E+02 -3.046206E+00 -2.325076E+01 -3.046206E+00 +1.397184E+03 
 +5.531578E+02 +3.359176E+01 -1.176375E+01 +3.359176E+01 +6.468238E+02 -7.405636E+00 -1.176375E+01 -7.405636E+00 +1.292886E+03 
 +5.685065E+02 +3.119796E+01 -9.362967E+00 +3.119796E+01 +6.218758E+02 -2.054796E+01 -9.362967E+00 -2.054796E+01 +1.261498E+03 
 +6.637456E+02 -1.979232E+01 +9.751574E+00 -1.979232E+01 +5.752810E+02 -8.761780E+00 +9.751574E+00 -8.761780E+00 +1.347652E+03 
 +6.355446E+02 +2.631735E+01 +2.209043E+00 +2.631735E+01 +6.266475E+02 +2.194598E+01 +2.209043E+00 +2.194598E+01 +1.349940E+03 
 +5.488021E+02 +1.176767E+00 +1.868067E+01 +1.176767E+00 +5.919955E+02 +2.092301E+01 +1.868067E+01 +2.092301E+01 +1.350523E+03 
 +6.333763E+02 +6.171877E+01 -3.908676E+00 +6.171877E+01 +5.893404E+02 +6.703109E+00 -3.908676E+00 +6.703109E+00 +1.314240E+03 
 +5.475246E+02 +4.127894E+00 +2.596258E+00 +4.127894E+00 +5.576245E+02 +1.001245E+01 +2.596258E+00 +1.001245E+01 +1.378927E+03 
 +5.626514E+02 -4.566606E+00 -1.629560E+01 -4.566606E+00 +5.741742E+02 +3.150026E+01 -1.629560E+01 +3.150026E+01 +1.379399E+03 
 +6.767449E+02 -4.573982E+01 -2.209045E+00 -4.573982E+01 +6.879703E+02 -2.057482E+00 -2.209045E+00 -2.057482E+00 +1.359981E+03 
 +6.038942E+02 +1.273529E+01 -9.156230E+00 +1.273529E+01 +6.587350E+02 -1.531793E+01 -9.156230E+00 -1.531793E+01 +1.354350E+03 
 +5.960424E+02 -3.033699E+01 -4.928307E+00 -3.033699E+01 +6.301425E+02 -6.539649E+00 -4.928307E+00 -6.539649E+00 +1.292364E+03 
 +6.142061E+02 +4.952688E+01 -2.999893E+00 +4.952688E+01 +6.009478E+02 +1.111015E+01 -2.999893E+00 +1.111015E+01 +1.330197E+03 
 +5.626357E+02 +2.263139E+01 +1.121925E+01 +2.263139E+01 +5.702950E+02 -1.703937E+01 +1.121925E+01 -1.703937E+01 +1.394911E+03 
 +6.706152E+02 -7.036012E+01 +1.937724E+01 -7.036012E+01 +6.087784E+02 +2.524471E+00 +1.937724E+01 +2.524471E+00 +1.347380E+03 
 +6.511149E+02 +1.149277E+01 -1.625190E+00 +1.149277E+01 +6.356874E+02 +6.478233E+00 -1.625190E+00 +6.478233E+00 +1.407141E+03 
 +6.657294E+02 -7.695387E+00 -1.533479E+01 -7.695387E+00 +6.266854E+02 -3.477422E+01 -1.533479E+01 -3.477422E+01 +1.435757E+03 
 +6.596147E+02 +4.718311E+01 +1.146327E+01 +4.718311E+01 +6.414644E+02 -2.085106E+01 +1.146327E+01 -2.085106E+01 +1.327994E+03 
 +6.378975E+02 +1.376815E+01 +8.611957E+00 +1.376815E+01 +5.368939E+02 +3.605469E-01 +8.611957E+00 +3.605469E-01 +1.322068E+03 
 +5.635040E+02 +1.243015E+01 -1.319873E+01 +1.243015E+01 +5.489996E+02 +1.523766E+01 -1.319873E+01 +1.523766E+01 +1.410479E+03 
 +6.820268E+02 +7.483247E+00 -9.886654E+00 +7.483247E+00 +6.601718E+02 -2.858382E+00 -9.886654E+00 -2.858382E+00 +1.418709E+03 
 +5.837169E+02 -3.995350E+01 -1.804560E+01 -3.995350E+01 +6.200396E+02 -7.126576E+00 -1.804560E+01 -7.126576E+00 +1.298136E+03 
 +6.283889E+02 -1.424748E+01 +2.360299E+00 -1.424748E+01 +6.113138E+02 +1.360890E+01 +2.360299E+00 +1.360890E+01 +1.335443E+03 
 +6.386284E+02 -1.972101E+01 +9.905321E+00 -1.972101E+01 +6.015062E+02 +4.692211E+00 +9.905321E+00 +4.692211E+00 +1.314803E+03 
 +5.476036E+02 -2.797685E+00 -2.934799E+01 -2.797685E+00 +6.722115E+02 +4.604108E+00 -2.934799E+01 +4.604108E+00 +1.310984E+03 
 +6.182052E+02 -2.410448E+01 -7.424425E+00 -2.410448E+01 +6.571496E+02 +4.571617E+00 -7.424425E+00 +4.571617E+00 +1.321769E+03 
 +6.000474E+02 -2.752342E+01 +1.172992E+00 -2.752342E+01 +7.210079E+02 -4.523951E+00 +1.172992E+00 -4.523951E+00 +1.362423E+03 
 +5.853675E+02 -5.786134E+01 -6.763538E+00 -5.786134E+01 +6.653361E+02 +7.566336E+00 -6.763538E+00 +7.566336E+00 +1.299506E+03 
 +6.508385E+02 -1.877470E+01 +1.885134E+01 -1.877470E+01 +5.990869E+02 +5.247605E+00 +1.885134E+01 +5.247605E+00 +1.429198E+03 
 +6.035812E+02 -7.628464E+00 +2.046331E+01 -7.628464E+00 +5.787393E+02 -2.072112E+01 +2.046331E+01 -2.072112E+01 +1.373155E+03 
 +6.022313E+02 +2.814561E+01 -7.941489E+00 +2.814561E+01 +6.061231E+02 +7.799326E-01 -7.941489E+00 +7.799326E-01 +1.416769E+03 
 +5.684816E+02 -4.711221E+00 +1.624913E+01 -4.711221E+00 +6.086032E+02 -7.316024E+00 +1.624913E+01 -7.316024E+00 +1.420171E+03 
 +6.542083E+02 +7.052743E+00 -6.691561E+00 +7.052743E+00 +6.326569E+02 -5.818149E+00 -6.691561E+00 -5.818149E+00 +1.278223E+03 
 +5.332495E+02 -2.400636E+01 -3.138225E+01 -2.400636E+01 +5.463309E+02 -1.625238E+01 -3.138225E+01 -1.625238E+01 +1.418304E+03 
 +6.456773E+02 +3.786712E+00 -1.186364E+00 +3.786712E+00 +6.332371E+02 -2.178865E+01 -1.186364E+00 -2.178865E+01 +1.352812E+03 
 +6.093610E+02 +1.509427E+01 -5.056101E+00 +1.509427E+01 +7.164675E+02 +6.941718E+00 -5.056101E+00 +6.941718E+00 +1.306209E+03 
 +6.098981E+02 +1.571180E+00 -1.916258E+01 +1.571180E+00 +6.252939E+02 +8.781117E+00 -1.916258E+01 +8.781117E+00 +1.461060E+03 
 +6.460739E+02 -4.416154E+00 -2.612007E+00 -4.416154E+00 +7.184718E+02 +6.784310E+00 -2.612007E+00 +6.784310E+00 +1.390875E+03 
 +6.514754E+02 -2.766429E+01 -7.718411E+00 -2.766429E+01 +6.341534E+02 +3.506973E+01 -7.718411E+00 +3.506973E+01 +1.344902E+03 
 +5.515427E+02 -1.385627E+01 +9.042143E+00 -1.385627E+01 +6.063804E+02 +2.929742E+01 +9.042143E+00 +2.929742E+01 +1.264413E+03 
 +6.687047E+02 +1.633956E+01 +2.534628E+01 +1.633956E+01 +6.084534E+02 +2.349654E+01 +2.534628E+01 +2.349654E+01 +1.372609E+03 
 +5.751882E+02 +4.201952E-01 -1.292225E+01 +4.201952E-01 +5.502560E+02 +2.941394E+01 -1.292225E+01 +2.941394E+01 +1.365722E+03 
 +5.653922E+02 -1.420955E+01 +9.326710E+00 -1.420955E+01 +5.549838E+02 +9.749200E+00 +9.326710E+00 +9.749200E+00 +1.370648E+03 
 +6.366650E+02 +2.957742E+01 +2.487564E+01 +2.957742E+01 +6.012891E+02 -2.659238E+00 +2.487564E+01 -2.659238E+00 +1.308119E+03 
 +5.528887E+02 +1.868259E+01 -1.660291E+00 +1.868259E+01 +6.413196E+02 +2.384636E+01 -1.660291E+00 +2.384636E+01 +1.286435E+03 
 +6.679498E+02 +4.284025E+01 +5.516378E+00 +4.284025E+01 +6.131480E+02 +4.510688E+00 +5.516378E+00 +4.510688E+00 +1.310599E+03 
 +6.268998E+02 -2.603373E+01 -1.138625E+01 -2.603373E+01 +7.035772E+02 -1.235350E+01 -1.138625E+01 -1.235350E+01 +1.328254E+03 
 +6.741358E+02 +2.325214E+01 -4.640683E+00 +2.325214E+01 +5.910897E+02 +1.555444E+00 -4.640683E+00 +1.555444E+00 +1.357985E+03 
 +6.374669E+02 +5.238604E+01 +6.030086E+00 +5.238604E+01 +6.040308E+02 -8.724287E+00 +6.030086E+00 -8.724287E+00 +1.351840E+03 
 +6.153225E+02 -1.169642E+01 -3.856870E+01 -1.169642E+01 +6.450564E+02 -9.010351E+00 -3.856870E+01 -9.010351E+00 +1.365121E+03 
 +5.258848E+02 +3.459973E+01 +9.234074E+00 +3.459973E+01 +6.191719E+02 -1.195516E+00 +9.234074E+00 -1.195516E+00 +1.361904E+03 
 +6.690674E+02 -2.218827E+01 -4.336510E+00 -2.218827E+01 +6.103465E+02 -2.267746E+01 -4.336510E+00 -2.267746E+01 +1.274329E+03 
 +5.726878E+02 +8.556623E+00 -1.297845E+01 +8.556623E+00 +6.699424E+02 +1.347766E+01 -1.297845E+01 +1.347766E+01 +1.349127E+03 
 +6.820054E+02 -2.760865E+01 +2.869736E+00 -2.760865E+01 +6.138815E+02 -1.646903E+01 +2.869736E+00 -1.646903E+01 +1.288725E+03 
 +6.284593E+02 +9.273024E+00 -2.139598E+01 +9.273024E+00 +6.321444E+02 -5.155201E+01 -2.139598E+01 -5.155201E+01 +1.385315E+03 
 +6.147258E+02 -1.803734E+00 +1.894426E+01 -1.803734E+00 +5.965715E+02 +4.560377E+00 +1.894426E+01 +4.560377E+00 +1.409834E+03 
 +5.971536E+02 +1.641985E+00 -4.103164E+00 +1.641985E+00 +5.413579E+02 -1.904800E+01 -4.103164E+00 -1.904800E+01 +1.379691E+03 
 +6.443164E+02 +3.144732E+00 +1.297620E+01 +3.144732E+00 +6.114665E+02 -2.346937E+00 +1.297620E+01 -2.346937E+00 +1.420488E+03 
 +5.715199E+02 -1.386437E+01 -1.299289E+01 -1.386437E+01 +5.508130E+02 +1.516816E+01 -1.299289E+01 +1.516816E+01 +1.366295E+03 
 +6.137460E+02 +5.792168E+00 -1.861382E+01 +5.792168E+00 +5.589984E+02 +1.934435E+01 -1.861382E+01 +1.934435E+01 +1.321501E+03 
 +6.304869E+02 +1.346701E+01 +8.399431E+00 +1.346701E+01 +5.708310E+02 +8.340420E-01 +8.399431E+00 +8.340420E-01 +1.361410E+03 
 +5.846536E+02 +1.784883E+00 +1.306599E+00 +1.784883E+00 +6.421118E+02 +2.584229E+00 +1.306599E+00 +2.584229E+00 +1.313504E+03 
 +6.124587E+02 +6.164370E+01 +3.027306E+01 +6.164370E+01 +6.614590E+02 -3.906072E+00 +3.027306E+01 -3.906072E+00 +1.337882E+03 
 +7.354324E+02 -3.084987E+01 +4.267906E+00 -3.084987E+01 +6.133631E+02 +2.219443E+00 +4.267906E+00 +2.219443E+00 +1.359020E+03 
 +5.834016E+02 -3.271386E+01 -1.297099E+01 -3.271386E+01 +5.389760E+02 +3.802383E+01 -1.297099E+01 +3.802383E+01 +1.332000E+03 
 +6.448958E+02 +1.640715E+01 -9.430773E+00 +1.640715E+01 +5.512130E+02 -1.107940E+00 -9.430773E+00 -1.107940E+00 +1.314394E+03 
 +5.531129E+02 +2.803029E+01 +2.298353E+01 +2.803029E+01 +5.951434E+02 -4.530120E+00 +2.298353E+01 -4.530120E+00 +1.356436E+03 
 +5.742660E+02 +1.333336E+00 +7.570472E+00 +1.333336E+00 +5.926666E+02 -1.754539E+01 +7.570472E+00 -1.754539E+01 +1.269802E+03 
 +5.840715E+02 -2.708823E+01 -1.904309E+01 -2.708823E+01 +6.354413E+02 +2.639487E+00 -1.904309E+01 +2.639487E+00 +1.326077E+03 
 +5.755901E+02 +1.206542E+01 +2.534512E+01 +1.206542E+01 +5.703605E+02 -5.060525E+00 +2.534512E+01 -5.060525E+00 +1.401613E+03 
 +6.241973E+02 -9.163802E+00 -4.639996E+00 -9.163802E+00 +5.805172E+02 -1.992322E+01 -4.639996E+00 -1.992322E+01 +1.275984E+03 
 +5.794381E+02 +7.601066E+00 -2.434245E+01 +7.601066E+00 +5.672593E+02 +1.654951E+01 -2.434245E+01 +1.654951E+01 +1.397023E+03 
 +6.401196E+02 +3.522792E+01 +1.484228E+01 +3.522792E+01 +6.438276E+02 -3.175481E+00 +1.484228E+01 -3.175481E+00 +1.311523E+03 
 +6.359285E+02 -1.648118E+00 +4.667695E+00 -1.648118E+00 +5.118557E+02 +6.964975E+00 +4.667695E+00 +6.964975E+00 +1.249077E+03 
 +5.941639E+02 +1.229669E+01 +1.626813E+01 +1.229669E+01 +5.987560E+02 -6.161245E+00 +1.626813E+01 -6.161245E+00 +1.396512E+03 
 +5.358506E+02 -1.889625E+00 -3.253741E+01 -1.889625E+00 +5.380950E+02 -3.012693E+01 -3.253741E+01 -3.012693E+01 +1.305575E+03 
 +6.022624E+02 -1.523059E+01 +1.302251E+01 -1.523059E+01 +5.769620E+02 +1.667316E+01 +1.302251E+01 +1.667316E+01 +1.409332E+03 
 +6.331217E+02 -1.528380E+01 -2.303736E+00 -1.528380E+01 +5.956454E+02 +2.159206E+01 -2.303736E+00 +2.159206E+01 +1.460949E+03 
 +5.457975E+02 +1.166610E+01 -1.309831E+01 +1.166610E+01 +5.296583E+02 -3.498531E+00 -1.309831E+01 -3.498531E+00 +1.413584E+03 
 +6.304261E+02 +1.711411E+01 -1.164230E+01 +1.711411E+01 +5.988965E+02 +4.050289E+00 -1.164230E+01 +4.050289E+00 +1.426858E+03 
 +5.814324E+02 -4.908743E+00 -1.511073E+00 -4.908743E+00 +6.317447E+02 +9.132578E+00 -1.511073E+00 +9.132578E+00 +1.244789E+03 
 +5.692073E+02 +1.441413E+01 -6.543691E+00 +1.441413E+01 +5.643732E+02 -3.445718E+00 -6.543691E+00 -3.445718E+00 +1.447706E+03 
 +6.679115E+02 -3.243556E+01 -1.385460E+00 -3.243556E+01 +5.417886E+02 -1.275372E+01 -1.385460E+00 -1.275372E+01 +1.291705E+03 
 +5.197902E+02 -1.149244E+01 -6.738784E-03 -1.149244E+01 +5.647258E+02 -9.908828E+00 -6.738784E-03 -9.908828E+00 +1.366068E+03 
 +5.936088E+02 +3.060843E+01 +8.763052E+00 +3.060843E+01 +6.461321E+02 +1.712311E+01 +8.763052E+00 +1.712311E+01 +1.286687E+03 
 +6.177927E+02 -1.863393E+01 -1.651274E+01 -1.863393E+01 +6.871940E+02 +1.604715E+01 -1.651274E+01 +1.604715E+01 +1.348755E+03 
 +5.780405E+02 -7.127697E+00 -2.404119E+01 -7.127697E+00 +5.996255E+02 -4.104994E-01 -2.404119E+01 -4.104994E-01 +1.419856E+03 
 +6.685832E+02 +2.477182E+00 +5.200036E+00 +2.477182E+00 +5.526649E+02 -5.112822E+00 +5.200036E+00 -5.112822E+00 +1.322091E+03 
 +6.697612E+02 +1.193986E+00 -2.240860E+00 +1.193986E+00 +6.272285E+02 +1.884727E+01 -2.240860E+00 +1.884727E+01 +1.326907E+03 
 +6.349661E+02 -3.027857E+01 +3.659575E+01 -3.027857E+01 +6.410200E+02 -1.310303E+01 +3.659575E+01 -1.310303E+01 +1.383864E+03 
 +6.067202E+02 +5.313905E+00 -2.031776E+01 +5.313905E+00 +6.742174E+02 +8.734908E+00 -2.031776E+01 +8.734908E+00 +1.327346E+03 
 +5.697717E+02 -7.492760E+00 +1.543258E+01 -7.492760E+00 +6.170373E+02 +2.938286E+00 +1.543258E+01 +2.938286E+00 +1.341024E+03 
 +6.151484E+02 -5.933456E+00 -2.788280E+01 -5.933456E+00 +6.102919E+02 -1.545488E+01 -2.788280E+01 -1.545488E+01 +1.336947E+03 
 +6.091142E+02 +3.306096E+00 +2.628674E+01 +3.306096E+00 +5.695867E+02 +1.287115E+01 +2.628674E+01 +1.287115E+01 +1.428581E+03 
 +6.393636E+02 -1.154388E+01 +6.509678E-03 -1.154388E+01 +5.398251E+02 +1.458983E+01 +6.509678E-03 +1.458983E+01 +1.290513E+03 
 +6.080099E+02 +1.853484E+01 -1.589227E+00 +1.853484E+01 +5.957333E+02 -2.058577E+01 -1.589227E+00 -2.058577E+01 +1.380210E+03 
 +5.842134E+02 +1.070184E+01 -1.755154E+00 +1.070184E+01 +6.197891E+02 +1.187624E+01 -1.755154E+00 +1.187624E+01 +1.283089E+03 
 +5.436880E+02 -7.168370E+00 -2.485168E+01 -7.168370E+00 +5.607469E+02 -9.280488E+00 -2.485168E+01 -9.280488E+00 +1.388767E+03 
 +6.182076E+02 -6.566864E+00 +3.386436E-02 -6.566864E+00 +6.034171E+02 +2.169518E+01 +3.386436E-02 +2.169518E+01 +1.410571E+03 
 +6.188817E+02 -1.479324E+01 +6.779547E+00 -1.479324E+01 +6.996941E+02 +1.983154E+00 +6.779547E+00 +1.983154E+00 +1.374333E+03 
 +5.997781E+02 -5.117210E+01 -6.207411E+00 -5.117210E+01 +6.599199E+02 +9.331244E+00 -6.207411E+00 +9.331244E+00 +1.304707E+03 
 +5.759653E+02 +6.541736E+00 -1.433308E+01 +6.541736E+00 +6.494890E+02 +4.523981E+00 -1.433308E+01 +4.523981E+00 +1.301334E+03 
 +5.458454E+02 +1.071724E+01 +9.324488E+00 +1.071724E+01 +5.516955E+02 -2.202197E+01 +9.324488E+00 -2.202197E+01 +1.390126E+03 
 +6.786483E+02 +1.746570E+01 -2.191043E+01 +1.746570E+01 +6.108367E+02 +1.798386E+01 -2.191043E+01 +1.798386E+01 +1.327440E+03 
 +6.067870E+02 +1.509654E+01 -1.206561E+01 +1.509654E+01 +6.054719E+02 -1.522707E+01 -1.206561E+01 -1.522707E+01 +1.385455E+03 
 +6.534437E+02 +3.076800E+01 -7.884331E+00 +3.076800E+01 +6.205281E+02 -1.442935E+01 -7.884331E+00 -1.442935E+01 +1.340228E+03 
 +5.888510E+02 +1.403425E+01 -2.292872E+00 +1.403425E+01 +6.034667E+02 -2.571020E+01 -2.292872E+00 -2.571020E+01 +1.311236E+03 
 +6.118156E+02 -1.457881E+01 -1.217630E+01 -1.457881E+01 +6.326848E+02 +1.940290E+01 -1.217630E+01 +1.940290E+01 +1.318190E+03 
 +6.721578E+02 -3.307688E+01 +4.010078E+00 -3.307688E+01 +7.102328E+02 +2.283761E+00 +4.010078E+00 +2.283761E+00 +1.380189E+03 
 +5.909866E+02 -2.789862E+01 +2.470884E+01 -2.789862E+01 +6.818224E+02 +1.552904E+01 +2.470884E+01 +1.552904E+01 +1.302460E+03 
 +6.259194E+02 +8.364113E+00 -1.841202E+01 +8.364113E+00 +6.602967E+02 +1.173017E+01 -1.841202E+01 +1.173017E+01 +1.385062E+03 
 +6.503827E+02 -2.464778E+01 -1.719325E+01 -2.464778E+01 +6.354228E+02 -8.509547E+00 -1.719325E+01 -8.509547E+00 +1.323192E+03 
 +5.736059E+02 +8.495939E+00 -2.166045E+01 +8.495939E+00 +6.180893E+02 +1.318105E+01 -2.166045E+01 +1.318105E+01 +1.342620E+03 
 +5.616490E+02 -1.819883E+01 +5.686784E+00 -1.819883E+01 +6.870358E+02 +8.759598E+00 +5.686784E+00 +8.759598E+00 +1.290671E+03 
 +5.844945E+02 -9.069155E+00 +1.145922E+01 -9.069155E+00 +5.733989E+02 +2.378802E+00 +1.145922E+01 +2.378802E+00 +1.414025E+03 
 +6.317801E+02 -1.589272E+00 -3.804396E+00 -1.589272E+00 +6.336822E+02 +7.484705E+00 -3.804396E+00 +7.484705E+00 +1.384006E+03 
 +6.244907E+02 -2.489606E+01 +2.101200E+01 -2.489606E+01 +6.217085E+02 -2.559322E+01 +2.101200E+01 -2.559322E+01 +1.412294E+03 
 +7.288256E+02 -2.973368E+01 -7.018985E+00 -2.973368E+01 +5.833378E+02 -1.282880E+01 -7.018985E+00 -1.282880E+01 +1.355991E+03 
 +6.248297E+02 +2.673316E+01 +8.952627E+00 +2.673316E+01 +6.305477E+02 +1.196162E+01 +8.952627E+00 +1.196162E+01 +1.314702E+03 
 +6.819591E+02 +2.291139E+01 -3.306869E+01 +2.291139E+01 +6.707516E+02 -4.297977E+00 -3.306869E+01 -4.297977E+00 +1.469425E+03 
 +6.140997E+02 +1.352990E-01 +2.995916E+01 +1.352990E-01 +6.399840E+02 -2.945065E+01 +2.995916E+01 -2.945065E+01 +1.418078E+03 
 +6.096603E+02 +6.151815E+01 -1.263557E+01 +6.151815E+01 +6.077166E+02 -2.528875E+01 -1.263557E+01 -2.528875E+01 +1.291098E+03 
 +6.038042E+02 -1.065817E+01 -4.133828E+00 -1.065817E+01 +5.394672E+02 -9.124253E+00 -4.133828E+00 -9.124253E+00 +1.358851E+03 
 +6.331358E+02 +2.869705E+00 +1.860043E+01 +2.869705E+00 +6.061091E+02 +7.514572E+00 +1.860043E+01 +7.514572E+00 +1.290983E+03 
 +5.714214E+02 -7.341257E+00 +1.259349E+00 -7.341257E+00 +5.707424E+02 -1.393554E+01 +1.259349E+00 -1.393554E+01 +1.392366E+03 
 +6.353995E+02 -4.271474E+01 +1.344092E+01 -4.271474E+01 +6.134037E+02 +1.468320E+00 +1.344092E+01 +1.468320E+00 +1.313058E+03 
 +6.384968E+02 +1.069710E+00 +1.936883E+00 +1.069710E+00 +6.027548E+02 -7.345204E+00 +1.936883E+00 -7.345204E+00 +1.453153E+03 
 +6.332910E+02 -2.107439E+01 +1.044500E+00 -2.107439E+01 +5.718666E+02 +7.118600E+00 +1.044500E+00 +7.118600E+00 +1.281735E+03 
 +5.414807E+02 +1.406811E+01 -2.256329E+01 +1.406811E+01 +5.834418E+02 -2.735174E+01 -2.256329E+01 -2.735174E+01 +1.415157E+03 
 +6.461703E+02 -3.017491E+01 -2.213036E-02 -3.017491E+01 +5.626801E+02 +1.281647E+01 -2.213036E-02 +1.281647E+01 +1.242616E+03 
 +5.703382E+02 +8.316083E+00 -2.925742E+01 +8.316083E+00 +5.890227E+02 +3.037748E+00 -2.925742E+01 +3.037748E+00 +1.398318E+03 
 +5.517756E+02 +1.515866E+00 +3.569318E+01 +1.515866E+00 +6.082516E+02 -3.600113E+00 +3.569318E+01 -3.600113E+00 +1.341774E+03 
 +5.271497E+02 -1.357704E+01 -2.067869E+01 -1.357704E+01 +5.785592E+02 -2.263235E+01 -2.067869E+01 -2.263235E+01 +1.433114E+03 
 +6.139072E+02 +1.003593E+01 +1.526849E+01 +1.003593E+01 +5.823373E+02 +4.287750E-01 +1.526849E+01 +4.287750E-01 +1.284158E+03 
 +6.109108E+02 +8.169867E+00 -1.118921E+01 +8.169867E+00 +5.726434E+02 -2.922831E+01 -1.118921E+01 -2.922831E+01 +1.353943E+03 
 +5.728478E+02 +5.581736E+01 +7.833792E+00 +5.581736E+01 +6.316328E+02 -2.625257E+00 +7.833792E+00 -2.625257E+00 +1.312688E+03 
 +6.477570E+02 -1.324569E+01 +2.964545E+00 -1.324569E+01 +6.107719E+02 -3.618105E+01 +2.964545E+00 -3.618105E+01 +1.443351E+03 
 +6.007946E+02 +1.440764E+01 +2.796697E+01 +1.440764E+01 +6.442867E+02 -5.582351E+00 +2.796697E+01 -5.582351E+00 +1.335393E+03 
 +5.257517E+02 -1.016069E+01 +1.493196E+01 -1.016069E+01 +5.887061E+02 -1.262776E+01 +1.493196E+01 -1.262776E+01 +1.381329E+03 
 +5.902794E+02 +1.426023E+00 -7.398587E+00 +1.426023E+00 +5.951597E+02 -9.303202E+00 -7.398587E+00 -9.303202E+00 +1.242193E+03 
 +5.798830E+02 +2.171423E+01 +1.368845E+01 +2.171423E+01 +5.539124E+02 +7.116040E+00 +1.368845E+01 +7.116040E+00 +1.454832E+03 
 +6.114973E+02 +2.097880E+01 +5.828875E+00 +2.097880E+01 +6.180463E+02 -1.191135E+01 +5.828875E+00 -1.191135E+01 +1.352076E+03 
 +6.324034E+02 -1.291557E+01 +7.268370E+00 -1.291557E+01 +5.907552E+02 -2.313345E+01 +7.268370E+00 -2.313345E+01 +1.325972E+03 
 +5.680038E+02 +1.678969E+01 -1.104037E+01 +1.678969E+01 +5.422545E+02 -6.997033E+00 -1.104037E+01 -6.997033E+00 +1.329460E+03 
 +5.168201E+02 -3.160776E-01 +1.102593E+01 -3.160776E-01 +5.531377E+02 -3.280461E+01 +1.102593E+01 -3.280461E+01 +1.347541E+03 
 +7.196935E+02 +5.035600E+00 +2.635419E+01 +5.035600E+00 +6.230384E+02 +2.734747E+00 +2.635419E+01 +2.734747E+00 +1.366105E+03 
 +5.818826E+02 -4.578960E+01 +2.389680E+01 -4.578960E+01 +5.983316E+02 +7.334648E+00 +2.389680E+01 +7.334648E+00 +1.313220E+03 
 +7.127267E+02 +1.606849E+01 -8.804996E+00 +1.606849E+01 +5.943198E+02 +1.631364E+01 -8.804996E+00 +1.631364E+01 +1.373709E+03 
 +6.429688E+02 -4.379470E+00 -1.613180E+01 -4.379470E+00 +6.327632E+02 -2.030064E+01 -1.613180E+01 -2.030064E+01 +1.446091E+03 
 +6.592751E+02 -5.062834E+01 +2.054430E+01 -5.062834E+01 +6.185955E+02 +3.423977E+01 +2.054430E+01 +3.423977E+01 +1.316169E+03 
 +6.224989E+02 +7.539834E+00 -6.615944E+00 +7.539834E+00 +5.858498E+02 +2.731500E+00 -6.615944E+00 +2.731500E+00 +1.265223E+03 
 +5.644371E+02 +3.934189E+00 +1.950512E+01 +3.934189E+00 +5.724211E+02 -2.988745E+01 +1.950512E+01 -2.988745E+01 +1.402096E+03 
 +6.429850E+02 +2.419408E+00 +3.456407E+00 +2.419408E+00 +5.767262E+02 -2.489162E+01 +3.456407E+00 -2.489162E+01 +1.404003E+03 
 +5.994374E+02 -9.601255E+00 +4.834318E+00 -9.601255E+00 +5.961533E+02 +3.528550E+00 +4.834318E+00 +3.528550E+00 +1.349967E+03 
 +7.022991E+02 -2.237122E+01 -1.261617E+01 -2.237122E+01 +6.534568E+02 -1.459124E+01 -1.261617E+01 -1.459124E+01 +1.329046E+03 
 +6.108942E+02 -2.604085E+01 +1.128750E+01 -2.604085E+01 +6.730696E+02 -8.317750E+00 +1.128750E+01 -8.317750E+00 +1.334826E+03 
 +6.055472E+02 -3.007763E+01 -1.426497E+01 -3.007763E+01 +6.248748E+02 -1.613838E+01 -1.426497E+01 -1.613838E+01 +1.264592E+03 
 +5.311948E+02 +1.723258E+01 -4.062652E+01 +1.723258E+01 +5.379736E+02 -4.271385E+01 -4.062652E+01 -4.271385E+01 +1.344880E+03 
 +5.845571E+02 -1.445512E+01 +1.875150E+01 -1.445512E+01 +5.746104E+02 -1.582760E+01 +1.875150E+01 -1.582760E+01 +1.327360E+03 
 +5.642495E+02 +4.811450E+01 +1.358027E+00 +4.811450E+01 +6.316852E+02 +2.426143E+00 +1.358027E+00 +2.426143E+00 +1.301897E+03 
 +7.012951E+02 +3.290057E+01 +1.396406E+01 +3.290057E+01 +5.822606E+02 +1.489837E+01 +1.396406E+01 +1.489837E+01 +1.318082E+03 
 +5.717626E+02 -4.800650E+01 -3.870620E+00 -4.800650E+01 +6.567944E+02 -1.320461E+01 -3.870620E+00 -1.320461E+01 +1.330747E+03 
 +6.042260E+02 +2.733593E+00 +2.165054E+01 +2.733593E+00 +6.534804E+02 -1.790439E+01 +2.165054E+01 -1.790439E+01 +1.470987E+03 
 +5.483975E+02 -1.659125E+01 -1.216087E+00 -1.659125E+01 +6.352913E+02 -2.823878E+00 -1.216087E+00 -2.823878E+00 +1.265239E+03 
 +7.080388E+02 -4.372674E+01 -1.423462E+01 -4.372674E+01 +6.069244E+02 -7.769107E-01 -1.423462E+01 -7.769107E-01 +1.371334E+03 
 +5.855181E+02 +1.169475E+01 +4.125830E+01 +1.169475E+01 +5.980495E+02 +1.059204E+01 +4.125830E+01 +1.059204E+01 +1.350787E+03 
 +5.572615E+02 -1.006704E+01 +1.669611E+01 -1.006704E+01 +5.749478E+02 -2.168038E+00 +1.669611E+01 -2.168038E+00 +1.394587E+03 
 +5.623756E+02 -1.292259E+01 -1.122613E+01 -1.292259E+01 +6.452623E+02 +7.738537E-01 -1.122613E+01 +7.738537E-01 +1.267372E+03 
 +5.770995E+02 -2.691723E+00 -6.653625E+00 -2.691723E+00 +6.202908E+02 -2.187867E+01 -6.653625E+00 -2.187867E+01 +1.441318E+03 
 +5.729399E+02 +4.388143E+00 -3.241727E+00 +4.388143E+00 +6.040031E+02 +1.037993E+01 -3.241727E+00 +1.037993E+01 +1.356079E+03 
 +6.169634E+02 +3.074263E+01 +3.252987E+00 +3.074263E+01 +6.109326E+02 +1.483489E+01 +3.252987E+00 +1.483489E+01 +1.340311E+03 
 +5.664404E+02 +4.634702E+01 -3.350728E+00 +4.634702E+01 +6.577305E+02 -2.758636E+00 -3.350728E+00 -2.758636E+00 +1.308218E+03 
 +6.197401E+02 +2.225193E+00 +1.156318E+01 +2.225193E+00 +6.676431E+02 -1.162966E-01 +1.156318E+01 -1.162966E-01 +1.355487E+03 
 +6.141536E+02 +3.770150E+00 +2.412412E+01 +3.770150E+00 +6.187791E+02 +1.599686E+01 +2.412412E+01 +1.599686E+01 +1.424116E+03 
 +5.457141E+02 -2.330883E+01 +1.371205E+01 -2.330883E+01 +6.483845E+02 +4.274175E+00 +1.371205E+01 +4.274175E+00 +1.294707E+03 
 +7.024484E+02 +2.844618E+01 -7.627223E+00 +2.844618E+01 +5.946122E+02 +9.307281E+00 -7.627223E+00 +9.307281E+00 +1.351938E+03 
 +5.680622E+02 -1.876138E+01 -2.648487E+01 -1.876138E+01 +5.582178E+02 -7.760662E+00 -2.648487E+01 -7.760662E+00 +1.322596E+03 
 +6.261431E+02 -3.649494E+00 +1.705224E+01 -3.649494E+00 +5.831166E+02 -2.521110E+01 +1.705224E+01 -2.521110E+01 +1.356339E+03 
 +6.779877E+02 +6.233575E+00 +1.257427E+01 +6.233575E+00 +6.120881E+02 -1.223344E+00 +1.257427E+01 -1.223344E+00 +1.400570E+03 
 +6.462535E+02 +2.173451E+00 -8.769794E+00 +2.173451E+00 +5.856566E+02 -1.534128E+00 -8.769794E+00 -1.534128E+00 +1.304640E+03 
 +6.139160E+02 -2.385943E+01 +9.652699E-01 -2.385943E+01 +6.131726E+02 +9.090375E+00 +9.652699E-01 +9.090375E+00 +1.353885E+03 
 +6.789236E+02 -4.337831E+01 -6.420757E+00 -4.337831E+01 +5.969875E+02 +9.107852E+00 -6.420757E+00 +9.107852E+00 +1.325846E+03 
 +5.904814E+02 -7.916929E+00 -2.619004E+01 -7.916929E+00 +5.759290E+02 -8.791132E+00 -2.619004E+01 -8.791132E+00 +1.401629E+03 
 +5.981566E+02 +8.201427E+00 -4.668920E+00 +8.201427E+00 +5.778718E+02 +2.252826E-01 -4.668920E+00 +2.252826E-01 +1.434995E+03 
 +5.467065E+02 +1.430311E+01 -5.895715E+00 +1.430311E+01 +5.609676E+02 -3.321626E+01 -5.895715E+00 -3.321626E+01 +1.317923E+03 
 +5.632737E+02 -3.398806E+01 -1.387347E+01 -3.398806E+01 +6.106545E+02 -1.551174E+01 -1.387347E+01 -1.551174E+01 +1.264672E+03 
 +6.540557E+02 +1.244779E+01 +2.900410E+01 +1.244779E+01 +5.787571E+02 +2.755192E+01 +2.900410E+01 +2.755192E+01 +1.332902E+03 
 +6.405107E+02 +3.205567E+01 +1.112033E+01 +3.205567E+01 +6.894364E+02 +1.006774E+01 +1.112033E+01 +1.006774E+01 +1.359429E+03 
 +6.794174E+02 -3.615490E+01 -8.269502E+00 -3.615490E+01 +6.786409E+02 -1.082127E+01 -8.269502E+00 -1.082127E+01 +1.332634E+03 
 +5.932051E+02 -1.731127E+01 +3.243117E+00 -1.731127E+01 +6.158855E+02 -1.692298E+01 +3.243117E+00 -1.692298E+01 +1.458690E+03 
 +5.832063E+02 +8.787271E+00 -1.513389E+01 +8.787271E+00 +6.271460E+02 -4.925848E+00 -1.513389E+01 -4.925848E+00 +1.294073E+03 
 +5.861811E+02 +5.686530E+00 +2.802701E+01 +5.686530E+00 +5.981083E+02 -5.735776E+00 +2.802701E+01 -5.735776E+00 +1.392216E+03 
 +5.827482E+02 -1.290143E+00 +5.850277E+00 -1.290143E+00 +5.725038E+02 -2.675234E+00 +5.850277E+00 -2.675234E+00 +1.311085E+03 
 +5.604583E+02 +1.202430E+01 -2.668843E+01 +1.202430E+01 +5.825508E+02 -1.727741E+01 -2.668843E+01 -1.727741E+01 +1.377771E+03 
 +6.163514E+02 +1.158753E+01 -4.110467E+00 +1.158753E+01 +5.762454E+02 -1.149616E+01 -4.110467E+00 -1.149616E+01 +1.377189E+03 
 +5.681779E+02 +2.817333E+00 +4.953627E+00 +2.817333E+00 +5.535732E+02 +3.582133E+01 +4.953627E+00 +3.582133E+01 +1.328871E+03 
 +6.193779E+02 +5.370528E-01 -1.092717E+01 +5.370528E-01 +5.761729E+02 +2.359838E+01 -1.092717E+01 +2.359838E+01 +1.338925E+03 
 +5.801731E+02 +4.333523E+00 -2.375900E+01 +4.333523E+00 +5.643502E+02 -5.746090E-01 -2.375900E+01 -5.746090E-01 +1.414793E+03 
 +5.620526E+02 +3.913147E+00 -1.070860E+01 +3.913147E+00 +5.365682E+02 -2.138119E+01 -1.070860E+01 -2.138119E+01 +1.402578E+03 
 +5.869443E+02 +1.067085E+00 +1.271106E+01 +1.067085E+00 +5.806418E+02 -2.170798E+01 +1.271106E+01 -2.170798E+01 +1.351476E+03 
 +6.438127E+02 +1.072085E+01 +5.575527E+00 +1.072085E+01 +5.405676E+02 +8.818666E+00 +5.575527E+00 +8.818666E+00 +1.288415E+03 
 +5.970438E+02 +3.865709E+01 -8.175119E+00 +3.865709E+01 +5.969201E+02 +5.122078E+00 -8.175119E+00 +5.122078E+00 +1.325350E+03 
 +6.003817E+02 +3.692913E+01 +8.363955E+00 +3.692913E+01 +6.136993E+02 -1.148402E+01 +8.363955E+00 -1.148402E+01 +1.369712E+03 
 +6.928464E+02 -4.021410E+00 -1.299411E+01 -4.021410E+00 +6.127986E+02 +2.573604E+01 -1.299411E+01 +2.573604E+01 +1.340466E+03 
 +6.369755E+02 +2.210647E+01 +1.268746E+01 +2.210647E+01 +6.088505E+02 +1.297912E+01 +1.268746E+01 +1.297912E+01 +1.417256E+03 
 +6.399935E+02 -1.058377E+01 -2.544862E+01 -1.058377E+01 +6.250250E+02 -1.480877E+01 -2.544862E+01 -1.480877E+01 +1.381318E+03 
 +6.687256E+02 +3.055735E+00 +2.419409E+01 +3.055735E+00 +5.816769E+02 -8.737306E+00 +2.419409E+01 -8.737306E+00 +1.267811E+03 
 +5.276782E+02 +4.518346E+00 -2.721465E+01 +4.518346E+00 +5.469836E+02 -1.551303E+01 -2.721465E+01 -1.551303E+01 +1.289020E+03 
 +6.108429E+02 +2.586333E-02 -5.173002E+00 +2.586333E-02 +6.073940E+02 -2.633862E+00 -5.173002E+00 -2.633862E+00 +1.380979E+03 
 +5.590092E+02 +1.659870E+01 +4.255363E+01 +1.659870E+01 +6.453552E+02 +9.209941E+00 +4.255363E+01 +9.209941E+00 +1.274008E+03 
 +6.645331E+02 +3.538538E+00 +1.075625E+01 +3.538538E+00 +6.693007E+02 -1.450787E+01 +1.075625E+01 -1.450787E+01 +1.480818E+03 
 +6.354565E+02 -2.744231E+01 -4.238382E+00 -2.744231E+01 +6.806088E+02 -1.670329E+01 -4.238382E+00 -1.670329E+01 +1.295388E+03 
 +5.776832E+02 -2.964638E+00 +1.149801E+01 -2.964638E+00 +6.011498E+02 -2.238174E+01 +1.149801E+01 -2.238174E+01 +1.410335E+03 
 +6.713287E+02 +3.123456E+01 +2.151359E+00 +3.123456E+01 +6.425653E+02 +7.974163E+00 +2.151359E+00 +7.974163E+00 +1.321763E+03 
 +6.618177E+02 +3.515601E+01 -4.400777E+00 +3.515601E+01 +6.414571E+02 -2.170456E+01 -4.400777E+00 -2.170456E+01 +1.384038E+03 
 +5.634836E+02 -1.210339E+01 -1.375655E+01 -1.210339E+01 +6.446171E+02 -1.407369E+01 -1.375655E+01 -1.407369E+01 +1.296742E+03 
 +7.087850E+02 -3.321605E+01 +1.117654E+01 -3.321605E+01 +7.103829E+02 +3.530232E+00 +1.117654E+01 +3.530232E+00 +1.363907E+03 
 +6.374841E+02 +6.018473E+00 +9.082150E-01 +6.018473E+00 +6.895142E+02 +1.527079E+01 +9.082150E-01 +1.527079E+01 +1.305330E+03 
 +5.885874E+02 -3.792732E+01 +7.751724E+00 -3.792732E+01 +6.610815E+02 +7.105562E+00 +7.751724E+00 +7.105562E+00 +1.346828E+03 
 +6.324576E+02 -4.872024E+01 +9.008919E+00 -4.872024E+01 +6.562453E+02 -2.260745E+01 +9.008919E+00 -2.260745E+01 +1.372516E+03 
 +5.792713E+02 -4.202346E+00 -2.482919E+01 -4.202346E+00 +5.822299E+02 -1.302788E+00 -2.482919E+01 -1.302788E+00 +1.361565E+03 
 +5.919124E+02 +2.003840E+01 +2.594331E+00 +2.003840E+01 +6.080332E+02 +3.035985E+00 +2.594331E+00 +3.035985E+00 +1.284465E+03 
 +5.418055E+02 -9.980420E+00 -5.860920E+00 -9.980420E+00 +5.649943E+02 -3.204942E+01 -5.860920E+00 -3.204942E+01 +1.374319E+03 
 +5.457816E+02 -1.090530E+01 +8.935410E+00 -1.090530E+01 +5.920781E+02 +2.894500E+00 +8.935410E+00 +2.894500E+00 +1.356772E+03 
 +6.003477E+02 +6.707796E+00 +2.612560E+01 +6.707796E+00 +5.921334E+02 +1.686403E+01 +2.612560E+01 +1.686403E+01 +1.363848E+03 
 +5.853398E+02 -3.450902E+00 -1.972036E+01 -3.450902E+00 +5.659078E+02 -1.742980E+01 -1.972036E+01 -1.742980E+01 +1.357400E+03 
 +5.604457E+02 +4.664902E+00 -1.811140E+01 +4.664902E+00 +5.425768E+02 +1.162630E+01 -1.811140E+01 +1.162630E+01 +1.421513E+03 
 +6.705694E+02 -1.842074E+01 -2.404449E-01 -1.842074E+01 +5.323234E+02 +1.710755E+00 -2.404449E-01 +1.710755E+00 +1.311118E+03 
 +6.770027E+02 +3.455129E+01 -9.103111E+00 +3.455129E+01 +6.263788E+02 -3.041659E+00 -9.103111E+00 -3.041659E+00 +1.330526E+03 
 +5.923400E+02 -1.552624E+01 -2.280078E+00 -1.552624E+01 +6.087601E+02 +1.208180E+01 -2.280078E+00 +1.208180E+01 +1.354045E+03 
 +5.499025E+02 +6.106199E+00 -3.988634E+01 +6.106199E+00 +5.333792E+02 -3.658510E+00 -3.988634E+01 -3.658510E+00 +1.331544E+03 
 +5.884552E+02 +4.407581E+00 +2.383182E+01 +4.407581E+00 +5.723184E+02 -9.777176E+00 +2.383182E+01 -9.777176E+00 +1.427849E+03 
 +5.736782E+02 +1.250783E+01 +3.728035E+00 +1.250783E+01 +6.674859E+02 +3.640860E+00 +3.728035E+00 +3.640860E+00 +1.293029E+03 
 +7.003735E+02 -1.586047E+01 +6.662381E+00 -1.586047E+01 +6.126857E+02 +4.976365E+00 +6.662381E+00 +4.976365E+00 +1.345190E+03 
 +5.600267E+02 -1.960901E+00 -8.470951E+00 -1.960901E+00 +5.843530E+02 -8.308186E+00 -8.470951E+00 -8.308186E+00 +1.386893E+03 
 +6.377672E+02 +1.477707E+01 +1.384213E+01 +1.477707E+01 +5.720629E+02 -1.127210E+01 +1.384213E+01 -1.127210E+01 +1.270847E+03 
 +5.852617E+02 +5.416883E+00 +2.674903E+01 +5.416883E+00 +5.620968E+02 +7.942312E+00 +2.674903E+01 +7.942312E+00 +1.321485E+03 
 +6.592867E+02 +2.521018E+00 -3.727986E+00 +2.521018E+00 +6.277145E+02 -4.463142E+00 -3.727986E+00 -4.463142E+00 +1.351117E+03 
 +5.638013E+02 -1.127551E+01 -1.159185E+01 -1.127551E+01 +6.654437E+02 +7.629976E+00 -1.159185E+01 +7.629976E+00 +1.299025E+03 
 +5.523465E+02 +7.119739E+00 +3.662996E+01 +7.119739E+00 +6.205511E+02 +8.300716E+00 +3.662996E+01 +8.300716E+00 +1.338459E+03 
 +5.418970E+02 -2.059539E+01 -2.283724E-01 -2.059539E+01 +5.429849E+02 -1.638405E+00 -2.283724E-01 -1.638405E+00 +1.413647E+03 
 +6.322180E+02 +2.837988E+01 -2.062726E+01 +2.837988E+01 +6.545814E+02 -1.326026E+00 -2.062726E+01 -1.326026E+00 +1.351574E+03 
 +6.307203E+02 -2.310681E+01 +1.805791E+01 -2.310681E+01 +6.912057E+02 +1.105527E+01 +1.805791E+01 +1.105527E+01 +1.377321E+03 
 +6.612401E+02 +5.736331E+01 +2.391848E+00 +5.736331E+01 +6.401091E+02 -1.197198E+01 +2.391848E+00 -1.197198E+01 +1.338037E+03 
 +7.349844E+02 +1.455896E+01 -8.360823E-01 +1.455896E+01 +5.982334E+02 +6.481075E-01 -8.360823E-01 +6.481075E-01 +1.321994E+03 
 +6.005519E+02 -1.487951E+00 -1.736392E+01 -1.487951E+00 +6.055754E+02 -3.597315E+00 -1.736392E+01 -3.597315E+00 +1.412776E+03 
 +6.244608E+02 -2.446776E+01 +2.475341E+01 -2.446776E+01 +5.678657E+02 -4.744127E+00 +2.475341E+01 -4.744127E+00 +1.322965E+03 
 +5.730903E+02 -1.044861E+01 -4.802890E+01 -1.044861E+01 +5.979998E+02 -3.949339E+00 -4.802890E+01 -3.949339E+00 +1.372068E+03 
 +6.055655E+02 +6.597505E+00 -3.267571E+00 +6.597505E+00 +5.783737E+02 -1.829301E+01 -3.267571E+00 -1.829301E+01 +1.384943E+03 
 +6.691370E+02 -2.472337E+01 -4.621398E+00 -2.472337E+01 +6.211269E+02 -3.329227E+01 -4.621398E+00 -3.329227E+01 +1.402183E+03 
 +5.429244E+02 -1.977485E+01 -2.953639E+01 -1.977485E+01 +6.141379E+02 -7.616978E+00 -2.953639E+01 -7.616978E+00 +1.334288E+03 
 +6.044840E+02 +2.533118E+00 -4.575541E+01 +2.533118E+00 +5.954463E+02 -1.688649E+01 -4.575541E+01 -1.688649E+01 +1.399784E+03 
 +6.206789E+02 -2.097049E+01 +1.933132E+01 -2.097049E+01 +6.098271E+02 -2.008682E+01 +1.933132E+01 -2.008682E+01 +1.397250E+03 
 +6.357032E+02 -1.122624E+01 +3.492758E+00 -1.122624E+01 +5.446391E+02 -9.096397E+00 +3.492758E+00 -9.096397E+00 +1.306507E+03 
 +5.692579E+02 +1.615269E+01 +3.450723E+01 +1.615269E+01 +5.587932E+02 -2.010577E+01 +3.450723E+01 -2.010577E+01 +1.337153E+03 
 +5.822867E+02 +6.969810E+00 -2.556684E+00 +6.969810E+00 +6.154745E+02 -5.019202E+00 -2.556684E+00 -5.019202E+00 +1.390747E+03 
 +6.298541E+02 +2.392473E+01 -1.542937E-01 +2.392473E+01 +6.221531E+02 -9.728539E+00 -1.542937E-01 -9.728539E+00 +1.285346E+03 
 +6.983594E+02 +2.152486E+01 +6.388348E+00 +2.152486E+01 +6.398513E+02 -1.317379E+00 +6.388348E+00 -1.317379E+00 +1.361051E+03 
 +5.827135E+02 -2.149933E+01 -3.319282E+00 -2.149933E+01 +6.529403E+02 +5.522834E+00 -3.319282E+00 +5.522834E+00 +1.314806E+03 
 +6.276106E+02 -1.691818E+01 +6.505704E+00 -1.691818E+01 +5.929140E+02 -5.418747E+00 +6.505704E+00 -5.418747E+00 +1.394355E+03 
 +6.180471E+02 -1.364710E+01 -1.506605E+01 -1.364710E+01 +6.561971E+02 +1.800324E+01 -1.506605E+01 +1.800324E+01 +1.402448E+03 
 +6.667772E+02 +4.253199E+01 +1.000609E+01 +4.253199E+01 +6.870849E+02 +2.487181E+00 +1.000609E+01 +2.487181E+00 +1.375360E+03 
 +6.174891E+02 +1.562696E+01 -1.053809E+01 +1.562696E+01 +6.467234E+02 -9.236994E+00 -1.053809E+01 -9.236994E+00 +1.297027E+03 
 +6.384531E+02 -2.924994E+01 -2.829367E+01 -2.924994E+01 +6.029297E+02 +6.912087E-01 -2.829367E+01 +6.912087E-01 +1.428602E+03 
 +5.790715E+02 -1.442959E+01 -3.264356E+00 -1.442959E+01 +5.801384E+02 +3.687922E+01 -3.264356E+00 +3.687922E+01 +1.286819E+03 
 +5.771431E+02 -1.995385E+01 +3.315694E+01 -1.995385E+01 +5.936539E+02 +7.943347E+00 +3.315694E+01 +7.943347E+00 +1.391146E+03 
 +5.756656E+02 -4.049341E+01 -2.647990E+01 -4.049341E+01 +6.127729E+02 -6.329302E+00 -2.647990E+01 -6.329302E+00 +1.364381E+03 
 +6.137646E+02 +2.235407E+01 +2.731988E+01 +2.235407E+01 +5.894839E+02 -1.650016E+01 +2.731988E+01 -1.650016E+01 +1.378635E+03 
 +6.312581E+02 -1.705367E+01 -1.972919E+01 -1.705367E+01 +5.653059E+02 -3.143480E+01 -1.972919E+01 -3.143480E+01 +1.351157E+03 
 +5.474218E+02 -5.509721E+00 +4.180085E+01 -5.509721E+00 +5.646719E+02 -1.853189E+01 +4.180085E+01 -1.853189E+01 +1.443733E+03 
 +5.493642E+02 +2.385929E+01 -2.628937E+01 +2.385929E+01 +5.750435E+02 -1.942976E+01 -2.628937E+01 -1.942976E+01 +1.364286E+03 
 +6.355171E+02 +4.576642E+00 +1.129798E+01 +4.576642E+00 +6.368167E+02 -2.733608E+01 +1.129798E+01 -2.733608E+01 +1.362252E+03 
 +6.145286E+02 -1.979486E+01 -6.409010E+00 -1.979486E+01 +6.993511E+02 -3.308965E+00 -6.409010E+00 -3.308965E+00 +1.361868E+03 
 +6.886542E+02 +1.642779E+01 +6.994499E+00 +1.642779E+01 +7.002000E+02 -7.165055E+00 +6.994499E+00 -7.165055E+00 +1.352095E+03 
 +5.649639E+02 +1.377731E+01 -3.585957E+00 +1.377731E+01 +6.740600E+02 -7.719519E+00 -3.585957E+00 -7.719519E+00 +1.284417E+03 
 +6.387376E+02 +9.249173E+00 +9.708325E+00 +9.249173E+00 +6.073527E+02 -2.602395E+01 +9.708325E+00 -2.602395E+01 +1.364253E+03 
 +6.118804E+02 +1.403149E+00 +8.734532E-01 +1.403149E+00 +6.081711E+02 -1.399823E+01 +8.734532E-01 -1.399823E+01 +1.332873E+03 
 +6.390787E+02 -2.879407E+01 +1.163261E+01 -2.879407E+01 +6.693847E+02 -1.169752E+01 +1.163261E+01 -1.169752E+01 +1.371631E+03 
 +5.971376E+02 +2.302906E+01 -1.153243E+01 +2.302906E+01 +6.183342E+02 -5.804192E+00 -1.153243E+01 -5.804192E+00 +1.312279E+03 
 +6.354199E+02 -2.220025E+01 +9.729844E+00 -2.220025E+01 +6.014323E+02 +3.075574E+00 +9.729844E+00 +3.075574E+00 +1.329478E+03 
 +5.969261E+02 +1.890063E+01 +1.121668E+01 +1.890063E+01 +6.077117E+02 -2.080953E+01 +1.121668E+01 -2.080953E+01 +1.378842E+03 
 +6.167386E+02 -3.914200E+01 -3.897215E+01 -3.914200E+01 +5.656090E+02 -4.154195E+00 -3.897215E+01 -4.154195E+00 +1.380645E+03 
 +6.011938E+02 -2.678210E+01 +2.689198E+01 -2.678210E+01 +6.038054E+02 -2.747338E+01 +2.689198E+01 -2.747338E+01 +1.379678E+03 
 +5.779358E+02 -5.067083E+00 +2.463778E+01 -5.067083E+00 +5.972129E+02 +1.409823E+01 +2.463778E+01 +1.409823E+01 +1.274307E+03 
 +5.938008E+02 -1.406645E+01 -3.841796E+01 -1.406645E+01 +5.944821E+02 +1.704942E+01 -3.841796E+01 +1.704942E+01 +1.386396E+03 
 +7.066623E+02 -5.513495E+00 +9.982772E+00 -5.513495E+00 +5.663793E+02 +3.832108E+00 +9.982772E+00 +3.832108E+00 +1.352951E+03 
 +5.528528E+02 +2.803298E+01 +5.898582E-01 +2.803298E+01 +5.869634E+02 +1.098453E+01 +5.898582E-01 +1.098453E+01 +1.411894E+03 
 +6.509122E+02 +2.258704E+01 -2.568928E+01 +2.258704E+01 +6.792842E+02 +2.473130E-01 -2.568928E+01 +2.473130E-01 +1.334605E+03 
 +5.829413E+02 -2.165306E+01 +1.997196E+01 -2.165306E+01 +6.081101E+02 -1.816428E+01 +1.997196E+01 -1.816428E+01 +1.348789E+03 
 +6.171739E+02 +4.055912E+00 +2.528436E+01 +4.055912E+00 +5.780147E+02 -3.154224E+01 +2.528436E+01 -3.154224E+01 +1.395950E+03 
 +5.853382E+02 +5.261781E+00 +1.316375E+01 +5.261781E+00 +5.829921E+02 -2.879979E+01 +1.316375E+01 -2.879979E+01 +1.383183E+03 
 +5.877296E+02 +1.060018E+01 +5.804155E+00 +1.060018E+01 +6.126537E+02 -7.635761E+00 +5.804155E+00 -7.635761E+00 +1.365932E+03 
 +6.366292E+02 +5.214409E+01 +1.223100E+01 +5.214409E+01 +5.886187E+02 -7.116108E+00 +1.223100E+01 -7.116108E+00 +1.277377E+03 
 +5.907985E+02 +4.794464E+00 +1.601291E+01 +4.794464E+00 +5.867881E+02 -1.634354E+01 +1.601291E+01 -1.634354E+01 +1.409472E+03 
 +6.101701E+02 -4.577557E+01 -2.433829E+00 -4.577557E+01 +6.138952E+02 +2.292989E-02 -2.433829E+00 +2.292989E-02 +1.334655E+03 
 +6.772017E+02 -3.597543E+01 +1.189791E+00 -3.597543E+01 +5.312709E+02 +1.082113E+01 +1.189791E+00 +1.082113E+01 +1.318208E+03 
 +6.454188E+02 +2.226410E+00 -6.229372E+00 +2.226410E+00 +5.711974E+02 -7.274101E+00 -6.229372E+00 -7.274101E+00 +1.353825E+03 
 +5.995723E+02 +3.841766E+01 -1.553090E+00 +3.841766E+01 +6.325537E+02 -4.002815E+00 -1.553090E+00 -4.002815E+00 +1.318130E+03 
 +6.482985E+02 -2.112543E+01 +1.089728E+01 -2.112543E+01 +6.433149E+02 -9.026161E+00 +1.089728E+01 -9.026161E+00 +1.313751E+03 
 +5.917203E+02 +3.251908E+01 -1.414097E+01 +3.251908E+01 +6.226808E+02 +1.067875E+01 -1.414097E+01 +1.067875E+01 +1.310360E+03 
 +6.145912E+02 -5.183866E+00 +7.912362E+00 -5.183866E+00 +6.598282E+02 -2.522822E+01 +7.912362E+00 -2.522822E+01 +1.328260E+03 
 +5.791142E+02 +2.627103E+01 -7.361825E+00 +2.627103E+01 +6.601320E+02 -4.306212E+00 -7.361825E+00 -4.306212E+00 +1.309700E+03 
 +5.526456E+02 -1.142604E+00 -1.153465E+01 -1.142604E+00 +6.771320E+02 +9.981162E-01 -1.153465E+01 +9.981162E-01 +1.315039E+03 
 +6.767228E+02 -1.956488E+01 -3.530927E+00 -1.956488E+01 +6.777606E+02 -4.511679E+00 -3.530927E+00 -4.511679E+00 +1.389281E+03 
 +5.582217E+02 +1.087460E+00 +2.430150E+01 +1.087460E+00 +6.578887E+02 +5.056995E+00 +2.430150E+01 +5.056995E+00 +1.292237E+03 
 +6.014183E+02 -2.989152E+00 -1.386423E+01 -2.989152E+00 +6.801783E+02 +5.742489E+00 -1.386423E+01 +5.742489E+00 +1.317093E+03 
 +5.778652E+02 -1.038474E+01 +2.350827E+01 -1.038474E+01 +6.051321E+02 -2.074492E+01 +2.350827E+01 -2.074492E+01 +1.386829E+03 
 +5.945134E+02 -2.971687E+00 -1.201948E+01 -2.971687E+00 +6.030121E+02 +9.610165E+00 -1.201948E+01 +9.610165E+00 +1.335662E+03 
 +5.767394E+02 -9.781308E+00 +2.461539E+01 -9.781308E+00 +5.918569E+02 +1.611767E+01 +2.461539E+01 +1.611767E+01 +1.410842E+03 
 +5.394592E+02 +2.314076E+01 +1.611797E+00 +2.314076E+01 +6.212274E+02 -2.389068E+01 +1.611797E+00 -2.389068E+01 +1.300734E+03 
 +7.261021E+02 +7.971154E+00 +1.008561E+01 +7.971154E+00 +6.442874E+02 +1.715551E+01 +1.008561E+01 +1.715551E+01 +1.335184E+03 
 +5.826439E+02 -9.430643E+00 +5.069215E+00 -9.430643E+00 +6.126421E+02 -2.917784E+01 +5.069215E+00 -2.917784E+01 +1.360032E+03 
 +6.633891E+02 +2.378413E+01 -1.265211E+01 +2.378413E+01 +6.046931E+02 +3.934347E+00 -1.265211E+01 +3.934347E+00 +1.343063E+03 
 +6.323264E+02 +1.531071E+01 +3.893539E+00 +1.531071E+01 +5.909518E+02 -2.010231E+01 +3.893539E+00 -2.010231E+01 +1.351434E+03 
 +6.443708E+02 -2.990179E+01 +2.698091E+00 -2.990179E+01 +5.916324E+02 -2.158884E+01 +2.698091E+00 -2.158884E+01 +1.369509E+03 
 +6.118512E+02 +6.489179E+00 -3.094271E+01 +6.489179E+00 +6.084810E+02 +4.299271E+00 -3.094271E+01 +4.299271E+00 +1.392622E+03 
 +5.687601E+02 +3.648619E+01 +4.769037E-01 +3.648619E+01 +6.339093E+02 -8.186174E+00 +4.769037E-01 -8.186174E+00 +1.277021E+03 
 +5.777308E+02 -5.790656E+00 +6.207585E+00 -5.790656E+00 +5.697294E+02 -3.581143E+00 +6.207585E+00 -3.581143E+00 +1.396169E+03 
 +6.084943E+02 +3.262579E+01 -7.862171E+00 +3.262579E+01 +5.968898E+02 +4.791197E+00 -7.862171E+00 +4.791197E+00 +1.260075E+03 
 +6.502411E+02 -4.367781E+00 -1.683890E+01 -4.367781E+00 +5.288523E+02 +1.599437E+01 -1.683890E+01 +1.599437E+01 +1.278428E+03 
 +5.560653E+02 -6.588261E+00 +1.656865E+01 -6.588261E+00 +5.387543E+02 +3.456675E+00 +1.656865E+01 +3.456675E+00 +1.366342E+03 
 +6.099165E+02 +3.386708E+01 -5.799473E+00 +3.386708E+01 +5.759863E+02 -9.014385E+00 -5.799473E+00 -9.014385E+00 +1.325859E+03 
 +6.294006E+02 +3.147515E+01 +1.509526E+01 +3.147515E+01 +5.851113E+02 +1.145148E+00 +1.509526E+01 +1.145148E+00 +1.299911E+03 
 +6.940900E+02 -2.498878E+00 +1.763240E+01 -2.498878E+00 +5.991369E+02 +3.454940E-01 +1.763240E+01 +3.454940E-01 +1.332854E+03 
 +6.291724E+02 +2.078844E+00 -1.162670E+01 +2.078844E+00 +6.108714E+02 -4.015245E-02 -1.162670E+01 -4.015245E-02 +1.341115E+03 
 +6.489081E+02 -1.910545E+01 -2.653743E-01 -1.910545E+01 +5.732357E+02 -4.289885E+00 -2.653743E-01 -4.289885E+00 +1.284187E+03 
 +6.131664E+02 +8.523783E+00 +1.470351E+01 +8.523783E+00 +6.097635E+02 -2.072534E+01 +1.470351E+01 -2.072534E+01 +1.383762E+03 
 +6.174835E+02 -4.451699E+00 -1.790990E+01 -4.451699E+00 +6.423328E+02 +1.333463E+01 -1.790990E+01 +1.333463E+01 +1.319961E+03 
 +6.260931E+02 +2.707920E+01 +6.570449E-01 +2.707920E+01 +6.039864E+02 +1.935569E+01 +6.570449E-01 +1.935569E+01 +1.327067E+03 
 +5.845977E+02 +1.285857E+01 -1.167759E+01 +1.285857E+01 +5.777854E+02 -1.553321E+01 -1.167759E+01 -1.553321E+01 +1.385409E+03 
 +5.720179E+02 +1.239416E+01 -7.391996E+00 +1.239416E+01 +5.567803E+02 +3.479581E+01 -7.391996E+00 +3.479581E+01 +1.314076E+03 
 +6.488214E+02 +2.229396E+00 +1.605522E+01 +2.229396E+00 +5.774174E+02 -6.533434E+00 +1.605522E+01 -6.533434E+00 +1.309164E+03 
 +5.692686E+02 -6.148898E+00 -3.852145E+01 -6.148898E+00 +5.764202E+02 +6.362818E+00 -3.852145E+01 +6.362818E+00 +1.383260E+03 
 +6.236221E+02 -1.776707E+01 -1.559284E+01 -1.776707E+01 +6.359033E+02 +1.274969E+01 -1.559284E+01 +1.274969E+01 +1.391629E+03 
 +6.141663E+02 -1.317442E+01 +3.794196E+01 -1.317442E+01 +6.281152E+02 -1.341202E+01 +3.794196E+01 -1.341202E+01 +1.390248E+03 
 +6.407131E+02 +1.855569E+00 +2.702096E+01 +1.855569E+00 +6.291491E+02 -1.101809E+01 +2.702096E+01 -1.101809E+01 +1.294698E+03 
 +5.830798E+02 +1.118295E+01 -8.555207E+00 +1.118295E+01 +6.046748E+02 -2.121775E+01 -8.555207E+00 -2.121775E+01 +1.413601E+03 
 +5.582206E+02 -1.768052E+01 +1.374272E+01 -1.768052E+01 +5.294457E+02 -1.501163E+01 +1.374272E+01 -1.501163E+01 +1.324993E+03 
 +6.812225E+02 -1.605861E+01 +1.037209E+01 -1.605861E+01 +6.849753E+02 -2.029826E+01 +1.037209E+01 -2.029826E+01 +1.371710E+03 
 +6.527829E+02 +2.224661E+01 -9.151109E+00 +2.224661E+01 +6.747307E+02 +8.034872E+00 -9.151109E+00 +8.034872E+00 +1.280448E+03 
 +5.760981E+02 -4.376526E+01 -5.760188E+00 -4.376526E+01 +6.291391E+02 -7.594164E+00 -5.760188E+00 -7.594164E+00 +1.297511E+03 
 +6.693772E+02 -5.922955E+01 -3.898110E+01 -5.922955E+01 +6.564782E+02 -2.255882E-01 -3.898110E+01 -2.255882E-01 +1.353984E+03 
 +5.813112E+02 -1.838484E+00 -2.003387E+01 -1.838484E+00 +5.723904E+02 +2.321861E+00 -2.003387E+01 +2.321861E+00 +1.409270E+03 
 +6.408542E+02 -2.396882E+00 +6.282575E+00 -2.396882E+00 +5.875391E+02 -9.269203E+00 +6.282575E+00 -9.269203E+00 +1.336311E+03 
 +5.666778E+02 +4.113511E+01 -2.505830E+01 +4.113511E+01 +6.495173E+02 +1.128369E+01 -2.505830E+01 +1.128369E+01 +1.270679E+03 
 +5.725563E+02 +8.164217E+00 -4.143760E+00 +8.164217E+00 +6.049601E+02 +2.814814E+00 -4.143760E+00 +2.814814E+00 +1.410755E+03 
 +6.248588E+02 +2.537112E+01 +5.302881E+00 +2.537112E+01 +6.037294E+02 +3.015019E+01 +5.302881E+00 +3.015019E+01 +1.374164E+03 
 +6.293028E+02 +7.339130E+00 +3.607457E+00 +7.339130E+00 +6.186906E+02 -1.963827E+01 +3.607457E+00 -1.963827E+01 +1.413291E+03 
 +5.190339E+02 -7.371751E+00 +1.722929E+01 -7.371751E+00 +6.089606E+02 +1.074176E+01 +1.722929E+01 +1.074176E+01 +1.278479E+03 
 +6.386212E+02 +7.232242E+00 +3.299564E+00 +7.232242E+00 +6.526610E+02 +1.006723E+01 +3.299564E+00 +1.006723E+01 +1.381226E+03 
 +5.970477E+02 +5.182580E+00 +1.816886E+01 +5.182580E+00 +6.034489E+02 +3.189019E+01 +1.816886E+01 +3.189019E+01 +1.402286E+03 
 +5.777759E+02 -2.502108E+00 -3.187189E-01 -2.502108E+00 +6.050987E+02 +1.609536E+01 -3.187189E-01 +1.609536E+01 +1.337320E+03 
 +7.180018E+02 +4.767000E+01 -1.057310E+01 +4.767000E+01 +6.551956E+02 -1.515448E+01 -1.057310E+01 -1.515448E+01 +1.381637E+03 
 +5.918344E+02 -1.585452E+01 -2.456515E+01 -1.585452E+01 +6.859042E+02 +1.842917E+01 -2.456515E+01 +1.842917E+01 +1.299746E+03 
 +6.379647E+02 +2.022520E+00 -1.616251E+01 +2.022520E+00 +6.808026E+02 -1.932952E+01 -1.616251E+01 -1.932952E+01 +1.479576E+03 
 +5.785939E+02 -3.687682E+01 -5.510877E-01 -3.687682E+01 +6.963408E+02 -2.625315E+01 -5.510877E-01 -2.625315E+01 +1.371062E+03 
 +6.698557E+02 +1.667207E+01 +4.821241E+00 +1.667207E+01 +7.273522E+02 -5.161057E+00 +4.821241E+00 -5.161057E+00 +1.345765E+03 
 +5.842147E+02 +1.912607E+01 -6.368649E+00 +1.912607E+01 +6.437918E+02 +2.178487E+00 -6.368649E+00 +2.178487E+00 +1.369955E+03 
 +7.128781E+02 +3.193759E+00 -1.035683E+01 +3.193759E+00 +6.199510E+02 +3.039511E+00 -1.035683E+01 +3.039511E+00 +1.348967E+03 
 +5.449913E+02 -1.501181E+01 -3.221257E+01 -1.501181E+01 +5.046767E+02 -1.356916E+01 -3.221257E+01 -1.356916E+01 +1.368379E+03 
 +5.628330E+02 +9.239763E+00 -5.880475E+00 +9.239763E+00 +5.596541E+02 -2.344896E+01 -5.880475E+00 -2.344896E+01 +1.315515E+03 
 +7.038049E+02 +3.527671E+01 +6.462653E+00 +3.527671E+01 +6.405809E+02 +1.091240E+01 +6.462653E+00 +1.091240E+01 +1.333862E+03 
 +5.686959E+02 +4.756133E+01 -3.646229E+00 +4.756133E+01 +5.980260E+02 -9.909707E+00 -3.646229E+00 -9.909707E+00 +1.274301E+03 
 +6.112719E+02 -1.460523E+01 -1.650720E+01 -1.460523E+01 +6.262777E+02 +8.942333E+00 -1.650720E+01 +8.942333E+00 +1.436768E+03 
 +6.445432E+02 +4.380830E+00 -1.541175E+01 +4.380830E+00 +6.493741E+02 +3.465400E+01 -1.541175E+01 +3.465400E+01 +1.350645E+03 
 +6.228792E+02 -4.000773E+01 +8.676872E+00 -4.000773E+01 +6.062993E+02 -3.672289E+01 +8.676872E+00 -3.672289E+01 +1.320722E+03 
 +6.600151E+02 -3.036907E+01 -8.029046E+00 -3.036907E+01 +6.577365E+02 +7.426254E+00 -8.029046E+00 +7.426254E+00 +1.300103E+03 
 +5.777623E+02 +1.277908E+01 +1.265922E+01 +1.277908E+01 +5.706121E+02 -1.036107E+01 +1.265922E+01 -1.036107E+01 +1.453418E+03 
 +7.175720E+02 -4.095988E+01 +1.255940E+01 -4.095988E+01 +6.601153E+02 -2.919354E+01 +1.255940E+01 -2.919354E+01 +1.381196E+03 
 +5.277336E+02 -4.795691E+01 -1.470401E+00 -4.795691E+01 +6.396166E+02 -2.556093E+01 -1.470401E+00 -2.556093E+01 +1.290014E+03 
 +7.140504E+02 +3.304416E+01 -6.743227E+00 +3.304416E+01 +6.360988E+02 +9.434113E+00 -6.743227E+00 +9.434113E+00 +1.366911E+03 
 +6.263045E+02 -3.434691E+00 +2.785649E+01 -3.434691E+00 +7.026861E+02 +1.976209E+01 +2.785649E+01 +1.976209E+01 +1.406263E+03 
 +6.169864E+02 -1.655757E+01 +9.896364E-01 -1.655757E+01 +7.140767E+02 -5.808101E+00 +9.896364E-01 -5.808101E+00 +1.366600E+03 
 +5.931090E+02 -4.532388E+01 +3.415890E+00 -4.532388E+01 +5.849117E+02 +1.429803E+01 +3.415890E+00 +1.429803E+01 +1.438558E+03 
 +5.901623E+02 -4.950157E+00 -3.599671E+00 -4.950157E+00 +6.142185E+02 -1.430392E+01 -3.599671E+00 -1.430392E+01 +1.313099E+03 
 +6.266738E+02 -2.259726E+00 -9.224569E+00 -2.259726E+00 +6.124921E+02 -9.320317E+00 -9.224569E+00 -9.320317E+00 +1.486580E+03 
 +5.588447E+02 -3.878766E+00 -9.058084E+00 -3.878766E+00 +5.520895E+02 -8.598260E+00 -9.058084E+00 -8.598260E+00 +1.389656E+03 
 +6.054564E+02 -1.591030E+00 -3.331077E+01 -1.591030E+00 +5.611108E+02 -4.482901E+00 -3.331077E+01 -4.482901E+00 +1.328748E+03 
 +5.423134E+02 -1.267866E+01 +1.055442E+01 -1.267866E+01 +5.896274E+02 +3.268769E+01 +1.055442E+01 +3.268769E+01 +1.381733E+03 
 +6.367231E+02 +9.881730E+00 +5.969059E+00 +9.881730E+00 +6.150046E+02 +1.230945E+01 +5.969059E+00 +1.230945E+01 +1.312412E+03 
 +6.579305E+02 +2.370283E+01 +1.404992E+01 +2.370283E+01 +6.469640E+02 -1.032295E+01 +1.404992E+01 -1.032295E+01 +1.382908E+03 
 +6.588949E+02 -2.103230E+00 -1.303649E+01 -2.103230E+00 +5.628844E+02 -9.082649E+00 -1.303649E+01 -9.082649E+00 +1.378898E+03 
 +6.588469E+02 -1.672310E+01 +3.675297E-01 -1.672310E+01 +5.799297E+02 +2.913511E+01 +3.675297E-01 +2.913511E+01 +1.270627E+03 
 +5.768802E+02 -4.097327E+01 +1.709489E+01 -4.097327E+01 +6.554354E+02 -1.492733E+01 +1.709489E+01 -1.492733E+01 +1.279095E+03 
 +6.055318E+02 -9.847831E+00 +1.411665E+00 -9.847831E+00 +6.722744E+02 +1.217127E+01 +1.411665E+00 +1.217127E+01 +1.337859E+03 
 +5.707942E+02 -1.123228E+01 -1.081570E+01 -1.123228E+01 +5.988340E+02 +7.857030E+00 -1.081570E+01 +7.857030E+00 +1.394401E+03 
 +5.443683E+02 +1.200533E+01 +3.670033E+01 +1.200533E+01 +5.769553E+02 -3.200035E+01 +3.670033E+01 -3.200035E+01 +1.389588E+03 
 +6.408317E+02 +2.432477E+01 -2.468316E+00 +2.432477E+01 +5.043452E+02 +8.255086E+00 -2.468316E+00 +8.255086E+00 +1.231662E+03 
 +6.488865E+02 +5.458931E+00 +1.292299E+01 +5.458931E+00 +6.086580E+02 -3.497865E+01 +1.292299E+01 -3.497865E+01 +1.384950E+03 
 +6.210770E+02 +2.243350E+01 +3.356980E+01 +2.243350E+01 +6.096177E+02 -5.832991E+00 +3.356980E+01 -5.832991E+00 +1.415992E+03 
 +6.806661E+02 +2.930882E+01 -7.710335E+00 +2.930882E+01 +6.088704E+02 +1.822549E+00 -7.710335E+00 +1.822549E+00 +1.301671E+03 
 +6.041395E+02 -9.708220E-01 +1.770707E+01 -9.708220E-01 +5.826348E+02 -2.201136E+01 +1.770707E+01 -2.201136E+01 +1.315885E+03 
 +6.303165E+02 +5.401013E+00 -4.310132E+01 +5.401013E+00 +6.085081E+02 -1.071651E+01 -4.310132E+01 -1.071651E+01 +1.384681E+03 
 +5.877147E+02 -2.849210E+01 -1.095622E+00 -2.849210E+01 +5.839156E+02 +8.207933E-01 -1.095622E+00 +8.207933E-01 +1.406264E+03 
 +6.217757E+02 +3.273182E+01 +9.923669E+00 +3.273182E+01 +6.747339E+02 +5.970805E+00 +9.923669E+00 +5.970805E+00 +1.368471E+03 
 +6.314097E+02 +6.351979E+01 +1.231469E+01 +6.351979E+01 +6.733283E+02 -6.763704E-01 +1.231469E+01 -6.763704E-01 +1.330000E+03 
 +6.122311E+02 -7.524095E+00 -5.859761E+00 -7.524095E+00 +5.908141E+02 +2.181404E-02 -5.859761E+00 +2.181404E-02 +1.443978E+03 
 +5.656684E+02 -6.459896E+00 -3.486983E+00 -6.459896E+00 +5.683528E+02 +4.661129E+01 -3.486983E+00 +4.661129E+01 +1.370695E+03 
 +6.322080E+02 -3.219408E+01 +9.701426E+00 -3.219408E+01 +6.188858E+02 -1.367709E+01 +9.701426E+00 -1.367709E+01 +1.347296E+03 
 +5.975441E+02 -1.035833E+01 -1.071199E+01 -1.035833E+01 +6.183914E+02 +2.529637E+01 -1.071199E+01 +2.529637E+01 +1.359686E+03 
 +6.737495E+02 +1.613289E+01 +7.035002E+00 +1.613289E+01 +6.270798E+02 +8.170374E+00 +7.035002E+00 +8.170374E+00 +1.394393E+03 
 +5.007406E+02 -2.871493E+01 +3.445101E+01 -2.871493E+01 +5.063518E+02 -4.754936E+01 +3.445101E+01 -4.754936E+01 +1.360643E+03 
 +5.033712E+02 +2.212979E+01 +9.886860E+00 +2.212979E+01 +5.332329E+02 +1.779042E+00 +9.886860E+00 +1.779042E+00 +1.346659E+03 
 +6.380657E+02 -5.788803E+00 +1.476999E+01 -5.788803E+00 +6.055431E+02 -1.364278E+01 +1.476999E+01 -1.364278E+01 +1.273477E+03 
 +7.359803E+02 -3.366567E+01 +1.551243E+00 -3.366567E+01 +5.953572E+02 +1.364127E-01 +1.551243E+00 +1.364127E-01 +1.342212E+03 
 +5.936384E+02 -2.980117E+01 -1.497528E+01 -2.980117E+01 +6.412534E+02 -8.091482E+00 -1.497528E+01 -8.091482E+00 +1.300014E+03 
 +6.082414E+02 +1.418347E+01 +1.102571E+01 +1.418347E+01 +6.755120E+02 -6.746723E+00 +1.102571E+01 -6.746723E+00 +1.467697E+03 
 +6.325683E+02 -1.882009E+01 -1.904874E+01 -1.882009E+01 +6.032441E+02 +9.119039E+00 -1.904874E+01 +9.119039E+00 +1.355312E+03 
 +5.744293E+02 -2.409911E+01 -9.619885E+00 -2.409911E+01 +6.784693E+02 -1.572305E+01 -9.619885E+00 -1.572305E+01 +1.337696E+03 
 +6.175051E+02 -1.661320E+01 +1.696942E+01 -1.661320E+01 +5.998087E+02 +1.239392E+01 +1.696942E+01 +1.239392E+01 +1.340431E+03 
 +5.746000E+02 -1.548076E+01 -1.714351E+01 -1.548076E+01 +6.002336E+02 +8.164169E+00 -1.714351E+01 +8.164169E+00 +1.367722E+03 
 +5.678807E+02 +5.796084E+00 +4.111971E+01 +5.796084E+00 +6.007145E+02 -9.772186E+00 +4.111971E+01 -9.772186E+00 +1.367198E+03 
 +6.091389E+02 -4.614635E+00 -5.616964E+00 -4.614635E+00 +6.268405E+02 -6.503434E+00 -5.616964E+00 -6.503434E+00 +1.328250E+03 
 +5.929224E+02 -1.667835E+00 -8.862681E+00 -1.667835E+00 +6.098336E+02 -1.635452E+01 -8.862681E+00 -1.635452E+01 +1.424955E+03 
 +6.217469E+02 -2.330664E+01 -5.005952E+00 -2.330664E+01 +6.013638E+02 -2.339709E+01 -5.005952E+00 -2.339709E+01 +1.388990E+03 
 +5.430269E+02 -2.247058E+01 +1.138041E+00 -2.247058E+01 +5.865899E+02 +7.520210E+00 +1.138041E+00 +7.520210E+00 +1.284912E+03 
 +6.183267E+02 +4.504121E+01 -1.589208E+01 +4.504121E+01 +6.157563E+02 +4.956746E+00 -1.589208E+01 +4.956746E+00 +1.308592E+03 
 +5.706529E+02 -8.828268E+00 -1.003808E+01 -8.828268E+00 +6.231057E+02 +2.814932E+01 -1.003808E+01 +2.814932E+01 +1.436454E+03 
 +5.394668E+02 -2.467047E+01 +2.289285E+01 -2.467047E+01 +6.808057E+02 +2.837415E+01 +2.289285E+01 +2.837415E+01 +1.327361E+03 
 +6.875862E+02 +4.849285E+00 -1.868747E+01 +4.849285E+00 +6.446157E+02 +2.385110E+01 -1.868747E+01 +2.385110E+01 +1.359446E+03 
 +6.249669E+02 +2.376772E+01 -1.056611E+01 +2.376772E+01 +6.685911E+02 -1.268758E+01 -1.056611E+01 -1.268758E+01 +1.311051E+03 
 +6.645764E+02 -9.801797E+00 +2.162291E+01 -9.801797E+00 +6.664048E+02 -1.530868E-02 +2.162291E+01 -1.530868E-02 +1.523979E+03 
 +6.157623E+02 +1.654566E+01 +7.128929E+00 +1.654566E+01 +6.797485E+02 -1.295474E+01 +7.128929E+00 -1.295474E+01 +1.349930E+03 
 +6.774496E+02 -5.094702E+01 +6.600980E+00 -5.094702E+01 +6.465259E+02 -5.094920E+00 +6.600980E+00 -5.094920E+00 +1.359672E+03 
 +6.453724E+02 -2.128204E+01 +5.120966E+00 -2.128204E+01 +5.840187E+02 +1.636436E+00 +5.120966E+00 +1.636436E+00 +1.291438E+03 
 +5.621882E+02 +2.229475E+01 +1.459641E+01 +2.229475E+01 +6.517048E+02 -1.199341E+01 +1.459641E+01 -1.199341E+01 +1.325591E+03 
 +6.252803E+02 +1.939974E+01 +1.467327E+01 +1.939974E+01 +6.491760E+02 -4.761718E+01 +1.467327E+01 -4.761718E+01 +1.325300E+03 
 +5.712319E+02 +5.780210E+00 -7.842230E+00 +5.780210E+00 +5.906398E+02 -1.345415E+01 -7.842230E+00 -1.345415E+01 +1.394616E+03 
 +6.387557E+02 +3.280462E+00 -1.278298E+01 +3.280462E+00 +6.191895E+02 +2.093153E+01 -1.278298E+01 +2.093153E+01 +1.426176E+03 
 +5.603430E+02 +9.892837E-01 -1.637275E+01 +9.892837E-01 +5.625975E+02 -4.776113E+00 -1.637275E+01 -4.776113E+00 +1.335759E+03 
 +6.363124E+02 +2.594037E+01 +9.884756E+00 +2.594037E+01 +5.876682E+02 -1.526326E+01 +9.884756E+00 -1.526326E+01 +1.323914E+03 
 +5.863428E+02 -1.563407E+01 -1.383074E+01 -1.563407E+01 +5.530887E+02 -2.354125E+01 -1.383074E+01 -2.354125E+01 +1.388652E+03 
 +5.935967E+02 -9.685467E+00 +3.560526E-01 -9.685467E+00 +5.877073E+02 -2.027673E+01 +3.560526E-01 -2.027673E+01 +1.368027E+03 
 +6.160369E+02 +2.857663E+01 -2.503000E+01 +2.857663E+01 +5.648251E+02 -5.730419E+00 -2.503000E+01 -5.730419E+00 +1.357260E+03 
 +5.597715E+02 -2.476422E+00 +1.662817E+01 -2.476422E+00 +5.780625E+02 -6.284321E+00 +1.662817E+01 -6.284321E+00 +1.410992E+03 
 +6.594971E+02 -1.363078E+01 -1.547665E+01 -1.363078E+01 +6.198700E+02 +2.029804E+01 -1.547665E+01 +2.029804E+01 +1.355059E+03 
 +5.896559E+02 +3.868522E+01 -3.484221E+00 +3.868522E+01 +6.391965E+02 +4.775154E+00 -3.484221E+00 +4.775154E+00 +1.281432E+03 
 +5.921647E+02 +4.325476E+01 -4.062710E+00 +4.325476E+01 +6.272033E+02 -2.417244E+01 -4.062710E+00 -2.417244E+01 +1.353401E+03 
 +5.999124E+02 -8.327454E-01 -1.537194E+01 -8.327454E-01 +6.204685E+02 +4.934513E+00 -1.537194E+01 +4.934513E+00 +1.317198E+03 
 +5.852316E+02 +2.557415E+00 -2.462896E+01 +2.557415E+00 +5.795791E+02 +2.859530E+01 -2.462896E+01 +2.859530E+01 +1.398205E+03 
 +5.983457E+02 +3.917920E+01 -2.795958E+01 +3.917920E+01 +6.197409E+02 +6.804640E+00 -2.795958E+01 +6.804640E+00 +1.289712E+03 
 +6.617285E+02 -6.843706E-01 +2.214363E+00 -6.843706E-01 +6.059205E+02 -8.418344E+00 +2.214363E+00 -8.418344E+00 +1.415841E+03 
 +5.635259E+02 +1.771761E+01 +4.941959E+00 +1.771761E+01 +5.794650E+02 -4.536306E+00 +4.941959E+00 -4.536306E+00 +1.400177E+03 
 +6.158511E+02 -1.030378E+01 -2.489742E+01 -1.030378E+01 +6.046940E+02 +2.953473E+01 -2.489742E+01 +2.953473E+01 +1.445161E+03 
 +5.473971E+02 +7.158807E+01 +4.287328E+00 +7.158807E+01 +6.054705E+02 +1.798331E+01 +4.287328E+00 +1.798331E+01 +1.290540E+03 
 +6.956337E+02 +2.504774E+01 -1.340216E+01 +2.504774E+01 +5.766061E+02 +4.709938E+00 -1.340216E+01 +4.709938E+00 +1.345563E+03 
 +5.595508E+02 +7.442431E-01 +4.331239E-01 +7.442431E-01 +5.480624E+02 -2.653076E+01 +4.331239E-01 -2.653076E+01 +1.338430E+03 
 +5.868187E+02 +6.891697E+00 -1.799482E+01 +6.891697E+00 +6.129875E+02 -6.046283E+00 -1.799482E+01 -6.046283E+00 +1.382263E+03 
 +5.365873E+02 +3.809473E+01 +7.498965E-01 +3.809473E+01 +6.670065E+02 -2.956100E+00 +7.498965E-01 -2.956100E+00 +1.274627E+03 
 +6.191375E+02 -3.430228E+01 -1.008190E+01 -3.430228E+01 +6.078407E+02 +4.771512E+00 -1.008190E+01 +4.771512E+00 +1.361644E+03 
 +6.916155E+02 -4.545803E+01 +2.006631E+01 -4.545803E+01 +5.953561E+02 -6.996956E+00 +2.006631E+01 -6.996956E+00 +1.328444E+03 
 +6.012140E+02 +2.877323E+00 +1.445408E+00 +2.877323E+00 +5.741624E+02 -2.788422E+01 +1.445408E+00 -2.788422E+01 +1.278799E+03 
 +5.180076E+02 +1.285823E+01 -7.445794E+00 +1.285823E+01 +5.308140E+02 -3.914837E-01 -7.445794E+00 -3.914837E-01 +1.402074E+03 
 +6.122057E+02 +5.313477E+00 +1.441253E+00 +5.313477E+00 +6.349146E+02 +8.917111E+00 +1.441253E+00 +8.917111E+00 +1.368848E+03 
 +6.326826E+02 -3.595986E+01 -1.270902E+01 -3.595986E+01 +7.354902E+02 -6.611567E+00 -1.270902E+01 -6.611567E+00 +1.380394E+03 
 +6.126447E+02 +2.030669E+01 +2.211060E+01 +2.030669E+01 +6.519343E+02 -1.343895E+01 +2.211060E+01 -1.343895E+01 +1.337286E+03 
 +6.159637E+02 -4.260955E+00 +3.336120E+00 -4.260955E+00 +6.278954E+02 +6.683157E+00 +3.336120E+00 +6.683157E+00 +1.404611E+03 
 +7.200867E+02 -2.124128E+01 -1.479302E+01 -2.124128E+01 +6.399540E+02 -5.390435E+00 -1.479302E+01 -5.390435E+00 +1.334348E+03 
 +6.179782E+02 -1.059004E+01 +3.492858E+01 -1.059004E+01 +6.914060E+02 -2.693186E+00 +3.492858E+01 -2.693186E+00 +1.328255E+03 
 +6.927495E+02 +4.070467E+01 +3.320462E+01 +4.070467E+01 +6.467366E+02 +1.350377E+01 +3.320462E+01 +1.350377E+01 +1.324430E+03 
 +5.840630E+02 -3.506488E+01 -6.337323E+00 -3.506488E+01 +6.604405E+02 -1.842949E+01 -6.337323E+00 -1.842949E+01 +1.346548E+03 
 +6.893610E+02 -4.727539E+01 +1.195373E+01 -4.727539E+01 +5.857350E+02 +1.786601E+01 +1.195373E+01 +1.786601E+01 +1.295900E+03 
 +5.766245E+02 -1.439574E+00 +1.182219E+01 -1.439574E+00 +5.691070E+02 +1.237166E+01 +1.182219E+01 +1.237166E+01 +1.452064E+03 
 +5.653194E+02 -4.780429E+01 -8.955703E+00 -4.780429E+01 +5.807062E+02 +1.070049E+01 -8.955703E+00 +1.070049E+01 +1.336158E+03 
 +5.879838E+02 -7.446579E+00 +9.074415E+00 -7.446579E+00 +6.251838E+02 +1.123477E+01 +9.074415E+00 +1.123477E+01 +1.411128E+03 
 +6.748860E+02 -5.843102E+01 -1.129658E+01 -5.843102E+01 +5.888346E+02 +3.367417E+00 -1.129658E+01 +3.367417E+00 +1.315602E+03 
 +5.468360E+02 -1.054343E+01 +2.673994E+01 -1.054343E+01 +5.872808E+02 -2.841714E+01 +2.673994E+01 -2.841714E+01 +1.369446E+03 
 +6.020559E+02 +1.415478E+01 +5.788220E+00 +1.415478E+01 +6.034390E+02 -2.063963E+01 +5.788220E+00 -2.063963E+01 +1.356462E+03 
 +6.748069E+02 -4.267471E+01 -3.746839E+01 -4.267471E+01 +5.930772E+02 +1.647999E+01 -3.746839E+01 +1.647999E+01 +1.368766E+03 
 +5.861459E+02 -1.558539E+01 -2.700365E+00 -1.558539E+01 +6.001895E+02 +1.126010E+01 -2.700365E+00 +1.126010E+01 +1.327873E+03 
 +5.831515E+02 +2.982656E+01 +1.154683E+01 +2.982656E+01 +6.853234E+02 -1.255435E+01 +1.154683E+01 -1.255435E+01 +1.311682E+03 
 +5.526700E+02 -3.215794E+00 +1.531322E+01 -3.215794E+00 +6.486799E+02 -1.385750E+01 +1.531322E+01 -1.385750E+01 +1.309895E+03 
 +6.507131E+02 +4.794074E-02 +6.142660E+00 +4.794074E-02 +6.175106E+02 -5.831776E+00 +6.142660E+00 -5.831776E+00 +1.265202E+03 
 +6.500256E+02 -1.340683E+01 -4.653710E+00 -1.340683E+01 +6.218754E+02 -2.058617E+00 -4.653710E+00 -2.058617E+00 +1.323111E+03 
 +5.850881E+02 +2.460818E+01 -8.706306E+00 +2.460818E+01 +6.403896E+02 +1.670440E+00 -8.706306E+00 +1.670440E+00 +1.323081E+03 
 +6.272007E+02 -7.055359E+00 +2.140020E+00 -7.055359E+00 +5.909885E+02 -1.106773E+01 +2.140020E+00 -1.106773E+01 +1.443030E+03 
 +6.895650E+02 -6.767517E+00 +1.669231E+00 -6.767517E+00 +5.390845E+02 +7.191319E+00 +1.669231E+00 +7.191319E+00 +1.305049E+03 
 +6.575852E+02 -2.933591E+01 +7.249101E+00 -2.933591E+01 +6.225063E+02 -3.748045E+01 +7.249101E+00 -3.748045E+01 +1.405780E+03 
 +5.882364E+02 -3.946852E+00 -5.425821E+00 -3.946852E+00 +5.895614E+02 -7.938964E+00 -5.425821E+00 -7.938964E+00 +1.321031E+03 
 +6.778643E+02 +2.114536E+01 -1.735978E+01 +2.114536E+01 +5.213335E+02 +8.486966E+00 -1.735978E+01 +8.486966E+00 +1.293130E+03 
 +5.924208E+02 +7.424351E+00 +9.308170E+00 +7.424351E+00 +5.933461E+02 -1.661161E+01 +9.308170E+00 -1.661161E+01 +1.357670E+03 
 +5.634694E+02 +7.563691E+00 +1.310111E+01 +7.563691E+00 +5.553861E+02 -3.738415E+00 +1.310111E+01 -3.738415E+00 +1.399637E+03 
 +5.978342E+02 +4.090144E+01 +1.292141E+01 +4.090144E+01 +6.120336E+02 -2.086986E+00 +1.292141E+01 -2.086986E+00 +1.266889E+03 
 +5.981625E+02 +2.081200E+01 -3.148634E+01 +2.081200E+01 +6.008616E+02 -1.216696E+01 -3.148634E+01 -1.216696E+01 +1.457280E+03 
 +6.613959E+02 -3.466820E+00 -2.072123E+00 -3.466820E+00 +5.862504E+02 -1.034538E+01 -2.072123E+00 -1.034538E+01 +1.334228E+03 
 +5.877643E+02 +1.752903E+01 -4.467591E-01 +1.752903E+01 +5.673700E+02 +3.112799E+01 -4.467591E-01 +3.112799E+01 +1.443636E+03 
 +5.831014E+02 -1.066940E+01 -1.555952E+01 -1.066940E+01 +6.126475E+02 +7.512838E+00 -1.555952E+01 +7.512838E+00 +1.372642E+03 
 +6.662246E+02 +1.346615E+01 +6.478694E+00 +1.346615E+01 +5.965991E+02 -2.163556E+01 +6.478694E+00 -2.163556E+01 +1.335346E+03 
 +6.417733E+02 +4.151611E+01 +4.199874E+00 +4.151611E+01 +5.186829E+02 -1.408675E+01 +4.199874E+00 -1.408675E+01 +1.299744E+03 
 +6.167250E+02 +9.991776E+00 +1.168502E+01 +9.991776E+00 +5.713016E+02 -1.055217E+01 +1.168502E+01 -1.055217E+01 +1.348679E+03 
 +5.890953E+02 +2.228179E+01 +1.899500E+00 +2.228179E+01 +6.537463E+02 -9.605360E+00 +1.899500E+00 -9.605360E+00 +1.372763E+03 
 +6.495880E+02 -3.448146E+01 +1.735424E+01 -3.448146E+01 +6.029028E+02 +5.520804E+00 +1.735424E+01 +5.520804E+00 +1.346731E+03 
 +6.260406E+02 +9.581117E+00 +9.358879E+00 +9.581117E+00 +6.210288E+02 +8.093132E+00 +9.358879E+00 +8.093132E+00 +1.391326E+03 
 +5.863043E+02 -3.106550E+01 +1.273200E+00 -3.106550E+01 +6.428763E+02 +1.252279E+01 +1.273200E+00 +1.252279E+01 +1.264793E+03 
 +6.083038E+02 +1.582953E+01 -4.845149E+00 +1.582953E+01 +6.451888E+02 +7.254885E+00 -4.845149E+00 +7.254885E+00 +1.415709E+03 
 +5.992101E+02 +1.242889E+01 -1.063579E+01 +1.242889E+01 +6.758887E+02 -1.786491E+01 -1.063579E+01 -1.786491E+01 +1.299114E+03 
 +6.091573E+02 +1.566905E+01 -2.064542E+01 +1.566905E+01 +6.214938E+02 +8.787782E+00 -2.064542E+01 +8.787782E+00 +1.371107E+03 
 +5.527241E+02 +2.040369E+01 -2.543066E+01 +2.040369E+01 +6.335804E+02 +2.397518E-01 -2.543066E+01 +2.397518E-01 +1.288970E+03 
 +5.867217E+02 +2.786368E+01 -2.169411E+00 +2.786368E+01 +6.125041E+02 -2.750125E+01 -2.169411E+00 -2.750125E+01 +1.440819E+03 
 +6.235938E+02 +2.034776E+01 +6.440770E+00 +2.034776E+01 +5.712098E+02 +1.158706E+00 +6.440770E+00 +1.158706E+00 +1.248144E+03 
 +5.670200E+02 +2.130427E+01 -5.423720E+00 +2.130427E+01 +6.240781E+02 -7.104496E+00 -5.423720E+00 -7.104496E+00 +1.350936E+03 
 +6.523961E+02 -1.904518E+01 -3.324014E+00 -1.904518E+01 +5.856287E+02 -1.748758E+01 -3.324014E+00 -1.748758E+01 +1.292634E+03 
 +6.165324E+02 +1.746349E+01 +7.717352E+00 +1.746349E+01 +5.912275E+02 +8.339863E-01 +7.717352E+00 +8.339863E-01 +1.419110E+03 
 +5.918686E+02 -1.609561E+01 +2.253909E+01 -1.609561E+01 +6.620306E+02 -5.199338E+00 +2.253909E+01 -5.199338E+00 +1.323330E+03 
 +7.266496E+02 +9.382689E+00 -4.220796E+00 +9.382689E+00 +7.090327E+02 -3.895868E+00 -4.220796E+00 -3.895868E+00 +1.495303E+03 
 +5.722091E+02 -9.919331E-01 -2.770652E+01 -9.919331E-01 +6.116401E+02 +1.582828E+01 -2.770652E+01 +1.582828E+01 +1.327669E+03 
 +5.886606E+02 +1.514190E+01 -1.140744E+00 +1.514190E+01 +5.764929E+02 -6.616532E+00 -1.140744E+00 -6.616532E+00 +1.427326E+03 
 +6.450305E+02 +1.154644E+01 -1.033567E+01 +1.154644E+01 +6.646895E+02 +2.158340E+00 -1.033567E+01 +2.158340E+00 +1.393450E+03 
 +5.731417E+02 -4.911808E+00 +5.870793E+00 -4.911808E+00 +6.133944E+02 +2.087432E+01 +5.870793E+00 +2.087432E+01 +1.404615E+03 
 +5.543297E+02 -1.039905E+01 -1.793225E+01 -1.039905E+01 +6.406028E+02 -5.468661E+00 -1.793225E+01 -5.468661E+00 +1.280704E+03 
 +6.193535E+02 -2.333854E+01 +4.027148E+01 -2.333854E+01 +6.888122E+02 -3.190787E+01 +4.027148E+01 -3.190787E+01 +1.359918E+03 
 +5.907405E+02 +1.567304E+01 -1.420790E+01 +1.567304E+01 +5.985065E+02 -2.466887E+00 -1.420790E+01 -2.466887E+00 +1.332338E+03 
 +5.406978E+02 +2.067862E+01 -2.835177E-01 +2.067862E+01 +6.840233E+02 -3.621887E-01 -2.835177E-01 -3.621887E-01 +1.316949E+03 
 +6.601170E+02 -5.333268E+00 -1.263944E+01 -5.333268E+00 +6.530362E+02 -1.709932E+01 -1.263944E+01 -1.709932E+01 +1.385640E+03 
 +5.957086E+02 +4.948641E+00 -1.095111E+01 +4.948641E+00 +6.858293E+02 +4.860329E+00 -1.095111E+01 +4.860329E+00 +1.330733E+03 
 +6.216716E+02 +8.177901E+00 +1.891359E+01 +8.177901E+00 +6.593214E+02 -2.985173E+00 +1.891359E+01 -2.985173E+00 +1.405569E+03 
 +5.923165E+02 -5.822447E+00 -2.516377E+01 -5.822447E+00 +6.010753E+02 -1.907238E+00 -2.516377E+01 -1.907238E+00 +1.347144E+03 
 +6.422974E+02 -3.687798E+01 +6.289161E+00 -3.687798E+01 +6.180714E+02 -2.361982E+00 +6.289161E+00 -2.361982E+00 +1.309344E+03 
 +5.997071E+02 -3.835870E+01 -8.964123E+00 -3.835870E+01 +6.334426E+02 -2.619261E+01 -8.964123E+00 -2.619261E+01 +1.391546E+03 
 +6.545233E+02 -3.411338E+01 -6.704762E+00 -3.411338E+01 +6.102605E+02 +2.381693E+01 -6.704762E+00 +2.381693E+01 +1.289225E+03 
 +6.046125E+02 -2.148603E+01 -3.225360E+01 -2.148603E+01 +6.067724E+02 +2.141519E+01 -3.225360E+01 +2.141519E+01 +1.312402E+03 
 +5.790972E+02 -1.542072E+01 +2.799739E+01 -1.542072E+01 +5.172557E+02 -3.790593E+00 +2.799739E+01 -3.790593E+00 +1.285176E+03 
 +5.926186E+02 -1.806199E+01 -1.538609E+01 -1.806199E+01 +6.604526E+02 -7.927158E+00 -1.538609E+01 -7.927158E+00 +1.374766E+03 
 +6.172628E+02 +7.756216E+00 +3.129632E+00 +7.756216E+00 +6.579225E+02 -2.467120E+01 +3.129632E+00 -2.467120E+01 +1.285489E+03 
 +5.907496E+02 -6.330265E+00 +6.115034E+00 -6.330265E+00 +6.031852E+02 -3.613011E+00 +6.115034E+00 -3.613011E+00 +1.434760E+03 
 +5.730354E+02 -7.995442E-01 +2.809026E+01 -7.995442E-01 +5.809809E+02 -8.463805E+00 +2.809026E+01 -8.463805E+00 +1.390760E+03 
 +6.629229E+02 +2.322017E+01 -2.382927E+01 +2.322017E+01 +6.287565E+02 +3.190371E+01 -2.382927E+01 +3.190371E+01 +1.403118E+03 
 +5.527035E+02 -1.012438E+01 +1.542745E+01 -1.012438E+01 +6.674915E+02 -3.526076E+00 +1.542745E+01 -3.526076E+00 +1.316808E+03 
 +6.311454E+02 +5.863268E+00 -1.237024E+00 +5.863268E+00 +6.187249E+02 -1.294319E+01 -1.237024E+00 -1.294319E+01 +1.434862E+03 
 +7.142174E+02 -2.192501E+01 -1.483452E+00 -2.192501E+01 +6.495138E+02 -1.625644E+01 -1.483452E+00 -1.625644E+01 +1.359787E+03 
 +6.204782E+02 +4.852360E+00 -2.003505E+01 +4.852360E+00 +6.006355E+02 -4.244208E+01 -2.003505E+01 -4.244208E+01 +1.327590E+03 
 +6.031246E+02 +5.139131E+00 -1.963908E+01 +5.139131E+00 +5.802678E+02 -3.387658E+00 -1.963908E+01 -3.387658E+00 +1.347453E+03 
 +6.453115E+02 -1.087803E+01 +2.461235E+00 -1.087803E+01 +6.441915E+02 +2.042482E+01 +2.461235E+00 +2.042482E+01 +1.329260E+03 
 +5.649824E+02 -3.312749E+00 -1.765114E+01 -3.312749E+00 +5.527631E+02 -2.964575E+01 -1.765114E+01 -2.964575E+01 +1.332010E+03 
 +6.575208E+02 +9.215748E+00 -2.474540E+00 +9.215748E+00 +5.976243E+02 -1.458744E+00 -2.474540E+00 -1.458744E+00 +1.315189E+03 
 +6.070788E+02 +3.056246E+01 +3.064782E+01 +3.056246E+01 +5.992946E+02 -7.521205E+00 +3.064782E+01 -7.521205E+00 +1.375873E+03 
 +6.222473E+02 +2.245913E+00 -3.534439E+01 +2.245913E+00 +5.560543E+02 -1.038238E+00 -3.534439E+01 -1.038238E+00 +1.328419E+03 
 +6.225101E+02 +4.551867E+00 -3.044827E+00 +4.551867E+00 +6.036478E+02 +5.272937E+00 -3.044827E+00 +5.272937E+00 +1.394572E+03 
 +6.241672E+02 -8.203442E+00 -2.211804E+01 -8.203442E+00 +6.341907E+02 -1.319534E+01 -2.211804E+01 -1.319534E+01 +1.321695E+03 
 +6.659974E+02 -4.321510E+01 -1.755039E+01 -4.321510E+01 +5.867099E+02 -1.540545E+01 -1.755039E+01 -1.540545E+01 +1.314479E+03 
 +5.573640E+02 -1.863492E+01 +2.893582E+00 -1.863492E+01 +5.413586E+02 -8.776314E-01 +2.893582E+00 -8.776314E-01 +1.344058E+03 
 +5.717139E+02 +1.016076E+01 -4.451572E+01 +1.016076E+01 +5.649299E+02 -7.172910E+00 -4.451572E+01 -7.172910E+00 +1.266978E+03 
 +5.900505E+02 +2.151560E+01 -1.857139E+01 +2.151560E+01 +5.658510E+02 -1.440228E+01 -1.857139E+01 -1.440228E+01 +1.458871E+03 
 +5.492759E+02 +1.246768E+01 -1.895238E+01 +1.246768E+01 +5.890007E+02 +1.730775E+00 -1.895238E+01 +1.730775E+00 +1.219560E+03 
 +5.466187E+02 -4.281246E+00 +1.206687E+00 -4.281246E+00 +6.261074E+02 -1.150656E+01 +1.206687E+00 -1.150656E+01 +1.356987E+03 
 +6.510873E+02 +3.024378E+01 -2.088950E+00 +3.024378E+01 +6.007695E+02 -1.158239E+01 -2.088950E+00 -1.158239E+01 +1.311154E+03 
 +6.199156E+02 +3.216873E+00 +7.730363E+00 +3.216873E+00 +6.122516E+02 +2.856630E+01 +7.730363E+00 +2.856630E+01 +1.459857E+03 
 +6.474632E+02 -1.020507E+01 +1.980685E+01 -1.020507E+01 +6.169954E+02 +3.815430E+01 +1.980685E+01 +3.815430E+01 +1.324016E+03 
 +5.658564E+02 +2.510944E+01 -4.264757E+00 +2.510944E+01 +5.805485E+02 +1.484429E+01 -4.264757E+00 +1.484429E+01 +1.415294E+03 
 +7.151356E+02 -1.560499E+01 +3.197817E+00 -1.560499E+01 +5.964484E+02 +5.650302E+00 +3.197817E+00 +5.650302E+00 +1.335864E+03 
 +5.520015E+02 -2.245061E+01 +2.484113E+01 -2.245061E+01 +5.604411E+02 +1.278711E+01 +2.484113E+01 +1.278711E+01 +1.382699E+03 
 +6.410513E+02 -1.490618E+01 -1.236044E+01 -1.490618E+01 +5.543817E+02 -1.487941E+01 -1.236044E+01 -1.487941E+01 +1.273282E+03 
 +5.949751E+02 +4.345240E+01 -2.828155E+00 +4.345240E+01 +6.066864E+02 -3.209117E+00 -2.828155E+00 -3.209117E+00 +1.286893E+03 
 +6.276508E+02 +3.405469E+00 +2.447174E+00 +3.405469E+00 +6.147794E+02 -2.696388E+01 +2.447174E+00 -2.696388E+01 +1.348963E+03 
 +5.436480E+02 +6.128777E+00 +1.454834E+01 +6.128777E+00 +5.465834E+02 -9.781889E+00 +1.454834E+01 -9.781889E+00 +1.314476E+03 
 +6.005238E+02 -1.378742E+01 -1.585419E+01 -1.378742E+01 +5.950621E+02 -1.274644E+01 -1.585419E+01 -1.274644E+01 +1.306201E+03 
 +6.535851E+02 -4.521672E+01 +9.563937E+00 -4.521672E+01 +6.607236E+02 -1.589096E+01 +9.563937E+00 -1.589096E+01 +1.319061E+03 
 +5.875206E+02 -1.728619E+01 -4.371390E+00 -1.728619E+01 +6.892647E+02 -3.912765E+00 -4.371390E+00 -3.912765E+00 +1.326162E+03 
 +6.249396E+02 +2.820401E+01 +3.218688E+00 +2.820401E+01 +6.646179E+02 -1.026358E+01 +3.218688E+00 -1.026358E+01 +1.296398E+03 
 +5.593276E+02 -1.466115E+00 -7.180358E+00 -1.466115E+00 +5.930577E+02 +3.174995E+01 -7.180358E+00 +3.174995E+01 +1.397836E+03 
 +6.048405E+02 -3.308382E+00 +1.752322E+01 -3.308382E+00 +5.946032E+02 +1.311451E+00 +1.752322E+01 +1.311451E+00 +1.253116E+03 
 +6.269008E+02 +4.372688E+01 +1.799359E+01 +4.372688E+01 +6.333128E+02 +2.299309E+00 +1.799359E+01 +2.299309E+00 +1.314785E+03 
 +5.641949E+02 +4.903355E+01 -1.525589E+01 +4.903355E+01 +6.514283E+02 +4.542802E+00 -1.525589E+01 +4.542802E+00 +1.306066E+03 
 +6.526888E+02 +1.632730E+01 -8.735934E-01 +1.632730E+01 +6.784470E+02 -1.850401E+01 -8.735934E-01 -1.850401E+01 +1.437928E+03 
 +5.535602E+02 -3.618181E+01 -1.654039E+00 -3.618181E+01 +6.580864E+02 +9.672578E+00 -1.654039E+00 +9.672578E+00 +1.295884E+03 
 +6.856797E+02 +2.810767E+01 +4.613615E+00 +2.810767E+01 +6.229478E+02 -1.480853E+01 +4.613615E+00 -1.480853E+01 +1.353997E+03 
 +5.973306E+02 -2.198714E+01 +2.051208E+00 -2.198714E+01 +5.916727E+02 -2.233653E+01 +2.051208E+00 -2.233653E+01 +1.325458E+03 
 +6.172988E+02 -2.929494E+01 -2.569223E-01 -2.929494E+01 +6.027187E+02 +1.427928E+01 -2.569223E-01 +1.427928E+01 +1.313917E+03 
 +6.491620E+02 +3.734255E+01 -2.346083E+01 +3.734255E+01 +6.630862E+02 +1.504193E+01 -2.346083E+01 +1.504193E+01 +1.361421E+03 
 +6.066108E+02 -5.072472E+01 -2.244913E+00 -5.072472E+01 +6.919265E+02 +3.589931E+00 -2.244913E+00 +3.589931E+00 +1.309271E+03 
 +6.146593E+02 -7.437704E+00 +4.397498E+01 -7.437704E+00 +6.516634E+02 +9.850332E+00 +4.397498E+01 +9.850332E+00 +1.386189E+03 
 +5.873805E+02 +2.459816E+01 -1.615371E+01 +2.459816E+01 +6.600191E+02 -1.982238E+01 -1.615371E+01 -1.982238E+01 +1.339076E+03 
 +5.310726E+02 +4.188377E+01 +6.893407E+00 +4.188377E+01 +6.754493E+02 -3.639329E+00 +6.893407E+00 -3.639329E+00 +1.293928E+03 
 +5.805286E+02 -1.814072E+01 -2.319386E+01 -1.814072E+01 +6.249407E+02 -1.134687E+01 -2.319386E+01 -1.134687E+01 +1.245076E+03 
 +5.706998E+02 -2.008201E+01 -3.326276E+01 -2.008201E+01 +6.185787E+02 -9.795337E+00 -3.326276E+01 -9.795337E+00 +1.334734E+03 
 +5.916847E+02 +5.048100E+01 +3.391642E+00 +5.048100E+01 +5.997957E+02 +2.345944E+01 +3.391642E+00 +2.345944E+01 +1.302761E+03 
 +6.172767E+02 -5.599339E-02 +1.335602E+01 -5.599339E-02 +5.801283E+02 +1.648953E+01 +1.335602E+01 +1.648953E+01 +1.350993E+03 
 +6.241837E+02 +2.304291E+01 -5.288010E-01 +2.304291E+01 +6.091230E+02 -6.486942E+00 -5.288010E-01 -6.486942E+00 +1.322229E+03 
 +6.252648E+02 -2.051503E+01 +2.172017E+01 -2.051503E+01 +6.136370E+02 -1.352605E+01 +2.172017E+01 -1.352605E+01 +1.359673E+03 
 +5.366838E+02 +7.069952E+00 +4.395654E+00 +7.069952E+00 +6.616403E+02 +4.104855E+00 +4.395654E+00 +4.104855E+00 +1.326670E+03 
 +6.737384E+02 +2.973456E+01 +1.005501E+01 +2.973456E+01 +6.525726E+02 -6.664533E+00 +1.005501E+01 -6.664533E+00 +1.351718E+03 
 +5.853695E+02 +2.571448E+01 +1.082049E+01 +2.571448E+01 +7.154899E+02 +4.851834E+00 +1.082049E+01 +4.851834E+00 +1.353018E+03 
 +6.848095E+02 +3.962379E+00 -7.990974E+00 +3.962379E+00 +6.176248E+02 -6.240336E+00 -7.990974E+00 -6.240336E+00 +1.328290E+03 
 +5.814525E+02 -1.115637E+01 +4.140009E+00 -1.115637E+01 +6.131542E+02 +1.697332E+01 +4.140009E+00 +1.697332E+01 +1.340238E+03 
 +6.669163E+02 +2.644193E-01 -2.095419E+01 +2.644193E-01 +6.301396E+02 +3.760374E+01 -2.095419E+01 +3.760374E+01 +1.383562E+03 
 +5.213867E+02 -1.329270E+00 +1.641577E+01 -1.329270E+00 +5.767617E+02 +1.789255E+01 +1.641577E+01 +1.789255E+01 +1.348560E+03 
 +6.360621E+02 -5.849261E+01 +1.078260E+01 -5.849261E+01 +6.592690E+02 -1.149972E+01 +1.078260E+01 -1.149972E+01 +1.337279E+03 
 +6.205984E+02 -1.451821E+01 +2.704429E+01 -1.451821E+01 +6.094340E+02 -1.109188E+01 +2.704429E+01 -1.109188E+01 +1.374580E+03 
 +6.223448E+02 -3.537934E+01 +5.018228E+00 -3.537934E+01 +6.129745E+02 +2.999232E+00 +5.018228E+00 +2.999232E+00 +1.295530E+03 
 +6.571656E+02 +1.790199E+01 +7.498343E+00 +1.790199E+01 +5.832111E+02 -3.778601E+00 +7.498343E+00 -3.778601E+00 +1.316551E+03 
 +6.213312E+02 -2.918434E+00 +7.775706E-01 -2.918434E+00 +4.996991E+02 -1.465253E+01 +7.775706E-01 -1.465253E+01 +1.288070E+03 
 +5.700416E+02 +5.778306E+00 -1.326032E+00 +5.778306E+00 +5.756099E+02 -9.311399E+00 -1.326032E+00 -9.311399E+00 +1.414346E+03 
 +5.732699E+02 -3.563145E+00 -1.631929E+01 -3.563145E+00 +5.637146E+02 -1.273012E+00 -1.631929E+01 -1.273012E+00 +1.324205E+03 
 +6.568926E+02 -4.045790E+01 -3.679857E-01 -4.045790E+01 +5.506125E+02 +8.393625E+00 -3.679857E-01 +8.393625E+00 +1.274733E+03 
 +6.226709E+02 -2.443210E+01 -7.842731E+00 -2.443210E+01 +6.043577E+02 -7.943113E+00 -7.842731E+00 -7.943113E+00 +1.347425E+03 
 +6.622091E+02 -5.572461E+01 -1.384299E+01 -5.572461E+01 +6.068508E+02 +2.252322E+00 -1.384299E+01 +2.252322E+00 +1.318459E+03 
 +5.989781E+02 +4.336275E+00 -2.070868E+01 +4.336275E+00 +5.918063E+02 +1.722126E+01 -2.070868E+01 +1.722126E+01 +1.340432E+03 
 +6.500070E+02 -1.360156E+01 +3.988086E+00 -1.360156E+01 +5.752668E+02 +9.786884E+00 +3.988086E+00 +9.786884E+00 +1.361410E+03 
 +5.824814E+02 -5.206598E+01 +1.745930E+01 -5.206598E+01 +6.259038E+02 +1.109601E+01 +1.745930E+01 +1.109601E+01 +1.304263E+03 
 +5.874719E+02 +3.685415E+00 -9.886558E+00 +3.685415E+00 +5.871467E+02 +3.410497E-01 -9.886558E+00 +3.410497E-01 +1.425961E+03 
 +5.400482E+02 +2.702993E+00 -1.637748E+01 +2.702993E+00 +5.629623E+02 +4.655568E+00 -1.637748E+01 +4.655568E+00 +1.381733E+03 
 +6.738229E+02 -3.009943E+01 -1.171990E+01 -3.009943E+01 +6.354260E+02 -9.166538E+00 -1.171990E+01 -9.166538E+00 +1.349596E+03 
 +5.683126E+02 +1.014467E+01 -5.860115E+00 +1.014467E+01 +5.208716E+02 -2.593138E+00 -5.860115E+00 -2.593138E+00 +1.413037E+03 
 +5.453511E+02 -1.145091E+01 -1.591779E+01 -1.145091E+01 +5.514070E+02 +1.152577E+00 -1.591779E+01 +1.152577E+00 +1.360004E+03 
 +6.425852E+02 +9.384442E+00 -1.907854E+00 +9.384442E+00 +5.969869E+02 +9.323101E+00 -1.907854E+00 +9.323101E+00 +1.270438E+03 
 +5.606689E+02 +9.961977E+00 -1.599550E+01 +9.961977E+00 +5.994844E+02 +1.517522E+01 -1.599550E+01 +1.517522E+01 +1.441642E+03 
 +6.193760E+02 -3.549284E+01 +1.162135E+01 -3.549284E+01 +6.488383E+02 -1.761864E-01 +1.162135E+01 -1.761864E-01 +1.326875E+03 
 +5.981340E+02 +1.661511E+01 +1.592123E+01 +1.661511E+01 +5.796199E+02 -6.375767E+00 +1.592123E+01 -6.375767E+00 +1.380227E+03 
 +6.661587E+02 +2.118946E+00 -9.605572E+00 +2.118946E+00 +5.407297E+02 +3.215572E+01 -9.605572E+00 +3.215572E+01 +1.319906E+03 
 +5.607597E+02 -1.660361E+01 +3.796888E+00 -1.660361E+01 +5.682491E+02 +2.032629E+01 +3.796888E+00 +2.032629E+01 +1.302015E+03 
 +6.534313E+02 -3.368518E+01 -1.410587E+01 -3.368518E+01 +6.358214E+02 +8.993179E+00 -1.410587E+01 +8.993179E+00 +1.317054E+03 
 +5.624473E+02 +1.916315E+01 +1.144105E+01 +1.916315E+01 +6.715023E+02 -9.182640E+00 +1.144105E+01 -9.182640E+00 +1.323049E+03 
 +6.267796E+02 +2.155448E+01 +2.944423E+00 +2.155448E+01 +6.089172E+02 -2.679419E+01 +2.944423E+00 -2.679419E+01 +1.374844E+03 
 +6.446070E+02 +3.232529E+01 -1.255851E+01 +3.232529E+01 +6.095739E+02 +1.140996E+01 -1.255851E+01 +1.140996E+01 +1.394688E+03 
 +5.834080E+02 +2.101171E+01 +1.642317E+01 +2.101171E+01 +6.156116E+02 -2.692269E+01 +1.642317E+01 -2.692269E+01 +1.311881E+03 
 +5.536934E+02 -2.791063E+01 +4.000571E+00 -2.791063E+01 +5.505615E+02 -1.587948E+00 +4.000571E+00 -1.587948E+00 +1.354302E+03 
 +6.096898E+02 +4.080979E+00 +2.277192E+01 +4.080979E+00 +5.886443E+02 +1.300446E-01 +2.277192E+01 +1.300446E-01 +1.336994E+03 
 +6.800029E+02 +2.962988E+01 -2.386741E+01 +2.962988E+01 +6.051132E+02 -3.693280E+00 -2.386741E+01 -3.693280E+00 +1.309561E+03 
 +5.568395E+02 -1.680418E-01 -2.759259E+01 -1.680418E-01 +5.814666E+02 +2.458247E+00 -2.759259E+01 +2.458247E+00 +1.402944E+03 
 +6.422518E+02 +9.985632E+00 +1.976844E+00 +9.985632E+00 +5.654720E+02 +1.531641E+00 +1.976844E+00 +1.531641E+00 +1.274178E+03 
 +6.270825E+02 -7.087163E+00 -1.596825E+01 -7.087163E+00 +6.238737E+02 -1.980947E+01 -1.596825E+01 -1.980947E+01 +1.411965E+03 
 +6.535467E+02 -3.766305E+01 +6.832750E+00 -3.766305E+01 +6.060339E+02 +6.092932E+00 +6.832750E+00 +6.092932E+00 +1.355127E+03 
 +6.717708E+02 +4.193823E+01 -9.689192E-02 +4.193823E+01 +6.456918E+02 -1.143530E+01 -9.689192E-02 -1.143530E+01 +1.362984E+03 
 +7.065814E+02 -1.110169E+01 +1.887961E+00 -1.110169E+01 +6.365023E+02 -9.157433E+00 +1.887961E+00 -9.157433E+00 +1.350432E+03 
 +5.432172E+02 -1.460359E+01 -1.122183E+01 -1.460359E+01 +5.492325E+02 +2.340296E+01 -1.122183E+01 +2.340296E+01 +1.365616E+03 
 +6.132864E+02 -3.044874E+01 -2.180383E+01 -3.044874E+01 +5.832388E+02 +1.033526E+01 -2.180383E+01 +1.033526E+01 +1.333335E+03 
 +6.171635E+02 -1.474807E+01 +5.350382E+00 -1.474807E+01 +5.775784E+02 -1.841829E+01 +5.350382E+00 -1.841829E+01 +1.436025E+03 
 +6.109711E+02 -4.435730E-01 +2.718731E+01 -4.435730E-01 +6.144357E+02 -2.093958E+01 +2.718731E+01 -2.093958E+01 +1.437355E+03 
 +6.356676E+02 -5.110349E+01 -1.942382E+00 -5.110349E+01 +6.719965E+02 +1.786854E+01 -1.942382E+00 +1.786854E+01 +1.363361E+03 
 +5.732974E+02 -8.721130E-01 +9.149212E+00 -8.721130E-01 +6.272385E+02 +4.030818E+01 +9.149212E+00 +4.030818E+01 +1.257566E+03 
 +5.734901E+02 +3.089923E+01 -2.663294E+01 +3.089923E+01 +5.966455E+02 +2.566870E+01 -2.663294E+01 +2.566870E+01 +1.341117E+03 
 +5.312961E+02 +4.366458E+01 -6.785375E+00 +4.366458E+01 +5.240663E+02 -8.643902E+00 -6.785375E+00 -8.643902E+00 +1.343849E+03 
 +5.571650E+02 +1.352847E+01 +6.571320E-01 +1.352847E+01 +5.787314E+02 -1.247418E+01 +6.571320E-01 -1.247418E+01 +1.353345E+03 
 +5.798590E+02 +2.383347E+01 -1.748397E+01 +2.383347E+01 +6.236705E+02 -2.748279E+00 -1.748397E+01 -2.748279E+00 +1.341731E+03 
 +5.656125E+02 +4.516706E+00 -9.977853E+00 +4.516706E+00 +5.979069E+02 -1.217511E+01 -9.977853E+00 -1.217511E+01 +1.419416E+03 
 +6.743951E+02 +2.441968E+01 +1.218616E+01 +2.441968E+01 +6.216161E+02 +1.689939E+01 +1.218616E+01 +1.689939E+01 +1.291997E+03 
 +6.552553E+02 +1.508521E+01 +1.846926E+01 +1.508521E+01 +6.145078E+02 -2.237716E+01 +1.846926E+01 -2.237716E+01 +1.355882E+03 
 +5.907410E+02 -8.066435E+00 -1.620354E+01 -8.066435E+00 +6.088627E+02 +4.171764E+00 -1.620354E+01 +4.171764E+00 +1.261269E+03 
 +5.609307E+02 +2.929827E+01 +2.054406E+01 +2.929827E+01 +5.784910E+02 -1.041597E+01 +2.054406E+01 -1.041597E+01 +1.296215E+03 
 +5.691816E+02 -2.621900E+01 -2.641548E+00 -2.621900E+01 +5.638586E+02 -1.349468E+01 -2.641548E+00 -1.349468E+01 +1.297211E+03 
 +5.130872E+02 -1.997501E+01 +3.259643E+00 -1.997501E+01 +5.673466E+02 -3.248767E+00 +3.259643E+00 -3.248767E+00 +1.364668E+03 
 +6.752615E+02 +1.217678E+01 +3.911775E+01 +1.217678E+01 +6.336385E+02 -3.454637E+01 +3.911775E+01 -3.454637E+01 +1.407781E+03 
 +5.311943E+02 +6.072317E+00 -4.550396E+00 +6.072317E+00 +6.406559E+02 -4.937230E+00 -4.550396E+00 -4.937230E+00 +1.299765E+03 
 +6.119249E+02 -1.370444E+01 -8.292646E+00 -1.370444E+01 +6.261320E+02 +1.021584E+01 -8.292646E+00 +1.021584E+01 +1.426891E+03 
 +5.682811E+02 +1.588091E+01 +1.075909E+01 +1.588091E+01 +5.763766E+02 -1.274571E+01 +1.075909E+01 -1.274571E+01 +1.262381E+03 
 +6.394319E+02 -8.135501E+00 +1.672695E+00 -8.135501E+00 +6.478846E+02 +2.821287E+01 +1.672695E+00 +2.821287E+01 +1.428479E+03 
 +6.162737E+02 +2.573690E+01 -1.370910E+01 +2.573690E+01 +6.474434E+02 +1.047723E+01 -1.370910E+01 +1.047723E+01 +1.336272E+03 
 +6.093154E+02 +7.686224E+00 -2.222327E+01 +7.686224E+00 +5.961129E+02 -7.369607E+00 -2.222327E+01 -7.369607E+00 +1.419089E+03 
 +6.099681E+02 -4.530437E+00 -1.158448E+01 -4.530437E+00 +6.219833E+02 +9.585890E-01 -1.158448E+01 +9.585890E-01 +1.466713E+03 
 +6.847598E+02 +2.248332E+01 +6.900798E+00 +2.248332E+01 +5.437023E+02 -4.298119E+00 +6.900798E+00 -4.298119E+00 +1.317434E+03 
 +5.971954E+02 +1.175602E+01 -2.178733E+01 +1.175602E+01 +6.441970E+02 -7.454886E+00 -2.178733E+01 -7.454886E+00 +1.375428E+03 
 +6.574448E+02 +7.982161E+00 +3.367669E+00 +7.982161E+00 +6.634818E+02 +2.234002E+01 +3.367669E+00 +2.234002E+01 +1.357610E+03 
 +6.841277E+02 -2.516795E+01 +2.832711E+00 -2.516795E+01 +6.144740E+02 +8.961881E+00 +2.832711E+00 +8.961881E+00 +1.371844E+03 
 +6.138108E+02 -2.502159E+01 +7.855145E-01 -2.502159E+01 +6.475604E+02 -7.355012E+00 +7.855145E-01 -7.355012E+00 +1.345339E+03 
 +6.027732E+02 -5.961819E+00 +1.295873E+01 -5.961819E+00 +6.175031E+02 -4.933476E+00 +1.295873E+01 -4.933476E+00 +1.333738E+03 
 +6.259480E+02 +2.273056E+01 +1.502222E+01 +2.273056E+01 +6.391085E+02 +6.281483E+00 +1.502222E+01 +6.281483E+00 +1.425117E+03 
 +6.062791E+02 -2.818023E+01 -1.386778E+01 -2.818023E+01 +6.475735E+02 -1.060308E+00 -1.386778E+01 -1.060308E+00 +1.274601E+03 
 +5.952353E+02 -5.260253E+00 -1.481726E+01 -5.260253E+00 +5.917363E+02 +2.076525E+01 -1.481726E+01 +2.076525E+01 +1.364809E+03 
 +6.647445E+02 +1.633809E+01 -4.993212E+00 +1.633809E+01 +5.548948E+02 -8.410156E+00 -4.993212E+00 -8.410156E+00 +1.279218E+03 
 +5.797639E+02 -1.307640E+01 +3.269683E+01 -1.307640E+01 +5.936607E+02 -1.428340E+01 +3.269683E+01 -1.428340E+01 +1.376852E+03 
 +6.417054E+02 -5.748147E+00 +3.090673E+00 -5.748147E+00 +5.578953E+02 +6.245711E+00 +3.090673E+00 +6.245711E+00 +1.274271E+03 
 +6.685490E+02 -9.674216E+00 -1.760823E+01 -9.674216E+00 +5.693729E+02 -3.061144E+01 -1.760823E+01 -3.061144E+01 +1.309583E+03 
 +5.729698E+02 +1.159085E+00 -5.595202E+00 +1.159085E+00 +5.615483E+02 -1.537878E+01 -5.595202E+00 -1.537878E+01 +1.410443E+03 
 +6.034877E+02 +3.874149E+01 +6.694022E+00 +3.874149E+01 +5.891021E+02 -3.160368E+01 +6.694022E+00 -3.160368E+01 +1.238520E+03 
 +5.781810E+02 +1.477615E+01 -2.107985E+01 +1.477615E+01 +5.918028E+02 +3.410752E+01 -2.107985E+01 +3.410752E+01 +1.382608E+03 
 +6.648879E+02 -9.789470E+00 +2.143196E+01 -9.789470E+00 +6.364631E+02 -1.360168E+01 +2.143196E+01 -1.360168E+01 +1.344630E+03 
 +5.726075E+02 +3.715347E+01 +8.103024E+00 +3.715347E+01 +6.513228E+02 +2.447620E+00 +8.103024E+00 +2.447620E+00 +1.331888E+03 
 +6.273070E+02 -3.838556E+00 +7.659242E+00 -3.838556E+00 +6.218503E+02 +3.506967E+01 +7.659242E+00 +3.506967E+01 +1.385887E+03 
 +6.774494E+02 +5.820911E+00 -5.520493E-01 +5.820911E+00 +6.286600E+02 -2.672687E+01 -5.520493E-01 -2.672687E+01 +1.382730E+03 
 +5.991798E+02 +3.604413E+00 -1.828844E+01 +3.604413E+00 +5.556838E+02 -1.753277E+00 -1.828844E+01 -1.753277E+00 +1.435683E+03 
 +5.750898E+02 +1.658402E+01 -5.205513E+01 +1.658402E+01 +5.850828E+02 -4.462839E+01 -5.205513E+01 -4.462839E+01 +1.385498E+03 
 +5.630834E+02 -1.175611E+01 +1.217543E+01 -1.175611E+01 +5.623491E+02 -3.293415E+01 +1.217543E+01 -3.293415E+01 +1.324738E+03 
 +5.851581E+02 -6.584095E+00 +9.785014E+00 -6.584095E+00 +5.598770E+02 +6.859969E-01 +9.785014E+00 +6.859969E-01 +1.406209E+03 
 +5.466216E+02 -9.567338E+00 +2.447706E+01 -9.567338E+00 +5.371065E+02 +2.997951E+00 +2.447706E+01 +2.997951E+00 +1.369310E+03 
 +5.976981E+02 +9.326438E+00 +8.495546E+00 +9.326438E+00 +5.762142E+02 +2.696617E+01 +8.495546E+00 +2.696617E+01 +1.393362E+03 
 +6.345923E+02 +1.151807E+01 +8.027818E+00 +1.151807E+01 +5.714874E+02 -7.231920E+00 +8.027818E+00 -7.231920E+00 +1.276831E+03 
 +6.247659E+02 -6.770751E+00 +2.431253E+01 -6.770751E+00 +6.315076E+02 +5.714603E+00 +2.431253E+01 +5.714603E+00 +1.484369E+03 
 +6.343895E+02 -1.698836E+01 -8.658373E+00 -1.698836E+01 +6.686266E+02 +2.668389E+00 -8.658373E+00 +2.668389E+00 +1.288414E+03 
 +6.150095E+02 -6.353842E+00 +1.302505E+01 -6.353842E+00 +6.122089E+02 -8.045442E+00 +1.302505E+01 -8.045442E+00 +1.373809E+03 
 +6.212602E+02 +2.309333E+01 -6.554802E+00 +2.309333E+01 +6.075945E+02 +6.040801E+00 -6.554802E+00 +6.040801E+00 +1.290008E+03 
 +5.504025E+02 +8.015568E+00 +8.267796E+00 +8.015568E+00 +5.545071E+02 -6.158637E+00 +8.267796E+00 -6.158637E+00 +1.402987E+03 
 +5.659097E+02 +2.291505E+01 +7.512086E-01 +2.291505E+01 +5.768999E+02 -4.063796E+01 +7.512086E-01 -4.063796E+01 +1.285414E+03 
 +6.262202E+02 -1.926220E+01 -2.589762E+01 -1.926220E+01 +5.992505E+02 -3.340262E+01 -2.589762E+01 -3.340262E+01 +1.278503E+03 
 +5.858457E+02 -1.269119E+00 -3.975526E+01 -1.269119E+00 +5.971099E+02 -2.687272E+01 -3.975526E+01 -2.687272E+01 +1.391499E+03 
 +5.857440E+02 -9.841659E+00 +1.328829E+01 -9.841659E+00 +6.245967E+02 +8.540936E+00 +1.328829E+01 +8.540936E+00 +1.282754E+03 
 +7.416208E+02 +6.232313E+00 +1.503827E+00 +6.232313E+00 +6.240835E+02 -7.245940E+00 +1.503827E+00 -7.245940E+00 +1.317631E+03 
 +5.826778E+02 -7.522946E+00 +5.288976E+00 -7.522946E+00 +6.135526E+02 +1.048868E+01 +5.288976E+00 +1.048868E+01 +1.426416E+03 
 +5.963466E+02 +7.887645E+00 -9.288863E+00 +7.887645E+00 +5.977740E+02 +1.739667E+00 -9.288863E+00 +1.739667E+00 +1.258243E+03 
 +5.840820E+02 -1.880857E+00 +3.712380E+00 -1.880857E+00 +5.939558E+02 -8.061704E+00 +3.712380E+00 -8.061704E+00 +1.412989E+03 
 +5.719968E+02 -2.771681E+01 +4.443655E+00 -2.771681E+01 +6.723026E+02 +4.366391E+00 +4.443655E+00 +4.366391E+00 +1.317679E+03 
 +7.042455E+02 -3.798716E+00 +1.658149E+00 -3.798716E+00 +6.551766E+02 -6.401025E+00 +1.658149E+00 -6.401025E+00 +1.356067E+03 
 +5.788928E+02 +1.381832E+01 -1.394675E+01 +1.381832E+01 +5.693626E+02 +3.151808E+01 -1.394675E+01 +3.151808E+01 +1.411685E+03 
 +6.061546E+02 -3.240038E+01 +2.361985E+00 -3.240038E+01 +5.979016E+02 -2.430905E+00 +2.361985E+00 -2.430905E+00 +1.229593E+03 
 +6.152188E+02 +1.456387E+01 -3.539771E+00 +1.456387E+01 +5.883901E+02 -1.483209E+01 -3.539771E+00 -1.483209E+01 +1.388468E+03 
 +6.805154E+02 +1.418281E+01 +1.834022E+01 +1.418281E+01 +5.794752E+02 +1.264325E+01 +1.834022E+01 +1.264325E+01 +1.351134E+03 
 +6.137932E+02 +4.323035E+00 +1.619841E+01 +4.323035E+00 +6.265311E+02 -6.937270E+00 +1.619841E+01 -6.937270E+00 +1.396467E+03 
 +5.711875E+02 -1.437668E+01 -2.538634E+01 -1.437668E+01 +6.549769E+02 -3.586386E+00 -2.538634E+01 -3.586386E+00 +1.336021E+03 
 +6.350016E+02 +8.296053E+00 -2.115980E+01 +8.296053E+00 +6.266086E+02 +8.082437E+00 -2.115980E+01 +8.082437E+00 +1.401006E+03 
 +7.269508E+02 +2.069026E+00 +2.386199E+01 +2.069026E+00 +6.761111E+02 +5.679964E-01 +2.386199E+01 +5.679964E-01 +1.336637E+03 
 +5.466682E+02 +3.138873E+01 +1.042357E+01 +3.138873E+01 +6.404097E+02 +5.749517E+00 +1.042357E+01 +5.749517E+00 +1.312274E+03 
 +6.734031E+02 -2.283686E+01 -1.689269E+01 -2.283686E+01 +5.914377E+02 -4.875324E+00 -1.689269E+01 -4.875324E+00 +1.276151E+03 
 +5.866757E+02 -1.990506E+01 -1.747604E+01 -1.990506E+01 +6.461218E+02 -3.160288E+01 -1.747604E+01 -3.160288E+01 +1.330802E+03 
 +6.303908E+02 +3.118550E+01 +1.239987E+01 +3.118550E+01 +6.146400E+02 +1.666702E-01 +1.239987E+01 +1.666702E-01 +1.382340E+03 
 +6.768921E+02 -1.429705E+01 +2.298277E+00 -1.429705E+01 +5.937953E+02 +1.269603E+01 +2.298277E+00 +1.269603E+01 +1.360968E+03 
 +6.704597E+02 -4.922408E-01 -2.077917E+00 -4.922408E-01 +5.698226E+02 +5.301676E+00 -2.077917E+00 +5.301676E+00 +1.307580E+03 
 +6.318270E+02 -2.489557E+01 -3.750657E+00 -2.489557E+01 +5.733040E+02 +1.227420E+01 -3.750657E+00 +1.227420E+01 +1.332468E+03 
 +6.005934E+02 -1.904294E+01 +1.299671E+01 -1.904294E+01 +6.109188E+02 +3.021009E+00 +1.299671E+01 +3.021009E+00 +1.294834E+03 
 +5.771031E+02 -2.062093E+01 +1.289289E+00 -2.062093E+01 +5.936507E+02 -1.020158E+01 +1.289289E+00 -1.020158E+01 +1.408440E+03 
 +5.784835E+02 +6.301481E-01 +6.949687E+00 +6.301481E-01 +6.998427E+02 -1.402073E+01 +6.949687E+00 -1.402073E+01 +1.296357E+03 
 +6.154705E+02 +5.270943E+01 +8.442182E-01 +5.270943E+01 +6.593346E+02 -4.089108E+00 +8.442182E-01 -4.089108E+00 +1.339023E+03 
 +5.553541E+02 +2.150974E+01 -7.017946E-01 +2.150974E+01 +5.713328E+02 -1.578465E+01 -7.017946E-01 -1.578465E+01 +1.314421E+03 
 +5.300132E+02 -7.475199E+00 -2.107441E-01 -7.475199E+00 +5.768889E+02 -2.322384E+01 -2.107441E-01 -2.322384E+01 +1.378847E+03 
 +5.374467E+02 -4.289528E+00 +1.279744E+01 -4.289528E+00 +6.565325E+02 -6.098986E+00 +1.279744E+01 -6.098986E+00 +1.277529E+03 
 +6.364146E+02 -1.797791E+01 -6.427752E+00 -1.797791E+01 +6.414921E+02 -4.156708E+00 -6.427752E+00 -4.156708E+00 +1.326164E+03 
 +5.733480E+02 -1.656484E+01 +2.289475E+01 -1.656484E+01 +6.014984E+02 +1.515607E+01 +2.289475E+01 +1.515607E+01 +1.332256E+03 
 +5.883083E+02 +3.226483E+01 +2.588484E+00 +3.226483E+01 +6.136497E+02 +1.626991E+01 +2.588484E+00 +1.626991E+01 +1.419710E+03 
 +6.079771E+02 -1.361969E+01 +2.469460E+01 -1.361969E+01 +6.004022E+02 -2.388859E+00 +2.469460E+01 -2.388859E+00 +1.370718E+03 
 +6.296508E+02 -1.109943E+00 -1.666171E+01 -1.109943E+00 +5.849825E+02 -4.817032E+00 -1.666171E+01 -4.817032E+00 +1.401914E+03 
 +5.564167E+02 +1.903444E+00 +1.281248E+01 +1.903444E+00 +5.716936E+02 +5.389778E+00 +1.281248E+01 +5.389778E+00 +1.353418E+03 
 +6.216594E+02 -1.713226E+01 -3.914474E+00 -1.713226E+01 +5.869868E+02 +1.304251E+01 -3.914474E+00 +1.304251E+01 +1.321483E+03 
 +6.636542E+02 +2.929589E+01 +1.256484E+01 +2.929589E+01 +5.944677E+02 -2.181707E+00 +1.256484E+01 -2.181707E+00 +1.317421E+03 
 +5.919066E+02 -2.529013E+01 -3.267128E+00 -2.529013E+01 +6.587834E+02 +8.006135E-01 -3.267128E+00 +8.006135E-01 +1.335443E+03 
 +6.347268E+02 -1.970465E+01 -1.866296E-01 -1.970465E+01 +6.066613E+02 +7.391313E+00 -1.866296E-01 +7.391313E+00 +1.286494E+03 
 +5.355425E+02 -2.556264E+01 +7.634029E+00 -2.556264E+01 +5.504972E+02 +3.328887E+01 +7.634029E+00 +3.328887E+01 +1.405547E+03 
 +5.838603E+02 +6.448750E+00 -1.258979E+01 +6.448750E+00 +5.949944E+02 +8.828509E+00 -1.258979E+01 +8.828509E+00 +1.393280E+03 
 +5.541110E+02 -3.155532E+01 +9.960829E+00 -3.155532E+01 +6.187599E+02 +1.719979E+01 +9.960829E+00 +1.719979E+01 +1.276196E+03 
 +5.881760E+02 +3.068922E+01 -4.248400E+00 +3.068922E+01 +6.391413E+02 +7.847147E+00 -4.248400E+00 +7.847147E+00 +1.258605E+03 
 +6.150394E+02 -5.820946E+00 +1.469434E+01 -5.820946E+00 +6.212772E+02 -1.829960E+00 +1.469434E+01 -1.829960E+00 +1.344831E+03 
 +6.174570E+02 -1.057383E+01 +1.394470E+01 -1.057383E+01 +5.825303E+02 -3.004812E+01 +1.394470E+01 -3.004812E+01 +1.375190E+03 
 +5.779161E+02 +3.732137E+00 +1.792671E+01 +3.732137E+00 +5.832188E+02 +3.020947E+00 +1.792671E+01 +3.020947E+00 +1.338911E+03 
 +5.976499E+02 +1.835328E-01 -3.799357E-01 +1.835328E-01 +5.708783E+02 +1.567286E+01 -3.799357E-01 +1.567286E+01 +1.315668E+03 
 +5.768215E+02 -5.453201E+00 +4.163518E+01 -5.453201E+00 +5.723027E+02 -1.927160E+01 +4.163518E+01 -1.927160E+01 +1.403962E+03 
 +5.790013E+02 -9.955572E-01 -2.983935E+01 -9.955572E-01 +5.733597E+02 -4.451053E+01 -2.983935E+01 -4.451053E+01 +1.383990E+03 
 +7.284010E+02 +7.475372E+00 +1.033583E+01 +7.475372E+00 +5.476091E+02 -1.151481E+01 +1.033583E+01 -1.151481E+01 +1.319553E+03 
 +6.477326E+02 -6.277685E+00 -1.238926E+00 -6.277685E+00 +5.552670E+02 +1.353150E+00 -1.238926E+00 +1.353150E+00 +1.307874E+03 
 +6.433736E+02 +2.092132E+01 -1.147533E+01 +2.092132E+01 +5.777534E+02 -1.193162E+01 -1.147533E+01 -1.193162E+01 +1.316371E+03 
 +7.486124E+02 -1.117647E+01 +5.722689E+00 -1.117647E+01 +6.189406E+02 -1.052850E+01 +5.722689E+00 -1.052850E+01 +1.385636E+03 
 +6.212132E+02 +3.445856E-01 -9.890884E+00 +3.445856E-01 +6.288024E+02 +9.563953E+00 -9.890884E+00 +9.563953E+00 +1.396178E+03 
 +6.605009E+02 -5.018536E+01 +2.090237E+01 -5.018536E+01 +6.505911E+02 -6.096595E+00 +2.090237E+01 -6.096595E+00 +1.391427E+03 
 +6.448792E+02 +1.188267E+01 +1.123837E+01 +1.188267E+01 +6.046765E+02 +1.273485E+01 +1.123837E+01 +1.273485E+01 +1.398781E+03 
 +5.702401E+02 +7.744382E+00 +2.171783E+00 +7.744382E+00 +6.573093E+02 +1.427693E-01 +2.171783E+00 +1.427693E-01 +1.296192E+03 
 +6.248461E+02 +2.431176E+01 -8.963217E+00 +2.431176E+01 +6.256165E+02 -6.158915E+00 -8.963217E+00 -6.158915E+00 +1.381125E+03 
 +5.914604E+02 +5.009956E+00 -1.154778E+01 +5.009956E+00 +5.587543E+02 +1.297375E+01 -1.154778E+01 +1.297375E+01 +1.359729E+03 
 +6.496329E+02 -2.517969E+01 -5.863331E+00 -2.517969E+01 +6.510694E+02 +2.903624E+01 -5.863331E+00 +2.903624E+01 +1.325587E+03 
 +6.139365E+02 +4.404774E+00 +1.432414E+01 +4.404774E+00 +6.119984E+02 +1.245237E+01 +1.432414E+01 +1.245237E+01 +1.400647E+03 
 +5.973531E+02 +1.277345E+01 +4.445656E+00 +1.277345E+01 +5.931876E+02 +8.284187E+00 +4.445656E+00 +8.284187E+00 +1.407600E+03 
 +6.247299E+02 -2.047178E+00 +1.347025E+00 -2.047178E+00 +5.742609E+02 +7.143417E+00 +1.347025E+00 +7.143417E+00 +1.299625E+03 
 +5.948037E+02 +3.600830E+01 -1.370980E+01 +3.600830E+01 +6.394523E+02 +5.426231E+00 -1.370980E+01 +5.426231E+00 +1.308097E+03 
 +6.399978E+02 +3.303906E+01 +7.287530E+00 +3.303906E+01 +5.978916E+02 -2.199283E+01 +7.287530E+00 -2.199283E+01 +1.357862E+03 
 +5.962732E+02 -1.900121E+01 -3.766581E+01 -1.900121E+01 +6.059724E+02 -3.100738E+01 -3.766581E+01 -3.100738E+01 +1.389051E+03 
 +5.916171E+02 -1.120819E+01 -1.292531E+01 -1.120819E+01 +6.749505E+02 +1.260936E+01 -1.292531E+01 +1.260936E+01 +1.325078E+03 
 +7.175331E+02 -2.828220E-01 +2.802015E+01 -2.828220E-01 +6.741118E+02 +4.654464E+00 +2.802015E+01 +4.654464E+00 +1.422835E+03 
 +6.820637E+02 -1.495143E+01 +7.336276E+00 -1.495143E+01 +6.511636E+02 +1.845148E+01 +7.336276E+00 +1.845148E+01 +1.431807E+03 
 +5.753781E+02 +2.613717E+00 -1.875976E+01 +2.613717E+00 +5.609938E+02 +2.448895E+01 -1.875976E+01 +2.448895E+01 +1.376520E+03 
 +6.219745E+02 -1.999786E+01 +1.847897E+01 -1.999786E+01 +6.380287E+02 +2.088630E+01 +1.847897E+01 +2.088630E+01 +1.300468E+03 
 +6.328663E+02 -8.398022E+00 -1.451162E+01 -8.398022E+00 +6.706836E+02 +1.639242E+01 -1.451162E+01 +1.639242E+01 +1.319291E+03 
 +5.617176E+02 -8.784152E+00 +2.972658E+00 -8.784152E+00 +5.317189E+02 -1.850658E+01 +2.972658E+00 -1.850658E+01 +1.300124E+03 
 +5.251485E+02 +9.231206E+00 -1.076942E+01 +9.231206E+00 +5.368512E+02 -2.622114E+01 -1.076942E+01 -2.622114E+01 +1.378372E+03 
 +5.488875E+02 +7.540383E+00 +1.025374E+01 +7.540383E+00 +5.666610E+02 +1.166117E+01 +1.025374E+01 +1.166117E+01 +1.361247E+03 
 +5.917696E+02 +2.147292E+00 -8.830192E+00 +2.147292E+00 +5.617471E+02 -1.251418E+01 -8.830192E+00 -1.251418E+01 +1.450332E+03 
 +6.964540E+02 +3.215199E+01 -1.055114E+01 +3.215199E+01 +6.985276E+02 -1.405391E+00 -1.055114E+01 -1.405391E+00 +1.369632E+03 
 +5.693916E+02 -9.910373E+00 -1.576599E+01 -9.910373E+00 +6.167231E+02 -7.747562E+00 -1.576599E+01 -7.747562E+00 +1.325276E+03 
 +5.850483E+02 -6.541374E+00 -1.259244E+01 -6.541374E+00 +6.041474E+02 +6.347020E+00 -1.259244E+01 +6.347020E+00 +1.380173E+03 
 +5.968073E+02 +9.673672E+00 -5.400663E+00 +9.673672E+00 +6.677574E+02 +1.684496E+01 -5.400663E+00 +1.684496E+01 +1.351915E+03 
 +6.318990E+02 +1.004572E+01 +7.842935E+00 +1.004572E+01 +5.911940E+02 +2.519289E+01 +7.842935E+00 +2.519289E+01 +1.327279E+03 
 +6.213453E+02 +2.816354E+00 +3.348702E+00 +2.816354E+00 +6.038887E+02 +1.850682E+01 +3.348702E+00 +1.850682E+01 +1.428034E+03 
 +6.684279E+02 -1.273506E+00 -1.463222E+01 -1.273506E+00 +6.363826E+02 +2.704068E+01 -1.463222E+01 +2.704068E+01 +1.367201E+03 
 +5.599595E+02 -3.603057E+01 +2.235866E+01 -3.603057E+01 +6.236566E+02 +1.708411E+01 +2.235866E+01 +1.708411E+01 +1.319984E+03 
 +5.938458E+02 -1.515433E+01 -2.972572E+01 -1.515433E+01 +5.990775E+02 -4.433116E+00 -2.972572E+01 -4.433116E+00 +1.325296E+03 
 +5.825235E+02 -1.032374E+01 +2.439279E+01 -1.032374E+01 +5.849093E+02 +1.145844E+01 +2.439279E+01 +1.145844E+01 +1.398532E+03 
 +5.741333E+02 +1.919212E+01 -1.674389E-02 +1.919212E+01 +5.770413E+02 -5.622009E+00 -1.674389E-02 -5.622009E+00 +1.446213E+03 
 +5.401528E+02 -4.495712E+01 -7.191878E+00 -4.495712E+01 +5.704557E+02 -8.552760E+00 -7.191878E+00 -8.552760E+00 +1.289855E+03 
 +6.263281E+02 +7.498684E+00 -2.416549E+00 +7.498684E+00 +5.994489E+02 +1.104283E+01 -2.416549E+00 +1.104283E+01 +1.479631E+03 
 +6.246671E+02 +1.868949E+01 -1.952921E+01 +1.868949E+01 +6.021831E+02 +4.006839E+01 -1.952921E+01 +4.006839E+01 +1.340709E+03 
 +5.986254E+02 -2.100386E+01 +9.938252E+00 -2.100386E+01 +6.037244E+02 -5.044035E-01 +9.938252E+00 -5.044035E-01 +1.352635E+03 
 +6.678247E+02 +3.471738E+01 -7.781006E-01 +3.471738E+01 +5.985426E+02 -6.387987E+00 -7.781006E-01 -6.387987E+00 +1.297499E+03 
 +5.712146E+02 +1.925223E+01 +1.889427E+01 +1.925223E+01 +5.303313E+02 +8.608530E+00 +1.889427E+01 +8.608530E+00 +1.398086E+03 
 +5.713157E+02 +4.617833E+01 -1.337140E+01 +4.617833E+01 +6.244069E+02 +4.108909E+00 -1.337140E+01 +4.108909E+00 +1.291495E+03 
 +6.923652E+02 -2.485456E+01 -7.224042E+00 -2.485456E+01 +6.604918E+02 +3.221669E+00 -7.224042E+00 +3.221669E+00 +1.337543E+03 
 +6.231024E+02 -3.154040E+01 +3.421862E+01 -3.154040E+01 +5.812214E+02 +5.830294E+00 +3.421862E+01 +5.830294E+00 +1.345392E+03 
 +6.350359E+02 -2.146305E+00 -1.472732E+01 -2.146305E+00 +6.278547E+02 -1.626373E+00 -1.472732E+01 -1.626373E+00 +1.438490E+03 
 +6.064402E+02 -1.237764E+00 +9.825380E+00 -1.237764E+00 +6.091276E+02 -1.853910E+01 +9.825380E+00 -1.853910E+01 +1.341085E+03 
 +6.513229E+02 -4.157684E+00 +3.849350E-01 -4.157684E+00 +5.613273E+02 -5.527526E+00 +3.849350E-01 -5.527526E+00 +1.311055E+03 
 +5.842259E+02 -1.324127E+01 -2.217064E+01 -1.324127E+01 +6.115186E+02 +5.249057E+00 -2.217064E+01 +5.249057E+00 +1.310938E+03 
 +6.662147E+02 +2.501064E+01 +3.460457E+00 +2.501064E+01 +5.748565E+02 +1.897524E+01 +3.460457E+00 +1.897524E+01 +1.321567E+03 
 +6.789519E+02 +6.786496E+00 +1.897009E+01 +6.786496E+00 +5.999411E+02 +1.816070E+01 +1.897009E+01 +1.816070E+01 +1.342801E+03 
 +5.831755E+02 +1.446290E+01 +7.955050E+00 +1.446290E+01 +6.552609E+02 -1.033432E+01 +7.955050E+00 -1.033432E+01 +1.388499E+03 
 +6.677590E+02 +2.073907E+01 -2.443150E-01 +2.073907E+01 +6.151637E+02 -3.461609E+00 -2.443150E-01 -3.461609E+00 +1.302241E+03 
 +6.266418E+02 +2.915053E+01 +2.103188E+01 +2.915053E+01 +6.071071E+02 -1.206294E+01 +2.103188E+01 -1.206294E+01 +1.347780E+03 
 +5.604679E+02 +3.900198E+01 -1.605202E+01 +3.900198E+01 +6.071947E+02 +1.134056E+01 -1.605202E+01 +1.134056E+01 +1.262320E+03 
 +6.189477E+02 -4.847293E+00 +7.136356E+00 -4.847293E+00 +6.210740E+02 +1.456831E+01 +7.136356E+00 +1.456831E+01 +1.446581E+03 
 +5.831940E+02 +3.129819E+01 +2.017350E+01 +3.129819E+01 +6.606652E+02 +1.228334E+01 +2.017350E+01 +1.228334E+01 +1.317795E+03 
 +6.317309E+02 +2.537915E+01 +1.771465E+01 +2.537915E+01 +6.292009E+02 -7.881663E-01 +1.771465E+01 -7.881663E-01 +1.328271E+03 
 +6.952283E+02 -4.879926E+01 -4.605073E+00 -4.879926E+01 +6.740203E+02 +7.526603E+00 -4.605073E+00 +7.526603E+00 +1.384596E+03 
 +6.108175E+02 -6.009265E+00 -1.656375E+01 -6.009265E+00 +7.406729E+02 -4.144626E+00 -1.656375E+01 -4.144626E+00 +1.368172E+03 
 +5.897301E+02 +3.192696E+01 -7.479549E+00 +3.192696E+01 +6.718141E+02 +1.362827E+01 -7.479549E+00 +1.362827E+01 +1.315350E+03 
 +6.985129E+02 -3.340390E+01 -2.908050E+00 -3.340390E+01 +6.221697E+02 -6.633958E+00 -2.908050E+00 -6.633958E+00 +1.334791E+03 
 +6.106240E+02 -2.761089E+01 -1.963524E+01 -2.761089E+01 +6.520490E+02 -4.106829E+00 -1.963524E+01 -4.106829E+00 +1.357849E+03 
 +6.805889E+02 +2.511924E+01 -1.167766E+00 +2.511924E+01 +6.178016E+02 +1.477900E+01 -1.167766E+00 +1.477900E+01 +1.352275E+03 
 +6.510378E+02 -1.756465E+01 +9.426265E+00 -1.756465E+01 +6.286228E+02 -3.593708E+00 +9.426265E+00 -3.593708E+00 +1.303980E+03 
 +6.104011E+02 +8.805367E+00 -2.239075E+00 +8.805367E+00 +6.713060E+02 -6.074306E-02 -2.239075E+00 -6.074306E-02 +1.318553E+03 
 +6.119478E+02 -3.337850E+00 -4.778997E+01 -3.337850E+00 +6.249296E+02 +1.324067E+01 -4.778997E+01 +1.324067E+01 +1.407866E+03 
 +6.827962E+02 +1.050340E+01 +3.466181E+00 +1.050340E+01 +5.953602E+02 +1.514812E+01 +3.466181E+00 +1.514812E+01 +1.325674E+03 
 +5.409613E+02 +8.811902E+00 +1.348822E+01 +8.811902E+00 +5.591279E+02 +2.219854E+01 +1.348822E+01 +2.219854E+01 +1.301870E+03 
 +6.181758E+02 -1.783998E+01 -5.984608E+00 -1.783998E+01 +5.560472E+02 -1.174952E+01 -5.984608E+00 -1.174952E+01 +1.301923E+03 
 +5.829587E+02 -1.605480E+01 -1.981203E+01 -1.605480E+01 +5.748405E+02 -3.099162E+01 -1.981203E+01 -3.099162E+01 +1.273637E+03 
 +5.644034E+02 -7.229399E+00 +1.632766E+01 -7.229399E+00 +6.084854E+02 -1.560262E+01 +1.632766E+01 -1.560262E+01 +1.318460E+03 
 +5.786742E+02 +1.876982E+01 -1.390090E+01 +1.876982E+01 +5.774805E+02 -2.150840E+01 -1.390090E+01 -2.150840E+01 +1.414088E+03 
 +6.116172E+02 -2.950710E+01 +1.772258E+01 -2.950710E+01 +6.279174E+02 -2.309661E+01 +1.772258E+01 -2.309661E+01 +1.319751E+03 
 +7.094858E+02 -3.329678E+01 -5.578076E+00 -3.329678E+01 +6.043069E+02 +2.231893E+00 -5.578076E+00 +2.231893E+00 +1.336140E+03 
 +5.164193E+02 -3.802553E+00 -2.172182E+01 -3.802553E+00 +5.784807E+02 -1.675786E+01 -2.172182E+01 -1.675786E+01 +1.311835E+03 
 +6.858464E+02 -1.184862E+00 +1.205775E+01 -1.184862E+00 +5.759963E+02 -1.407478E+01 +1.205775E+01 -1.407478E+01 +1.385586E+03 
 +7.288963E+02 -3.134098E+01 +6.242208E+00 -3.134098E+01 +6.150046E+02 +5.528680E+00 +6.242208E+00 +5.528680E+00 +1.336133E+03 
 +5.368286E+02 -4.332686E+01 -1.480397E+00 -4.332686E+01 +6.558381E+02 +2.297830E+01 -1.480397E+00 +2.297830E+01 +1.314460E+03 
 +6.125500E+02 +4.763077E+01 -8.402223E+00 +4.763077E+01 +6.745394E+02 -8.458060E+00 -8.402223E+00 -8.458060E+00 +1.336487E+03 
 +5.595187E+02 +9.120259E+00 -1.292210E+01 +9.120259E+00 +5.461042E+02 -2.248887E+00 -1.292210E+01 -2.248887E+00 +1.353558E+03 
 +6.177602E+02 -1.808843E+01 -6.265258E+00 -1.808843E+01 +6.005128E+02 +1.941197E+01 -6.265258E+00 +1.941197E+01 +1.291305E+03 
 +5.530641E+02 +9.943233E+00 +2.044208E+01 +9.943233E+00 +6.071516E+02 +1.897791E+01 +2.044208E+01 +1.897791E+01 +1.319880E+03 
 +5.247731E+02 +2.231159E-02 -2.652438E+01 +2.231159E-02 +4.842109E+02 +2.841142E+01 -2.652438E+01 +2.841142E+01 +1.328873E+03 
 +5.915641E+02 -1.326410E+01 -8.065681E+00 -1.326410E+01 +5.723122E+02 -8.725955E+00 -8.065681E+00 -8.725955E+00 +1.386096E+03 
 +5.800388E+02 -3.470692E+00 -2.302131E+01 -3.470692E+00 +5.880752E+02 -2.010407E+01 -2.302131E+01 -2.010407E+01 +1.373958E+03 
 +5.821429E+02 +4.981106E+01 +2.192227E+01 +4.981106E+01 +6.185059E+02 -4.449513E+00 +2.192227E+01 -4.449513E+00 +1.264231E+03 
 +5.918492E+02 -1.478571E+01 -1.105124E+01 -1.478571E+01 +6.689081E+02 +3.567626E+00 -1.105124E+01 +3.567626E+00 +1.370942E+03 
 +6.637132E+02 -2.247699E+01 +1.588387E+00 -2.247699E+01 +6.529833E+02 -8.468811E+00 +1.588387E+00 -8.468811E+00 +1.344350E+03 
 +6.374818E+02 -2.585446E+01 -2.403764E+00 -2.585446E+01 +7.249240E+02 +1.601296E+01 -2.403764E+00 +1.601296E+01 +1.376399E+03 
 +5.539546E+02 +3.677231E+01 -1.826937E+01 +3.677231E+01 +6.496281E+02 +1.119262E+01 -1.826937E+01 +1.119262E+01 +1.331615E+03 
 +6.474174E+02 +1.405458E+01 +9.338291E-01 +1.405458E+01 +5.807828E+02 +1.821873E+01 +9.338291E-01 +1.821873E+01 +1.292349E+03 
 +6.225238E+02 -4.315196E+01 +1.153340E-01 -4.315196E+01 +5.890471E+02 +5.161380E+00 +1.153340E-01 +5.161380E+00 +1.319728E+03 
 +5.936308E+02 +1.104434E+00 -1.171544E+01 +1.104434E+00 +5.999360E+02 -1.103336E+01 -1.171544E+01 -1.103336E+01 +1.393405E+03 
 +6.163397E+02 +1.954355E+01 +3.151161E+01 +1.954355E+01 +6.932233E+02 +5.426332E+00 +3.151161E+01 +5.426332E+00 +1.363054E+03 
 +6.512576E+02 -8.800047E+00 +6.348615E-01 -8.800047E+00 +6.485629E+02 +3.665342E+00 +6.348615E-01 +3.665342E+00 +1.320964E+03 
 +5.957909E+02 +1.255113E+01 -1.563951E+01 +1.255113E+01 +6.282165E+02 -8.751462E+00 -1.563951E+01 -8.751462E+00 +1.380255E+03 
 +6.420183E+02 +2.307143E+00 +2.643493E+01 +2.307143E+00 +6.434637E+02 +2.354447E+00 +2.643493E+01 +2.354447E+00 +1.335236E+03 
 +6.221639E+02 -1.374044E+01 +1.025406E+01 -1.374044E+01 +6.268176E+02 +1.453470E+01 +1.025406E+01 +1.453470E+01 +1.343414E+03 
 +6.408312E+02 +6.172940E+01 -1.877864E+01 +6.172940E+01 +6.200145E+02 -2.978255E+00 -1.877864E+01 -2.978255E+00 +1.293862E+03 
 +5.561937E+02 -1.082114E+01 +2.858931E+01 -1.082114E+01 +5.461666E+02 -1.426030E+00 +2.858931E+01 -1.426030E+00 +1.409158E+03 
 +5.994467E+02 -2.912187E+01 +1.802481E+01 -2.912187E+01 +6.376709E+02 +2.139803E+01 +1.802481E+01 +2.139803E+01 +1.335225E+03 
 +6.469509E+02 +5.490399E+01 -9.777529E-01 +5.490399E+01 +6.600882E+02 +1.421525E+01 -9.777529E-01 +1.421525E+01 +1.312742E+03 
 +6.002810E+02 -3.119417E+01 +1.002928E+01 -3.119417E+01 +6.568602E+02 -2.419709E+00 +1.002928E+01 -2.419709E+00 +1.277749E+03 
 +6.231572E+02 -1.406992E+01 +1.549014E+01 -1.406992E+01 +7.283509E+02 -5.016773E+00 +1.549014E+01 -5.016773E+00 +1.361926E+03 
 +5.915801E+02 -1.460684E+01 -2.472232E+01 -1.460684E+01 +6.588769E+02 -2.248359E+01 -2.472232E+01 -2.248359E+01 +1.358077E+03 
 +6.098282E+02 +1.500189E+01 +3.636931E+00 +1.500189E+01 +6.202302E+02 +1.627710E+01 +3.636931E+00 +1.627710E+01 +1.416081E+03 
 +6.251263E+02 +3.412559E+01 +7.015187E+00 +3.412559E+01 +6.121498E+02 +3.907083E-01 +7.015187E+00 +3.907083E-01 +1.286510E+03 
 +5.502585E+02 +1.115119E+00 +8.911714E+00 +1.115119E+00 +5.968991E+02 -1.664818E+01 +8.911714E+00 -1.664818E+01 +1.384056E+03 
 +7.043274E+02 -4.824548E+01 -7.698568E+00 -4.824548E+01 +6.553353E+02 -3.316844E+00 -7.698568E+00 -3.316844E+00 +1.350553E+03 
 +6.369791E+02 -1.146709E+01 -8.396154E+00 -1.146709E+01 +5.977017E+02 -2.658580E+01 -8.396154E+00 -2.658580E+01 +1.387795E+03 
 +6.192812E+02 -1.094370E+01 -1.428641E+01 -1.094370E+01 +5.522773E+02 +1.200681E+01 -1.428641E+01 +1.200681E+01 +1.286526E+03 
 +5.242457E+02 +1.244676E+01 -1.902414E+01 +1.244676E+01 +6.084403E+02 +1.282187E+01 -1.902414E+01 +1.282187E+01 +1.338541E+03 
 +6.661005E+02 +3.260765E+01 -2.637384E+00 +3.260765E+01 +6.596518E+02 -6.083735E+00 -2.637384E+00 -6.083735E+00 +1.328981E+03 
 +5.709172E+02 -2.595037E+01 -2.398637E+00 -2.595037E+01 +6.611750E+02 -1.926094E+00 -2.398637E+00 -1.926094E+00 +1.330692E+03 
 +6.236566E+02 -4.612965E+01 +1.523403E+01 -4.612965E+01 +5.815584E+02 +1.092001E+01 +1.523403E+01 +1.092001E+01 +1.367683E+03 
 +5.955754E+02 +1.408138E+01 -1.507282E+01 +1.408138E+01 +5.579188E+02 +2.858218E+01 -1.507282E+01 +2.858218E+01 +1.385601E+03 
 +5.783575E+02 -2.638856E+01 +2.278477E+01 -2.638856E+01 +5.738437E+02 +1.378301E+01 +2.278477E+01 +1.378301E+01 +1.392346E+03 
 +6.551161E+02 -1.286908E+01 -1.397258E+01 -1.286908E+01 +5.687846E+02 +2.417345E+01 -1.397258E+01 +2.417345E+01 +1.266512E+03 
 +5.568217E+02 +2.058429E+00 -4.694902E+00 +2.058429E+00 +5.532289E+02 +1.857809E+01 -4.694902E+00 +1.857809E+01 +1.296838E+03 
 +6.017992E+02 -2.456428E+01 -1.410412E+01 -2.456428E+01 +5.700916E+02 -2.156294E+01 -1.410412E+01 -2.156294E+01 +1.340566E+03 
 +5.767142E+02 +4.457965E+00 +1.612064E+01 +4.457965E+00 +5.639788E+02 -2.559394E+01 +1.612064E+01 -2.559394E+01 +1.419769E+03 
 +6.468203E+02 +6.632489E+00 +2.137045E+01 +6.632489E+00 +6.134379E+02 +1.644473E+01 +2.137045E+01 +1.644473E+01 +1.298838E+03 
 +6.162933E+02 +1.849689E+01 -1.973460E+01 +1.849689E+01 +6.984586E+02 -3.433402E+00 -1.973460E+01 -3.433402E+00 +1.344519E+03 
 +5.890236E+02 -3.348930E+01 -9.104592E+00 -3.348930E+01 +6.276722E+02 -1.150368E+01 -9.104592E+00 -1.150368E+01 +1.296137E+03 
 +5.991790E+02 -8.269016E+00 +2.050341E+00 -8.269016E+00 +5.570807E+02 -5.235078E+00 +2.050341E+00 -5.235078E+00 +1.430647E+03 
 +6.813455E+02 +1.333131E+01 +2.915066E+00 +1.333131E+01 +5.925799E+02 -2.293902E+00 +2.915066E+00 -2.293902E+00 +1.312856E+03 
 +6.505518E+02 +5.757557E-01 -1.855474E+01 +5.757557E-01 +6.862411E+02 -1.445800E+01 -1.855474E+01 -1.445800E+01 +1.399014E+03 
 +5.927861E+02 +1.281657E+01 +8.999082E-02 +1.281657E+01 +7.147636E+02 +1.345796E+01 +8.999082E-02 +1.345796E+01 +1.329998E+03 
 +6.648193E+02 -3.278058E+01 +3.076248E+00 -3.278058E+01 +6.357401E+02 -3.112188E+00 +3.076248E+00 -3.112188E+00 +1.347975E+03 
 +5.850155E+02 +7.891501E+00 -2.212331E+01 +7.891501E+00 +5.786083E+02 -2.274719E+01 -2.212331E+01 -2.274719E+01 +1.431797E+03 
 +5.919077E+02 +4.919262E+00 +2.162317E+01 +4.919262E+00 +5.634929E+02 +1.320400E+01 +2.162317E+01 +1.320400E+01 +1.346901E+03 
 +5.852017E+02 +2.910696E+00 -5.123211E+00 +2.910696E+00 +5.858001E+02 +1.373256E+00 -5.123211E+00 +1.373256E+00 +1.358309E+03 
 +6.118394E+02 -1.488563E+01 -1.447801E+01 -1.488563E+01 +6.516650E+02 -1.261327E+01 -1.447801E+01 -1.261327E+01 +1.344885E+03 
 +6.277681E+02 -2.928861E-01 +2.571649E+01 -2.928861E-01 +6.530919E+02 -1.106181E+01 +2.571649E+01 -1.106181E+01 +1.272297E+03 
 +5.861665E+02 -1.211787E+01 +2.907669E+00 -1.211787E+01 +5.999258E+02 -1.753890E+01 +2.907669E+00 -1.753890E+01 +1.293375E+03 
 +5.833374E+02 +4.785165E+01 -9.236352E+00 +4.785165E+01 +5.663350E+02 +9.525486E+00 -9.236352E+00 +9.525486E+00 +1.304417E+03 
 +6.323134E+02 +1.185197E+01 +1.593550E+01 +1.185197E+01 +6.288024E+02 +3.001798E+01 +1.593550E+01 +3.001798E+01 +1.404690E+03 
 +5.802361E+02 -2.222572E+00 -1.945792E+01 -2.222572E+00 +5.783621E+02 +2.689286E+01 -1.945792E+01 +2.689286E+01 +1.389548E+03 
 +6.036180E+02 +4.192715E+01 -2.248074E+01 +4.192715E+01 +6.096705E+02 +9.426474E+00 -2.248074E+01 +9.426474E+00 +1.278308E+03 
 +6.257197E+02 -1.800301E+01 +6.423839E+00 -1.800301E+01 +6.724713E+02 -1.168644E+01 +6.423839E+00 -1.168644E+01 +1.318276E+03 
 +6.789788E+02 -2.121840E+01 -1.209419E+01 -2.121840E+01 +6.061277E+02 -8.874119E+00 -1.209419E+01 -8.874119E+00 +1.396641E+03 
 +5.181721E+02 -5.464491E+00 -2.905356E+01 -5.464491E+00 +5.309368E+02 +1.894352E+01 -2.905356E+01 +1.894352E+01 +1.377758E+03 
 +5.722413E+02 +2.215312E+00 +2.892844E+00 +2.215312E+00 +5.718416E+02 -9.294779E+00 +2.892844E+00 -9.294779E+00 +1.281247E+03 
 +5.948756E+02 +1.488899E+01 +1.615420E+01 +1.488899E+01 +6.025458E+02 -6.236567E+00 +1.615420E+01 -6.236567E+00 +1.329868E+03 
 +5.843208E+02 +1.276484E+01 -1.434616E+01 +1.276484E+01 +6.217357E+02 +7.493417E-01 -1.434616E+01 +7.493417E-01 +1.339786E+03 
 +6.132978E+02 +1.041135E+01 +3.869871E+00 +1.041135E+01 +7.097380E+02 +2.276463E+01 +3.869871E+00 +2.276463E+01 +1.352141E+03 
 +6.559777E+02 +2.943218E+01 -5.519441E+00 +2.943218E+01 +6.695280E+02 -3.670181E+00 -5.519441E+00 -3.670181E+00 +1.370256E+03 
 +5.517667E+02 +6.502157E+00 +2.714562E+01 +6.502157E+00 +5.981406E+02 -2.551326E+01 +2.714562E+01 -2.551326E+01 +1.393920E+03 
 +6.671011E+02 -3.307586E+00 -9.875271E-01 -3.307586E+00 +5.248429E+02 -2.822631E+00 -9.875271E-01 -2.822631E+00 +1.287440E+03 
 +5.792863E+02 +1.171775E+01 +1.391137E+01 +1.171775E+01 +6.027958E+02 +1.292073E+01 +1.391137E+01 +1.292073E+01 +1.347868E+03 
 +6.372435E+02 +3.120827E+01 +4.070618E+01 +3.120827E+01 +6.610934E+02 +3.286371E+01 +4.070618E+01 +3.286371E+01 +1.416303E+03 
 +6.720333E+02 -1.781038E+01 -4.194504E+00 -1.781038E+01 +6.026618E+02 +8.026404E+00 -4.194504E+00 +8.026404E+00 +1.293457E+03 
 +5.527886E+02 -5.962906E+00 -1.250552E+01 -5.962906E+00 +5.613449E+02 -1.949477E+00 -1.250552E+01 -1.949477E+00 +1.399047E+03 
 +5.481744E+02 -7.208317E-01 +3.103838E+01 -7.208317E-01 +5.378604E+02 -8.644912E+00 +3.103838E+01 -8.644912E+00 +1.341489E+03 
 +6.123326E+02 -4.219730E+00 -5.945166E-01 -4.219730E+00 +5.755705E+02 +1.273109E+01 -5.945166E-01 +1.273109E+01 +1.322051E+03 
 +6.324427E+02 +3.090437E+01 +3.429429E+01 +3.090437E+01 +5.977694E+02 -1.807925E+01 +3.429429E+01 -1.807925E+01 +1.306080E+03 
 +5.998392E+02 -1.506616E+01 -1.794702E+01 -1.506616E+01 +6.266843E+02 +7.599613E+00 -1.794702E+01 +7.599613E+00 +1.282351E+03 
 +5.660901E+02 +1.433131E+01 +2.561456E+01 +1.433131E+01 +6.450720E+02 -1.234077E+01 +2.561456E+01 -1.234077E+01 +1.414697E+03 
 +6.079172E+02 -7.002507E+01 -6.630661E+00 -7.002507E+01 +6.044125E+02 +3.979985E+00 -6.630661E+00 +3.979985E+00 +1.306775E+03 
 +5.441891E+02 -1.973859E+01 -2.278004E+01 -1.973859E+01 +5.454387E+02 -7.481768E+00 -2.278004E+01 -7.481768E+00 +1.398753E+03 
 +6.020909E+02 +4.829989E+01 +2.051201E+00 +4.829989E+01 +5.649397E+02 -3.874889E+01 +2.051201E+00 -3.874889E+01 +1.349300E+03 
 +5.907958E+02 +2.157892E+01 -1.460711E+01 +2.157892E+01 +5.992135E+02 +2.084944E+01 -1.460711E+01 +2.084944E+01 +1.322516E+03 
 +7.077820E+02 +1.946234E+01 +7.153883E+00 +1.946234E+01 +6.405486E+02 +2.357754E+00 +7.153883E+00 +2.357754E+00 +1.389012E+03 
 +6.394545E+02 +2.248607E+01 -1.570134E+00 +2.248607E+01 +5.687951E+02 -7.262827E-01 -1.570134E+00 -7.262827E-01 +1.332606E+03 
 +6.503723E+02 -1.178582E+01 -4.556103E+00 -1.178582E+01 +5.943537E+02 +1.255071E+00 -4.556103E+00 +1.255071E+00 +1.287338E+03 
 +6.262319E+02 +2.311828E+00 +6.469418E+00 +2.311828E+00 +5.998564E+02 +2.000350E+01 +6.469418E+00 +2.000350E+01 +1.393358E+03 
 +5.651901E+02 -2.983687E+01 -1.061646E+00 -2.983687E+01 +5.580406E+02 -5.997150E+00 -1.061646E+00 -5.997150E+00 +1.284449E+03 
 +6.073187E+02 -2.413756E+01 +8.299594E+00 -2.413756E+01 +6.306668E+02 -7.385669E+00 +8.299594E+00 -7.385669E+00 +1.440913E+03 
 +5.929072E+02 -1.298928E+01 +1.145793E+01 -1.298928E+01 +6.244556E+02 +2.602889E+00 +1.145793E+01 +2.602889E+00 +1.326461E+03 
 +5.441383E+02 -7.873844E+00 -3.723545E+01 -7.873844E+00 +5.586656E+02 +9.740082E+00 -3.723545E+01 +9.740082E+00 +1.370201E+03 
 +6.454839E+02 -2.774460E+01 -4.697040E+00 -2.774460E+01 +5.768409E+02 +1.325871E+00 -4.697040E+00 +1.325871E+00 +1.291312E+03 
 +5.492687E+02 +3.199624E+01 +2.562403E+00 +3.199624E+01 +5.786437E+02 +3.728788E+01 +2.562403E+00 +3.728788E+01 +1.370478E+03 
 +6.141661E+02 +1.321399E+01 -1.844369E+00 +1.321399E+01 +6.170497E+02 +3.127927E+01 -1.844369E+00 +3.127927E+01 +1.339027E+03 
 +6.753909E+02 -3.235128E+01 -9.596730E+00 -3.235128E+01 +5.713145E+02 +2.383344E+00 -9.596730E+00 +2.383344E+00 +1.301629E+03 
 +5.765070E+02 -1.765215E+01 +9.103025E+00 -1.765215E+01 +5.559427E+02 -2.681874E+01 +9.103025E+00 -2.681874E+01 +1.360853E+03 
 +6.257903E+02 -1.087717E+01 -1.656206E+01 -1.087717E+01 +6.010678E+02 -2.698101E+01 -1.656206E+01 -2.698101E+01 +1.268117E+03 
 +6.211399E+02 -1.694593E+01 +6.250326E+00 -1.694593E+01 +6.034169E+02 +2.415289E+01 +6.250326E+00 +2.415289E+01 +1.435375E+03 
 +6.403729E+02 +9.079287E+00 -2.291466E+01 +9.079287E+00 +6.532742E+02 +4.939547E+00 -2.291466E+01 +4.939547E+00 +1.380477E+03 
 +6.211257E+02 +5.624752E+00 -1.510918E+00 +5.624752E+00 +6.221028E+02 +4.716002E+00 -1.510918E+00 +4.716002E+00 +1.411428E+03 
 +5.863254E+02 +1.730817E+01 +4.516975E+01 +1.730817E+01 +6.184897E+02 -1.640981E+01 +4.516975E+01 -1.640981E+01 +1.339661E+03 
 +6.445401E+02 +5.141123E+01 -1.168151E+01 +5.141123E+01 +6.729363E+02 -1.529921E+01 -1.168151E+01 -1.529921E+01 +1.364769E+03 
 +7.301918E+02 -3.666013E+01 -3.486673E+00 -3.666013E+01 +6.674676E+02 +8.952382E-01 -3.486673E+00 +8.952382E-01 +1.410182E+03 
 +6.685278E+02 +1.742666E+00 +2.780032E+01 +1.742666E+00 +5.442120E+02 -2.075611E+01 +2.780032E+01 -2.075611E+01 +1.299438E+03 
 +5.951520E+02 -3.717434E+01 +2.958352E+00 -3.717434E+01 +5.447518E+02 +1.024741E+00 +2.958352E+00 +1.024741E+00 +1.367100E+03 
 +6.492209E+02 -2.558753E+01 +8.626538E+00 -2.558753E+01 +6.392375E+02 -2.554286E+00 +8.626538E+00 -2.554286E+00 +1.372413E+03 
 +6.310573E+02 +4.099620E+01 +2.556800E+00 +4.099620E+01 +6.373034E+02 +2.045248E+00 +2.556800E+00 +2.045248E+00 +1.303110E+03 
 +6.268580E+02 +1.464499E+01 -1.144018E+01 +1.464499E+01 +6.272477E+02 +3.695331E+01 -1.144018E+01 +3.695331E+01 +1.313107E+03 
 +6.222715E+02 +3.933193E+00 +1.387232E+01 +3.933193E+00 +6.454661E+02 -1.845390E+00 +1.387232E+01 -1.845390E+00 +1.395151E+03 
 +6.491669E+02 +4.299184E+01 -1.667764E+01 +4.299184E+01 +6.545939E+02 +7.230713E-01 -1.667764E+01 +7.230713E-01 +1.369081E+03 
 +6.788282E+02 +4.666954E+01 +8.553914E-01 +4.666954E+01 +6.191686E+02 +2.869670E+00 +8.553914E-01 +2.869670E+00 +1.347392E+03 
 +5.977393E+02 -5.132214E+01 -2.968962E+00 -5.132214E+01 +6.626849E+02 -7.171218E+00 -2.968962E+00 -7.171218E+00 +1.304652E+03 
 +6.280308E+02 +3.537220E+01 +5.810867E+00 +3.537220E+01 +6.101689E+02 +9.268003E+00 +5.810867E+00 +9.268003E+00 +1.310539E+03 
 +5.948030E+02 -6.440769E+00 -1.598039E+01 -6.440769E+00 +5.752184E+02 -2.446911E+01 -1.598039E+01 -2.446911E+01 +1.406111E+03 
 +6.755855E+02 -8.538542E+00 +2.282707E+01 -8.538542E+00 +6.729897E+02 +3.270628E+01 +2.282707E+01 +3.270628E+01 +1.359235E+03 
 +5.792751E+02 +2.556943E+01 +7.307940E+00 +2.556943E+01 +7.125915E+02 +4.818961E+00 +7.307940E+00 +4.818961E+00 +1.342897E+03 
 +5.646692E+02 +7.443587E-01 -2.057304E+01 +7.443587E-01 +6.776348E+02 -1.778040E+01 -2.057304E+01 -1.778040E+01 +1.338209E+03 
 +6.436659E+02 +2.231016E+01 -1.817107E+01 +2.231016E+01 +5.701539E+02 +5.932752E+00 -1.817107E+01 +5.932752E+00 +1.275663E+03 
 +5.579567E+02 -6.306108E+00 -1.424815E+00 -6.306108E+00 +5.573889E+02 -1.355577E+01 -1.424815E+00 -1.355577E+01 +1.363642E+03 
 +6.466637E+02 +1.334286E+01 +1.082853E+00 +1.334286E+01 +6.470495E+02 -2.052080E+01 +1.082853E+00 -2.052080E+01 +1.366842E+03 
 +5.605870E+02 -3.474985E+01 +2.215597E+01 -3.474985E+01 +6.488353E+02 +6.413129E+00 +2.215597E+01 +6.413129E+00 +1.306181E+03 
 +6.242490E+02 +1.622721E+01 -2.440084E+01 +1.622721E+01 +6.425336E+02 -9.677149E+00 -2.440084E+01 -9.677149E+00 +1.363849E+03 
 +6.115922E+02 +2.391854E+01 +2.998354E+01 +2.391854E+01 +6.135795E+02 -5.260970E+00 +2.998354E+01 -5.260970E+00 +1.343599E+03 
 +5.946094E+02 +2.095669E+01 -1.612913E+01 +2.095669E+01 +6.033901E+02 -6.217995E+00 -1.612913E+01 -6.217995E+00 +1.447718E+03 
 +5.607858E+02 +2.268845E+01 -8.503864E+00 +2.268845E+01 +6.332065E+02 +1.961298E+01 -8.503864E+00 +1.961298E+01 +1.297778E+03 
 +6.266436E+02 +6.515284E+01 +1.667217E+01 +6.515284E+01 +6.035890E+02 +6.202305E+00 +1.667217E+01 +6.202305E+00 +1.306545E+03 
 +5.966163E+02 -1.531295E+01 +9.258803E-01 -1.531295E+01 +5.818133E+02 +1.912277E+01 +9.258803E-01 +1.912277E+01 +1.381109E+03 
 +5.656697E+02 +3.613089E+00 +2.417912E+01 +3.613089E+00 +5.811084E+02 -1.631824E+01 +2.417912E+01 -1.631824E+01 +1.317307E+03 
 +5.708661E+02 +3.927597E+00 +9.246739E+00 +3.927597E+00 +6.523318E+02 -2.053860E+01 +9.246739E+00 -2.053860E+01 +1.282705E+03 
 +5.689100E+02 -4.172174E+00 -1.433035E+01 -4.172174E+00 +5.811102E+02 +1.249576E+01 -1.433035E+01 +1.249576E+01 +1.417289E+03 
 +6.467839E+02 -3.363869E+01 -1.025981E+01 -3.363869E+01 +5.449826E+02 +1.762146E+01 -1.025981E+01 +1.762146E+01 +1.282416E+03 
 +5.825839E+02 -7.628635E+00 -2.837292E+00 -7.628635E+00 +6.231394E+02 -3.566583E+00 -2.837292E+00 -3.566583E+00 +1.362973E+03 
 +5.463827E+02 +7.249267E+01 +1.373517E+01 +7.249267E+01 +6.271284E+02 -1.726104E+01 +1.373517E+01 -1.726104E+01 +1.276133E+03 
 +6.284269E+02 +1.663009E+01 -9.841278E+00 +1.663009E+01 +5.995627E+02 -2.827693E+01 -9.841278E+00 -2.827693E+01 +1.311892E+03 
 +6.313671E+02 +2.149489E+01 +6.197655E+00 +2.149489E+01 +6.304258E+02 -1.609339E+01 +6.197655E+00 -1.609339E+01 +1.344623E+03 
 +5.862829E+02 -1.963071E+01 -8.152457E+00 -1.963071E+01 +6.281121E+02 -1.716620E+01 -8.152457E+00 -1.716620E+01 +1.333781E+03 
 +5.924426E+02 +2.115662E+01 +4.337956E+00 +2.115662E+01 +5.567005E+02 +3.174297E+00 +4.337956E+00 +3.174297E+00 +1.413027E+03 
 +6.154686E+02 +9.940814E+00 +1.852979E+01 +9.940814E+00 +5.496706E+02 +1.064611E+01 +1.852979E+01 +1.064611E+01 +1.315624E+03 
 +6.080652E+02 -5.272474E+01 +8.229447E+00 -5.272474E+01 +6.306061E+02 +8.421404E+00 +8.229447E+00 +8.421404E+00 +1.345200E+03 
 +6.616149E+02 -2.530324E+01 +4.466423E+00 -2.530324E+01 +7.300271E+02 -2.954152E+00 +4.466423E+00 -2.954152E+00 +1.392245E+03 
 +6.038307E+02 -2.981062E+01 -1.199046E+00 -2.981062E+01 +6.238313E+02 +4.134239E-01 -1.199046E+00 +4.134239E-01 +1.313788E+03 
 +5.622156E+02 +3.500734E+01 -1.206053E+01 +3.500734E+01 +6.482950E+02 +9.077020E+00 -1.206053E+01 +9.077020E+00 +1.275431E+03 
 +6.729960E+02 +1.988945E+00 +3.425195E+00 +1.988945E+00 +6.532802E+02 +2.206952E+01 +3.425195E+00 +2.206952E+01 +1.374442E+03 
 +5.678735E+02 -2.190733E+01 -4.352064E+00 -2.190733E+01 +6.571179E+02 -1.380653E+01 -4.352064E+00 -1.380653E+01 +1.292967E+03 
 +6.113148E+02 -1.183710E+01 -1.769712E+01 -1.183710E+01 +6.230702E+02 +4.454807E+00 -1.769712E+01 +4.454807E+00 +1.434419E+03 
 +6.442560E+02 -5.432297E+01 -1.260289E+01 -5.432297E+01 +6.227691E+02 -2.026624E+00 -1.260289E+01 -2.026624E+00 +1.328029E+03 
 +6.221924E+02 -5.629401E+00 -1.189518E+01 -5.629401E+00 +6.227927E+02 -5.250948E-02 -1.189518E+01 -5.250948E-02 +1.322634E+03 
 +6.184015E+02 -1.885738E+01 +3.301669E+01 -1.885738E+01 +6.583719E+02 -6.361032E+00 +3.301669E+01 -6.361032E+00 +1.353352E+03 
 +6.497028E+02 -5.381190E+01 -9.127496E+00 -5.381190E+01 +6.156761E+02 -2.604685E-01 -9.127496E+00 -2.604685E-01 +1.323858E+03 
 +6.581847E+02 -2.478671E+01 +3.525821E-01 -2.478671E+01 +5.838791E+02 -9.438015E+00 +3.525821E-01 -9.438015E+00 +1.308631E+03 
 +6.238140E+02 +2.885179E+01 +6.999787E+00 +2.885179E+01 +6.584559E+02 +6.265761E+00 +6.999787E+00 +6.265761E+00 +1.385741E+03 
 +6.012994E+02 +1.831129E+01 +8.934483E+00 +1.831129E+01 +6.456389E+02 +2.640495E+01 +8.934483E+00 +2.640495E+01 +1.344028E+03 
 +6.249215E+02 +3.344061E+00 -6.195569E+00 +3.344061E+00 +6.643635E+02 -2.183532E+01 -6.195569E+00 -2.183532E+01 +1.327091E+03 
 +6.550731E+02 -8.010227E+01 -1.312136E+01 -8.010227E+01 +6.768987E+02 +7.944148E+00 -1.312136E+01 +7.944148E+00 +1.355721E+03 
 +5.561785E+02 -3.164007E+01 +1.437893E+01 -3.164007E+01 +6.465257E+02 +1.518433E+01 +1.437893E+01 +1.518433E+01 +1.304047E+03 
 +7.127333E+02 +2.630862E+01 +2.912651E+00 +2.630862E+01 +5.930474E+02 -2.564469E+00 +2.912651E+00 -2.564469E+00 +1.323767E+03 
 +5.897396E+02 -1.944128E+01 +1.024981E+01 -1.944128E+01 +5.996709E+02 +2.097771E+01 +1.024981E+01 +2.097771E+01 +1.334581E+03 
 +6.701627E+02 -2.829660E+01 -1.643857E+01 -2.829660E+01 +6.156390E+02 +1.859674E+01 -1.643857E+01 +1.859674E+01 +1.344350E+03 
 +5.961418E+02 +4.426517E+00 +1.956496E+01 +4.426517E+00 +5.767086E+02 -4.597241E+00 +1.956496E+01 -4.597241E+00 +1.340974E+03 
 +5.947606E+02 +8.966352E-01 -8.866846E+00 +8.966352E-01 +6.106887E+02 -1.493718E+01 -8.866846E+00 -1.493718E+01 +1.301489E+03 
 +5.970811E+02 -2.122020E+01 -7.586123E+00 -2.122020E+01 +6.239766E+02 +2.337073E+01 -7.586123E+00 +2.337073E+01 +1.427275E+03 
 +5.894010E+02 +1.662962E+01 +1.720300E+01 +1.662962E+01 +5.423938E+02 +1.977778E+00 +1.720300E+01 +1.977778E+00 +1.329553E+03 
 +5.780804E+02 +9.964561E+00 -2.224448E+01 +9.964561E+00 +5.763591E+02 +1.990814E+01 -2.224448E+01 +1.990814E+01 +1.408471E+03 
 +6.448012E+02 -6.561196E+00 -1.394568E+01 -6.561196E+00 +5.894402E+02 +5.417162E+00 -1.394568E+01 +5.417162E+00 +1.309402E+03 
 +6.051847E+02 -3.842458E+00 +5.612691E+00 -3.842458E+00 +6.076458E+02 +1.887625E+01 +5.612691E+00 +1.887625E+01 +1.471049E+03 
 +6.540518E+02 -5.397724E+00 +1.316489E+01 -5.397724E+00 +6.194825E+02 -2.722834E+01 +1.316489E+01 -2.722834E+01 +1.339623E+03 
 +5.824072E+02 +5.674708E+00 +2.638832E+01 +5.674708E+00 +6.036558E+02 -7.748633E+00 +2.638832E+01 -7.748633E+00 +1.326769E+03 
 +5.567971E+02 -8.323714E+00 -1.083779E+01 -8.323714E+00 +5.703580E+02 +1.143713E+01 -1.083779E+01 +1.143713E+01 +1.359658E+03 
 +6.233118E+02 -6.485878E+00 -9.920742E+00 -6.485878E+00 +6.271233E+02 +5.277893E+00 -9.920742E+00 +5.277893E+00 +1.471302E+03 
 +6.044567E+02 +2.942970E+01 +7.931903E+00 +2.942970E+01 +6.644078E+02 -1.029256E+01 +7.931903E+00 -1.029256E+01 +1.319045E+03 
 +5.775613E+02 +8.679017E+00 +1.699707E+01 +8.679017E+00 +5.793242E+02 -2.024808E+00 +1.699707E+01 -2.024808E+00 +1.335766E+03 
 +6.347579E+02 -8.476227E+00 -1.189581E+01 -8.476227E+00 +5.542141E+02 -1.034850E+01 -1.189581E+01 -1.034850E+01 +1.277207E+03 
 +6.602394E+02 +1.078644E+01 -3.593486E+00 +1.078644E+01 +5.840535E+02 +1.171528E+00 -3.593486E+00 +1.171528E+00 +1.342153E+03 
 +7.014907E+02 -8.268581E+00 +7.727908E+00 -8.268581E+00 +5.592523E+02 -3.343825E+00 +7.727908E+00 -3.343825E+00 +1.294400E+03 
 +5.530431E+02 -3.911939E+00 +2.010327E+01 -3.911939E+00 +6.000677E+02 -2.889902E+01 +2.010327E+01 -2.889902E+01 +1.321457E+03 
 +6.306837E+02 +3.938570E+01 -5.271420E+00 +3.938570E+01 +5.889569E+02 +6.435886E-01 -5.271420E+00 +6.435886E-01 +1.301655E+03 
 +6.114263E+02 +5.722517E+01 +4.565904E+00 +5.722517E+01 +5.943221E+02 -6.895437E+00 +4.565904E+00 -6.895437E+00 +1.336042E+03 
 +5.759025E+02 +3.895047E+01 -9.267578E+00 +3.895047E+01 +6.143922E+02 -9.250601E-01 -9.267578E+00 -9.250601E-01 +1.325643E+03 
 +6.398834E+02 +1.134855E+01 +7.258289E+00 +1.134855E+01 +6.165427E+02 -2.826264E+01 +7.258289E+00 -2.826264E+01 +1.385970E+03 
 +6.175031E+02 +3.329446E+01 +6.493576E+00 +3.329446E+01 +5.766241E+02 +7.936777E+00 +6.493576E+00 +7.936777E+00 +1.431122E+03 
 +5.887832E+02 -3.147099E+01 +1.224323E+01 -3.147099E+01 +5.940620E+02 +9.681824E+00 +1.224323E+01 +9.681824E+00 +1.371674E+03 
 +5.674990E+02 -1.272750E+01 +2.959512E-01 -1.272750E+01 +5.699908E+02 -3.323089E+01 +2.959512E-01 -3.323089E+01 +1.354905E+03 
 +7.051968E+02 -3.997554E+01 +1.101845E+01 -3.997554E+01 +5.276808E+02 -9.090123E+00 +1.101845E+01 -9.090123E+00 +1.336499E+03 
 +5.557804E+02 -1.018984E+01 -1.076178E+01 -1.018984E+01 +5.374586E+02 +8.052640E+00 -1.076178E+01 +8.052640E+00 +1.410154E+03 
 +5.509938E+02 +3.677432E+00 +2.584633E+01 +3.677432E+00 +5.337777E+02 +2.246288E+01 +2.584633E+01 +2.246288E+01 +1.388286E+03 
 +6.462723E+02 -1.143648E+01 -1.469169E+01 -1.143648E+01 +6.103792E+02 -3.691345E+01 -1.469169E+01 -3.691345E+01 +1.404651E+03 
 +5.614103E+02 -2.500615E+00 +4.904154E+00 -2.500615E+00 +5.828199E+02 -3.379535E+00 +4.904154E+00 -3.379535E+00 +1.396982E+03 
 +5.916000E+02 -1.114764E+01 -2.798124E+01 -1.114764E+01 +5.417374E+02 +3.450726E+00 -2.798124E+01 +3.450726E+00 +1.325203E+03 
 +5.692645E+02 +1.126790E+01 -1.685917E+01 +1.126790E+01 +6.088992E+02 -9.831558E+00 -1.685917E+01 -9.831558E+00 +1.343637E+03 
 +5.768300E+02 +3.035841E+00 +2.306530E+01 +3.035841E+00 +6.323160E+02 +3.234433E+00 +2.306530E+01 +3.234433E+00 +1.427362E+03 
 +5.660853E+02 -2.644473E+01 -2.938255E+01 -2.644473E+01 +6.099789E+02 -3.531610E+00 -2.938255E+01 -3.531610E+00 +1.256089E+03 
 +5.756460E+02 -1.391420E+01 +4.961946E+00 -1.391420E+01 +6.409301E+02 +3.216379E+01 +4.961946E+00 +3.216379E+01 +1.303844E+03 
 +6.721790E+02 +3.910837E+01 -3.412038E-01 +3.910837E+01 +6.784299E+02 +2.151515E+01 -3.412038E-01 +2.151515E+01 +1.317850E+03 
 +5.612652E+02 -4.333370E+00 +3.476988E+00 -4.333370E+00 +5.723782E+02 -1.003413E+01 +3.476988E+00 -1.003413E+01 +1.405974E+03 
 +6.366450E+02 -1.191450E+01 -1.206023E+00 -1.191450E+01 +5.962602E+02 -1.139165E+00 -1.206023E+00 -1.139165E+00 +1.320390E+03 
 +6.736186E+02 +1.455156E+01 -9.830220E-01 +1.455156E+01 +5.923666E+02 -8.266919E+00 -9.830220E-01 -8.266919E+00 +1.393572E+03 
 +6.222617E+02 -3.803173E+01 +2.991871E+00 -3.803173E+01 +5.647268E+02 -1.949197E+01 +2.991871E+00 -1.949197E+01 +1.297605E+03 
 +5.269019E+02 -2.826828E+01 +2.294178E+01 -2.826828E+01 +5.982511E+02 -1.673658E+01 +2.294178E+01 -1.673658E+01 +1.390780E+03 
 +5.925018E+02 -2.224302E+01 -1.983959E+01 -2.224302E+01 +5.792504E+02 +2.750162E+00 -1.983959E+01 +2.750162E+00 +1.284384E+03 
 +6.079383E+02 -2.706282E+01 -8.538120E+00 -2.706282E+01 +5.785197E+02 +1.425803E+01 -8.538120E+00 +1.425803E+01 +1.459812E+03 
 +5.680581E+02 +1.588345E+01 -6.866977E+00 +1.588345E+01 +5.433610E+02 +6.035615E+00 -6.866977E+00 +6.035615E+00 +1.350824E+03 
 +6.052579E+02 +1.979591E+01 +1.720558E+01 +1.979591E+01 +5.773238E+02 -5.936442E+00 +1.720558E+01 -5.936442E+00 +1.397597E+03 
 +6.379860E+02 -1.852570E+00 -4.963614E-01 -1.852570E+00 +5.866337E+02 -2.656816E+01 -4.963614E-01 -2.656816E+01 +1.348441E+03 
 +5.683978E+02 +8.791907E+00 +3.064824E+01 +8.791907E+00 +5.861857E+02 -1.178979E+01 +3.064824E+01 -1.178979E+01 +1.363772E+03 
 +6.208592E+02 -1.543620E+00 -1.256315E+01 -1.543620E+00 +5.363031E+02 +7.885540E+00 -1.256315E+01 +7.885540E+00 +1.313817E+03 
 +5.741952E+02 -8.211531E+00 -8.179742E+00 -8.211531E+00 +5.375259E+02 +5.570619E+00 -8.179742E+00 +5.570619E+00 +1.430006E+03 
 +6.090752E+02 +9.258309E+00 +1.387673E+01 +9.258309E+00 +5.941198E+02 +1.763498E+01 +1.387673E+01 +1.763498E+01 +1.388825E+03 
 +5.881092E+02 -1.213796E+01 -6.233474E-01 -1.213796E+01 +5.802941E+02 +2.244541E+01 -6.233474E-01 +2.244541E+01 +1.369630E+03 
 +7.106797E+02 +4.801817E+01 -1.416374E+01 +4.801817E+01 +7.097332E+02 +1.518832E+00 -1.416374E+01 +1.518832E+00 +1.338064E+03 
 +6.008585E+02 -1.466471E+01 +5.248570E+00 -1.466471E+01 +6.938874E+02 -1.750071E+01 +5.248570E+00 -1.750071E+01 +1.343162E+03 
 +7.443652E+02 -4.524419E+00 +3.008360E+00 -4.524419E+00 +6.205957E+02 +7.471088E+00 +3.008360E+00 +7.471088E+00 +1.357958E+03 
 +5.862786E+02 -1.245552E+01 +6.670401E+00 -1.245552E+01 +6.603070E+02 +6.766165E-01 +6.670401E+00 +6.766165E-01 +1.317963E+03 
 +6.343264E+02 -4.133532E+01 -1.507972E+01 -4.133532E+01 +6.358478E+02 -9.878605E+00 -1.507972E+01 -9.878605E+00 +1.305666E+03 
 +5.918395E+02 -3.458201E+01 +8.272375E-02 -3.458201E+01 +6.933709E+02 +1.735032E+01 +8.272375E-02 +1.735032E+01 +1.324136E+03 
 +6.528573E+02 -1.208398E+00 -1.585050E+01 -1.208398E+00 +6.337714E+02 +4.641657E+01 -1.585050E+01 +4.641657E+01 +1.364281E+03 
 +5.850492E+02 -8.841398E+00 -8.937945E+00 -8.841398E+00 +5.745894E+02 -6.383150E+00 -8.937945E+00 -6.383150E+00 +1.481504E+03 
 +6.489174E+02 +2.451631E+01 +7.908013E+00 +2.451631E+01 +6.491505E+02 -4.035160E+00 +7.908013E+00 -4.035160E+00 +1.316633E+03 
 +5.405073E+02 +2.964042E-01 -1.156625E+01 +2.964042E-01 +6.021605E+02 -7.153515E-01 -1.156625E+01 -7.153515E-01 +1.401515E+03 
 +6.961019E+02 +2.196743E+01 -1.005869E+01 +2.196743E+01 +5.991739E+02 -9.319577E-02 -1.005869E+01 -9.319577E-02 +1.300706E+03 
 +6.225933E+02 -1.589888E+01 -1.680765E+01 -1.589888E+01 +6.357737E+02 -1.239846E+00 -1.680765E+01 -1.239846E+00 +1.362913E+03 
 +6.415950E+02 -4.666021E+01 -1.530219E+01 -4.666021E+01 +7.177232E+02 -6.352985E+00 -1.530219E+01 -6.352985E+00 +1.350664E+03 
 +5.429755E+02 +3.933489E+00 -2.153203E+01 +3.933489E+00 +6.889196E+02 +1.293981E+01 -2.153203E+01 +1.293981E+01 +1.323391E+03 
 +6.532608E+02 -3.209921E+01 -6.983492E+00 -3.209921E+01 +6.574292E+02 -1.027663E+01 -6.983492E+00 -1.027663E+01 +1.340580E+03 
 +6.970197E+02 +2.829651E+00 -2.634720E+01 +2.829651E+00 +7.028309E+02 +2.331690E+01 -2.634720E+01 +2.331690E+01 +1.383545E+03 
 +5.730645E+02 -4.118836E+00 +3.334433E+01 -4.118836E+00 +6.064783E+02 +1.999954E+01 +3.334433E+01 +1.999954E+01 +1.397665E+03 
 +6.424571E+02 +2.702082E+01 -1.992690E+01 +2.702082E+01 +5.848306E+02 -2.576857E+01 -1.992690E+01 -2.576857E+01 +1.271472E+03 
 +5.683564E+02 -3.165217E+01 -2.049542E+01 -3.165217E+01 +6.102084E+02 -1.622914E+01 -2.049542E+01 -1.622914E+01 +1.382922E+03 
 +7.037928E+02 -1.648034E+01 +9.822321E+00 -1.648034E+01 +5.736976E+02 +1.657210E+01 +9.822321E+00 +1.657210E+01 +1.351436E+03 
 +5.852253E+02 +4.891822E+01 -1.370011E+01 +4.891822E+01 +6.924175E+02 -1.187505E+01 -1.370011E+01 -1.187505E+01 +1.345082E+03 
 +5.918284E+02 -4.883622E+01 +7.013552E+00 -4.883622E+01 +6.604316E+02 -6.182889E+00 +7.013552E+00 -6.182889E+00 +1.302958E+03 
 +5.726884E+02 +1.033360E+01 -2.309220E+01 +1.033360E+01 +6.178145E+02 +3.669188E+00 -2.309220E+01 +3.669188E+00 +1.394207E+03 
 +5.400432E+02 +2.965936E+01 -2.043515E+01 +2.965936E+01 +6.683991E+02 +2.539478E+00 -2.043515E+01 +2.539478E+00 +1.275990E+03 
 +6.005707E+02 -1.057199E+01 +1.855204E+01 -1.057199E+01 +6.453591E+02 +9.133255E+00 +1.855204E+01 +9.133255E+00 +1.380411E+03 
 +5.922726E+02 -2.068697E+01 -1.880996E+01 -2.068697E+01 +6.569102E+02 +2.294950E+00 -1.880996E+01 +2.294950E+00 +1.342282E+03 
 +6.229418E+02 +4.603381E+01 +1.359240E+01 +4.603381E+01 +6.415444E+02 -2.198207E+00 +1.359240E+01 -2.198207E+00 +1.299032E+03 
 +6.240784E+02 +1.847112E+01 +2.314855E+01 +1.847112E+01 +6.153334E+02 -3.265290E+01 +2.314855E+01 -3.265290E+01 +1.446595E+03 
 +5.715440E+02 -5.342447E+00 +3.059580E+01 -5.342447E+00 +5.970030E+02 +7.979411E+00 +3.059580E+01 +7.979411E+00 +1.400065E+03 
 +5.838459E+02 -7.804074E+00 +2.330875E+01 -7.804074E+00 +5.421216E+02 -1.835130E+00 +2.330875E+01 -1.835130E+00 +1.348432E+03 
 +5.993851E+02 +2.272079E+00 -3.502284E+01 +2.272079E+00 +5.872577E+02 +1.648501E+01 -3.502284E+01 +1.648501E+01 +1.395784E+03 
 +5.710853E+02 +4.577998E+00 -8.055646E+00 +4.577998E+00 +6.266835E+02 -6.381119E+00 -8.055646E+00 -6.381119E+00 +1.291503E+03 
 +6.061706E+02 +5.859914E+00 +3.107936E+00 +5.859914E+00 +6.420466E+02 -2.178535E+01 +3.107936E+00 -2.178535E+01 +1.323878E+03 
 +5.635390E+02 +2.148726E+00 -9.253658E+00 +2.148726E+00 +6.009608E+02 -4.887361E+00 -9.253658E+00 -4.887361E+00 +1.379256E+03 
 +5.985557E+02 -3.015866E+01 +4.946943E+00 -3.015866E+01 +5.745325E+02 -8.845023E+00 +4.946943E+00 -8.845023E+00 +1.290873E+03 
 +5.713477E+02 +3.567992E+01 +4.816453E+00 +3.567992E+01 +6.262109E+02 +1.273668E+01 +4.816453E+00 +1.273668E+01 +1.358448E+03 
 +6.007144E+02 +1.782109E+01 -9.499475E+00 +1.782109E+01 +6.494990E+02 -4.680931E+00 -9.499475E+00 -4.680931E+00 +1.307842E+03 
 +6.258798E+02 -1.265414E+01 -4.785820E+00 -1.265414E+01 +6.522345E+02 +2.473045E+01 -4.785820E+00 +2.473045E+01 +1.389274E+03 
 +5.807597E+02 -1.913414E+01 -5.235698E+00 -1.913414E+01 +5.908190E+02 +2.341896E+01 -5.235698E+00 +2.341896E+01 +1.400908E+03 
 +6.251332E+02 +6.835974E-02 +8.171470E+00 +6.835974E-02 +5.769705E+02 -2.782216E+01 +8.171470E+00 -2.782216E+01 +1.306615E+03 
 +5.473032E+02 -2.114008E+00 -1.763001E+01 -2.114008E+00 +5.678813E+02 -1.451534E+01 -1.763001E+01 -1.451534E+01 +1.425323E+03 
 +7.269710E+02 -8.006185E+00 +4.017802E+00 -8.006185E+00 +5.856168E+02 +1.163104E+00 +4.017802E+00 +1.163104E+00 +1.328106E+03 
 +5.725704E+02 +1.004951E+01 -3.163179E+01 +1.004951E+01 +6.218630E+02 -3.708533E+00 -3.163179E+01 -3.708533E+00 +1.336672E+03 
 +6.210367E+02 -2.412904E+01 -1.187627E+01 -2.412904E+01 +5.860908E+02 -2.330114E+01 -1.187627E+01 -2.330114E+01 +1.317492E+03 
 +6.280675E+02 -2.018474E+01 +7.099226E-01 -2.018474E+01 +5.973160E+02 -1.337069E+01 +7.099226E-01 -1.337069E+01 +1.326838E+03 
 +6.672379E+02 -2.730090E+00 -1.010621E+01 -2.730090E+00 +5.877283E+02 -1.584738E+01 -1.010621E+01 -1.584738E+01 +1.279468E+03 
 +6.066221E+02 +5.366040E+00 +6.875238E+00 +5.366040E+00 +5.590953E+02 +1.570113E+01 +6.875238E+00 +1.570113E+01 +1.350366E+03 
 +6.081736E+02 -3.035502E+01 -3.526000E+01 -3.035502E+01 +5.852708E+02 -8.695414E+00 -3.526000E+01 -8.695414E+00 +1.381399E+03 
 +5.904723E+02 -9.414631E+00 +3.526697E+00 -9.414631E+00 +5.553513E+02 +8.393973E+00 +3.526697E+00 +8.393973E+00 +1.402268E+03 
 +6.353391E+02 -1.352089E+01 -4.454228E+00 -1.352089E+01 +5.707877E+02 +2.384462E+01 -4.454228E+00 +2.384462E+01 +1.266897E+03 
 +5.208131E+02 +1.568821E+01 +1.208486E+01 +1.568821E+01 +5.856677E+02 -1.007877E-01 +1.208486E+01 -1.007877E-01 +1.412467E+03 
 +5.723920E+02 +3.058524E+01 +1.549970E+01 +3.058524E+01 +6.045510E+02 -1.308683E+01 +1.549970E+01 -1.308683E+01 +1.320318E+03 
 +6.520706E+02 +2.144252E+01 -2.392396E+00 +2.144252E+01 +6.331793E+02 +8.349188E-01 -2.392396E+00 +8.349188E-01 +1.341764E+03 
 +6.402449E+02 -1.301245E+01 +2.334690E+01 -1.301245E+01 +6.010921E+02 -5.582211E-01 +2.334690E+01 -5.582211E-01 +1.292835E+03 
 +6.786713E+02 +6.386544E+00 -2.199388E+01 +6.386544E+00 +6.515387E+02 +4.287075E+01 -2.199388E+01 +4.287075E+01 +1.433228E+03 
 +5.775400E+02 +3.706834E+01 +2.912849E+01 +3.706834E+01 +5.689059E+02 +6.105232E+00 +2.912849E+01 +6.105232E+00 +1.349744E+03 
 +5.976964E+02 -2.901825E+01 +9.190483E+00 -2.901825E+01 +5.975685E+02 -2.986286E+01 +9.190483E+00 -2.986286E+01 +1.378779E+03 
 +6.125901E+02 -1.490072E+01 -7.286142E+00 -1.490072E+01 +6.983157E+02 +3.980038E+00 -7.286142E+00 +3.980038E+00 +1.356529E+03 
 +5.701190E+02 -1.007844E+00 -7.620827E+00 -1.007844E+00 +5.630410E+02 +4.064707E+00 -7.620827E+00 +4.064707E+00 +1.326685E+03 
 +5.916005E+02 -1.446740E+01 +3.509891E+01 -1.446740E+01 +5.980377E+02 +7.176361E+00 +3.509891E+01 +7.176361E+00 +1.437368E+03 
 +6.262052E+02 -7.588015E-01 -5.735618E+00 -7.588015E-01 +6.545700E+02 -6.217304E+00 -5.735618E+00 -6.217304E+00 +1.329781E+03 
 +6.234375E+02 -2.400087E+01 +2.350053E+01 -2.400087E+01 +6.059551E+02 +6.935634E+00 +2.350053E+01 +6.935634E+00 +1.358975E+03 
 +5.998864E+02 +2.102393E+01 +1.275733E+01 +2.102393E+01 +6.340071E+02 +2.300819E+01 +1.275733E+01 +2.300819E+01 +1.386431E+03 
 +5.365364E+02 +1.409891E+01 -2.740438E+01 +1.409891E+01 +5.593969E+02 -2.636784E+01 -2.740438E+01 -2.636784E+01 +1.335481E+03 
 +6.497277E+02 +9.366799E+00 +1.689174E+01 +9.366799E+00 +5.407822E+02 -2.478200E+01 +1.689174E+01 -2.478200E+01 +1.307411E+03 
 +5.742963E+02 +1.152169E+00 -1.960183E+01 +1.152169E+00 +6.072325E+02 -2.204191E+01 -1.960183E+01 -2.204191E+01 +1.349957E+03 
 +6.259830E+02 +4.881924E+00 +5.384989E+00 +4.881924E+00 +5.384555E+02 -1.950901E+01 +5.384989E+00 -1.950901E+01 +1.258712E+03 
 +6.787008E+02 +3.808068E+00 +1.050713E+00 +3.808068E+00 +5.705327E+02 -1.850924E+01 +1.050713E+00 -1.850924E+01 +1.335900E+03 
 +5.749086E+02 +3.229694E+01 -1.862140E+01 +3.229694E+01 +5.538016E+02 +9.576797E+00 -1.862140E+01 +9.576797E+00 +1.340613E+03 
 +5.614296E+02 +5.345959E+01 -1.553061E+01 +5.345959E+01 +6.227951E+02 +1.512453E+01 -1.553061E+01 +1.512453E+01 +1.300141E+03 
 +7.000680E+02 +1.930073E+01 -2.390555E+00 +1.930073E+01 +7.452565E+02 -4.167747E+00 -2.390555E+00 -4.167747E+00 +1.367518E+03 
 +5.691674E+02 -3.007088E+01 +9.576592E+00 -3.007088E+01 +6.726563E+02 -6.719969E+00 +9.576592E+00 -6.719969E+00 +1.320323E+03 
 +5.941242E+02 +5.633669E+00 +7.971000E+00 +5.633669E+00 +5.965350E+02 +1.931941E+01 +7.971000E+00 +1.931941E+01 +1.350346E+03 
 +5.530775E+02 -2.397200E+01 -1.779242E+01 -2.397200E+01 +5.319989E+02 +5.710717E+00 -1.779242E+01 +5.710717E+00 +1.316334E+03 
 +6.796572E+02 +2.109805E+01 +5.015922E+00 +2.109805E+01 +5.427226E+02 +1.327562E+00 +5.015922E+00 +1.327562E+00 +1.304297E+03 
 +5.600261E+02 +9.462013E-03 +2.004294E+01 +9.462013E-03 +5.684086E+02 -7.103942E+00 +2.004294E+01 -7.103942E+00 +1.390973E+03 
 +6.203560E+02 +3.048302E+01 +1.329715E+01 +3.048302E+01 +6.717876E+02 -7.431731E+00 +1.329715E+01 -7.431731E+00 +1.346536E+03 
 +6.550378E+02 +3.522989E+01 +2.987067E+00 +3.522989E+01 +6.100387E+02 -1.987646E+01 +2.987067E+00 -1.987646E+01 +1.325395E+03 
 +5.257292E+02 +5.605045E+00 +1.048076E+00 +5.605045E+00 +5.311732E+02 -8.774988E+00 +1.048076E+00 -8.774988E+00 +1.339375E+03 
 +7.875439E+02 +3.814273E+01 -1.002157E+01 +3.814273E+01 +6.467899E+02 -3.020909E+01 -1.002157E+01 -3.020909E+01 +1.398221E+03 
 +5.782805E+02 +2.049858E-01 +1.641338E+01 +2.049858E-01 +5.742634E+02 -1.798492E+01 +1.641338E+01 -1.798492E+01 +1.401163E+03 
 +5.672682E+02 +1.731147E+01 -1.008047E+00 +1.731147E+01 +5.556640E+02 +1.282218E+01 -1.008047E+00 +1.282218E+01 +1.389816E+03 
 +6.042158E+02 +3.165461E+01 -1.871027E+01 +3.165461E+01 +6.280919E+02 +1.356816E+00 -1.871027E+01 +1.356816E+00 +1.292401E+03 
 +6.119866E+02 -6.351124E+00 +2.403063E+01 -6.351124E+00 +5.810720E+02 +1.425978E+01 +2.403063E+01 +1.425978E+01 +1.419375E+03 
 +5.932002E+02 +1.519672E+01 +1.346641E+01 +1.519672E+01 +5.690894E+02 -6.177691E+00 +1.346641E+01 -6.177691E+00 +1.348277E+03 
 +6.312026E+02 +1.468406E+01 +7.434398E+00 +1.468406E+01 +6.009077E+02 -2.360314E+01 +7.434398E+00 -2.360314E+01 +1.335399E+03 
 +6.645605E+02 -1.963282E+01 +5.825503E+00 -1.963282E+01 +5.596428E+02 +1.867440E+01 +5.825503E+00 +1.867440E+01 +1.300206E+03 
 +5.761000E+02 +2.781129E+01 -1.607172E+01 +2.781129E+01 +6.046400E+02 +3.263137E+01 -1.607172E+01 +3.263137E+01 +1.299096E+03 
 +6.540150E+02 +1.729462E+01 -7.060479E+00 +1.729462E+01 +5.950178E+02 -9.056566E+00 -7.060479E+00 -9.056566E+00 +1.290353E+03 
 +5.675228E+02 -2.106009E+01 +7.113147E+00 -2.106009E+01 +6.152414E+02 -1.701434E+01 +7.113147E+00 -1.701434E+01 +1.301427E+03 
 +6.143492E+02 -2.686737E+01 -1.102734E+01 -2.686737E+01 +6.132643E+02 -3.169595E+01 -1.102734E+01 -3.169595E+01 +1.328293E+03 
 +6.087615E+02 -2.490211E+01 +1.962808E+01 -2.490211E+01 +5.777665E+02 -3.270369E+00 +1.962808E+01 -3.270369E+00 +1.344296E+03 
 +5.616410E+02 -2.182317E+01 -1.423525E+01 -2.182317E+01 +5.390986E+02 +1.780365E+01 -1.423525E+01 +1.780365E+01 +1.302937E+03 
 +6.768240E+02 -1.018243E+01 +6.615587E+00 -1.018243E+01 +6.219244E+02 +2.968164E+01 +6.615587E+00 +2.968164E+01 +1.391038E+03 
 +6.618702E+02 +1.118251E+01 -2.176435E+01 +1.118251E+01 +6.455377E+02 -3.523117E+00 -2.176435E+01 -3.523117E+00 +1.379200E+03 
 +6.142808E+02 +1.663279E+01 -1.024149E+01 +1.663279E+01 +5.720569E+02 -2.566230E+01 -1.024149E+01 -2.566230E+01 +1.268293E+03 
 +6.467219E+02 -4.158355E+01 -2.029123E+00 -4.158355E+01 +6.651010E+02 -1.310410E+01 -2.029123E+00 -1.310410E+01 +1.349329E+03 
 +5.862521E+02 -3.192527E+01 +1.704929E-01 -3.192527E+01 +6.801385E+02 +2.483513E+00 +1.704929E-01 +2.483513E+00 +1.323974E+03 
 +5.964912E+02 +1.898216E+01 -1.057073E+01 +1.898216E+01 +6.706704E+02 +1.435417E+01 -1.057073E+01 +1.435417E+01 +1.359240E+03 
 +5.788380E+02 +4.307105E+01 +1.096021E+01 +4.307105E+01 +6.683763E+02 -2.051237E+00 +1.096021E+01 -2.051237E+00 +1.322728E+03 
 +5.765896E+02 -1.016328E+01 -1.325622E+01 -1.016328E+01 +5.901930E+02 -3.806806E+00 -1.325622E+01 -3.806806E+00 +1.445015E+03 
 +6.307833E+02 -3.778501E+01 -2.137782E+01 -3.778501E+01 +6.303524E+02 -1.003101E+00 -2.137782E+01 -1.003101E+00 +1.304970E+03 
 +5.958804E+02 -3.953388E+01 -2.171140E+00 -3.953388E+01 +6.299261E+02 +1.738535E+01 -2.171140E+00 +1.738535E+01 +1.371765E+03 
 +6.708035E+02 -2.599676E+01 +2.535325E+00 -2.599676E+01 +6.227318E+02 -6.173574E+00 +2.535325E+00 -6.173574E+00 +1.336408E+03 
 +6.634943E+02 +5.133908E+01 +1.191226E+01 +5.133908E+01 +6.247938E+02 +4.878815E+00 +1.191226E+01 +4.878815E+00 +1.349412E+03 
 +5.488786E+02 +1.398810E+01 +8.590466E+00 +1.398810E+01 +5.744083E+02 -1.189409E-01 +8.590466E+00 -1.189409E-01 +1.394160E+03 
 +6.529713E+02 +2.540462E+01 +2.567844E+01 +2.540462E+01 +5.801946E+02 -2.529585E+01 +2.567844E+01 -2.529585E+01 +1.314969E+03 
 +5.918729E+02 -2.584775E+01 +1.213716E+01 -2.584775E+01 +5.532885E+02 -8.887817E-01 +1.213716E+01 -8.887817E-01 +1.308879E+03 
 +6.063517E+02 -1.377728E+00 -2.536567E+01 -1.377728E+00 +6.163983E+02 +1.317395E+00 -2.536567E+01 +1.317395E+00 +1.411742E+03 
 +5.896899E+02 -3.558080E+01 -8.762315E+00 -3.558080E+01 +6.711485E+02 -1.314278E+01 -8.762315E+00 -1.314278E+01 +1.272030E+03 
 +5.728879E+02 -1.516832E+01 +1.395716E+01 -1.516832E+01 +5.907095E+02 -2.387435E+01 +1.395716E+01 -2.387435E+01 +1.373292E+03 
 +5.830920E+02 -3.804569E+00 -2.113045E+01 -3.804569E+00 +5.867100E+02 +8.801923E+00 -2.113045E+01 +8.801923E+00 +1.361835E+03 
 +6.176718E+02 +3.781268E+01 +1.500838E+01 +3.781268E+01 +6.440158E+02 +7.847940E-01 +1.500838E+01 +7.847940E-01 +1.340372E+03 
 +6.757336E+02 -3.716851E+00 -6.906106E+00 -3.716851E+00 +6.600756E+02 +1.416122E+00 -6.906106E+00 +1.416122E+00 +1.346947E+03 
 +5.448740E+02 -2.232208E+00 -1.089739E+01 -2.232208E+00 +6.730215E+02 +5.349434E+00 -1.089739E+01 +5.349434E+00 +1.330820E+03 
 +6.512930E+02 -2.115840E+01 -9.924418E+00 -2.115840E+01 +6.433438E+02 +1.819533E+01 -9.924418E+00 +1.819533E+01 +1.480642E+03 
 +6.775954E+02 -1.622175E+01 +1.843792E+01 -1.622175E+01 +5.503134E+02 +1.970633E+01 +1.843792E+01 +1.970633E+01 +1.275447E+03 
 +5.362122E+02 +5.965429E+00 -1.698319E+01 +5.965429E+00 +5.269240E+02 -4.482988E-01 -1.698319E+01 -4.482988E-01 +1.421601E+03 
 +6.903253E+02 +3.663020E+01 +1.549343E+01 +3.663020E+01 +6.054357E+02 +3.436342E+00 +1.549343E+01 +3.436342E+00 +1.305458E+03 
 +5.662707E+02 +7.013693E+00 -1.643293E+01 +7.013693E+00 +6.049872E+02 +1.602710E+01 -1.643293E+01 +1.602710E+01 +1.452317E+03 
 +6.138248E+02 -5.370430E+01 -1.653240E+01 -5.370430E+01 +6.164803E+02 +6.807310E+00 -1.653240E+01 +6.807310E+00 +1.273118E+03 
 +5.538696E+02 -9.864593E+00 +6.596585E-01 -9.864593E+00 +6.297496E+02 -9.624354E+00 +6.596585E-01 -9.624354E+00 +1.367058E+03 
 +6.563751E+02 +8.942760E+00 +1.785380E+01 +8.942760E+00 +5.498668E+02 +4.382853E+00 +1.785380E+01 +4.382853E+00 +1.319579E+03 
 +5.957314E+02 -4.322466E+01 +2.321763E+01 -4.322466E+01 +5.790071E+02 -8.977739E+00 +2.321763E+01 -8.977739E+00 +1.293221E+03 
 +5.703326E+02 +1.239319E+01 +1.879739E+01 +1.239319E+01 +6.164600E+02 -1.016283E+01 +1.879739E+01 -1.016283E+01 +1.421540E+03 
 +5.716075E+02 -2.468457E+01 -6.904665E+00 -2.468457E+01 +6.166105E+02 -7.377763E+00 -6.904665E+00 -7.377763E+00 +1.282728E+03 
 +5.455840E+02 +1.162833E+00 -5.154949E+00 +1.162833E+00 +5.637454E+02 -4.858512E+00 -5.154949E+00 -4.858512E+00 +1.452333E+03 
 +5.913186E+02 +1.990963E+01 -3.924237E+00 +1.990963E+01 +5.769908E+02 +1.808907E+01 -3.924237E+00 +1.808907E+01 +1.268795E+03 
 +5.995045E+02 +3.322007E+01 +2.810041E+01 +3.322007E+01 +5.748298E+02 +3.343014E+00 +2.810041E+01 +3.343014E+00 +1.364177E+03 
 +5.591578E+02 +1.148153E+01 -2.257706E+01 +1.148153E+01 +5.391422E+02 -1.911328E+01 -2.257706E+01 -1.911328E+01 +1.391114E+03 
 +5.760368E+02 -5.960076E+00 +5.307585E+00 -5.960076E+00 +5.597493E+02 +1.905026E+01 +5.307585E+00 +1.905026E+01 +1.372562E+03 
 +6.257388E+02 +1.162272E+01 +2.837406E+00 +1.162272E+01 +6.035062E+02 +1.003681E+01 +2.837406E+00 +1.003681E+01 +1.342711E+03 
 +6.112055E+02 -5.022857E+00 -4.007627E+01 -5.022857E+00 +5.798393E+02 -8.785089E+00 -4.007627E+01 -8.785089E+00 +1.391638E+03 
 +5.935867E+02 -2.728478E+01 +1.238109E+01 -2.728478E+01 +5.879214E+02 -4.283657E+01 +1.238109E+01 -4.283657E+01 +1.391219E+03 
 +6.722863E+02 +1.249389E+01 -1.414539E+01 +1.249389E+01 +5.969169E+02 +1.238481E+00 -1.414539E+01 +1.238481E+00 +1.303399E+03 
 +5.505574E+02 +1.062854E+01 -2.835324E+01 +1.062854E+01 +5.140414E+02 +1.739445E+01 -2.835324E+01 +1.739445E+01 +1.374973E+03 
 +5.817083E+02 +1.146306E+01 +2.121017E+01 +1.146306E+01 +5.776016E+02 +6.475852E+00 +2.121017E+01 +6.475852E+00 +1.376836E+03 
 +5.967831E+02 +1.236810E+00 +4.414923E+01 +1.236810E+00 +6.301676E+02 +2.534927E+01 +4.414923E+01 +2.534927E+01 +1.354721E+03 
 +6.334899E+02 -5.271168E-01 -1.808312E-01 -5.271168E-01 +7.032396E+02 +1.724593E+01 -1.808312E-01 +1.724593E+01 +1.390647E+03 
 +7.027280E+02 -1.343056E+01 -1.815973E+01 -1.343056E+01 +6.246740E+02 -4.129206E+01 -1.815973E+01 -4.129206E+01 +1.356309E+03 
 +5.374363E+02 +8.133030E-01 -8.714948E+00 +8.133030E-01 +5.496632E+02 -2.658992E+01 -8.714948E+00 -2.658992E+01 +1.371750E+03 
 +6.536879E+02 -1.634062E+01 +1.064861E+01 -1.634062E+01 +6.312690E+02 -3.281421E-01 +1.064861E+01 -3.281421E-01 +1.332972E+03 
 +6.201248E+02 -1.982832E+01 +6.857589E-01 -1.982832E+01 +6.288758E+02 +1.954275E+01 +6.857589E-01 +1.954275E+01 +1.328090E+03 
 +6.267093E+02 -3.509346E+00 +3.569485E+01 -3.509346E+00 +6.493899E+02 +1.858411E+01 +3.569485E+01 +1.858411E+01 +1.288796E+03 
 +5.948624E+02 -1.262618E+01 -1.540270E+01 -1.262618E+01 +6.036652E+02 -1.705657E+01 -1.540270E+01 -1.705657E+01 +1.415387E+03 
 +6.799600E+02 +4.267220E+00 +9.229513E+00 +4.267220E+00 +5.892301E+02 -1.659277E+01 +9.229513E+00 -1.659277E+01 +1.332676E+03 
 +6.249326E+02 +2.136141E+01 -2.617811E+01 +2.136141E+01 +6.049232E+02 -4.916933E+00 -2.617811E+01 -4.916933E+00 +1.422064E+03 
 +5.809788E+02 -1.129232E+01 -1.184616E+01 -1.129232E+01 +5.551610E+02 -2.318098E+01 -1.184616E+01 -2.318098E+01 +1.387463E+03 
 +5.749339E+02 +2.381646E+01 -3.589949E+01 +2.381646E+01 +5.756491E+02 +4.304037E+01 -3.589949E+01 +4.304037E+01 +1.283251E+03 
 +5.909912E+02 +1.661189E+01 +3.963128E+01 +1.661189E+01 +5.979977E+02 -7.034490E-01 +3.963128E+01 -7.034490E-01 +1.407986E+03 
 +5.579630E+02 -4.057760E+01 -1.213053E+01 -4.057760E+01 +6.253832E+02 -4.576331E-01 -1.213053E+01 -4.576331E-01 +1.282719E+03 
 +7.243382E+02 -3.862098E+01 -5.881723E+00 -3.862098E+01 +6.305409E+02 +1.975060E+01 -5.881723E+00 +1.975060E+01 +1.356875E+03 
 +5.921614E+02 +2.152305E+01 -1.148479E+01 +2.152305E+01 +5.913377E+02 +9.259807E-01 -1.148479E+01 +9.259807E-01 +1.373668E+03 
 +6.698262E+02 -5.713233E+00 +2.901040E+01 -5.713233E+00 +6.149941E+02 -7.232449E+00 +2.901040E+01 -7.232449E+00 +1.436635E+03 
 +6.329022E+02 +8.436471E+00 +6.595553E+00 +8.436471E+00 +5.914519E+02 +2.678715E+01 +6.595553E+00 +2.678715E+01 +1.404494E+03 
 +7.033601E+02 -1.272856E+01 +8.646616E+00 -1.272856E+01 +5.599941E+02 -2.612507E+00 +8.646616E+00 -2.612507E+00 +1.290235E+03 
 +6.146569E+02 -3.364916E+01 -2.140577E+01 -3.364916E+01 +5.962961E+02 +1.146007E+01 -2.140577E+01 +1.146007E+01 +1.436070E+03 
 +6.333412E+02 -1.712073E+01 +8.673591E+00 -1.712073E+01 +5.972789E+02 -7.877928E+00 +8.673591E+00 -7.877928E+00 +1.327694E+03 
 +6.469370E+02 -8.329249E+00 +8.792958E+00 -8.329249E+00 +5.303327E+02 +2.345802E+00 +8.792958E+00 +2.345802E+00 +1.294194E+03 
 +6.138777E+02 +4.982117E+00 -3.261222E+01 +4.982117E+00 +5.928895E+02 +3.857350E+00 -3.261222E+01 +3.857350E+00 +1.426477E+03 
 +6.564651E+02 +1.888645E+01 -1.602240E+01 +1.888645E+01 +6.616147E+02 -9.963498E+00 -1.602240E+01 -9.963498E+00 +1.338051E+03 
 +6.522628E+02 -3.307378E+01 -1.949093E+01 -3.307378E+01 +5.822466E+02 -1.728234E+01 -1.949093E+01 -1.728234E+01 +1.338402E+03 
 +5.993871E+02 -1.759117E+01 -1.495592E+01 -1.759117E+01 +6.129116E+02 -2.344701E+01 -1.495592E+01 -2.344701E+01 +1.349794E+03 
 +5.938831E+02 +2.666266E+01 +3.280529E+00 +2.666266E+01 +6.107938E+02 -2.822850E+00 +3.280529E+00 -2.822850E+00 +1.287436E+03 
 +6.041201E+02 +3.148762E+01 -2.787098E+01 +3.148762E+01 +5.847095E+02 +3.268872E+00 -2.787098E+01 +3.268872E+00 +1.267558E+03 
 +5.756356E+02 -2.192014E+00 -3.113706E+01 -2.192014E+00 +5.608856E+02 +1.941347E+01 -3.113706E+01 +1.941347E+01 +1.428941E+03 
 +6.310168E+02 +1.711188E+01 +5.955149E+00 +1.711188E+01 +6.809340E+02 +9.297589E+00 +5.955149E+00 +9.297589E+00 +1.333268E+03 
 +6.167188E+02 +1.089340E+01 -1.459590E+00 +1.089340E+01 +6.346560E+02 -1.208158E+00 -1.459590E+00 -1.208158E+00 +1.448359E+03 
 +6.246623E+02 +3.062045E-01 +5.616919E+00 +3.062045E-01 +5.086277E+02 +8.601624E+00 +5.616919E+00 +8.601624E+00 +1.301082E+03 
 +6.575248E+02 -4.465869E+01 -2.462896E+00 -4.465869E+01 +5.750687E+02 -3.315017E+01 -2.462896E+00 -3.315017E+01 +1.327876E+03 
 +7.341964E+02 +8.199301E+00 +6.373530E+00 +8.199301E+00 +6.271026E+02 -2.607492E+01 +6.373530E+00 -2.607492E+01 +1.351056E+03 
 +5.782709E+02 +1.988659E+01 +1.687990E+01 +1.988659E+01 +6.019785E+02 -1.814159E+01 +1.687990E+01 -1.814159E+01 +1.278618E+03 
 +6.330764E+02 -2.112129E+01 +7.165588E+00 -2.112129E+01 +5.630933E+02 -1.633329E+01 +7.165588E+00 -1.633329E+01 +1.310090E+03 
 +5.708600E+02 -1.124232E+01 +2.708451E+01 -1.124232E+01 +6.018965E+02 -2.312013E+01 +2.708451E+01 -2.312013E+01 +1.438658E+03 
 +5.998099E+02 +1.978148E+00 +2.296775E+01 +1.978148E+00 +6.834451E+02 +7.601563E+00 +2.296775E+01 +7.601563E+00 +1.313404E+03 
 +5.431585E+02 +2.995189E+01 +1.723251E+01 +2.995189E+01 +6.207070E+02 +5.481722E+01 +1.723251E+01 +5.481722E+01 +1.383635E+03 
 +5.903556E+02 -2.753763E+00 +1.311290E+01 -2.753763E+00 +5.949411E+02 -1.827913E+01 +1.311290E+01 -1.827913E+01 +1.351436E+03 
 +5.606355E+02 -1.123597E+01 +2.653148E+01 -1.123597E+01 +6.045677E+02 -1.259152E+01 +2.653148E+01 -1.259152E+01 +1.355542E+03 
 +6.419672E+02 +2.061526E+01 +1.015495E+01 +2.061526E+01 +5.576884E+02 +3.130551E+01 +1.015495E+01 +3.130551E+01 +1.311693E+03 
 +6.127919E+02 +6.981597E+01 -1.413031E+01 +6.981597E+01 +6.206495E+02 -6.029832E+00 -1.413031E+01 -6.029832E+00 +1.331740E+03 
 +5.578150E+02 -4.836101E+00 -3.102058E+01 -4.836101E+00 +5.755797E+02 -1.389734E+01 -3.102058E+01 -1.389734E+01 +1.391295E+03 
 +5.452862E+02 -2.133703E+01 +8.724323E+00 -2.133703E+01 +5.159045E+02 +2.619283E+01 +8.724323E+00 +2.619283E+01 +1.364318E+03 
 +6.010567E+02 +9.404424E+00 +5.291556E+00 +9.404424E+00 +5.880059E+02 -3.262948E+01 +5.291556E+00 -3.262948E+01 +1.367239E+03 
 +5.627158E+02 +2.620212E+01 +9.614262E+00 +2.620212E+01 +5.832714E+02 -3.710576E+00 +9.614262E+00 -3.710576E+00 +1.331970E+03 
 +6.985811E+02 +7.496603E+00 -1.368612E+01 +7.496603E+00 +6.098823E+02 -7.663805E+00 -1.368612E+01 -7.663805E+00 +1.309283E+03 
 +5.612904E+02 +5.690326E+00 +2.511986E+01 +5.690326E+00 +5.765790E+02 -3.373328E+01 +2.511986E+01 -3.373328E+01 +1.324360E+03 
 +5.629718E+02 -6.193526E+00 -3.040046E+01 -6.193526E+00 +5.832917E+02 -1.386875E+01 -3.040046E+01 -1.386875E+01 +1.369638E+03 
 +6.003987E+02 -4.460773E+00 +1.546291E+01 -4.460773E+00 +6.050651E+02 -2.960151E+01 +1.546291E+01 -2.960151E+01 +1.401522E+03 
 +5.323499E+02 -2.852580E+01 -6.505942E-01 -2.852580E+01 +6.534004E+02 +2.100974E+00 -6.505942E-01 +2.100974E+00 +1.261238E+03 
 +5.394525E+02 -2.146036E+01 +7.673475E+00 -2.146036E+01 +6.875013E+02 +1.747283E+01 +7.673475E+00 +1.747283E+01 +1.331609E+03 
 +6.476451E+02 -2.332780E+01 +9.448071E+00 -2.332780E+01 +5.984028E+02 +7.003404E+00 +9.448071E+00 +7.003404E+00 +1.299822E+03 
 +5.627258E+02 +1.519737E+01 +1.554683E+01 +1.519737E+01 +5.479384E+02 -2.412728E+01 +1.554683E+01 -2.412728E+01 +1.382155E+03 
 +6.447482E+02 -4.231211E+00 -4.641563E+00 -4.231211E+00 +5.939926E+02 +6.472512E-01 -4.641563E+00 +6.472512E-01 +1.310323E+03 
 +6.418353E+02 -9.118921E+00 +2.116660E+00 -9.118921E+00 +5.979528E+02 -7.991379E+00 +2.116660E+00 -7.991379E+00 +1.309526E+03 
 +6.460045E+02 +1.885373E+01 -1.578001E+01 +1.885373E+01 +6.312625E+02 +1.170534E+01 -1.578001E+01 +1.170534E+01 +1.341817E+03 
 +5.933581E+02 -2.816880E+01 -9.450288E+00 -2.816880E+01 +6.119769E+02 +9.086840E+00 -9.450288E+00 +9.086840E+00 +1.323090E+03 
 +6.911592E+02 +5.865579E+00 -2.218984E+01 +5.865579E+00 +6.556128E+02 -1.228038E+01 -2.218984E+01 -1.228038E+01 +1.366619E+03 
 +6.491584E+02 -8.819337E+00 +1.415904E+00 -8.819337E+00 +6.841046E+02 +5.422879E+00 +1.415904E+00 +5.422879E+00 +1.453901E+03 
 +6.198142E+02 -2.597600E+01 -6.964940E+00 -2.597600E+01 +6.402650E+02 -1.988673E+01 -6.964940E+00 -1.988673E+01 +1.319622E+03 
 +6.474383E+02 +2.172276E+01 -1.197417E+01 +2.172276E+01 +6.355543E+02 +1.840079E+00 -1.197417E+01 +1.840079E+00 +1.286517E+03 
 +6.087206E+02 +4.108248E+00 -6.502646E+00 +4.108248E+00 +6.445792E+02 +2.048759E+00 -6.502646E+00 +2.048759E+00 +1.439897E+03 
 +6.314232E+02 +2.914179E+00 +1.754891E+01 +2.914179E+00 +5.158608E+02 +7.499604E+00 +1.754891E+01 +7.499604E+00 +1.325435E+03 
 +6.230079E+02 -1.778470E+01 +1.970269E+01 -1.778470E+01 +6.103647E+02 -6.923525E+00 +1.970269E+01 -6.923525E+00 +1.421040E+03 
 +7.115061E+02 +1.476256E+01 +1.986645E+01 +1.476256E+01 +6.687606E+02 -1.082245E+01 +1.986645E+01 -1.082245E+01 +1.349443E+03 
 +6.181125E+02 -2.115753E+01 +1.319448E+01 -2.115753E+01 +6.143391E+02 +3.823758E+00 +1.319448E+01 +3.823758E+00 +1.358168E+03 
 +6.651958E+02 -2.623158E+01 +1.628160E+01 -2.623158E+01 +6.241932E+02 +6.258533E+00 +1.628160E+01 +6.258533E+00 +1.382856E+03 
 +5.608104E+02 +1.617068E+01 +2.073144E+00 +1.617068E+01 +6.866624E+02 +1.705886E+01 +2.073144E+00 +1.705886E+01 +1.320017E+03 
 +6.220209E+02 +8.335146E+00 +3.876160E+00 +8.335146E+00 +6.741707E+02 -2.240977E+01 +3.876160E+00 -2.240977E+01 +1.423628E+03 
 +6.127015E+02 +8.747237E-01 -6.960793E+00 +8.747237E-01 +6.261245E+02 -6.498299E+00 -6.960793E+00 -6.498299E+00 +1.343062E+03 
 +5.912128E+02 -1.018815E+01 +1.126665E+01 -1.018815E+01 +5.657722E+02 +2.619869E+01 +1.126665E+01 +2.619869E+01 +1.387095E+03 
 +6.868525E+02 -1.233466E+01 -2.229947E+00 -1.233466E+01 +6.173272E+02 +1.565442E+01 -2.229947E+00 +1.565442E+01 +1.322360E+03 
 +6.492974E+02 -2.166372E+01 +4.229130E-01 -2.166372E+01 +6.462777E+02 +1.030700E+01 +4.229130E-01 +1.030700E+01 +1.340316E+03 
 +5.931790E+02 +2.293661E+01 -1.060328E+01 +2.293661E+01 +6.251104E+02 +2.466516E+00 -1.060328E+01 +2.466516E+00 +1.373622E+03 
 +6.626180E+02 +3.450550E+01 +2.599092E+00 +3.450550E+01 +6.101093E+02 -4.354283E+00 +2.599092E+00 -4.354283E+00 +1.293007E+03 
 +6.916391E+02 -1.970597E+01 -3.232897E+00 -1.970597E+01 +6.449165E+02 +6.756692E+00 -3.232897E+00 +6.756692E+00 +1.353124E+03 
 +5.449788E+02 +1.949033E+01 -9.225378E+00 +1.949033E+01 +6.462519E+02 +4.153376E+00 -9.225378E+00 +4.153376E+00 +1.290157E+03 
 +6.405787E+02 +4.114753E+00 +4.387245E+00 +4.114753E+00 +6.755161E+02 -1.914924E+00 +4.387245E+00 -1.914924E+00 +1.354002E+03 
 +6.670067E+02 +1.599116E+01 -5.675467E+00 +1.599116E+01 +6.304880E+02 -2.223251E+01 -5.675467E+00 -2.223251E+01 +1.398440E+03 
 +5.885524E+02 -1.164140E+01 +1.305267E+01 -1.164140E+01 +6.106473E+02 -6.293142E+00 +1.305267E+01 -6.293142E+00 +1.492286E+03 
 +6.488801E+02 +1.544761E+01 -7.738493E+00 +1.544761E+01 +6.389929E+02 -3.469401E-01 -7.738493E+00 -3.469401E-01 +1.320724E+03 
 +6.227698E+02 +1.006473E+01 -2.820977E+01 +1.006473E+01 +6.244655E+02 -1.804118E+01 -2.820977E+01 -1.804118E+01 +1.346233E+03 
 +5.859493E+02 +2.863504E+01 +1.430081E+01 +2.863504E+01 +5.964323E+02 +7.742536E+00 +1.430081E+01 +7.742536E+00 +1.414019E+03 
 +6.141985E+02 -1.423805E+01 +8.090274E+00 -1.423805E+01 +6.135412E+02 +1.021340E+01 +8.090274E+00 +1.021340E+01 +1.343771E+03 
 +6.114434E+02 -9.437127E+00 -1.884162E+01 -9.437127E+00 +6.025966E+02 +9.797883E+00 -1.884162E+01 +9.797883E+00 +1.410551E+03 
 +5.766735E+02 +1.270350E+01 +1.391215E+01 +1.270350E+01 +5.391479E+02 +1.413682E+01 +1.391215E+01 +1.413682E+01 +1.405109E+03 
 +5.550102E+02 +1.617388E+01 -1.440751E+01 +1.617388E+01 +5.705338E+02 +3.942226E+01 -1.440751E+01 +3.942226E+01 +1.292971E+03 
 +6.625328E+02 +1.479458E+01 +6.332757E+00 +1.479458E+01 +6.167377E+02 +1.256701E+01 +6.332757E+00 +1.256701E+01 +1.354076E+03 
 +7.028013E+02 +1.576156E+01 -5.444371E+00 +1.576156E+01 +5.508889E+02 +1.579673E+01 -5.444371E+00 +1.579673E+01 +1.325302E+03 
 +5.356623E+02 +2.430933E+01 -2.571022E+00 +2.430933E+01 +5.453055E+02 -1.476461E+00 -2.571022E+00 -1.476461E+00 +1.413717E+03 
 +6.950287E+02 -7.950087E+00 -9.398849E+00 -7.950087E+00 +6.278469E+02 -1.479164E+01 -9.398849E+00 -1.479164E+01 +1.354835E+03 
 +7.159866E+02 +1.554384E+01 +8.514858E+00 +1.554384E+01 +6.530945E+02 +1.707987E+01 +8.514858E+00 +1.707987E+01 +1.376707E+03 
 +5.674543E+02 +4.718143E+00 -1.807667E+01 +4.718143E+00 +6.005046E+02 -1.799354E+01 -1.807667E+01 -1.799354E+01 +1.419523E+03 
 +5.780847E+02 +6.055079E+00 +2.309705E+01 +6.055079E+00 +5.651546E+02 -1.616336E+01 +2.309705E+01 -1.616336E+01 +1.327941E+03 
 +6.121041E+02 +6.361323E+00 -3.478838E+01 +6.361323E+00 +6.576475E+02 +2.070874E+01 -3.478838E+01 +2.070874E+01 +1.408854E+03 
 +5.377253E+02 -2.907415E+01 +1.088126E+01 -2.907415E+01 +6.358558E+02 +3.525695E+00 +1.088126E+01 +3.525695E+00 +1.269159E+03 
 +5.675869E+02 +4.325329E+00 +2.277859E+01 +4.325329E+00 +6.027305E+02 +8.652294E+00 +2.277859E+01 +8.652294E+00 +1.391094E+03 
 +5.279028E+02 -2.408289E+01 +1.750935E-01 -2.408289E+01 +6.212771E+02 -1.495111E+01 +1.750935E-01 -1.495111E+01 +1.267215E+03 
 +6.593977E+02 -2.501761E+01 +2.131873E+01 -2.501761E+01 +5.438589E+02 +1.340527E+01 +2.131873E+01 +1.340527E+01 +1.305807E+03 
 +5.720797E+02 -3.215609E+00 -1.708095E+01 -3.215609E+00 +5.930154E+02 -2.883646E+01 -1.708095E+01 -2.883646E+01 +1.402681E+03 
 +5.829810E+02 -8.547201E+00 +8.935743E-01 -8.547201E+00 +5.939045E+02 +1.450001E+01 +8.935743E-01 +1.450001E+01 +1.408187E+03 
 +5.858332E+02 -1.032422E+01 -1.153529E+01 -1.032422E+01 +5.847867E+02 +2.471210E+01 -1.153529E+01 +2.471210E+01 +1.423914E+03 
 +6.539829E+02 -2.629405E+01 -5.900170E+00 -2.629405E+01 +6.135723E+02 +3.962872E+00 -5.900170E+00 +3.962872E+00 +1.310188E+03 
 +6.561017E+02 -2.084124E+01 -1.781362E+00 -2.084124E+01 +6.055054E+02 -2.910516E+00 -1.781362E+00 -2.910516E+00 +1.346996E+03 
 +5.411365E+02 +1.051910E+01 -2.011480E+01 +1.051910E+01 +6.589883E+02 +7.814849E+00 -2.011480E+01 +7.814849E+00 +1.310425E+03 
 +6.643994E+02 -1.180263E+01 +5.818449E+00 -1.180263E+01 +7.221600E+02 -1.586977E+01 +5.818449E+00 -1.586977E+01 +1.417369E+03 
 +6.083820E+02 -2.984489E+01 -1.403161E+01 -2.984489E+01 +6.871704E+02 +1.829013E+00 -1.403161E+01 +1.829013E+00 +1.359671E+03 
 +5.371701E+02 -3.183553E+01 +3.272292E+01 -3.183553E+01 +6.789861E+02 +1.909621E+01 +3.272292E+01 +1.909621E+01 +1.308533E+03 
 +5.343112E+02 -6.922739E+00 -4.980026E+00 -6.922739E+00 +5.677129E+02 -5.387958E-01 -4.980026E+00 -5.387958E-01 +1.363854E+03 
 +6.637361E+02 +2.945918E+01 +7.288904E+00 +2.945918E+01 +6.261240E+02 -3.109684E+01 +7.288904E+00 -3.109684E+01 +1.331515E+03 
 +5.543351E+02 -3.408821E+01 -7.633065E+00 -3.408821E+01 +6.591086E+02 -9.324079E+00 -7.633065E+00 -9.324079E+00 +1.346999E+03 
 +6.496769E+02 -2.372552E+01 +1.384408E+01 -2.372552E+01 +6.189470E+02 -3.566172E+01 +1.384408E+01 -3.566172E+01 +1.433669E+03 
 +5.821474E+02 -5.153787E+00 +5.290246E+00 -5.153787E+00 +5.879287E+02 -2.605452E+01 +5.290246E+00 -2.605452E+01 +1.308589E+03 
 +5.894496E+02 +7.717729E+00 +6.886385E+00 +7.717729E+00 +5.811678E+02 +2.131839E+01 +6.886385E+00 +2.131839E+01 +1.473531E+03 
 +6.111501E+02 +7.188980E+00 -3.828819E+01 +7.188980E+00 +6.574041E+02 +1.086834E+01 -3.828819E+01 +1.086834E+01 +1.290294E+03 
 +5.171146E+02 +8.512454E+00 +2.267426E+01 +8.512454E+00 +5.468126E+02 +6.499606E+00 +2.267426E+01 +6.499606E+00 +1.381510E+03 
 +6.716132E+02 -2.106480E+01 +5.975521E+00 -2.106480E+01 +5.625764E+02 -2.281128E+01 +5.975521E+00 -2.281128E+01 +1.314713E+03 
 +6.328103E+02 +5.153563E+01 -8.466424E+00 +5.153563E+01 +6.681015E+02 +6.577403E-01 -8.466424E+00 +6.577403E-01 +1.349999E+03 
 +6.240625E+02 +2.385922E+01 -4.880411E+00 +2.385922E+01 +6.263561E+02 +2.679247E+01 -4.880411E+00 +2.679247E+01 +1.320322E+03 
 +5.345510E+02 +3.319426E+01 -8.260288E+00 +3.319426E+01 +6.706513E+02 -1.740651E+01 -8.260288E+00 -1.740651E+01 +1.259369E+03 
 +5.786913E+02 +8.970751E+00 -5.538058E+00 +8.970751E+00 +6.099495E+02 -1.749615E+01 -5.538058E+00 -1.749615E+01 +1.409324E+03 
 +5.735579E+02 +1.299392E+01 -7.018591E+00 +1.299392E+01 +6.279793E+02 +6.541677E-01 -7.018591E+00 +6.541677E-01 +1.317720E+03 
 +7.040941E+02 +3.479472E+00 +9.150779E-01 +3.479472E+00 +6.944771E+02 +3.699056E+01 +9.150779E-01 +3.699056E+01 +1.482919E+03 
 +6.424257E+02 -3.041061E+01 +6.968134E-03 -3.041061E+01 +6.143426E+02 -7.323514E+00 +6.968134E-03 -7.323514E+00 +1.311453E+03 
 +6.135615E+02 +2.825848E+01 -1.047335E+01 +2.825848E+01 +5.661504E+02 +2.625784E+01 -1.047335E+01 +2.625784E+01 +1.295184E+03 
 +5.992995E+02 +5.925390E+00 -4.071416E+01 +5.925390E+00 +5.992171E+02 +2.024182E+01 -4.071416E+01 +2.024182E+01 +1.394186E+03 
 +5.788539E+02 +1.217873E+01 +2.251561E+01 +1.217873E+01 +5.709572E+02 -9.450225E+00 +2.251561E+01 -9.450225E+00 +1.353801E+03 
 +6.436198E+02 +1.222105E+01 +8.184858E+00 +1.222105E+01 +6.041987E+02 -4.448372E+00 +8.184858E+00 -4.448372E+00 +1.340876E+03 
 +6.460098E+02 +3.820840E+01 +1.783134E+01 +3.820840E+01 +6.075106E+02 -5.640318E+00 +1.783134E+01 -5.640318E+00 +1.310447E+03 
 +6.897211E+02 -2.030279E+01 -1.629816E+01 -2.030279E+01 +6.281047E+02 -1.103185E+01 -1.629816E+01 -1.103185E+01 +1.364786E+03 
 +5.968616E+02 -4.345766E+01 +4.999393E+00 -4.345766E+01 +6.054989E+02 -2.865412E+00 +4.999393E+00 -2.865412E+00 +1.306649E+03 
 +6.010706E+02 -3.513366E+00 +2.038758E+01 -3.513366E+00 +5.765853E+02 -3.794898E+01 +2.038758E+01 -3.794898E+01 +1.307212E+03 
 +6.389217E+02 -1.212647E+01 +8.087136E+00 -1.212647E+01 +5.909054E+02 +9.244761E+00 +8.087136E+00 +9.244761E+00 +1.476629E+03 
 +6.475694E+02 +3.473414E+00 -9.192861E+00 +3.473414E+00 +5.768109E+02 +2.764226E+00 -9.192861E+00 +2.764226E+00 +1.364102E+03 
 +5.742928E+02 +1.479993E+01 -1.409865E+01 +1.479993E+01 +5.632218E+02 +1.601208E+01 -1.409865E+01 +1.601208E+01 +1.405721E+03 
 +6.512148E+02 -1.135600E+01 +8.412036E+00 -1.135600E+01 +6.054965E+02 +2.716728E+01 +8.412036E+00 +2.716728E+01 +1.349594E+03 
 +6.065773E+02 -3.943270E+01 +1.992293E+01 -3.943270E+01 +6.089729E+02 -3.338304E+00 +1.992293E+01 -3.338304E+00 +1.391322E+03 
 +6.417159E+02 +6.619386E+00 -9.848080E+00 +6.619386E+00 +5.772792E+02 +1.062640E+01 -9.848080E+00 +1.062640E+01 +1.332556E+03 
 +6.727668E+02 -4.593716E+01 -3.290931E+00 -4.593716E+01 +5.742645E+02 -1.484526E+01 -3.290931E+00 -1.484526E+01 +1.304441E+03 
 +5.351245E+02 -7.089989E+01 -1.876628E+01 -7.089989E+01 +6.208093E+02 +2.747869E+00 -1.876628E+01 +2.747869E+00 +1.283057E+03 
 +7.045921E+02 -4.370136E+00 -6.245294E+00 -4.370136E+00 +6.065765E+02 -1.233687E+01 -6.245294E+00 -1.233687E+01 +1.385102E+03 
 +6.844838E+02 +1.402033E+01 +2.139550E+00 +1.402033E+01 +5.878516E+02 -2.751982E+01 +2.139550E+00 -2.751982E+01 +1.314376E+03 
 +6.279914E+02 +6.509041E+00 +7.240289E+00 +6.509041E+00 +6.049276E+02 -4.003904E-01 +7.240289E+00 -4.003904E-01 +1.317582E+03 
 +5.811579E+02 -7.287612E+00 +4.731559E+01 -7.287612E+00 +6.176920E+02 +1.812202E+01 +4.731559E+01 +1.812202E+01 +1.427930E+03 
 +5.730590E+02 +1.187929E+01 +1.221221E+00 +1.187929E+01 +6.283411E+02 +3.975824E+01 +1.221221E+00 +3.975824E+01 +1.276475E+03 
 +5.712224E+02 -4.767621E+00 +1.494852E+01 -4.767621E+00 +6.641588E+02 -6.346344E+00 +1.494852E+01 -6.346344E+00 +1.268996E+03 
 +5.867104E+02 -1.022257E+01 -1.909745E+01 -1.022257E+01 +6.437681E+02 -2.681665E+00 -1.909745E+01 -2.681665E+00 +1.413266E+03 
 +5.694019E+02 -3.281158E+01 +2.081713E+00 -3.281158E+01 +6.078689E+02 +8.152390E+00 +2.081713E+00 +8.152390E+00 +1.276996E+03 
 +5.994150E+02 -1.733707E+01 -1.183485E+01 -1.733707E+01 +5.687162E+02 +6.331266E+00 -1.183485E+01 +6.331266E+00 +1.446211E+03 
 +5.863940E+02 -1.750419E+01 +1.819098E+01 -1.750419E+01 +6.233665E+02 -2.058543E+01 +1.819098E+01 -2.058543E+01 +1.322909E+03 
 +5.776003E+02 +2.719070E+01 -2.205975E+01 +2.719070E+01 +5.842104E+02 +2.183979E+01 -2.205975E+01 +2.183979E+01 +1.341444E+03 
 +5.642936E+02 +2.522659E+01 +1.015725E+01 +2.522659E+01 +5.688296E+02 +3.446725E+00 +1.015725E+01 +3.446725E+00 +1.377702E+03 
 +6.587455E+02 +2.747555E+01 +1.038573E+01 +2.747555E+01 +5.711133E+02 -1.149142E+01 +1.038573E+01 -1.149142E+01 +1.246186E+03 
 +5.844048E+02 -1.942290E+01 -4.168988E+00 -1.942290E+01 +5.359884E+02 -1.000602E+01 -4.168988E+00 -1.000602E+01 +1.412191E+03 
 +5.989448E+02 +6.763418E+00 -2.190252E+01 +6.763418E+00 +6.090305E+02 -6.191006E+00 -2.190252E+01 -6.191006E+00 +1.420786E+03 
 +6.297065E+02 +3.228603E+01 -8.699200E+00 +3.228603E+01 +5.870059E+02 +7.230180E+00 -8.699200E+00 +7.230180E+00 +1.306443E+03 
 +5.781847E+02 -2.459381E+00 +6.211689E+00 -2.459381E+00 +5.514521E+02 -2.043742E+01 +6.211689E+00 -2.043742E+01 +1.401125E+03 
 +5.562919E+02 +1.170121E+01 +1.330110E+01 +1.170121E+01 +5.407213E+02 -1.118642E+01 +1.330110E+01 -1.118642E+01 +1.367662E+03 
 +5.492253E+02 -5.191214E+00 +1.214358E+00 -5.191214E+00 +5.457277E+02 +3.061725E+01 +1.214358E+00 +3.061725E+01 +1.349424E+03 
 +5.939797E+02 +6.636772E+00 -2.765676E+01 +6.636772E+00 +5.952110E+02 +1.381989E+01 -2.765676E+01 +1.381989E+01 +1.311125E+03 
 +5.747249E+02 +1.414951E+01 +1.414400E+01 +1.414951E+01 +5.419066E+02 -4.938944E+00 +1.414400E+01 -4.938944E+00 +1.302416E+03 
 +5.824077E+02 +3.206944E+00 +2.685637E+01 +3.206944E+00 +6.338534E+02 -2.733321E+00 +2.685637E+01 -2.733321E+00 +1.410296E+03 
 +5.033033E+02 +1.724678E+01 -5.188703E+00 +1.724678E+01 +6.206918E+02 +7.178540E+00 -5.188703E+00 +7.178540E+00 +1.266139E+03 
 +6.642592E+02 -2.235950E+01 +6.875333E-01 -2.235950E+01 +6.541218E+02 -1.438376E+01 +6.875333E-01 -1.438376E+01 +1.362646E+03 
 +6.458543E+02 +4.118796E+01 +1.655307E+00 +4.118796E+01 +6.540970E+02 -2.095103E+00 +1.655307E+00 -2.095103E+00 +1.352261E+03 
 +6.550416E+02 -5.317589E+01 +8.235539E+00 -5.317589E+01 +6.509200E+02 +3.395154E+00 +8.235539E+00 +3.395154E+00 +1.321047E+03 
 +6.272991E+02 +4.375198E+01 -2.594754E+00 +4.375198E+01 +7.020443E+02 -1.048626E+01 -2.594754E+00 -1.048626E+01 +1.360706E+03 
 +6.264288E+02 +6.020572E+01 +1.167855E+01 +6.020572E+01 +6.471136E+02 +2.326161E+00 +1.167855E+01 +2.326161E+00 +1.327337E+03 
 +5.651420E+02 +1.784988E+00 -2.453725E+01 +1.784988E+00 +5.856258E+02 +1.968584E+01 -2.453725E+01 +1.968584E+01 +1.346091E+03 
 +6.422260E+02 -1.499583E+01 +1.399406E+01 -1.499583E+01 +5.976497E+02 +5.573922E-01 +1.399406E+01 +5.573922E-01 +1.392374E+03 
 +6.003732E+02 -5.162558E+00 -1.903316E+01 -5.162558E+00 +5.799602E+02 +2.547838E+01 -1.903316E+01 +2.547838E+01 +1.416777E+03 
 +6.052585E+02 -2.056064E+01 -2.287541E+01 -2.056064E+01 +6.073110E+02 +9.114022E+00 -2.287541E+01 +9.114022E+00 +1.428503E+03 
 +6.095195E+02 +3.041431E+00 +1.515600E+01 +3.041431E+00 +6.283835E+02 -3.749496E+00 +1.515600E+01 -3.749496E+00 +1.371661E+03 
 +5.852899E+02 +5.642046E+01 -6.985969E+00 +5.642046E+01 +6.263860E+02 -1.962888E+00 -6.985969E+00 -1.962888E+00 +1.307141E+03 
 +5.426890E+02 -1.528162E+01 -6.743339E+00 -1.528162E+01 +6.265692E+02 -1.871778E+01 -6.743339E+00 -1.871778E+01 +1.295803E+03 
 +6.218478E+02 -2.178710E+01 -2.281370E+01 -2.178710E+01 +6.165065E+02 +5.326232E+00 -2.281370E+01 +5.326232E+00 +1.431975E+03 
 +6.175427E+02 +2.323623E+01 -5.407912E+00 +2.323623E+01 +6.565522E+02 -1.872081E+00 -5.407912E+00 -1.872081E+00 +1.311292E+03 
 +6.579479E+02 +3.185413E+01 -9.923243E+00 +3.185413E+01 +5.888213E+02 +3.881884E+01 -9.923243E+00 +3.881884E+01 +1.403347E+03 
 +6.769484E+02 -3.559718E+01 +7.027972E+00 -3.559718E+01 +6.127025E+02 -7.166602E+00 +7.027972E+00 -7.166602E+00 +1.332464E+03 
 +7.229290E+02 +3.399196E+00 -1.940066E+01 +3.399196E+00 +6.359549E+02 -2.962808E+01 -1.940066E+01 -2.962808E+01 +1.355947E+03 
 +5.987233E+02 -9.964601E+00 -2.106078E+01 -9.964601E+00 +6.255458E+02 +1.228471E+01 -2.106078E+01 +1.228471E+01 +1.317798E+03 
 +6.459530E+02 -4.358722E+01 +2.560936E+01 -4.358722E+01 +6.571088E+02 +5.862963E+00 +2.560936E+01 +5.862963E+00 +1.347955E+03 
 +5.789544E+02 -1.488155E+00 +9.133913E+00 -1.488155E+00 +5.880229E+02 -1.782684E+01 +9.133913E+00 -1.782684E+01 +1.339497E+03 
 +7.240146E+02 +3.481440E+01 -1.185893E+00 +3.481440E+01 +6.274733E+02 -4.852068E+00 -1.185893E+00 -4.852068E+00 +1.335153E+03 
 +6.069118E+02 +1.876107E+00 -1.669842E+01 +1.876107E+00 +6.643692E+02 -2.290995E+01 -1.669842E+01 -2.290995E+01 +1.310365E+03 
 +5.572508E+02 -1.504436E+01 -6.006964E+00 -1.504436E+01 +5.532896E+02 -1.776032E+01 -6.006964E+00 -1.776032E+01 +1.347432E+03 
 +5.953750E+02 +1.424620E+01 +1.451719E+01 +1.424620E+01 +5.818671E+02 +4.395915E+00 +1.451719E+01 +4.395915E+00 +1.373484E+03 
 +6.252936E+02 -2.513951E+01 +4.455897E+00 -2.513951E+01 +5.896068E+02 +4.499297E+00 +4.455897E+00 +4.499297E+00 +1.361834E+03 
 +6.199067E+02 +8.185413E+00 -6.366448E+00 +8.185413E+00 +5.437446E+02 +1.792698E+01 -6.366448E+00 +1.792698E+01 +1.363993E+03 
 +5.932617E+02 -1.542655E+01 +2.274708E+01 -1.542655E+01 +5.475274E+02 +2.810150E-01 +2.274708E+01 +2.810150E-01 +1.435593E+03 
 +5.799059E+02 -7.461441E+00 -9.632272E+00 -7.461441E+00 +5.594926E+02 -2.398817E+01 -9.632272E+00 -2.398817E+01 +1.383319E+03 
 +6.698890E+02 +1.384432E+01 -1.435369E+01 +1.384432E+01 +5.922253E+02 +1.864023E+01 -1.435369E+01 +1.864023E+01 +1.315547E+03 
 +5.535760E+02 -7.017687E+00 -4.037658E+00 -7.017687E+00 +5.658088E+02 -1.959790E+01 -4.037658E+00 -1.959790E+01 +1.387324E+03 
 +6.417177E+02 -1.159579E+01 +1.736125E+00 -1.159579E+01 +6.229333E+02 -6.075742E+00 +1.736125E+00 -6.075742E+00 +1.329523E+03 
 +5.246484E+02 +6.707910E+00 +3.734346E+00 +6.707910E+00 +5.784111E+02 +8.313237E+00 +3.734346E+00 +8.313237E+00 +1.361879E+03 
 +6.688513E+02 -2.338179E+01 -2.599267E+00 -2.338179E+01 +5.565721E+02 -1.982347E+01 -2.599267E+00 -1.982347E+01 +1.316493E+03 
 +6.362433E+02 +4.498957E+01 -1.646517E+01 +4.498957E+01 +5.833091E+02 +1.007131E+00 -1.646517E+01 +1.007131E+00 +1.358117E+03 
 +6.518095E+02 +1.792343E+01 -1.718648E+01 +1.792343E+01 +5.990056E+02 +1.199135E+01 -1.718648E+01 +1.199135E+01 +1.382783E+03 
 +6.543181E+02 -3.910624E+01 +3.491496E+01 -3.910624E+01 +6.551083E+02 +1.036547E+01 +3.491496E+01 +1.036547E+01 +1.358175E+03 
 +5.671747E+02 +2.895277E+01 -2.435988E+01 +2.895277E+01 +6.193536E+02 +1.678937E-01 -2.435988E+01 +1.678937E-01 +1.435117E+03 
 +5.745790E+02 -4.233526E+00 -1.126441E+01 -4.233526E+00 +5.785046E+02 -5.019285E+00 -1.126441E+01 -5.019285E+00 +1.275133E+03 
 +5.855977E+02 +2.148416E+01 +2.963295E+01 +2.148416E+01 +6.075455E+02 -1.136844E+01 +2.963295E+01 -1.136844E+01 +1.387965E+03 
 +6.539307E+02 +3.424123E+01 +4.108832E-01 +3.424123E+01 +6.163110E+02 -1.419638E+01 +4.108832E-01 -1.419638E+01 +1.289686E+03 
 +5.907989E+02 -1.760245E+01 -1.606932E+01 -1.760245E+01 +6.132512E+02 -5.244295E+00 -1.606932E+01 -5.244295E+00 +1.357552E+03 
 +6.059328E+02 -1.089635E+00 +1.976981E+01 -1.089635E+00 +6.362484E+02 -8.331720E+00 +1.976981E+01 -8.331720E+00 +1.335274E+03 
 +5.238460E+02 +2.222042E+01 -7.747105E+00 +2.222042E+01 +5.410206E+02 -9.100619E+00 -7.747105E+00 -9.100619E+00 +1.355385E+03 
 +6.208026E+02 +2.002261E+01 -2.212066E-01 +2.002261E+01 +5.744631E+02 +1.063853E+01 -2.212066E-01 +1.063853E+01 +1.304647E+03 
 +6.610167E+02 -3.265271E+01 +4.898881E+00 -3.265271E+01 +6.364966E+02 +1.643274E+01 +4.898881E+00 +1.643274E+01 +1.308187E+03 
 +6.101030E+02 -5.205110E+00 -1.576723E+01 -5.205110E+00 +6.305993E+02 -9.105331E+00 -1.576723E+01 -9.105331E+00 +1.350854E+03 
 +5.837092E+02 +2.182312E+01 +3.226532E+01 +2.182312E+01 +7.029119E+02 +1.096680E+01 +3.226532E+01 +1.096680E+01 +1.336672E+03 
 +6.399546E+02 +2.083951E-02 +1.000383E+01 +2.083951E-02 +6.796301E+02 +2.616824E+01 +1.000383E+01 +2.616824E+01 +1.426373E+03 
 +6.064439E+02 -6.284279E+00 -1.362315E+00 -6.284279E+00 +6.430822E+02 +1.490721E+01 -1.362315E+00 +1.490721E+01 +1.346453E+03 
 +5.871732E+02 -6.730315E+00 +4.743986E+00 -6.730315E+00 +6.137797E+02 -8.335905E+00 +4.743986E+00 -8.335905E+00 +1.352905E+03 
 +6.449190E+02 -1.398916E+01 +1.639115E+01 -1.398916E+01 +5.971036E+02 +1.539033E+01 +1.639115E+01 +1.539033E+01 +1.389015E+03 
 +5.884043E+02 +2.664087E+00 +8.588181E+00 +2.664087E+00 +5.847954E+02 -4.965236E+00 +8.588181E+00 -4.965236E+00 +1.401146E+03 
 +5.863354E+02 -1.064752E+00 +1.996632E+01 -1.064752E+00 +6.208135E+02 +1.790846E+01 +1.996632E+01 +1.790846E+01 +1.377250E+03 
 +6.450852E+02 +4.610320E+01 -7.466080E+00 +4.610320E+01 +6.301072E+02 +1.950742E+01 -7.466080E+00 +1.950742E+01 +1.342147E+03 
 +6.534716E+02 -1.406297E+01 +1.523996E+01 -1.406297E+01 +5.770510E+02 +9.479666E+00 +1.523996E+01 +9.479666E+00 +1.306200E+03 
 +5.914803E+02 +6.484331E+00 -1.014305E+01 +6.484331E+00 +5.698487E+02 +3.630822E+00 -1.014305E+01 +3.630822E+00 +1.414464E+03 
 +6.475198E+02 +1.991609E+00 +1.244640E+01 +1.991609E+00 +6.114413E+02 -2.569021E+01 +1.244640E+01 -2.569021E+01 +1.429125E+03 
 +5.964901E+02 +5.869103E+00 -3.778198E+00 +5.869103E+00 +5.668186E+02 +6.728296E-01 -3.778198E+00 +6.728296E-01 +1.393604E+03 
 +5.961232E+02 -1.617389E+01 +3.066535E+01 -1.617389E+01 +5.765286E+02 +2.002135E+01 +3.066535E+01 +2.002135E+01 +1.360423E+03 
 +6.099865E+02 -1.950775E+01 -2.308483E+01 -1.950775E+01 +5.862985E+02 +1.861592E+01 -2.308483E+01 +1.861592E+01 +1.291921E+03 
 +5.708472E+02 -5.115832E+00 +2.134388E+01 -5.115832E+00 +5.987473E+02 +1.425645E+01 +2.134388E+01 +1.425645E+01 +1.382146E+03 
 +7.202128E+02 -2.806578E+01 +1.544461E+00 -2.806578E+01 +5.986785E+02 -2.174253E+00 +1.544461E+00 -2.174253E+00 +1.292520E+03 
 +5.599188E+02 -3.134285E+00 +9.607326E+00 -3.134285E+00 +5.758539E+02 +3.107925E+01 +9.607326E+00 +3.107925E+01 +1.416541E+03 
 +6.404267E+02 +5.327188E+01 +2.169581E-02 +5.327188E+01 +5.694283E+02 +1.527890E+01 +2.169581E-02 +1.527890E+01 +1.318863E+03 
 +6.118218E+02 +1.302563E+01 +8.955762E+00 +1.302563E+01 +6.032053E+02 +1.101500E+01 +8.955762E+00 +1.101500E+01 +1.348581E+03 
 +6.435703E+02 +2.926624E+01 +9.307981E+00 +2.926624E+01 +6.435521E+02 -1.434474E+01 +9.307981E+00 -1.434474E+01 +1.333115E+03 
 +5.664112E+02 +2.902779E+01 +1.274906E+01 +2.902779E+01 +5.797332E+02 +1.971664E+00 +1.274906E+01 +1.971664E+00 +1.348282E+03 
 +6.229028E+02 -5.295738E+00 +1.510622E+01 -5.295738E+00 +5.487091E+02 +1.704198E+01 +1.510622E+01 +1.704198E+01 +1.254919E+03 
 +5.993040E+02 -1.123267E+01 -3.559304E+01 -1.123267E+01 +6.143409E+02 +4.674125E+01 -3.559304E+01 +4.674125E+01 +1.417183E+03 
 +6.188163E+02 -2.787267E+01 +6.487411E+00 -2.787267E+01 +6.523242E+02 +1.432004E+01 +6.487411E+00 +1.432004E+01 +1.339984E+03 
 +6.386815E+02 -2.089919E+01 -2.303047E+01 -2.089919E+01 +5.657185E+02 +1.096338E+01 -2.303047E+01 +1.096338E+01 +1.328075E+03 
 +6.148155E+02 +1.082035E+00 +2.047679E+01 +1.082035E+00 +6.098596E+02 +9.373432E-02 +2.047679E+01 +9.373432E-02 +1.444399E+03 
 +5.924749E+02 -2.227248E+01 -3.442313E+01 -2.227248E+01 +6.146003E+02 -1.150599E+01 -3.442313E+01 -1.150599E+01 +1.424767E+03 
 +6.964704E+02 +5.257345E+00 -1.788273E+01 +5.257345E+00 +5.981637E+02 +7.421356E+00 -1.788273E+01 +7.421356E+00 +1.348733E+03 
 +5.843786E+02 -8.913890E+00 -1.771641E+01 -8.913890E+00 +5.699917E+02 +3.068541E+01 -1.771641E+01 +3.068541E+01 +1.446814E+03 
 +6.033890E+02 +1.395521E+01 -4.901310E+00 +1.395521E+01 +6.261445E+02 +1.263204E+01 -4.901310E+00 +1.263204E+01 +1.281620E+03 
 +5.931324E+02 +1.323900E+01 +6.411618E+00 +1.323900E+01 +5.868323E+02 -1.204563E+01 +6.411618E+00 -1.204563E+01 +1.373221E+03 
 +6.297057E+02 -3.164467E+01 -2.256682E+01 -3.164467E+01 +5.842351E+02 +4.114814E+01 -2.256682E+01 +4.114814E+01 +1.413657E+03 
 +6.711037E+02 -1.286213E+01 +1.366220E+01 -1.286213E+01 +6.240577E+02 +2.660825E+01 +1.366220E+01 +2.660825E+01 +1.443849E+03 
 +6.251074E+02 -2.967372E+01 +1.219026E+01 -2.967372E+01 +6.248077E+02 -3.078871E+00 +1.219026E+01 -3.078871E+00 +1.363393E+03 
 +5.990070E+02 -1.771376E+01 +1.230788E+01 -1.771376E+01 +6.279979E+02 -1.976065E+01 +1.230788E+01 -1.976065E+01 +1.284548E+03 
 +5.628843E+02 +3.996197E+00 -2.345508E+01 +3.996197E+00 +6.827845E+02 +1.441812E+01 -2.345508E+01 +1.441812E+01 +1.325642E+03 
 +6.104058E+02 +4.987957E+01 -7.729070E+00 +4.987957E+01 +7.157236E+02 -1.009715E+00 -7.729070E+00 -1.009715E+00 +1.330787E+03 
 +5.826989E+02 -3.320497E-02 +8.806569E-01 -3.320497E-02 +6.325630E+02 +1.395311E+01 +8.806569E-01 +1.395311E+01 +1.355898E+03 
 +6.550132E+02 -2.924147E+01 -1.101217E+01 -2.924147E+01 +5.895552E+02 +1.974619E+01 -1.101217E+01 +1.974619E+01 +1.323989E+03 
 +5.608120E+02 -2.712184E+01 -1.484630E+01 -2.712184E+01 +5.561323E+02 -3.355331E+01 -1.484630E+01 -3.355331E+01 +1.355990E+03 
 +6.740424E+02 -5.939212E+01 +4.332136E-01 -5.939212E+01 +5.704792E+02 +1.837125E+01 +4.332136E-01 +1.837125E+01 +1.341938E+03 
 +6.711219E+02 -1.664097E+01 +1.385091E+01 -1.664097E+01 +5.603473E+02 +1.422597E+01 +1.385091E+01 +1.422597E+01 +1.305780E+03 
 +5.897762E+02 -1.653842E+00 -2.713780E+00 -1.653842E+00 +5.423081E+02 +5.318375E+00 -2.713780E+00 +5.318375E+00 +1.282754E+03 
 +6.252749E+02 +4.384982E+00 +2.134867E+01 +4.384982E+00 +6.287710E+02 -2.371542E+01 +2.134867E+01 -2.371542E+01 +1.478700E+03 
 +6.121913E+02 -2.668605E+00 +9.729501E+00 -2.668605E+00 +6.168885E+02 -2.072773E+01 +9.729501E+00 -2.072773E+01 +1.375658E+03 
 +5.643361E+02 +1.400087E+01 +9.586813E+00 +1.400087E+01 +5.966244E+02 -2.682132E+01 +9.586813E+00 -2.682132E+01 +1.275623E+03 
 +6.242579E+02 -3.419916E+01 +1.211711E+01 -3.419916E+01 +6.356465E+02 +4.517930E+00 +1.211711E+01 +4.517930E+00 +1.310421E+03 
 +6.273146E+02 -3.239982E+01 -1.464542E+01 -3.239982E+01 +6.398340E+02 -6.961527E-01 -1.464542E+01 -6.961527E-01 +1.334849E+03 
 +5.388498E+02 +5.865306E+00 -6.635338E+00 +5.865306E+00 +5.662460E+02 -2.230116E+01 -6.635338E+00 -2.230116E+01 +1.370834E+03 
 +6.359565E+02 -7.354223E-01 +5.864570E+00 -7.354223E-01 +5.736537E+02 +1.220296E+01 +5.864570E+00 +1.220296E+01 +1.290247E+03 
 +5.742026E+02 -7.323346E+00 -3.670946E+01 -7.323346E+00 +5.670449E+02 +5.860976E+00 -3.670946E+01 +5.860976E+00 +1.367679E+03 
 +5.885573E+02 +2.696743E+01 +1.415311E+00 +2.696743E+01 +5.812549E+02 -1.509539E+01 +1.415311E+00 -1.509539E+01 +1.349013E+03 
 +5.689744E+02 +6.326027E+00 -1.786449E+01 +6.326027E+00 +6.103144E+02 +1.179454E+01 -1.786449E+01 +1.179454E+01 +1.340682E+03 
 +6.343989E+02 -3.807938E+01 +6.941852E+00 -3.807938E+01 +5.994340E+02 -4.304228E+00 +6.941852E+00 -4.304228E+00 +1.302106E+03 
 +5.785124E+02 +2.304765E+00 +4.205900E-01 +2.304765E+00 +5.949818E+02 +1.262457E+01 +4.205900E-01 +1.262457E+01 +1.412206E+03 
 +5.834299E+02 +3.282357E+01 +2.280668E+01 +3.282357E+01 +6.428802E+02 +1.523552E+01 +2.280668E+01 +1.523552E+01 +1.326560E+03 
 +5.810880E+02 +2.194406E+01 -2.144203E+01 +2.194406E+01 +6.115418E+02 +3.095847E+00 -2.144203E+01 +3.095847E+00 +1.330212E+03 
 +5.781118E+02 +1.863655E+01 -8.378828E+00 +1.863655E+01 +5.452455E+02 -4.283800E+00 -8.378828E+00 -4.283800E+00 +1.432476E+03 
 +7.185939E+02 +3.230222E+00 -1.072825E+01 +3.230222E+00 +6.485360E+02 +8.552225E+00 -1.072825E+01 +8.552225E+00 +1.418785E+03 
 +5.605361E+02 -2.020001E+01 -1.296917E+01 -2.020001E+01 +5.906402E+02 +1.980150E+01 -1.296917E+01 +1.980150E+01 +1.349442E+03 
 +5.895919E+02 -5.476473E+00 -2.192012E+01 -5.476473E+00 +5.751279E+02 -8.025223E+00 -2.192012E+01 -8.025223E+00 +1.348846E+03 
 +5.896736E+02 +1.621011E+01 +3.152912E+01 +1.621011E+01 +5.675468E+02 -1.204563E+00 +3.152912E+01 -1.204563E+00 +1.428352E+03 
 +5.389655E+02 +8.484903E+00 -2.504836E+01 +8.484903E+00 +5.839244E+02 -2.270632E+01 -2.504836E+01 -2.270632E+01 +1.343222E+03 
 +6.279945E+02 +6.926731E+01 -9.086230E+00 +6.926731E+01 +5.831887E+02 +5.742451E+00 -9.086230E+00 +5.742451E+00 +1.326661E+03 
 +6.899338E+02 -1.925617E+00 +2.327440E+00 -1.925617E+00 +5.994500E+02 +9.121344E-01 +2.327440E+00 +9.121344E-01 +1.351261E+03 
 +5.666638E+02 +7.293454E+00 +4.849495E+01 +7.293454E+00 +5.778640E+02 -1.368901E+00 +4.849495E+01 -1.368901E+00 +1.366011E+03 
 +5.621934E+02 +2.408257E+00 -3.092753E+01 +2.408257E+00 +5.482117E+02 +1.596705E+01 -3.092753E+01 +1.596705E+01 +1.372333E+03 
 +6.626285E+02 +7.339006E+00 -1.188183E+01 +7.339006E+00 +5.884878E+02 +1.946079E+01 -1.188183E+01 +1.946079E+01 +1.261069E+03 
 +5.211931E+02 +1.259453E+01 -3.185129E+01 +1.259453E+01 +5.559363E+02 +7.722241E+00 -3.185129E+01 +7.722241E+00 +1.403011E+03 
 +6.007050E+02 -3.106264E+01 +5.632529E+00 -3.106264E+01 +6.237491E+02 +3.964506E+00 +5.632529E+00 +3.964506E+00 +1.275055E+03 
 +6.023620E+02 -2.055524E+00 +3.040378E+01 -2.055524E+00 +5.580004E+02 -4.770140E+00 +3.040378E+01 -4.770140E+00 +1.363792E+03 
 +6.309352E+02 +8.855005E+00 -2.250721E+01 +8.855005E+00 +6.159268E+02 -6.622972E+00 -2.250721E+01 -6.622972E+00 +1.356316E+03 
 +6.023246E+02 -3.357328E+00 +1.741717E+01 -3.357328E+00 +5.968288E+02 -7.220066E+00 +1.741717E+01 -7.220066E+00 +1.356674E+03 
 +5.914847E+02 +1.675965E+00 -2.160749E+01 +1.675965E+00 +5.450216E+02 -3.462265E+01 -2.160749E+01 -3.462265E+01 +1.332891E+03 
 +5.588776E+02 +1.062690E+01 -3.219341E-01 +1.062690E+01 +5.715457E+02 -3.356210E+00 -3.219341E-01 -3.356210E+00 +1.362055E+03 
 +5.916820E+02 -5.111062E+00 -5.217833E+00 -5.111062E+00 +5.811299E+02 +6.107322E+00 -5.217833E+00 +6.107322E+00 +1.446837E+03 
 +6.323058E+02 -5.921991E+00 -1.077545E+01 -5.921991E+00 +5.684650E+02 -1.714074E+01 -1.077545E+01 -1.714074E+01 +1.355290E+03 
 +6.468242E+02 -5.132522E+00 +2.868873E-01 -5.132522E+00 +5.167906E+02 +1.577861E+01 +2.868873E-01 +1.577861E+01 +1.310904E+03 
 +7.278654E+02 -3.055011E+01 -1.426566E+00 -3.055011E+01 +6.420106E+02 +1.636124E+01 -1.426566E+00 +1.636124E+01 +1.387036E+03 
 +5.630564E+02 -1.647419E+01 -1.693566E+01 -1.647419E+01 +5.418723E+02 +5.218946E+00 -1.693566E+01 +5.218946E+00 +1.416848E+03 
 +7.142079E+02 +9.952180E+00 -3.991462E+00 +9.952180E+00 +5.736117E+02 -1.645860E+00 -3.991462E+00 -1.645860E+00 +1.352123E+03 
 +5.898580E+02 +2.646057E+01 -1.735344E+01 +2.646057E+01 +6.545666E+02 -5.302239E+00 -1.735344E+01 -5.302239E+00 +1.361945E+03 
 +5.842474E+02 +5.938146E+00 +1.297550E+01 +5.938146E+00 +6.268509E+02 +3.014982E+00 +1.297550E+01 +3.014982E+00 +1.375756E+03 
 +6.654132E+02 -5.025829E+01 -1.454912E+01 -5.025829E+01 +6.426566E+02 +1.661036E+01 -1.454912E+01 +1.661036E+01 +1.362658E+03 
 +5.527901E+02 -2.079366E+01 -1.411893E+01 -2.079366E+01 +5.516169E+02 -2.746011E+00 -1.411893E+01 -2.746011E+00 +1.309372E+03 
 +5.622640E+02 -9.163644E+00 +2.874586E+01 -9.163644E+00 +5.938174E+02 -1.205100E+01 +2.874586E+01 -1.205100E+01 +1.355260E+03 
 +6.217065E+02 -4.105916E-01 +1.186929E+01 -4.105916E-01 +6.158769E+02 +2.025883E+01 +1.186929E+01 +2.025883E+01 +1.328868E+03 
 +6.433461E+02 -9.764032E+00 +2.567535E+01 -9.764032E+00 +6.137185E+02 +2.672849E+01 +2.567535E+01 +2.672849E+01 +1.413066E+03 
 +5.770002E+02 +6.248097E+01 +1.036755E+01 +6.248097E+01 +6.638554E+02 -1.230776E+01 +1.036755E+01 -1.230776E+01 +1.297174E+03 
 +6.536018E+02 +4.169851E+00 +2.397062E+00 +4.169851E+00 +6.486785E+02 -1.135548E+00 +2.397062E+00 -1.135548E+00 +1.445014E+03 
 +5.691555E+02 +3.794576E+00 +1.283864E+00 +3.794576E+00 +6.228702E+02 -1.100887E+01 +1.283864E+00 -1.100887E+01 +1.303590E+03 
 +6.175839E+02 -3.675937E+00 +1.342173E+01 -3.675937E+00 +6.019595E+02 -4.481361E+01 +1.342173E+01 -4.481361E+01 +1.367097E+03 
 +5.348328E+02 -5.297669E+00 -7.675858E+00 -5.297669E+00 +5.685087E+02 -4.427491E+01 -7.675858E+00 -4.427491E+01 +1.347868E+03 
 +6.635361E+02 -3.810998E+01 +9.441031E+00 -3.810998E+01 +5.610626E+02 +2.434995E+00 +9.441031E+00 +2.434995E+00 +1.312316E+03 
 +5.988937E+02 +4.200955E+00 -3.791355E+01 +4.200955E+00 +6.077916E+02 -1.069516E+01 -3.791355E+01 -1.069516E+01 +1.420930E+03 
 +7.302721E+02 -6.322372E+00 +2.310726E+01 -6.322372E+00 +6.257617E+02 -3.859434E+01 +2.310726E+01 -3.859434E+01 +1.357437E+03 
 +5.715012E+02 +1.619751E+01 +1.573170E+00 +1.619751E+01 +5.890633E+02 -6.670041E+00 +1.573170E+00 -6.670041E+00 +1.418768E+03 
 +6.254707E+02 -4.052458E+01 -1.470866E+01 -4.052458E+01 +5.360131E+02 +3.219260E+01 -1.470866E+01 +3.219260E+01 +1.267598E+03 
 +5.081306E+02 -2.394593E+01 +8.637514E+00 -2.394593E+01 +5.264874E+02 +6.238904E+00 +8.637514E+00 +6.238904E+00 +1.381418E+03 
 +6.026451E+02 +3.347408E+01 -1.213476E+01 +3.347408E+01 +5.736125E+02 -1.012201E+01 -1.213476E+01 -1.012201E+01 +1.361099E+03 
 +5.846795E+02 -3.422934E+00 +1.236915E+01 -3.422934E+00 +6.837682E+02 -5.504906E+00 +1.236915E+01 -5.504906E+00 +1.375952E+03 
 +5.928766E+02 -3.543472E+01 +5.204120E+00 -3.543472E+01 +6.553989E+02 +4.927396E+00 +5.204120E+00 +4.927396E+00 +1.302678E+03 
 +6.039869E+02 -1.570551E+01 +7.041843E+00 -1.570551E+01 +6.274775E+02 +1.798340E+00 +7.041843E+00 +1.798340E+00 +1.416095E+03 
 +6.453318E+02 -4.244392E+01 +1.149885E+01 -4.244392E+01 +5.774127E+02 -1.054165E+01 +1.149885E+01 -1.054165E+01 +1.293823E+03 
 +6.305128E+02 -1.457842E+01 -8.659935E+00 -1.457842E+01 +6.015126E+02 +2.124577E+01 -8.659935E+00 +2.124577E+01 +1.363640E+03 
 +5.966849E+02 +1.086669E+01 -2.052848E+01 +1.086669E+01 +5.964849E+02 -4.776008E+00 -2.052848E+01 -4.776008E+00 +1.380799E+03 
 +5.959893E+02 -6.026155E+00 +2.520335E+01 -6.026155E+00 +5.907724E+02 -2.557995E+00 +2.520335E+01 -2.557995E+00 +1.341979E+03 
 +6.587997E+02 -1.370825E+01 +1.330392E+01 -1.370825E+01 +6.044876E+02 +4.322216E+00 +1.330392E+01 +4.322216E+00 +1.329361E+03 
 +7.019741E+02 +1.877434E+01 +6.880043E+00 +1.877434E+01 +5.528731E+02 -7.913386E+00 +6.880043E+00 -7.913386E+00 +1.340045E+03 
 +5.996688E+02 +1.606472E+01 -2.070607E+01 +1.606472E+01 +5.287432E+02 -3.738069E+01 -2.070607E+01 -3.738069E+01 +1.333408E+03 
 +6.236572E+02 +4.069207E+00 +3.718099E+01 +4.069207E+00 +5.888416E+02 -4.249411E+00 +3.718099E+01 -4.249411E+00 +1.402322E+03 
 +6.170954E+02 -8.629068E+00 +2.792396E+00 -8.629068E+00 +6.166687E+02 -1.072025E+00 +2.792396E+00 -1.072025E+00 +1.331518E+03 
 +6.425807E+02 -2.516044E+00 +4.862535E+00 -2.516044E+00 +5.852467E+02 -3.627680E+01 +4.862535E+00 -3.627680E+01 +1.418400E+03 
 +6.966414E+02 -2.049683E+01 -1.371400E+01 -2.049683E+01 +5.581865E+02 -4.472887E+00 -1.371400E+01 -4.472887E+00 +1.366287E+03 
 +6.181067E+02 +2.412693E+01 -2.585095E+00 +2.412693E+01 +5.676827E+02 -1.170808E+01 -2.585095E+00 -1.170808E+01 +1.313252E+03 
 +5.686713E+02 -1.936562E+01 +1.252803E+01 -1.936562E+01 +5.696029E+02 +1.764500E+01 +1.252803E+01 +1.764500E+01 +1.393913E+03 
 +5.692653E+02 -1.449063E+01 -6.835758E+00 -1.449063E+01 +5.713922E+02 -1.450763E+01 -6.835758E+00 -1.450763E+01 +1.420347E+03 
 +6.608012E+02 -1.463411E+01 +1.120170E+01 -1.463411E+01 +5.636146E+02 +8.691960E+00 +1.120170E+01 +8.691960E+00 +1.298691E+03 
 +5.996334E+02 -1.078717E+00 +4.561060E+00 -1.078717E+00 +5.668763E+02 +1.133904E+01 +4.561060E+00 +1.133904E+01 +1.251982E+03 
 +5.895845E+02 +1.329325E+01 -6.195345E+00 +1.329325E+01 +5.657225E+02 +7.445946E+00 -6.195345E+00 +7.445946E+00 +1.378869E+03 
 +6.419302E+02 +3.240939E+01 +1.033625E+01 +3.240939E+01 +6.441633E+02 +2.041788E+01 +1.033625E+01 +2.041788E+01 +1.330592E+03 
 +5.638636E+02 +4.607971E+00 +4.801275E+01 +4.607971E+00 +5.622015E+02 +1.978779E+01 +4.801275E+01 +1.978779E+01 +1.376057E+03 
 +5.493751E+02 +4.972055E+00 +1.503673E+01 +4.972055E+00 +5.387825E+02 +2.097870E+01 +1.503673E+01 +2.097870E+01 +1.325598E+03 
 +6.059010E+02 +1.809989E+01 +3.370521E+00 +1.809989E+01 +5.936834E+02 -1.244875E+01 +3.370521E+00 -1.244875E+01 +1.333613E+03 
 +5.814946E+02 +2.102734E+01 +6.004869E+00 +2.102734E+01 +6.339996E+02 +1.440408E+01 +6.004869E+00 +1.440408E+01 +1.304132E+03 
 +6.357593E+02 +3.837821E+00 +9.119253E+00 +3.837821E+00 +6.439637E+02 -1.796188E+01 +9.119253E+00 -1.796188E+01 +1.374035E+03 
 +5.831225E+02 -2.695581E+01 -3.964243E+01 -2.695581E+01 +6.218926E+02 +9.210533E+00 -3.964243E+01 +9.210533E+00 +1.385826E+03 
 +5.316042E+02 +1.488427E+01 +9.822506E+00 +1.488427E+01 +6.356650E+02 -6.643759E+00 +9.822506E+00 -6.643759E+00 +1.322904E+03 
 +5.537117E+02 +1.293200E+01 -8.943259E+00 +1.293200E+01 +5.764114E+02 +3.542865E+00 -8.943259E+00 +3.542865E+00 +1.284705E+03 
 +5.547058E+02 +2.503034E+01 +5.354943E-01 +2.503034E+01 +5.470303E+02 -1.303200E+01 +5.354943E-01 -1.303200E+01 +1.411130E+03 
 +6.122035E+02 -3.107550E+01 +1.705878E+01 -3.107550E+01 +6.608640E+02 +3.909332E+00 +1.705878E+01 +3.909332E+00 +1.336233E+03 
 +6.090760E+02 -3.828879E+01 -5.750688E+00 -3.828879E+01 +6.332715E+02 -7.575540E+00 -5.750688E+00 -7.575540E+00 +1.276789E+03 
 +5.494075E+02 +1.218038E+01 +2.304572E+01 +1.218038E+01 +5.628420E+02 +5.781882E-01 +2.304572E+01 +5.781882E-01 +1.338547E+03 
 +6.231251E+02 +1.711229E+00 -9.911224E+00 +1.711229E+00 +6.102704E+02 -1.593977E+01 -9.911224E+00 -1.593977E+01 +1.380307E+03 
 +5.991876E+02 -3.246865E+00 -2.792487E+01 -3.246865E+00 +5.697597E+02 -2.413256E+01 -2.792487E+01 -2.413256E+01 +1.364098E+03 
 +6.475149E+02 -1.758085E+01 +6.372215E-01 -1.758085E+01 +5.805616E+02 -2.255335E+01 +6.372215E-01 -2.255335E+01 +1.320576E+03 
 +5.532794E+02 +1.273391E+00 +5.264804E+00 +1.273391E+00 +6.847202E+02 -1.101398E+01 +5.264804E+00 -1.101398E+01 +1.318687E+03 
 +6.378243E+02 +2.967210E+00 -2.971522E+01 +2.967210E+00 +6.688242E+02 +3.182311E+01 -2.971522E+01 +3.182311E+01 +1.466561E+03 
 +6.035298E+02 +3.841362E+01 -1.045878E+01 +3.841362E+01 +6.878564E+02 +1.124322E+01 -1.045878E+01 +1.124322E+01 +1.320436E+03 
 +6.479193E+02 +3.311599E+01 -1.875640E+01 +3.311599E+01 +6.263580E+02 +7.287269E+00 -1.875640E+01 +7.287269E+00 +1.307538E+03 
 +6.394227E+02 -7.005289E+00 -1.007085E+01 -7.005289E+00 +5.990927E+02 -1.889733E+01 -1.007085E+01 -1.889733E+01 +1.295114E+03 
 +6.583571E+02 -4.072403E+01 +1.974896E+01 -4.072403E+01 +6.131087E+02 +6.556429E+00 +1.974896E+01 +6.556429E+00 +1.339731E+03 
 +6.571571E+02 +1.060993E+01 +4.956834E+00 +1.060993E+01 +6.463314E+02 +6.436591E+00 +4.956834E+00 +6.436591E+00 +1.463813E+03 
 +5.990140E+02 +2.677689E+01 -4.369437E+00 +2.677689E+01 +7.013630E+02 -2.808643E+01 -4.369437E+00 -2.808643E+01 +1.365959E+03 
 +5.391939E+02 -2.773245E+01 -7.470279E+00 -2.773245E+01 +6.598245E+02 +9.777577E+00 -7.470279E+00 +9.777577E+00 +1.307208E+03 
 +6.201427E+02 +5.491106E+00 -2.272064E+01 +5.491106E+00 +6.226898E+02 -1.709318E+01 -2.272064E+01 -1.709318E+01 +1.354034E+03 
 +6.896138E+02 -8.900039E+00 +1.532194E+01 -8.900039E+00 +6.101724E+02 +4.551751E+00 +1.532194E+01 +4.551751E+00 +1.339972E+03 
 +5.495031E+02 +4.195296E+00 -1.809588E+01 +4.195296E+00 +5.836561E+02 -1.037591E+01 -1.809588E+01 -1.037591E+01 +1.351270E+03 
 +6.758762E+02 -3.827689E+00 +2.121455E+01 -3.827689E+00 +6.486628E+02 +3.795676E+00 +2.121455E+01 +3.795676E+00 +1.318194E+03 
 +5.729952E+02 -1.607439E+01 -1.910669E+01 -1.607439E+01 +6.706183E+02 -1.316039E+01 -1.910669E+01 -1.316039E+01 +1.282553E+03 
 +6.870509E+02 -1.821754E+01 +2.498977E+00 -1.821754E+01 +6.227279E+02 -5.961588E+00 +2.498977E+00 -5.961588E+00 +1.352910E+03 
 +5.620936E+02 +1.594386E+01 -1.865087E+01 +1.594386E+01 +5.935861E+02 -1.784704E+01 -1.865087E+01 -1.784704E+01 +1.342191E+03 
 +6.074443E+02 +1.845218E+01 -8.028786E+00 +1.845218E+01 +6.705078E+02 +1.806800E+01 -8.028786E+00 +1.806800E+01 +1.304326E+03 
 +6.020854E+02 -2.461468E+01 +1.544023E+01 -2.461468E+01 +6.586169E+02 +5.494912E+00 +1.544023E+01 +5.494912E+00 +1.331841E+03 
 +5.972827E+02 +7.152501E+00 +2.503585E+01 +7.152501E+00 +5.997614E+02 -1.811713E+01 +2.503585E+01 -1.811713E+01 +1.391202E+03 
 +5.325466E+02 -1.197705E+01 +1.664496E+01 -1.197705E+01 +5.325079E+02 -1.443306E+01 +1.664496E+01 -1.443306E+01 +1.356536E+03 
 +5.571154E+02 +2.032920E+01 +1.445835E+01 +2.032920E+01 +6.013459E+02 -1.942563E+01 +1.445835E+01 -1.942563E+01 +1.277551E+03 
 +6.575963E+02 -3.011559E+01 -6.685513E+00 -3.011559E+01 +6.043582E+02 -4.452784E+00 -6.685513E+00 -4.452784E+00 +1.298763E+03 
 +5.408970E+02 +8.530087E+00 +2.193783E+01 +8.530087E+00 +5.535596E+02 +5.631936E+00 +2.193783E+01 +5.631936E+00 +1.400134E+03 
 +6.132668E+02 -4.191648E+00 +9.910606E-01 -4.191648E+00 +5.932607E+02 +7.638244E+00 +9.910606E-01 +7.638244E+00 +1.402334E+03 
 +6.361004E+02 +2.699350E+01 +6.829249E-01 +2.699350E+01 +6.398440E+02 -1.062307E+01 +6.829249E-01 -1.062307E+01 +1.279166E+03 
 +5.863259E+02 +2.516361E+01 -2.963204E+01 +2.516361E+01 +6.200484E+02 -2.124987E+01 -2.963204E+01 -2.124987E+01 +1.424105E+03 
 +5.246833E+02 -1.257738E+01 -2.338946E+00 -1.257738E+01 +6.501575E+02 -1.887052E+01 -2.338946E+00 -1.887052E+01 +1.257895E+03 
 +6.082144E+02 +2.811116E+01 +2.383265E+01 +2.811116E+01 +6.073687E+02 -1.051796E+01 +2.383265E+01 -1.051796E+01 +1.476256E+03 
 +5.583358E+02 +1.185805E+01 -9.586749E-01 +1.185805E+01 +5.321783E+02 +1.132740E+01 -9.586749E-01 +1.132740E+01 +1.378817E+03 
 +5.678397E+02 +1.282769E+01 -9.618170E+00 +1.282769E+01 +5.650289E+02 +9.126249E+00 -9.618170E+00 +9.126249E+00 +1.375666E+03 
 +6.168770E+02 +4.775771E+01 -3.738529E-01 +4.775771E+01 +5.719730E+02 +5.076285E+00 -3.738529E-01 +5.076285E+00 +1.357630E+03 
 +6.629568E+02 -6.777148E+00 +2.207889E+01 -6.777148E+00 +5.704370E+02 -2.067837E+01 +2.207889E+01 -2.067837E+01 +1.353231E+03 
 +5.714440E+02 +2.549223E+01 -6.141038E+00 +2.549223E+01 +5.708339E+02 +1.352251E+01 -6.141038E+00 +1.352251E+01 +1.326203E+03 
 +5.852351E+02 -1.941648E+01 +2.975834E+01 -1.941648E+01 +5.784240E+02 +1.513632E+01 +2.975834E+01 +1.513632E+01 +1.427552E+03 
 +6.307123E+02 +4.612413E+01 -1.136822E+01 +4.612413E+01 +6.203063E+02 +1.379195E+01 -1.136822E+01 +1.379195E+01 +1.327455E+03 
 +5.588888E+02 +2.541978E+01 -2.382598E+01 +2.541978E+01 +5.832255E+02 -8.760118E-01 -2.382598E+01 -8.760118E-01 +1.402805E+03 
 +7.367482E+02 -6.000245E+00 -3.131706E+00 -6.000245E+00 +5.713417E+02 +3.126941E+01 -3.131706E+00 +3.126941E+01 +1.346299E+03 
 +6.551799E+02 -6.382062E+00 +1.411868E+01 -6.382062E+00 +5.756085E+02 -1.179596E+01 +1.411868E+01 -1.179596E+01 +1.304819E+03 
 +5.050043E+02 -5.719948E+00 +8.573939E+00 -5.719948E+00 +6.072353E+02 +2.513171E+00 +8.573939E+00 +2.513171E+00 +1.302504E+03 
 +7.200167E+02 +4.021051E+01 +1.408629E+00 +4.021051E+01 +6.197024E+02 +8.454930E-01 +1.408629E+00 +8.454930E-01 +1.401457E+03 
 +6.288509E+02 +5.213223E+01 +2.940885E+01 +5.213223E+01 +6.187729E+02 +2.913633E+00 +2.940885E+01 +2.913633E+00 +1.310483E+03 
 +6.068359E+02 -3.259233E+01 +7.006824E+00 -3.259233E+01 +5.863011E+02 +2.423018E+01 +7.006824E+00 +2.423018E+01 +1.290432E+03 
 +6.079421E+02 -3.227822E+01 +2.278001E+00 -3.227822E+01 +6.276028E+02 -6.608616E+00 +2.278001E+00 -6.608616E+00 +1.270905E+03 
 +6.953184E+02 -3.270928E+00 -5.386478E+00 -3.270928E+00 +6.966726E+02 -1.265995E+01 -5.386478E+00 -1.265995E+01 +1.400516E+03 
 +6.200515E+02 -4.087822E+01 -8.394080E+00 -4.087822E+01 +6.670416E+02 +3.022225E-01 -8.394080E+00 +3.022225E-01 +1.343186E+03 
 +6.134153E+02 +7.278738E+00 +2.602117E+01 +7.278738E+00 +6.042350E+02 -1.515320E+01 +2.602117E+01 -1.515320E+01 +1.381603E+03 
 +6.208264E+02 -7.896777E+00 -3.056071E+01 -7.896777E+00 +5.969357E+02 +1.043936E+01 -3.056071E+01 +1.043936E+01 +1.389983E+03 
 +5.785554E+02 -3.128900E+01 +2.168742E+01 -3.128900E+01 +5.930849E+02 -4.023992E+00 +2.168742E+01 -4.023992E+00 +1.322372E+03 
 +7.047546E+02 +9.995147E+00 -3.678732E+00 +9.995147E+00 +5.973634E+02 -1.993080E+00 -3.678732E+00 -1.993080E+00 +1.342303E+03 
 +6.553765E+02 -1.371013E+01 +3.019947E+01 -1.371013E+01 +6.470284E+02 +1.997346E+01 +3.019947E+01 +1.997346E+01 +1.445392E+03 
 +5.984094E+02 -4.005661E+01 -1.430506E+01 -4.005661E+01 +5.785865E+02 -3.183274E+01 -1.430506E+01 -3.183274E+01 +1.313573E+03 
 +6.543038E+02 +5.121583E+00 -1.096113E+01 +5.121583E+00 +6.187880E+02 +4.409160E-01 -1.096113E+01 +4.409160E-01 +1.341958E+03 
 +6.643942E+02 -3.126690E+01 +1.151547E+00 -3.126690E+01 +7.077412E+02 +3.500512E-01 +1.151547E+00 +3.500512E-01 +1.338662E+03 
 +7.066849E+02 -5.389154E+01 +1.719527E+01 -5.389154E+01 +6.795794E+02 -4.185952E+00 +1.719527E+01 -4.185952E+00 +1.364636E+03 
 +5.887451E+02 -1.487999E+01 -3.195704E+01 -1.487999E+01 +5.772443E+02 +3.419521E+01 -3.195704E+01 +3.419521E+01 +1.414444E+03 
 +5.591337E+02 +3.046038E+01 +4.330115E+00 +3.046038E+01 +5.531012E+02 +1.119633E+01 +4.330115E+00 +1.119633E+01 +1.369960E+03 
 +6.098613E+02 +1.845000E+01 -6.657054E+00 +1.845000E+01 +5.993785E+02 +1.280248E+01 -6.657054E+00 +1.280248E+01 +1.404751E+03 
 +6.441610E+02 -2.324933E+01 +3.464157E+01 -2.324933E+01 +7.226339E+02 +2.255232E+01 +3.464157E+01 +2.255232E+01 +1.346125E+03 
 +5.906951E+02 -1.574559E+00 +5.856139E+00 -1.574559E+00 +7.279650E+02 +2.829055E+00 +5.856139E+00 +2.829055E+00 +1.325780E+03 
 +6.551018E+02 +2.012584E+01 -7.782194E+00 +2.012584E+01 +6.094471E+02 +5.247437E+00 -7.782194E+00 +5.247437E+00 +1.298135E+03 
 +5.232245E+02 -2.029760E+01 -7.212509E+00 -2.029760E+01 +4.920237E+02 -4.085895E-01 -7.212509E+00 -4.085895E-01 +1.408734E+03 
 +6.324642E+02 -1.271414E+01 +2.114305E+01 -1.271414E+01 +5.563087E+02 -1.147751E+01 +2.114305E+01 -1.147751E+01 +1.288646E+03 
 +6.205916E+02 +4.617316E+01 -4.277832E-01 +4.617316E+01 +6.922996E+02 +1.832553E+01 -4.277832E-01 +1.832553E+01 +1.309041E+03 
 +6.091721E+02 +1.511073E+01 +3.607907E+00 +1.511073E+01 +6.851550E+02 +2.735715E+00 +3.607907E+00 +2.735715E+00 +1.359216E+03 
 +6.248904E+02 +4.746625E+01 -1.119703E+01 +4.746625E+01 +6.426127E+02 +2.205470E+00 -1.119703E+01 +2.205470E+00 +1.319922E+03 
 +5.436880E+02 -5.210132E+00 -2.288706E+01 -5.210132E+00 +5.837920E+02 +3.499568E+00 -2.288706E+01 +3.499568E+00 +1.299465E+03 
 +6.455948E+02 +4.272528E+01 +8.448979E-01 +4.272528E+01 +6.177128E+02 +2.995141E-01 +8.448979E-01 +2.995141E-01 +1.352084E+03 
 +5.815858E+02 -1.353256E+01 +3.232239E+00 -1.353256E+01 +5.898992E+02 +2.308131E+01 +3.232239E+00 +2.308131E+01 +1.338144E+03 
 +5.554279E+02 +1.237956E+01 -1.611646E+01 +1.237956E+01 +5.528685E+02 -3.350080E+01 -1.611646E+01 -3.350080E+01 +1.340645E+03 
 +5.638810E+02 -2.030258E-01 -7.693852E+00 -2.030258E-01 +5.521269E+02 -4.462469E+01 -7.693852E+00 -4.462469E+01 +1.288554E+03 
 +6.215391E+02 +6.294447E+00 +7.292862E+00 +6.294447E+00 +5.916736E+02 -1.164411E+01 +7.292862E+00 -1.164411E+01 +1.373371E+03 
 +5.997572E+02 +1.484875E+01 +1.218535E+00 +1.484875E+01 +6.064293E+02 -1.260810E+00 +1.218535E+00 -1.260810E+00 +1.372416E+03 
 +6.457039E+02 +4.648660E-01 -1.031341E+01 +4.648660E-01 +5.450223E+02 -1.193539E+01 -1.031341E+01 -1.193539E+01 +1.240343E+03 
 +6.089984E+02 -3.393101E-01 +1.322237E+01 -3.393101E-01 +5.817612E+02 +6.866403E+00 +1.322237E+01 +6.866403E+00 +1.319490E+03 
 +5.494244E+02 +1.122018E+01 -1.940694E+01 +1.122018E+01 +5.207251E+02 -9.777088E+00 -1.940694E+01 -9.777088E+00 +1.304547E+03 
 +5.590566E+02 +1.256078E+01 -1.891660E+01 +1.256078E+01 +5.656205E+02 +1.287508E+00 -1.891660E+01 +1.287508E+00 +1.408476E+03 
 +7.037777E+02 -2.244507E+01 -2.106889E+01 -2.244507E+01 +6.792657E+02 -1.401151E+01 -2.106889E+01 -1.401151E+01 +1.372155E+03 
 +5.507629E+02 +7.475144E-01 +1.326022E+01 +7.475144E-01 +6.399561E+02 +5.745876E+00 +1.326022E+01 +5.745876E+00 +1.341742E+03 
 +5.410107E+02 -1.396981E+01 -2.417412E+01 -1.396981E+01 +5.275239E+02 -5.437255E+00 -2.417412E+01 -5.437255E+00 +1.382175E+03 
 +6.026449E+02 +1.291180E+00 +1.794588E+01 +1.291180E+00 +5.606489E+02 +1.827029E+01 +1.794588E+01 +1.827029E+01 +1.278533E+03 
 +5.794886E+02 -4.841968E+00 +1.076968E+00 -4.841968E+00 +5.440797E+02 -4.927682E+00 +1.076968E+00 -4.927682E+00 +1.428192E+03 
 +6.119890E+02 -2.150822E+01 -7.146770E+00 -2.150822E+01 +6.127381E+02 -1.744704E+01 -7.146770E+00 -1.744704E+01 +1.376888E+03 
 +6.194968E+02 +3.744147E+01 +3.688143E+00 +3.744147E+01 +5.952009E+02 +6.531538E+00 +3.688143E+00 +6.531538E+00 +1.294089E+03 
 +5.420256E+02 -2.896597E+01 -1.477104E+01 -2.896597E+01 +5.955256E+02 -1.430161E+01 -1.477104E+01 -1.430161E+01 +1.299582E+03 
 +5.897225E+02 +3.377324E+00 -7.266369E-01 +3.377324E+00 +6.083127E+02 -4.847518E+00 -7.266369E-01 -4.847518E+00 +1.408734E+03 
 +6.193007E+02 +6.184101E+00 +9.477727E+00 +6.184101E+00 +6.320612E+02 -8.029304E+00 +9.477727E+00 -8.029304E+00 +1.324198E+03 
 +5.743218E+02 -1.485904E+01 -8.179697E-01 -1.485904E+01 +6.769966E+02 -3.272575E+00 -8.179697E-01 -3.272575E+00 +1.287707E+03 
 +5.793151E+02 -4.208220E+01 -1.302081E+01 -4.208220E+01 +5.768326E+02 -1.618852E+01 -1.302081E+01 -1.618852E+01 +1.265345E+03 
 +5.657764E+02 -6.342466E+00 -1.452316E+01 -6.342466E+00 +5.731241E+02 +9.575676E+00 -1.452316E+01 +9.575676E+00 +1.365389E+03 
 +6.958134E+02 +6.189297E+00 -2.310168E+00 +6.189297E+00 +5.881993E+02 +2.495876E+00 -2.310168E+00 +2.495876E+00 +1.344041E+03 
 +6.677045E+02 -4.723917E+01 -2.959089E+01 -4.723917E+01 +5.441145E+02 -1.131180E+01 -2.959089E+01 -1.131180E+01 +1.296719E+03 
 +7.015214E+02 -3.692472E+00 -1.966289E+00 -3.692472E+00 +5.360566E+02 +4.210267E+00 -1.966289E+00 +4.210267E+00 +1.299614E+03 
 +5.544334E+02 +6.997652E+00 -2.385202E+01 +6.997652E+00 +5.623950E+02 -7.375275E+00 -2.385202E+01 -7.375275E+00 +1.382514E+03 
 +5.545779E+02 +1.158737E+01 +6.331789E+00 +1.158737E+01 +5.774576E+02 -2.537689E+01 +6.331789E+00 -2.537689E+01 +1.313241E+03 
 +6.455208E+02 +1.684446E+01 -7.171331E+00 +1.684446E+01 +5.652184E+02 -1.396285E+01 -7.171331E+00 -1.396285E+01 +1.295049E+03 
 +6.028725E+02 -2.176118E+01 +9.105680E+00 -2.176118E+01 +5.773857E+02 -2.571052E+01 +9.105680E+00 -2.571052E+01 +1.387998E+03 
 +7.422974E+02 +2.858298E+01 +3.215644E+00 +2.858298E+01 +5.906232E+02 -1.645171E+01 +3.215644E+00 -1.645171E+01 +1.343275E+03 
 +5.650344E+02 +1.718766E+01 -2.565665E+01 +1.718766E+01 +6.023967E+02 +3.296257E+01 -2.565665E+01 +3.296257E+01 +1.441516E+03 
 +6.453894E+02 -4.357988E+01 -3.524840E+00 -4.357988E+01 +5.413751E+02 -1.485606E+00 -3.524840E+00 -1.485606E+00 +1.294476E+03 
 +5.622247E+02 +4.097594E+00 +7.457292E+00 +4.097594E+00 +6.308060E+02 -2.223064E+01 +7.457292E+00 -2.223064E+01 +1.336467E+03 
 +6.952250E+02 -2.552241E+01 +7.455582E+00 -2.552241E+01 +6.431163E+02 +1.469202E+01 +7.455582E+00 +1.469202E+01 +1.363509E+03 
 +6.461578E+02 +2.061787E+00 +2.416747E+01 +2.061787E+00 +6.720609E+02 -2.789152E+01 +2.416747E+01 -2.789152E+01 +1.384106E+03 
 +5.675569E+02 +1.425884E+00 -2.299241E-01 +1.425884E+00 +5.674813E+02 +1.687035E+01 -2.299241E-01 +1.687035E+01 +1.367080E+03 
 +6.449187E+02 +9.384597E+00 -1.683419E+01 +9.384597E+00 +5.364506E+02 -3.818277E+00 -1.683419E+01 -3.818277E+00 +1.257164E+03 
 +5.990000E+02 +3.855832E+01 -5.979089E+00 +3.855832E+01 +5.869609E+02 -7.657221E+00 -5.979089E+00 -7.657221E+00 +1.283107E+03 
 +5.689006E+02 -4.857505E+00 -1.703701E+01 -4.857505E+00 +5.488940E+02 -1.985770E+00 -1.703701E+01 -1.985770E+00 +1.352165E+03 
 +6.069388E+02 -1.264373E+01 +1.486104E+01 -1.264373E+01 +5.921727E+02 -1.360375E+01 +1.486104E+01 -1.360375E+01 +1.411313E+03 
 +5.821354E+02 -1.902499E+01 +4.301099E+00 -1.902499E+01 +5.981150E+02 +9.499175E+00 +4.301099E+00 +9.499175E+00 +1.267717E+03 
 +6.502200E+02 +3.041811E+01 +5.596606E+00 +3.041811E+01 +6.014417E+02 -1.681486E+01 +5.596606E+00 -1.681486E+01 +1.352438E+03 
 +6.126656E+02 +2.098112E+01 -1.026034E+00 +2.098112E+01 +6.250754E+02 -1.230813E+01 -1.026034E+00 -1.230813E+01 +1.273671E+03 
 +5.852277E+02 +6.532020E+00 +9.409668E+00 +6.532020E+00 +6.284653E+02 +6.715243E+00 +9.409668E+00 +6.715243E+00 +1.366086E+03 
 +5.532316E+02 -2.035757E+01 -8.642950E+00 -2.035757E+01 +6.393759E+02 -7.911766E+00 -8.642950E+00 -7.911766E+00 +1.284813E+03 
 +6.231657E+02 -5.380485E+01 -1.434934E+01 -5.380485E+01 +6.948013E+02 +1.693768E+01 -1.434934E+01 +1.693768E+01 +1.327546E+03 
 +6.008104E+02 -1.061821E+00 -1.626701E+01 -1.061821E+00 +7.363387E+02 -6.488019E+00 -1.626701E+01 -6.488019E+00 +1.314261E+03 
 +6.269560E+02 +1.852760E+00 +2.341693E+01 +1.852760E+00 +6.018250E+02 +3.140841E+00 +2.341693E+01 +3.140841E+00 +1.399366E+03 
 +7.063721E+02 -4.812269E+01 -4.457230E+00 -4.812269E+01 +6.589409E+02 -2.899414E+01 -4.457230E+00 -2.899414E+01 +1.377825E+03 
 +5.833461E+02 -4.515746E+00 +4.522110E+00 -4.515746E+00 +6.192335E+02 -3.403736E+01 +4.522110E+00 -3.403736E+01 +1.368140E+03 
 +6.492875E+02 +1.733223E+01 +5.025936E-01 +1.733223E+01 +5.972929E+02 -1.233226E+01 +5.025936E-01 -1.233226E+01 +1.307111E+03 
 +6.402211E+02 -1.987189E+01 +1.778790E+01 -1.987189E+01 +6.577740E+02 +3.298691E+00 +1.778790E+01 +3.298691E+00 +1.392238E+03 
 +6.248777E+02 +4.235693E+00 +5.805614E+00 +4.235693E+00 +6.269039E+02 -4.976347E+00 +5.805614E+00 -4.976347E+00 +1.359326E+03 
 +6.335143E+02 -7.575360E+00 +5.711894E+00 -7.575360E+00 +5.396349E+02 +2.279847E+00 +5.711894E+00 +2.279847E+00 +1.295374E+03 
 +6.436976E+02 +9.042459E+00 -2.600796E+01 +9.042459E+00 +5.890566E+02 +2.465644E+01 -2.600796E+01 +2.465644E+01 +1.416181E+03 
 +5.687845E+02 -2.200920E+01 +2.849441E+01 -2.200920E+01 +6.036401E+02 +1.263240E+01 +2.849441E+01 +1.263240E+01 +1.343719E+03 
 +6.438801E+02 +9.435841E+00 -1.151286E-01 +9.435841E+00 +5.476734E+02 -1.242571E+01 -1.151286E-01 -1.242571E+01 +1.299607E+03 
 +5.988954E+02 +3.235751E+01 +1.345942E+01 +3.235751E+01 +5.991380E+02 +2.520093E+00 +1.345942E+01 +2.520093E+00 +1.291883E+03 
 +6.025020E+02 -3.531046E+01 +8.807241E+00 -3.531046E+01 +6.539683E+02 +3.329081E+00 +8.807241E+00 +3.329081E+00 +1.290019E+03 
 +6.428264E+02 -4.206833E+01 -2.563607E+00 -4.206833E+01 +6.521918E+02 -7.219935E+00 -2.563607E+00 -7.219935E+00 +1.338242E+03 
 +6.315557E+02 +2.158499E+01 +7.641703E+00 +2.158499E+01 +6.407565E+02 +2.746337E+01 +7.641703E+00 +2.746337E+01 +1.455671E+03 
 +6.741902E+02 +3.913619E+01 +1.624094E+01 +3.913619E+01 +6.447451E+02 -2.558568E+01 +1.624094E+01 -2.558568E+01 +1.319247E+03 
 +6.103000E+02 -2.263449E+01 -1.950622E+01 -2.263449E+01 +6.592387E+02 -1.210946E+01 -1.950622E+01 -1.210946E+01 +1.339365E+03 
 +5.612954E+02 -5.131145E+01 +2.877609E+01 -5.131145E+01 +6.429244E+02 +7.624051E-01 +2.877609E+01 +7.624051E-01 +1.285364E+03 
 +5.926503E+02 -1.920632E+01 +2.812671E+01 -1.920632E+01 +5.817983E+02 +1.346064E+01 +2.812671E+01 +1.346064E+01 +1.355060E+03 
 +6.295695E+02 +1.928569E+01 +2.414413E+00 +1.928569E+01 +6.313085E+02 +7.714130E+00 +2.414413E+00 +7.714130E+00 +1.423574E+03 
 +6.452685E+02 +7.164601E+01 +1.216076E+01 +7.164601E+01 +6.311547E+02 -2.642274E+00 +1.216076E+01 -2.642274E+00 +1.289647E+03 
 +5.483354E+02 -3.190083E-01 +4.842336E+00 -3.190083E-01 +5.371019E+02 -1.536154E+01 +4.842336E+00 -1.536154E+01 +1.425945E+03 
 +5.763604E+02 -2.124630E+01 +1.666845E+01 -2.124630E+01 +6.791980E+02 +1.100717E+01 +1.666845E+01 +1.100717E+01 +1.319579E+03 
 +6.302607E+02 +1.631719E+01 -2.644388E+01 +1.631719E+01 +6.638618E+02 +1.672202E+01 -2.644388E+01 +1.672202E+01 +1.492114E+03 
 +5.675072E+02 +5.610028E+01 -2.999277E+01 +5.610028E+01 +6.728275E+02 -1.330865E+00 -2.999277E+01 -1.330865E+00 +1.269532E+03 
 +6.150881E+02 -1.583886E+01 +2.340566E+01 -1.583886E+01 +5.997847E+02 -3.130820E+01 +2.340566E+01 -3.130820E+01 +1.321582E+03 
 +5.625242E+02 -4.085324E+00 -2.338478E+01 -4.085324E+00 +5.476846E+02 -7.591879E+00 -2.338478E+01 -7.591879E+00 +1.311495E+03 
 +5.454050E+02 -8.317620E+00 -1.424201E+01 -8.317620E+00 +5.778828E+02 -1.373806E+01 -1.424201E+01 -1.373806E+01 +1.412899E+03 
 +5.506368E+02 +3.063276E+01 -1.366445E+01 +3.063276E+01 +5.576275E+02 +2.194715E+01 -1.366445E+01 +2.194715E+01 +1.318449E+03 
 +5.973691E+02 +1.480877E+01 -1.518749E+01 +1.480877E+01 +6.177734E+02 +2.689021E+01 -1.518749E+01 +2.689021E+01 +1.351286E+03 
 +5.747838E+02 -1.390836E+01 -1.596943E+01 -1.390836E+01 +7.218424E+02 +2.031986E+01 -1.596943E+01 +2.031986E+01 +1.347909E+03 
 +5.687660E+02 +3.343571E+00 -1.280495E+01 +3.343571E+00 +7.204155E+02 -1.167631E+00 -1.280495E+01 -1.167631E+00 +1.323956E+03 
 +6.100828E+02 -2.444091E+00 -1.136067E+01 -2.444091E+00 +6.353197E+02 +9.697055E+00 -1.136067E+01 +9.697055E+00 +1.368246E+03 
 +6.228113E+02 -2.984430E+01 +8.878427E+00 -2.984430E+01 +6.539770E+02 -2.049734E+00 +8.878427E+00 -2.049734E+00 +1.346819E+03 
 +6.025771E+02 +4.535995E+00 +6.850809E+00 +4.535995E+00 +6.642889E+02 -2.707551E+01 +6.850809E+00 -2.707551E+01 +1.363204E+03 
 +5.859635E+02 -6.734866E+01 +2.517533E+01 -6.734866E+01 +6.999951E+02 +2.040451E+01 +2.517533E+01 +2.040451E+01 +1.365598E+03 
 +6.174515E+02 -2.983031E+01 -1.903994E+01 -2.983031E+01 +6.867842E+02 +2.629926E+01 -1.903994E+01 +2.629926E+01 +1.358380E+03 
 +7.153204E+02 -6.810008E+00 +3.400032E+00 -6.810008E+00 +6.286184E+02 -1.393794E+01 +3.400032E+00 -1.393794E+01 +1.347912E+03 
 +6.620350E+02 -1.728780E+01 -5.001001E+00 -1.728780E+01 +6.180098E+02 -5.715692E+00 -5.001001E+00 -5.715692E+00 +1.350935E+03 
 +6.648617E+02 +5.451799E+01 -5.295437E+00 +5.451799E+01 +6.102797E+02 +2.010388E+00 -5.295437E+00 +2.010388E+00 +1.302703E+03 
 +5.985231E+02 -6.126631E+00 +6.096221E+00 -6.126631E+00 +6.014402E+02 +2.738744E+01 +6.096221E+00 +2.738744E+01 +1.419919E+03 
 +6.902514E+02 -3.227126E+01 -1.343163E+01 -3.227126E+01 +6.196062E+02 -2.230061E+01 -1.343163E+01 -2.230061E+01 +1.325845E+03 
 +6.604346E+02 +2.243579E+01 -4.688539E+00 +2.243579E+01 +6.284767E+02 -5.388721E+00 -4.688539E+00 -5.388721E+00 +1.380248E+03 
 +7.023893E+02 +4.227624E+01 -1.187980E+01 +4.227624E+01 +5.447575E+02 -6.396578E+00 -1.187980E+01 -6.396578E+00 +1.341214E+03 
 +5.793606E+02 +1.309183E+01 -3.900037E+00 +1.309183E+01 +6.063647E+02 -3.700404E+00 -3.900037E+00 -3.700404E+00 +1.423233E+03 
 +5.895758E+02 -1.070766E+01 -4.554605E+00 -1.070766E+01 +7.332151E+02 +2.893179E+01 -4.554605E+00 +2.893179E+01 +1.314781E+03 
 +6.189410E+02 -1.326788E+01 +1.274367E+01 -1.326788E+01 +6.469139E+02 +1.867277E+01 +1.274367E+01 +1.867277E+01 +1.317713E+03 
 +6.112358E+02 -3.026717E+01 -1.741203E+01 -3.026717E+01 +5.687821E+02 +5.266573E+00 -1.741203E+01 +5.266573E+00 +1.390914E+03 
 +6.960074E+02 +7.379088E+00 +2.367580E+01 +7.379088E+00 +5.862821E+02 +2.571037E+01 +2.367580E+01 +2.571037E+01 +1.346829E+03 
 +6.612117E+02 -3.893537E+01 +2.126807E+01 -3.893537E+01 +6.231855E+02 -1.817033E+01 +2.126807E+01 -1.817033E+01 +1.335570E+03 
 +5.843876E+02 -1.120228E+01 -1.636547E+01 -1.120228E+01 +5.794379E+02 -3.981836E+01 -1.636547E+01 -3.981836E+01 +1.342877E+03 
 +5.568925E+02 -6.860077E+00 +1.511746E+01 -6.860077E+00 +5.843568E+02 -2.168364E+01 +1.511746E+01 -2.168364E+01 +1.355226E+03 
 +6.664160E+02 -1.440578E+01 -3.495627E+01 -1.440578E+01 +6.576212E+02 +7.193429E+00 -3.495627E+01 +7.193429E+00 +1.342987E+03 
 +5.563388E+02 +7.642662E-01 -2.040201E+01 +7.642662E-01 +6.905932E+02 -1.409293E+01 -2.040201E+01 -1.409293E+01 +1.327755E+03 
 +6.637166E+02 -2.432128E+01 -4.135420E+01 -2.432128E+01 +5.975095E+02 -2.445836E+01 -4.135420E+01 -2.445836E+01 +1.363503E+03 
 +6.598637E+02 -1.116343E+01 +9.060625E+00 -1.116343E+01 +6.044234E+02 +1.741986E+01 +9.060625E+00 +1.741986E+01 +1.355903E+03 
 +5.973775E+02 +5.143237E+01 -4.087435E+00 +5.143237E+01 +5.946457E+02 +1.028953E+01 -4.087435E+00 +1.028953E+01 +1.308275E+03 
 +6.945967E+02 +1.090367E+01 +9.641319E+00 +1.090367E+01 +6.802913E+02 +9.668398E+00 +9.641319E+00 +9.668398E+00 +1.415869E+03 
 +5.939174E+02 +4.263559E+01 -5.796669E+00 +4.263559E+01 +6.693398E+02 +1.565726E+01 -5.796669E+00 +1.565726E+01 +1.302068E+03 
 +5.422305E+02 +1.864692E+01 -1.105803E+01 +1.864692E+01 +5.604265E+02 +5.134134E+00 -1.105803E+01 +5.134134E+00 +1.381833E+03 
 +6.178069E+02 -7.704900E+01 +2.847528E-02 -7.704900E+01 +6.012775E+02 +3.770105E+00 +2.847528E-02 +3.770105E+00 +1.294392E+03 
 +6.180706E+02 -2.252488E+00 +1.151525E+01 -2.252488E+00 +6.819612E+02 +7.792168E+00 +1.151525E+01 +7.792168E+00 +1.323525E+03 
 +6.616503E+02 +5.136290E+01 -6.679671E+00 +5.136290E+01 +6.501848E+02 +5.169474E+00 -6.679671E+00 +5.169474E+00 +1.360301E+03 
 +5.317365E+02 -3.125035E+01 -3.574384E+01 -3.125035E+01 +5.507344E+02 +3.016971E+01 -3.574384E+01 +3.016971E+01 +1.340755E+03 
 +5.715861E+02 +2.623534E+00 +7.003209E+00 +2.623534E+00 +5.920882E+02 +7.050749E+00 +7.003209E+00 +7.050749E+00 +1.337014E+03 
 +6.475281E+02 -1.927096E+01 -4.369638E+00 -1.927096E+01 +5.842621E+02 -9.878881E+00 -4.369638E+00 -9.878881E+00 +1.361738E+03 
 +6.422778E+02 -1.817707E+00 +1.049553E+01 -1.817707E+00 +6.047122E+02 +2.758485E+01 +1.049553E+01 +2.758485E+01 +1.339499E+03 
 +6.972785E+02 +1.512325E+00 -2.611592E+00 +1.512325E+00 +6.016601E+02 -8.821670E+00 -2.611592E+00 -8.821670E+00 +1.356186E+03 
 +5.792859E+02 +1.300970E+01 +6.784677E-01 +1.300970E+01 +6.843442E+02 +1.726671E+01 +6.784677E-01 +1.726671E+01 +1.333665E+03 
 +6.158329E+02 -5.676963E+00 +1.482607E+01 -5.676963E+00 +6.635040E+02 +1.526770E+01 +1.482607E+01 +1.526770E+01 +1.362078E+03 
 +5.938212E+02 +4.520217E+01 +6.783911E+00 +4.520217E+01 +6.297625E+02 -2.931317E+00 +6.783911E+00 -2.931317E+00 +1.372045E+03 
 +7.113195E+02 +3.334996E+01 -6.384655E-01 +3.334996E+01 +6.327805E+02 -1.866013E+01 -6.384655E-01 -1.866013E+01 +1.364014E+03 
 +5.914717E+02 -8.449539E+00 +2.594213E+01 -8.449539E+00 +6.433006E+02 -6.637379E+00 +2.594213E+01 -6.637379E+00 +1.335995E+03 
 +6.553261E+02 +5.537030E+00 -4.837194E+00 +5.537030E+00 +6.114547E+02 -3.223524E+01 -4.837194E+00 -3.223524E+01 +1.340445E+03 
 +6.460939E+02 +3.081906E+01 -5.127075E+00 +3.081906E+01 +6.256197E+02 +5.261224E+00 -5.127075E+00 +5.261224E+00 +1.313927E+03 
 +6.814475E+02 +3.758278E+01 +7.828506E+00 +3.758278E+01 +6.480869E+02 +2.465618E+01 +7.828506E+00 +2.465618E+01 +1.389396E+03 
 +4.928625E+02 -5.761887E+00 -2.281266E+01 -5.761887E+00 +6.558730E+02 +1.951112E+00 -2.281266E+01 +1.951112E+00 +1.276158E+03 
 +6.045873E+02 -1.186013E+01 +4.057688E+00 -1.186013E+01 +6.427827E+02 -2.238390E+01 +4.057688E+00 -2.238390E+01 +1.360384E+03 
 +5.633987E+02 +1.894010E+01 -5.987146E+00 +1.894010E+01 +5.838805E+02 -9.684370E+00 -5.987146E+00 -9.684370E+00 +1.326500E+03 
 +5.600927E+02 -1.367730E+00 +3.023196E+01 -1.367730E+00 +5.466506E+02 -1.205371E+01 +3.023196E+01 -1.205371E+01 +1.362245E+03 
 +5.782489E+02 -1.177362E+01 -2.398025E+00 -1.177362E+01 +6.373009E+02 -1.296662E+01 -2.398025E+00 -1.296662E+01 +1.348026E+03 
 +6.452617E+02 +3.596617E+01 +1.702549E+01 +3.596617E+01 +6.767204E+02 -5.146660E-01 +1.702549E+01 -5.146660E-01 +1.367435E+03 
 +5.673787E+02 +3.750889E+00 +1.945467E+00 +3.750889E+00 +6.175668E+02 +5.547528E+00 +1.945467E+00 +5.547528E+00 +1.327076E+03 
 +5.927736E+02 -1.100398E+01 -1.427955E+01 -1.100398E+01 +6.133515E+02 +1.277864E+00 -1.427955E+01 +1.277864E+00 +1.380802E+03 
 +6.704294E+02 -8.018780E+00 -5.927598E+00 -8.018780E+00 +6.393613E+02 +2.282656E+01 -5.927598E+00 +2.282656E+01 +1.300295E+03 
 +6.628829E+02 +3.605385E+00 +5.479807E+00 +3.605385E+00 +5.636770E+02 +8.546694E+00 +5.479807E+00 +8.546694E+00 +1.359278E+03 
 +6.274738E+02 +5.608572E-01 +1.216610E+00 +5.608572E-01 +5.694805E+02 +1.920700E+01 +1.216610E+00 +1.920700E+01 +1.398020E+03 
 +5.458661E+02 -2.326793E+01 +2.587136E+00 -2.326793E+01 +5.553270E+02 -1.530636E+01 +2.587136E+00 -1.530636E+01 +1.377493E+03 
 +5.493189E+02 -1.748813E+00 +2.972798E+00 -1.748813E+00 +5.892975E+02 -2.432687E+01 +2.972798E+00 -2.432687E+01 +1.378226E+03 
 +6.047954E+02 +2.647033E+01 -1.519695E+01 +2.647033E+01 +6.130407E+02 -3.125384E+00 -1.519695E+01 -3.125384E+00 +1.280233E+03 
 +5.519575E+02 +6.020537E+00 -2.012571E+01 +6.020537E+00 +6.009957E+02 +3.938334E+00 -2.012571E+01 +3.938334E+00 +1.438760E+03 
 +5.997991E+02 +1.075904E+01 +3.209741E+01 +1.075904E+01 +6.284156E+02 +1.811002E+01 +3.209741E+01 +1.811002E+01 +1.414792E+03 
 +6.363021E+02 -2.102387E+01 +6.397762E-02 -2.102387E+01 +6.282014E+02 +8.220165E+00 +6.397762E-02 +8.220165E+00 +1.326463E+03 
 +5.948119E+02 -2.374534E+01 +3.919044E+01 -2.374534E+01 +6.544274E+02 +1.586537E+01 +3.919044E+01 +1.586537E+01 +1.335307E+03 
 +6.071935E+02 -5.886407E+01 -8.740611E+00 -5.886407E+01 +6.379061E+02 +1.941650E+01 -8.740611E+00 +1.941650E+01 +1.328700E+03 
 +5.999386E+02 +2.536870E+01 -3.773725E+01 +2.536870E+01 +6.133263E+02 +9.004121E+00 -3.773725E+01 +9.004121E+00 +1.329081E+03 
 +5.845640E+02 -2.041071E+01 -4.185913E+00 -2.041071E+01 +6.117910E+02 +1.058741E+01 -4.185913E+00 +1.058741E+01 +1.397149E+03 
 +6.355359E+02 +2.708529E+00 -4.069674E+00 +2.708529E+00 +5.228915E+02 +9.044060E-01 -4.069674E+00 +9.044060E-01 +1.291412E+03 
 +5.677878E+02 +4.389751E+00 +1.329340E+01 +4.389751E+00 +5.591523E+02 -6.259283E+00 +1.329340E+01 -6.259283E+00 +1.390394E+03 
 +6.217117E+02 -3.108921E+00 -4.386924E+01 -3.108921E+00 +5.997090E+02 +4.832151E+00 -4.386924E+01 +4.832151E+00 +1.347958E+03 
 +6.855939E+02 -1.496945E+01 +1.280055E+01 -1.496945E+01 +5.820107E+02 -1.008549E+01 +1.280055E+01 -1.008549E+01 +1.354583E+03 
 +6.167542E+02 +2.115319E+01 -6.784341E+00 +2.115319E+01 +5.585410E+02 -2.766959E+01 -6.784341E+00 -2.766959E+01 +1.335785E+03 
 +5.324640E+02 -3.591153E-01 -3.536828E+00 -3.591153E-01 +5.452966E+02 -2.513185E+01 -3.536828E+00 -2.513185E+01 +1.384574E+03 
 +6.445526E+02 +2.339956E+01 +7.467393E+00 +2.339956E+01 +6.149571E+02 +6.028595E+00 +7.467393E+00 +6.028595E+00 +1.321103E+03 
 +5.324507E+02 -1.047294E+01 +1.826842E+00 -1.047294E+01 +5.867192E+02 +2.015443E+01 +1.826842E+00 +2.015443E+01 +1.371123E+03 
 +6.718244E+02 -4.157085E+01 -1.021082E+01 -4.157085E+01 +5.856701E+02 -4.792523E+00 -1.021082E+01 -4.792523E+00 +1.308021E+03 
 +5.347689E+02 +2.009732E+01 +1.987751E+01 +2.009732E+01 +7.056930E+02 +4.002038E+00 +1.987751E+01 +4.002038E+00 +1.332339E+03 
 +6.597672E+02 +2.211880E+01 +3.393313E+00 +2.211880E+01 +6.475605E+02 +2.040612E+01 +3.393313E+00 +2.040612E+01 +1.375384E+03 
 +6.268530E+02 -1.826993E+00 +1.585693E+01 -1.826993E+00 +5.806210E+02 -3.480549E+01 +1.585693E+01 -3.480549E+01 +1.357480E+03 
 +6.431396E+02 -2.337144E+01 +2.314062E+01 -2.337144E+01 +5.664213E+02 -1.619596E+01 +2.314062E+01 -1.619596E+01 +1.344508E+03 
 +5.854744E+02 -1.159145E+01 +1.833243E+01 -1.159145E+01 +5.565668E+02 -3.624694E+01 +1.833243E+01 -3.624694E+01 +1.361850E+03 
 +6.210587E+02 +2.368303E+01 -3.362109E+01 +2.368303E+01 +5.991550E+02 -1.339944E+01 -3.362109E+01 -1.339944E+01 +1.426218E+03 
 +6.363120E+02 -1.238941E+01 +5.610362E-01 -1.238941E+01 +6.422907E+02 -2.882653E+00 +5.610362E-01 -2.882653E+00 +1.436384E+03 
 +6.450472E+02 +1.723150E+01 +6.183519E+00 +1.723150E+01 +6.028009E+02 -1.491045E+01 +6.183519E+00 -1.491045E+01 +1.321603E+03 
 +5.832332E+02 +9.290910E-01 +1.769589E+00 +9.290910E-01 +5.791865E+02 +3.995560E+00 +1.769589E+00 +3.995560E+00 +1.366546E+03 
 +6.575389E+02 +4.569867E+01 +1.165025E+00 +4.569867E+01 +6.055267E+02 -4.283727E+00 +1.165025E+00 -4.283727E+00 +1.283877E+03 
 +5.827733E+02 -8.644306E+00 -2.236766E+01 -8.644306E+00 +5.962018E+02 -9.466827E+00 -2.236766E+01 -9.466827E+00 +1.369388E+03 
 +6.335140E+02 +1.183008E+01 +1.345618E+01 +1.183008E+01 +6.644681E+02 -2.274334E+01 +1.345618E+01 -2.274334E+01 +1.356678E+03 
 +5.456279E+02 +2.458639E+00 -8.525167E+00 +2.458639E+00 +6.867819E+02 -5.416478E+00 -8.525167E+00 -5.416478E+00 +1.299696E+03 
 +6.234993E+02 +2.929533E+00 +1.225401E+01 +2.929533E+00 +7.294292E+02 -2.631251E+01 +1.225401E+01 -2.631251E+01 +1.375465E+03 
 +6.356580E+02 -4.922644E+01 +1.503057E+00 -4.922644E+01 +6.997794E+02 +5.497257E+00 +1.503057E+00 +5.497257E+00 +1.356408E+03 
 +6.020386E+02 -6.793414E-01 -5.475965E+00 -6.793414E-01 +6.243134E+02 +2.339326E+01 -5.475965E+00 +2.339326E+01 +1.398969E+03 
 +6.065491E+02 -5.762576E+00 -1.792289E+00 -5.762576E+00 +5.959575E+02 -2.201638E+01 -1.792289E+00 -2.201638E+01 +1.356230E+03 
 +6.111926E+02 -3.608478E+01 +5.814979E+00 -3.608478E+01 +5.610543E+02 +9.497819E+00 +5.814979E+00 +9.497819E+00 +1.266951E+03 
 +6.439133E+02 -3.338166E+00 +1.041420E+01 -3.338166E+00 +6.029297E+02 +8.402787E+00 +1.041420E+01 +8.402787E+00 +1.353287E+03 
 +6.322274E+02 +6.258094E+00 +9.935794E+00 +6.258094E+00 +6.432879E+02 +1.146114E+01 +9.935794E+00 +1.146114E+01 +1.344068E+03 
 +6.124149E+02 +8.170072E-01 +2.513791E+01 +8.170072E-01 +6.473621E+02 -1.991169E-01 +2.513791E+01 -1.991169E-01 +1.391673E+03 
 +5.879347E+02 -9.271813E+00 -1.024878E+01 -9.271813E+00 +5.701716E+02 +5.170075E+00 -1.024878E+01 +5.170075E+00 +1.378967E+03 
 +5.416370E+02 +1.830143E+01 +1.677762E+01 +1.830143E+01 +6.066667E+02 -9.824631E+00 +1.677762E+01 -9.824631E+00 +1.374046E+03 
 +5.617619E+02 +1.513119E+01 -6.687392E+00 +1.513119E+01 +6.802806E+02 -5.490742E+00 -6.687392E+00 -5.490742E+00 +1.334730E+03 
 +6.053839E+02 -9.882651E+00 +1.079021E+01 -9.882651E+00 +7.280038E+02 -9.881710E+00 +1.079021E+01 -9.881710E+00 +1.345154E+03 
 +5.998177E+02 -6.664305E+00 -5.713933E+00 -6.664305E+00 +7.176263E+02 -1.250709E+01 -5.713933E+00 -1.250709E+01 +1.330665E+03 
 +6.503951E+02 -3.193948E+01 -2.282042E+00 -3.193948E+01 +6.130010E+02 +1.050339E+01 -2.282042E+00 +1.050339E+01 +1.378152E+03 
 +6.091976E+02 -8.835462E+00 -1.713334E+01 -8.835462E+00 +5.735848E+02 +1.131665E+01 -1.713334E+01 +1.131665E+01 +1.407229E+03 
 +5.459576E+02 +1.543654E+00 +9.838115E-02 +1.543654E+00 +5.967156E+02 -1.943171E+01 +9.838115E-02 -1.943171E+01 +1.346490E+03 
 +6.375541E+02 +4.752605E+00 -4.956151E+00 +4.752605E+00 +6.281244E+02 -2.413926E+01 -4.956151E+00 -2.413926E+01 +1.411410E+03 
 +6.513188E+02 -2.673973E+01 +2.600625E+01 -2.673973E+01 +6.036440E+02 +5.507820E+00 +2.600625E+01 +5.507820E+00 +1.307421E+03 
 +5.646562E+02 -2.318324E+01 -7.207999E-01 -2.318324E+01 +5.811476E+02 -2.498907E+01 -7.207999E-01 -2.498907E+01 +1.361860E+03 
 +6.043636E+02 -1.102852E+01 -9.330012E+00 -1.102852E+01 +6.535719E+02 -5.997079E+00 -9.330012E+00 -5.997079E+00 +1.341765E+03 
 +6.842434E+02 +3.495947E+01 +4.971519E+00 +3.495947E+01 +6.587024E+02 -7.721907E+00 +4.971519E+00 -7.721907E+00 +1.349114E+03 
 +5.816407E+02 +1.459227E+01 -2.771404E+00 +1.459227E+01 +5.720806E+02 -1.522254E+01 -2.771404E+00 -1.522254E+01 +1.393742E+03 
 +6.145895E+02 -1.921926E+01 -2.943942E+01 -1.921926E+01 +6.320737E+02 +4.799862E+00 -2.943942E+01 +4.799862E+00 +1.280801E+03 
 +6.291470E+02 -1.651358E+01 +7.042397E+00 -1.651358E+01 +6.901251E+02 -1.331200E+01 +7.042397E+00 -1.331200E+01 +1.481160E+03 
 +4.983769E+02 +1.162052E+01 +5.808987E+00 +1.162052E+01 +6.565005E+02 -1.265028E+01 +5.808987E+00 -1.265028E+01 +1.255333E+03 
 +6.080348E+02 -9.625558E+00 +3.034033E+00 -9.625558E+00 +5.987028E+02 -3.886320E+00 +3.034033E+00 -3.886320E+00 +1.299274E+03 
 +5.597820E+02 -4.136142E+01 +1.054797E+01 -4.136142E+01 +6.875504E+02 +2.021811E+00 +1.054797E+01 +2.021811E+00 +1.332252E+03 
 +6.485685E+02 +1.592089E+01 -5.299031E+00 +1.592089E+01 +6.194271E+02 +3.916220E+00 -5.299031E+00 +3.916220E+00 +1.331289E+03 
 +6.540166E+02 -6.438873E+00 +4.808492E+01 -6.438873E+00 +6.359700E+02 +1.150146E+01 +4.808492E+01 +1.150146E+01 +1.392484E+03 
 +6.705185E+02 +1.431900E+01 -7.520583E+00 +1.431900E+01 +7.566048E+02 -8.812153E+00 -7.520583E+00 -8.812153E+00 +1.391945E+03 
 +5.804785E+02 -2.768517E+00 -1.816393E+01 -2.768517E+00 +6.767910E+02 -1.342205E+01 -1.816393E+01 -1.342205E+01 +1.347339E+03 
 +6.932681E+02 +3.758135E+01 -3.689620E+00 +3.758135E+01 +6.848568E+02 +7.732093E+00 -3.689620E+00 +7.732093E+00 +1.333239E+03 
 +5.868118E+02 +3.254241E+01 +1.080219E+01 +3.254241E+01 +6.410345E+02 -4.724763E+00 +1.080219E+01 -4.724763E+00 +1.312644E+03 
 +6.388564E+02 -1.273540E+01 -1.725153E+01 -1.273540E+01 +6.037057E+02 -1.212857E+01 -1.725153E+01 -1.212857E+01 +1.361425E+03 
 +5.662415E+02 -1.768912E+00 +9.078613E-01 -1.768912E+00 +6.458843E+02 -7.173271E+00 +9.078613E-01 -7.173271E+00 +1.303273E+03 
 +6.676533E+02 +3.947482E+01 -1.103787E+01 +3.947482E+01 +6.667297E+02 +1.461979E+01 -1.103787E+01 +1.461979E+01 +1.357487E+03 
 +5.567675E+02 -2.558913E+00 -1.740042E+01 -2.558913E+00 +6.120372E+02 +2.601631E+01 -1.740042E+01 +2.601631E+01 +1.391175E+03 
 +6.283290E+02 -1.618797E+00 +1.133484E+01 -1.618797E+00 +5.994319E+02 +1.950756E+01 +1.133484E+01 +1.950756E+01 +1.378809E+03 
 +6.231653E+02 +7.446927E+00 -2.464357E-01 +7.446927E+00 +6.852111E+02 -1.188016E+00 -2.464357E-01 -1.188016E+00 +1.358101E+03 
 +5.691373E+02 -5.113911E+01 +6.808083E+00 -5.113911E+01 +6.560993E+02 +6.225519E+00 +6.808083E+00 +6.225519E+00 +1.319746E+03 
 +5.891945E+02 +2.827816E+01 -3.703875E+01 +2.827816E+01 +6.041158E+02 +2.221129E+01 -3.703875E+01 +2.221129E+01 +1.308083E+03 
 +6.352510E+02 -4.514596E+00 +2.135063E+01 -4.514596E+00 +6.603800E+02 -5.823072E+00 +2.135063E+01 -5.823072E+00 +1.397934E+03 
 +6.650496E+02 -2.738572E+01 +7.556953E+00 -2.738572E+01 +6.179047E+02 +2.133966E+01 +7.556953E+00 +2.133966E+01 +1.382774E+03 
 +6.233745E+02 +1.148203E+01 -2.202596E+01 +1.148203E+01 +5.627830E+02 -1.061920E+01 -2.202596E+01 -1.061920E+01 +1.364885E+03 
 +5.857925E+02 +1.279667E+01 +1.925344E+01 +1.279667E+01 +5.607887E+02 -2.275808E+01 +1.925344E+01 -2.275808E+01 +1.341534E+03 
 +7.013580E+02 +9.227764E+00 -1.580256E+01 +9.227764E+00 +5.750010E+02 -2.169763E+01 -1.580256E+01 -2.169763E+01 +1.338484E+03 
 +5.852688E+02 +1.136023E+01 +3.651850E+00 +1.136023E+01 +5.799152E+02 -1.815450E+01 +3.651850E+00 -1.815450E+01 +1.328738E+03 
 +6.593304E+02 +1.571975E+01 -2.270053E+01 +1.571975E+01 +5.903934E+02 -6.932824E+00 -2.270053E+01 -6.932824E+00 +1.299039E+03 
 +6.554182E+02 +3.446329E+01 +1.134358E+01 +3.446329E+01 +6.344469E+02 -1.131951E+00 +1.134358E+01 -1.131951E+00 +1.364972E+03 
 +5.949574E+02 -4.309821E+00 -7.146932E+00 -4.309821E+00 +7.257516E+02 +8.125751E+00 -7.146932E+00 +8.125751E+00 +1.309365E+03 
 +5.961293E+02 -1.709743E+00 +2.830713E+01 -1.709743E+00 +5.757955E+02 -4.282554E-01 +2.830713E+01 -4.282554E-01 +1.393765E+03 
 +5.624053E+02 -6.833189E+00 -5.493422E+00 -6.833189E+00 +5.217543E+02 +8.583351E+00 -5.493422E+00 +8.583351E+00 +1.330808E+03 
 +5.769924E+02 -1.728785E+01 +1.918224E+00 -1.728785E+01 +6.181962E+02 +2.938798E+01 +1.918224E+00 +2.938798E+01 +1.272373E+03 
 +5.471470E+02 +3.786384E+01 +1.314862E+01 +3.786384E+01 +6.649175E+02 -5.207586E-01 +1.314862E+01 -5.207586E-01 +1.272877E+03 
 +6.508087E+02 -1.463411E+01 +1.986140E+01 -1.463411E+01 +6.361833E+02 -1.328260E+01 +1.986140E+01 -1.328260E+01 +1.356761E+03 
 +5.686574E+02 -1.747918E+00 -3.971400E-01 -1.747918E+00 +6.206949E+02 +2.043698E+00 -3.971400E-01 +2.043698E+00 +1.298615E+03 
 +5.776845E+02 -2.430032E+01 +3.275681E+01 -2.430032E+01 +5.872168E+02 +3.881258E+00 +3.275681E+01 +3.881258E+00 +1.342579E+03 
 +5.249703E+02 +4.333624E+00 +6.668991E+00 +4.333624E+00 +5.664215E+02 +1.804882E+01 +6.668991E+00 +1.804882E+01 +1.442090E+03 
 +5.856352E+02 +4.012474E+00 -1.352501E+01 +4.012474E+00 +6.733456E+02 +1.703854E+01 -1.352501E+01 +1.703854E+01 +1.327203E+03 
 +5.970267E+02 -1.461937E+00 -8.864422E+00 -1.461937E+00 +5.976503E+02 +2.361209E+01 -8.864422E+00 +2.361209E+01 +1.396927E+03 
 +6.688513E+02 +4.582790E+01 -3.226385E+01 +4.582790E+01 +5.683033E+02 +1.354265E+01 -3.226385E+01 +1.354265E+01 +1.278630E+03 
 +6.645374E+02 -6.272139E+00 -5.859849E+00 -6.272139E+00 +6.124113E+02 +1.425262E+00 -5.859849E+00 +1.425262E+00 +1.351596E+03 
 +6.676158E+02 +4.635657E+01 +2.022003E+01 +4.635657E+01 +5.776678E+02 -7.344752E+00 +2.022003E+01 -7.344752E+00 +1.324277E+03 
 +6.411852E+02 +1.059464E+01 -4.269308E+00 +1.059464E+01 +6.298436E+02 +9.685634E+00 -4.269308E+00 +9.685634E+00 +1.370694E+03 
 +6.117379E+02 -3.849199E+01 +1.697836E+01 -3.849199E+01 +6.885135E+02 +1.755476E+01 +1.697836E+01 +1.755476E+01 +1.358938E+03 
 +5.786174E+02 -3.493725E+01 -9.737884E+00 -3.493725E+01 +6.741764E+02 +6.340743E+00 -9.737884E+00 +6.340743E+00 +1.319551E+03 
 +6.052122E+02 -4.854543E+00 -9.285615E+00 -4.854543E+00 +6.234221E+02 +6.115518E+00 -9.285615E+00 +6.115518E+00 +1.416333E+03 
 +6.698031E+02 -2.467005E+01 -1.455268E+01 -2.467005E+01 +6.131905E+02 +2.879766E+01 -1.455268E+01 +2.879766E+01 +1.333797E+03 
 +5.268204E+02 -1.429444E+01 -9.941708E+00 -1.429444E+01 +5.108603E+02 -8.212959E+00 -9.941708E+00 -8.212959E+00 +1.349263E+03 
 +5.655320E+02 +1.303311E+00 -6.040440E-01 +1.303311E+00 +5.620836E+02 -2.461056E+01 -6.040440E-01 -2.461056E+01 +1.318760E+03 
 +6.080659E+02 -1.932413E+01 -4.490504E+01 -1.932413E+01 +5.787932E+02 -2.229105E+01 -4.490504E+01 -2.229105E+01 +1.328456E+03 
 +6.626054E+02 +1.104131E+01 +3.109757E+01 +1.104131E+01 +6.241457E+02 +1.333749E+00 +3.109757E+01 +1.333749E+00 +1.438720E+03 
 +6.622214E+02 +4.001747E+01 +1.818693E+01 +4.001747E+01 +5.996932E+02 -9.255455E-01 +1.818693E+01 -9.255455E-01 +1.311468E+03 
 +6.264038E+02 -4.451044E+01 +3.094200E+00 -4.451044E+01 +5.640571E+02 -4.537612E+00 +3.094200E+00 -4.537612E+00 +1.278191E+03 
 +6.780553E+02 -2.639869E+01 -3.250883E+01 -2.639869E+01 +6.256373E+02 -1.032873E+01 -3.250883E+01 -1.032873E+01 +1.415949E+03 
 +6.123746E+02 -8.471893E+00 +3.055899E+01 -8.471893E+00 +5.869448E+02 +1.048356E+01 +3.055899E+01 +1.048356E+01 +1.279773E+03 
 +5.671830E+02 -5.068865E+00 -3.299698E+01 -5.068865E+00 +5.728658E+02 +1.059650E+01 -3.299698E+01 +1.059650E+01 +1.305502E+03 
 +7.045269E+02 -2.567653E+01 +3.285836E+00 -2.567653E+01 +6.267859E+02 -2.576500E+01 +3.285836E+00 -2.576500E+01 +1.321431E+03 
 +6.261223E+02 -3.658329E+01 -2.247181E+01 -3.658329E+01 +6.420057E+02 +1.854016E+01 -2.247181E+01 +1.854016E+01 +1.341552E+03 
 +5.505193E+02 -1.408363E+01 +1.057246E+01 -1.408363E+01 +5.733359E+02 +2.057000E+01 +1.057246E+01 +2.057000E+01 +1.361980E+03 
 +6.472197E+02 +7.253376E+00 -3.424906E+01 +7.253376E+00 +6.642451E+02 +2.653088E+00 -3.424906E+01 +2.653088E+00 +1.415474E+03 
 +6.083557E+02 -4.900294E+00 +7.731992E+00 -4.900294E+00 +7.073752E+02 +6.875841E+00 +7.731992E+00 +6.875841E+00 +1.338604E+03 
 +5.639895E+02 -2.849615E+01 +2.057172E+01 -2.849615E+01 +7.186895E+02 -4.378358E+00 +2.057172E+01 -4.378358E+00 +1.310158E+03 
 +6.145517E+02 +4.304610E+01 -1.843942E+01 +4.304610E+01 +6.254371E+02 -2.453380E+00 -1.843942E+01 -2.453380E+00 +1.307424E+03 
 +6.002853E+02 +1.440678E+00 -1.741573E+01 +1.440678E+00 +5.771856E+02 +1.822699E+01 -1.741573E+01 +1.822699E+01 +1.349568E+03 
 +5.838453E+02 -1.279454E+01 -1.498596E+01 -1.279454E+01 +5.710812E+02 +1.532358E+01 -1.498596E+01 +1.532358E+01 +1.326337E+03 
 +5.647056E+02 +2.711769E+00 +1.940206E+01 +2.711769E+00 +5.603115E+02 +1.092878E+00 +1.940206E+01 +1.092878E+00 +1.409274E+03 
 +6.261203E+02 -3.663179E+01 +2.252321E+01 -3.663179E+01 +6.065481E+02 +4.355130E+01 +2.252321E+01 +4.355130E+01 +1.293419E+03 
 +6.014806E+02 -6.834267E+00 +9.438830E+00 -6.834267E+00 +6.184533E+02 +1.492271E+01 +9.438830E+00 +1.492271E+01 +1.446188E+03 
 +5.579589E+02 +2.394177E+01 -1.481086E+00 +2.394177E+01 +6.766066E+02 -1.876036E+01 -1.481086E+00 -1.876036E+01 +1.294050E+03 
 +6.026081E+02 +7.825983E-01 -4.155827E+00 +7.825983E-01 +6.926013E+02 +1.424878E+01 -4.155827E+00 +1.424878E+01 +1.359354E+03 
 +6.616396E+02 -2.728725E+01 -8.546573E+00 -2.728725E+01 +6.730767E+02 +1.292774E+00 -8.546573E+00 +1.292774E+00 +1.339055E+03 
 +5.642022E+02 +6.560286E-01 -3.085640E+00 +6.560286E-01 +5.979894E+02 +3.916443E+00 -3.085640E+00 +3.916443E+00 +1.400786E+03 
 +5.573578E+02 -4.060631E-01 +1.997062E-02 -4.060631E-01 +6.692970E+02 +7.895621E+00 +1.997062E-02 +7.895621E+00 +1.308530E+03 
 +6.148184E+02 +2.190364E+01 +4.442260E+00 +2.190364E+01 +6.792116E+02 -2.047532E+01 +4.442260E+00 -2.047532E+01 +1.374112E+03 
 +5.827991E+02 +1.704657E+01 -1.262986E+01 +1.704657E+01 +5.988722E+02 -8.442901E+00 -1.262986E+01 -8.442901E+00 +1.421418E+03 
 +6.636396E+02 +1.230868E+01 -1.535776E+01 +1.230868E+01 +5.760359E+02 +1.179137E+01 -1.535776E+01 +1.179137E+01 +1.302473E+03 
 +5.949400E+02 +1.619501E+01 +3.653925E+01 +1.619501E+01 +6.271230E+02 -1.280985E+01 +3.653925E+01 -1.280985E+01 +1.330121E+03 
 +5.190974E+02 +4.942305E+01 -9.290810E+00 +4.942305E+01 +6.161544E+02 -5.825962E+00 -9.290810E+00 -5.825962E+00 +1.293434E+03 
 +6.583127E+02 +1.703717E+01 +1.177541E+01 +1.703717E+01 +5.614026E+02 +2.460955E+01 +1.177541E+01 +2.460955E+01 +1.275303E+03 
 +6.356310E+02 +2.944141E+01 -1.312906E+01 +2.944141E+01 +6.308474E+02 +1.410095E+00 -1.312906E+01 +1.410095E+00 +1.399158E+03 
 +6.984983E+02 +1.291443E+01 -1.506336E+01 +1.291443E+01 +5.879415E+02 -3.247339E+00 -1.506336E+01 -3.247339E+00 +1.331282E+03 
 +5.493593E+02 +1.311859E+01 +4.497735E+01 +1.311859E+01 +5.420669E+02 +2.375331E-01 +4.497735E+01 +2.375331E-01 +1.343888E+03 
 +6.953842E+02 +3.175812E+01 -5.881198E-01 +3.175812E+01 +5.941658E+02 +1.151330E+01 -5.881198E-01 +1.151330E+01 +1.336744E+03 
 +6.676806E+02 -5.412635E+01 +4.331872E+00 -5.412635E+01 +5.966225E+02 -1.315458E+01 +4.331872E+00 -1.315458E+01 +1.313636E+03 
 +6.413182E+02 -3.661463E+01 +1.380170E+00 -3.661463E+01 +5.950851E+02 -5.577229E+00 +1.380170E+00 -5.577229E+00 +1.294463E+03 
 +6.135978E+02 +7.269704E+00 +2.876329E+01 +7.269704E+00 +6.197788E+02 -1.244264E+00 +2.876329E+01 -1.244264E+00 +1.394133E+03 
 +6.038294E+02 +1.153493E+01 -1.030530E+01 +1.153493E+01 +5.789092E+02 +2.555528E+01 -1.030530E+01 +2.555528E+01 +1.361042E+03 
 +6.329708E+02 -2.220853E+01 +1.322113E+01 -2.220853E+01 +5.326807E+02 +3.601415E-01 +1.322113E+01 +3.601415E-01 +1.305009E+03 
 +6.094345E+02 +2.088587E+00 -4.817877E+00 +2.088587E+00 +6.118358E+02 +1.498242E+01 -4.817877E+00 +1.498242E+01 +1.441427E+03 
 +6.796932E+02 +5.359547E+01 -3.450698E+00 +5.359547E+01 +6.078407E+02 -7.700221E+00 -3.450698E+00 -7.700221E+00 +1.339030E+03 
 +6.182653E+02 +2.534690E+01 +2.327822E+01 +2.534690E+01 +5.891326E+02 -9.539981E+00 +2.327822E+01 -9.539981E+00 +1.330434E+03 
 +6.307089E+02 +1.442964E+01 +2.813209E+01 +1.442964E+01 +6.344622E+02 +3.345945E+01 +2.813209E+01 +3.345945E+01 +1.331612E+03 
 +6.661085E+02 -1.305990E+01 -1.648339E+01 -1.305990E+01 +6.378869E+02 -2.208650E+01 -1.648339E+01 -2.208650E+01 +1.420203E+03 
 +6.927930E+02 +2.899455E+01 +1.033550E+01 +2.899455E+01 +6.122701E+02 -1.482205E+01 +1.033550E+01 -1.482205E+01 +1.340311E+03 
 +6.199970E+02 +1.428531E+01 -1.356382E+01 +1.428531E+01 +5.937805E+02 -4.483665E+00 -1.356382E+01 -4.483665E+00 +1.413237E+03 
 +6.281376E+02 -3.012579E+01 +1.158022E+00 -3.012579E+01 +5.297708E+02 +1.144686E+01 +1.158022E+00 +1.144686E+01 +1.282035E+03 
 +5.500472E+02 -2.518735E+01 -2.891435E+01 -2.518735E+01 +5.799073E+02 +3.442112E+01 -2.891435E+01 +3.442112E+01 +1.387369E+03 
 +6.060876E+02 -3.598386E+01 +1.067296E+01 -3.598386E+01 +6.685869E+02 +3.755752E+00 +1.067296E+01 +3.755752E+00 +1.327806E+03 
 +5.908636E+02 -1.106015E+01 -3.350594E+01 -1.106015E+01 +6.482913E+02 +1.853830E+01 -3.350594E+01 +1.853830E+01 +1.361982E+03 
 +6.092239E+02 +2.302816E+01 +1.214835E+01 +2.302816E+01 +5.555914E+02 +5.994553E+00 +1.214835E+01 +5.994553E+00 +1.363906E+03 
 +5.346757E+02 -1.652043E+01 -1.304233E+01 -1.652043E+01 +5.706134E+02 +5.386079E+00 -1.304233E+01 +5.386079E+00 +1.357697E+03 
 +6.290103E+02 +1.615630E+01 -1.536169E+01 +1.615630E+01 +5.798104E+02 +2.210650E+01 -1.536169E+01 +2.210650E+01 +1.343162E+03 
 +5.676306E+02 -1.270019E+01 +1.061765E+01 -1.270019E+01 +5.472913E+02 -1.620475E+00 +1.061765E+01 -1.620475E+00 +1.380690E+03 
 +5.405977E+02 +3.452390E+00 +8.350803E+00 +3.452390E+00 +5.698497E+02 -2.526208E+00 +8.350803E+00 -2.526208E+00 +1.354564E+03 
 +6.482446E+02 +2.315512E+01 +1.797952E+01 +2.315512E+01 +6.843914E+02 +1.048167E+01 +1.797952E+01 +1.048167E+01 +1.371243E+03 
 +6.428752E+02 +4.449200E+00 -2.212144E+01 +4.449200E+00 +6.368492E+02 -5.689403E+00 -2.212144E+01 -5.689403E+00 +1.425766E+03 
 +5.250552E+02 +2.219426E+00 -1.872679E+01 +2.219426E+00 +5.430108E+02 -2.457036E+01 -1.872679E+01 -2.457036E+01 +1.307862E+03 
 +5.601367E+02 -3.500010E+00 +1.972085E+01 -3.500010E+00 +6.023719E+02 +1.027902E+01 +1.972085E+01 +1.027902E+01 +1.425218E+03 
 +6.448641E+02 +1.886697E+01 -2.898167E+01 +1.886697E+01 +6.998737E+02 +1.786840E+01 -2.898167E+01 +1.786840E+01 +1.342985E+03 
 +6.586577E+02 -2.522049E+01 +3.471693E+00 -2.522049E+01 +6.420527E+02 +1.248977E+01 +3.471693E+00 +1.248977E+01 +1.345913E+03 
 +6.711939E+02 -1.112361E+01 -1.354262E+01 -1.112361E+01 +5.496167E+02 -1.054187E+01 -1.354262E+01 -1.054187E+01 +1.317539E+03 
 +6.673091E+02 +6.078365E+00 +8.142098E-01 +6.078365E+00 +5.810503E+02 +1.631527E+01 +8.142098E-01 +1.631527E+01 +1.339650E+03 
 +5.667684E+02 -2.129724E+01 -2.321182E+01 -2.129724E+01 +5.668480E+02 -1.109292E+01 -2.321182E+01 -1.109292E+01 +1.381682E+03 
 +5.669882E+02 +3.182468E+00 +2.238107E+01 +3.182468E+00 +5.864999E+02 +1.504941E+01 +2.238107E+01 +1.504941E+01 +1.344018E+03 
 +5.742960E+02 +1.503342E+01 +5.893237E+00 +1.503342E+01 +5.736826E+02 +9.382166E+00 +5.893237E+00 +9.382166E+00 +1.397441E+03 
 +5.959312E+02 +3.564699E-02 +6.292731E+00 +3.564699E-02 +6.341451E+02 +8.770208E+00 +6.292731E+00 +8.770208E+00 +1.321763E+03 
 +7.080026E+02 +3.831172E+01 +5.961846E+00 +3.831172E+01 +5.868743E+02 +2.280092E+00 +5.961846E+00 +2.280092E+00 +1.328401E+03 
 +5.285103E+02 +1.123523E+01 -1.653662E+01 +1.123523E+01 +6.037698E+02 -2.489658E+01 -1.653662E+01 -2.489658E+01 +1.303487E+03 
 +5.570120E+02 -3.948067E+01 +2.805864E+00 -3.948067E+01 +6.790059E+02 +1.918603E+01 +2.805864E+00 +1.918603E+01 +1.301502E+03 
 +5.816367E+02 +2.300823E+00 -8.127074E+00 +2.300823E+00 +5.833680E+02 +2.832251E+00 -8.127074E+00 +2.832251E+00 +1.408721E+03 
 +6.153107E+02 +1.639163E+01 +1.656312E+01 +1.639163E+01 +6.427382E+02 -1.079805E+01 +1.656312E+01 -1.079805E+01 +1.309163E+03 
 +5.630418E+02 +1.283681E+01 +3.656187E-01 +1.283681E+01 +5.454578E+02 -9.512539E+00 +3.656187E-01 -9.512539E+00 +1.397649E+03 
 +5.744620E+02 -2.935326E+01 +3.303237E+00 -2.935326E+01 +6.061351E+02 +1.243700E+01 +3.303237E+00 +1.243700E+01 +1.317901E+03 
 +6.090629E+02 +6.417877E+00 +5.501326E+00 +6.417877E+00 +6.321309E+02 +8.999354E+00 +5.501326E+00 +8.999354E+00 +1.354717E+03 
 +6.324795E+02 +1.391751E+01 -1.464630E+01 +1.391751E+01 +5.989469E+02 +1.664864E+01 -1.464630E+01 +1.664864E+01 +1.347419E+03 
 +5.711487E+02 -2.224485E-02 +1.746068E+00 -2.224485E-02 +5.370147E+02 -7.662046E+00 +1.746068E+00 -7.662046E+00 +1.359316E+03 
 +5.592588E+02 +3.621338E+00 -1.482833E+01 +3.621338E+00 +5.565458E+02 +1.442905E+01 -1.482833E+01 +1.442905E+01 +1.353628E+03 
 +6.138086E+02 -2.057576E+01 +7.322273E+00 -2.057576E+01 +6.046100E+02 -9.880531E+00 +7.322273E+00 -9.880531E+00 +1.352699E+03 
 +6.708314E+02 +1.873121E+01 -1.017297E+01 +1.873121E+01 +5.551588E+02 +9.143680E+00 -1.017297E+01 +9.143680E+00 +1.291422E+03 
 +6.229220E+02 -2.798274E+01 -9.048091E+00 -2.798274E+01 +5.952107E+02 +2.896119E+01 -9.048091E+00 +2.896119E+01 +1.440900E+03 
 +6.386679E+02 -2.879614E+01 -9.389704E-01 -2.879614E+01 +6.210190E+02 +4.995228E+00 -9.389704E-01 +4.995228E+00 +1.353924E+03 
 +5.285595E+02 +2.892945E+01 +9.611198E+00 +2.892945E+01 +6.794200E+02 +2.039215E+01 +9.611198E+00 +2.039215E+01 +1.322548E+03 
 +6.540611E+02 +3.763887E+01 -1.418391E+01 +3.763887E+01 +6.053292E+02 -4.344386E+00 -1.418391E+01 -4.344386E+00 +1.305152E+03 
 +5.352475E+02 +8.782915E+00 +3.405465E+01 +8.782915E+00 +5.500941E+02 +9.785147E+00 +3.405465E+01 +9.785147E+00 +1.384562E+03 
 +7.035258E+02 -4.971433E+01 -1.025288E+01 -4.971433E+01 +6.641229E+02 -5.373172E+00 -1.025288E+01 -5.373172E+00 +1.340420E+03 
 +5.959966E+02 -5.266491E-01 -9.241069E+00 -5.266491E-01 +6.050801E+02 +3.386389E+01 -9.241069E+00 +3.386389E+01 +1.399492E+03 
 +5.759331E+02 -1.231652E+00 -2.107898E+01 -1.231652E+00 +5.836151E+02 +7.100137E+00 -2.107898E+01 +7.100137E+00 +1.291258E+03 
 +5.805049E+02 +2.892614E+00 +1.666990E+00 +2.892614E+00 +6.080197E+02 -2.308101E+01 +1.666990E+00 -2.308101E+01 +1.439773E+03 
 +6.607645E+02 -2.276011E+01 -2.005607E+00 -2.276011E+01 +5.536086E+02 -2.025506E+00 -2.005607E+00 -2.025506E+00 +1.309437E+03 
 +6.595888E+02 -1.895376E+01 +2.086349E+01 -1.895376E+01 +5.567825E+02 -1.740078E+01 +2.086349E+01 -1.740078E+01 +1.280192E+03 
 +6.006971E+02 +6.560613E+01 +4.434559E+00 +6.560613E+01 +6.691600E+02 -9.908902E+00 +4.434559E+00 -9.908902E+00 +1.356981E+03 
 +6.178082E+02 +5.907559E+01 -1.486398E+01 +5.907559E+01 +6.604415E+02 -1.817344E+01 -1.486398E+01 -1.817344E+01 +1.278221E+03 
 +6.304635E+02 +1.532870E+01 +1.112206E+01 +1.532870E+01 +6.340962E+02 -8.958270E+00 +1.112206E+01 -8.958270E+00 +1.327518E+03 
 +6.262297E+02 +4.299110E+01 +2.754161E+00 +4.299110E+01 +6.056808E+02 +3.888145E+01 +2.754161E+00 +3.888145E+01 +1.358997E+03 
 +6.183451E+02 -1.451357E+01 -2.410090E+01 -1.451357E+01 +5.747955E+02 +3.520633E+01 -2.410090E+01 +3.520633E+01 +1.356972E+03 
 +5.782192E+02 +3.294792E+00 +2.259910E+01 +3.294792E+00 +5.908624E+02 +1.496804E+01 +2.259910E+01 +1.496804E+01 +1.369210E+03 
 +6.621204E+02 -2.506487E+01 -8.627523E+00 -2.506487E+01 +5.789306E+02 +1.376440E+01 -8.627523E+00 +1.376440E+01 +1.320892E+03 
 +6.394047E+02 +1.788844E+00 +7.616134E+00 +1.788844E+00 +5.689278E+02 -1.879813E+01 +7.616134E+00 -1.879813E+01 +1.291652E+03 
 +5.780267E+02 +2.896498E+01 +1.186696E+01 +2.896498E+01 +6.259442E+02 -1.036689E+01 +1.186696E+01 -1.036689E+01 +1.423678E+03 
 +5.432136E+02 +3.452394E+01 +9.314813E+00 +3.452394E+01 +6.249904E+02 -7.270612E+00 +9.314813E+00 -7.270612E+00 +1.258255E+03 
 +5.500329E+02 +8.297828E+00 +5.091277E+01 +8.297828E+00 +5.874622E+02 -4.871218E+01 +5.091277E+01 -4.871218E+01 +1.436396E+03 
 +6.053776E+02 -3.189204E+01 +1.041631E+01 -3.189204E+01 +5.663485E+02 -1.868318E+00 +1.041631E+01 -1.868318E+00 +1.257653E+03 
 +6.066041E+02 -1.760318E+01 +3.925893E+01 -1.760318E+01 +5.929600E+02 +4.271847E+00 +3.925893E+01 +4.271847E+00 +1.388651E+03 
 +5.831854E+02 -4.964931E+01 +1.870258E+01 -4.964931E+01 +6.200931E+02 +1.298302E+01 +1.870258E+01 +1.298302E+01 +1.283499E+03 
 +6.553789E+02 -2.285605E+01 +9.828770E+00 -2.285605E+01 +5.952800E+02 +1.521156E+01 +9.828770E+00 +1.521156E+01 +1.335353E+03 
 +5.844076E+02 +1.562254E+01 +2.777600E+00 +1.562254E+01 +5.853246E+02 -8.978479E+00 +2.777600E+00 -8.978479E+00 +1.437292E+03 
 +6.195193E+02 +7.517900E+00 -1.870772E+01 +7.517900E+00 +5.638968E+02 +1.327681E+01 -1.870772E+01 +1.327681E+01 +1.315012E+03 
 +5.959908E+02 -9.702106E-01 +6.058319E+00 -9.702106E-01 +6.335273E+02 -6.438945E+00 +6.058319E+00 -6.438945E+00 +1.381594E+03 
 +5.697759E+02 -1.932109E+01 -1.333677E+01 -1.932109E+01 +5.809360E+02 -2.683486E+01 -1.333677E+01 -2.683486E+01 +1.396315E+03 
 +6.282566E+02 -5.115857E+00 +2.630344E+01 -5.115857E+00 +6.187036E+02 +3.885118E+00 +2.630344E+01 +3.885118E+00 +1.336116E+03 
 +6.474930E+02 +2.773549E+01 -2.095949E+01 +2.773549E+01 +7.148091E+02 -2.179928E+00 -2.095949E+01 -2.179928E+00 +1.394278E+03 
 +5.860572E+02 -2.695153E+01 -1.473848E+01 -2.695153E+01 +6.304559E+02 -5.548900E+00 -1.473848E+01 -5.548900E+00 +1.345288E+03 
 +6.888963E+02 -3.963032E+00 +1.870851E+01 -3.963032E+00 +5.940322E+02 -2.104774E+00 +1.870851E+01 -2.104774E+00 +1.293880E+03 
 +5.272096E+02 -1.946826E+01 +1.438997E+01 -1.946826E+01 +5.331035E+02 +6.398360E+00 +1.438997E+01 +6.398360E+00 +1.327555E+03 
 +6.746439E+02 -4.006604E+01 -1.186676E+01 -4.006604E+01 +6.152722E+02 -5.108195E+00 -1.186676E+01 -5.108195E+00 +1.323857E+03 
 +6.258461E+02 +4.949720E+00 -1.501303E+01 +4.949720E+00 +6.989771E+02 +1.421327E+01 -1.501303E+01 +1.421327E+01 +1.314313E+03 
 +7.026131E+02 -2.911010E+00 -3.764149E+00 -2.911010E+00 +6.396332E+02 +1.552685E+01 -3.764149E+00 +1.552685E+01 +1.384399E+03 
 +5.558829E+02 -3.464299E+01 -6.589872E+00 -3.464299E+01 +6.289874E+02 +6.161350E+00 -6.589872E+00 +6.161350E+00 +1.303234E+03 
 +5.721291E+02 -2.321348E+01 -8.401114E+00 -2.321348E+01 +6.227127E+02 -2.493255E+01 -8.401114E+00 -2.493255E+01 +1.409466E+03 
 +7.254994E+02 -9.794847E+00 +1.829705E+00 -9.794847E+00 +5.636011E+02 -1.299479E+01 +1.829705E+00 -1.299479E+01 +1.303146E+03 
 +6.344693E+02 -3.163828E+01 +2.146038E+01 -3.163828E+01 +5.773726E+02 -2.005158E+01 +2.146038E+01 -2.005158E+01 +1.430704E+03 
 +6.155125E+02 -1.905445E+01 -2.139170E+00 -1.905445E+01 +5.995739E+02 -3.734808E+01 -2.139170E+00 -3.734808E+01 +1.291644E+03 
 +5.906413E+02 -7.474174E+00 -5.328137E+00 -7.474174E+00 +5.727076E+02 -1.841684E+01 -5.328137E+00 -1.841684E+01 +1.314585E+03 
 +6.179113E+02 +3.365627E+01 -2.338761E+01 +3.365627E+01 +5.941445E+02 -2.373251E+01 -2.338761E+01 -2.373251E+01 +1.401400E+03 
 +5.836433E+02 +5.268554E+01 -1.886686E+01 +5.268554E+01 +5.847928E+02 -1.559716E+01 -1.886686E+01 -1.559716E+01 +1.286431E+03 
 +5.825573E+02 +7.260670E+00 -1.891855E+01 +7.260670E+00 +6.014876E+02 +1.028332E+01 -1.891855E+01 +1.028332E+01 +1.437445E+03 
 +6.008033E+02 +1.292522E+01 +2.961405E+01 +1.292522E+01 +5.832556E+02 -5.154567E+00 +2.961405E+01 -5.154567E+00 +1.440538E+03 
 +6.794315E+02 -2.528190E+01 -1.136710E+01 -2.528190E+01 +5.558846E+02 -8.949348E+00 -1.136710E+01 -8.949348E+00 +1.283362E+03 
 +5.319960E+02 -5.107321E+00 +1.043227E+01 -5.107321E+00 +5.474545E+02 +4.193184E+00 +1.043227E+01 +4.193184E+00 +1.361374E+03 
 +6.000229E+02 +6.563991E+00 +1.146895E+01 +6.563991E+00 +5.545626E+02 -2.933913E+00 +1.146895E+01 -2.933913E+00 +1.427991E+03 
 +5.542354E+02 +1.632639E+01 +1.095929E+01 +1.632639E+01 +5.766283E+02 -1.938273E+01 +1.095929E+01 -1.938273E+01 +1.345534E+03 
 +5.972462E+02 -6.096681E-01 -2.679419E+00 -6.096681E-01 +5.971867E+02 -3.192389E+00 -2.679419E+00 -3.192389E+00 +1.373452E+03 
 +6.034660E+02 -3.465741E+00 -6.928099E+00 -3.465741E+00 +5.817703E+02 -2.173643E+01 -6.928099E+00 -2.173643E+01 +1.372164E+03 
 +5.698068E+02 -1.314573E+01 +1.814352E+01 -1.314573E+01 +5.508687E+02 +8.180958E+00 +1.814352E+01 +8.180958E+00 +1.346508E+03 
 +6.230099E+02 -1.922174E+01 +9.901614E+00 -1.922174E+01 +6.754157E+02 +5.474775E+00 +9.901614E+00 +5.474775E+00 +1.372635E+03 
 +5.786146E+02 -1.797017E+01 +3.954948E+01 -1.797017E+01 +6.302754E+02 +1.950520E+01 +3.954948E+01 +1.950520E+01 +1.327451E+03 
 +5.906252E+02 +2.497048E+01 -8.344691E+00 +2.497048E+01 +5.957007E+02 +7.673450E+00 -8.344691E+00 +7.673450E+00 +1.268885E+03 
 +6.065085E+02 +6.199703E+00 +2.816187E+01 +6.199703E+00 +6.147154E+02 +2.911435E+01 +2.816187E+01 +2.911435E+01 +1.356748E+03 
 +5.672018E+02 +4.160725E+00 -1.846904E+01 +4.160725E+00 +5.673950E+02 -2.155844E+00 -1.846904E+01 -2.155844E+00 +1.417412E+03 
 +6.238055E+02 +9.211722E+00 +1.790933E+01 +9.211722E+00 +5.673204E+02 +9.560294E-02 +1.790933E+01 +9.560294E-02 +1.336913E+03 
 +5.547161E+02 -3.786763E+00 -2.077736E+01 -3.786763E+00 +5.946678E+02 -2.238759E+01 -2.077736E+01 -2.238759E+01 +1.289034E+03 
 +6.470925E+02 +4.654958E+01 +5.166560E+00 +4.654958E+01 +7.008429E+02 -1.873691E+01 +5.166560E+00 -1.873691E+01 +1.354453E+03 
 +6.471830E+02 +2.915487E+01 -2.874823E+00 +2.915487E+01 +7.092427E+02 +8.416456E+00 -2.874823E+00 +8.416456E+00 +1.357531E+03 
 +6.531985E+02 +3.366879E+01 +1.369025E+01 +3.366879E+01 +6.181024E+02 -3.746763E+01 +1.369025E+01 -3.746763E+01 +1.321490E+03 
 +5.638112E+02 +9.585550E+00 +4.005309E+01 +9.585550E+00 +6.231499E+02 -1.822673E+01 +4.005309E+01 -1.822673E+01 +1.338842E+03 
 +6.027919E+02 -2.557614E+01 -1.524441E+01 -2.557614E+01 +6.047290E+02 +1.647040E+01 -1.524441E+01 +1.647040E+01 +1.298498E+03 
 +5.511785E+02 +9.394230E+00 +2.314415E+01 +9.394230E+00 +5.513676E+02 +6.832237E-01 +2.314415E+01 +6.832237E-01 +1.427207E+03 
 +6.130961E+02 -1.958287E+01 +1.724142E+01 -1.958287E+01 +5.849011E+02 +3.204132E+00 +1.724142E+01 +3.204132E+00 +1.372425E+03 
 +6.669629E+02 +3.782179E+01 +1.348971E+00 +3.782179E+01 +6.241056E+02 -2.509317E+00 +1.348971E+00 -2.509317E+00 +1.329914E+03 
 +5.775289E+02 -1.662521E+00 +1.531707E+01 -1.662521E+00 +6.474930E+02 -5.576515E+00 +1.531707E+01 -5.576515E+00 +1.307909E+03 
 +5.777604E+02 -1.780888E+01 -1.091743E+01 -1.780888E+01 +5.767349E+02 +1.323588E+01 -1.091743E+01 +1.323588E+01 +1.459599E+03 
 +6.222009E+02 +3.614684E+00 -4.153610E+00 +3.614684E+00 +5.503115E+02 +6.645223E+00 -4.153610E+00 +6.645223E+00 +1.339891E+03 
 +6.347899E+02 -1.258053E+01 +1.421529E+01 -1.258053E+01 +6.110649E+02 -2.129315E+01 +1.421529E+01 -2.129315E+01 +1.423660E+03 
 +6.010287E+02 +1.279285E+00 -6.998214E+00 +1.279285E+00 +6.296546E+02 +6.880089E+00 -6.998214E+00 +6.880089E+00 +1.315671E+03 
 +6.799257E+02 +7.539559E+00 +2.311814E+00 +7.539559E+00 +5.679078E+02 -6.562279E+00 +2.311814E+00 -6.562279E+00 +1.305874E+03 
 +5.018610E+02 +1.577002E+01 +2.080209E+01 +1.577002E+01 +4.993848E+02 -1.287566E+01 +2.080209E+01 -1.287566E+01 +1.376413E+03 
 +6.345856E+02 +2.369382E+01 +2.852079E+00 +2.369382E+01 +5.761579E+02 +1.002502E+01 +2.852079E+00 +1.002502E+01 +1.305337E+03 
 +5.012570E+02 +9.112701E+00 -6.308229E+00 +9.112701E+00 +7.080920E+02 -2.126890E+01 -6.308229E+00 -2.126890E+01 +1.311701E+03 
 +6.730994E+02 -4.215755E+01 -1.352375E+01 -4.215755E+01 +6.398553E+02 +3.934522E-01 -1.352375E+01 +3.934522E-01 +1.333252E+03 
 +5.738488E+02 -8.865514E+00 +1.501655E+01 -8.865514E+00 +5.888242E+02 +1.935509E+01 +1.501655E+01 +1.935509E+01 +1.491612E+03 
 +5.378525E+02 -1.619285E+01 -4.201765E+00 -1.619285E+01 +6.456962E+02 +4.793245E+00 -4.201765E+00 +4.793245E+00 +1.289004E+03 
 +5.729918E+02 +2.087445E+01 -3.970737E+00 +2.087445E+01 +5.953444E+02 +6.067263E-01 -3.970737E+00 +6.067263E-01 +1.356868E+03 
 +6.879153E+02 -4.243375E+01 -1.328206E+01 -4.243375E+01 +5.585782E+02 -1.200108E+01 -1.328206E+01 -1.200108E+01 +1.274359E+03 
 +5.904293E+02 -1.831251E+01 -1.410013E+01 -1.831251E+01 +6.879812E+02 +1.570791E-01 -1.410013E+01 +1.570791E-01 +1.299976E+03 
 +6.029731E+02 +1.567315E+01 +1.464353E+01 +1.567315E+01 +6.513145E+02 -1.467212E+01 +1.464353E+01 -1.467212E+01 +1.337049E+03 
 +6.186992E+02 +4.697359E+00 +1.796726E+00 +4.697359E+00 +5.636188E+02 +2.011778E+01 +1.796726E+00 +2.011778E+01 +1.302434E+03 
 +6.440531E+02 +3.420787E+01 -1.104879E+00 +3.420787E+01 +6.104998E+02 +5.176183E-01 -1.104879E+00 +5.176183E-01 +1.304859E+03 
 +5.125301E+02 +2.108460E+01 -3.658481E+00 +2.108460E+01 +6.499469E+02 -1.219625E+01 -3.658481E+00 -1.219625E+01 +1.308918E+03 
 +6.766454E+02 -8.981509E-01 -1.140242E+00 -8.981509E-01 +6.615033E+02 +1.074362E+01 -1.140242E+00 +1.074362E+01 +1.346112E+03 
 +6.207806E+02 +2.192963E+01 -1.077807E+01 +2.192963E+01 +6.225055E+02 +5.237360E+00 -1.077807E+01 +5.237360E+00 +1.357762E+03 
 +6.412115E+02 -1.577623E+01 +4.731857E+00 -1.577623E+01 +5.922658E+02 -6.021688E+00 +4.731857E+00 -6.021688E+00 +1.294182E+03 
 +6.314343E+02 -2.316481E+00 -6.269783E+00 -2.316481E+00 +6.450096E+02 -3.663093E+01 -6.269783E+00 -3.663093E+01 +1.404734E+03 
 +5.577974E+02 -2.118296E+01 -3.503607E+00 -2.118296E+01 +6.585256E+02 +1.885037E+01 -3.503607E+00 +1.885037E+01 +1.260538E+03 
 +6.863695E+02 +3.608799E+00 -1.377230E+01 +3.608799E+00 +6.727105E+02 -4.272155E+00 -1.377230E+01 -4.272155E+00 +1.416322E+03 
 +5.650523E+02 -1.909301E+01 +1.283010E+00 -1.909301E+01 +6.717091E+02 +2.234012E+01 +1.283010E+00 +2.234012E+01 +1.272426E+03 
 +6.383543E+02 -4.835139E+00 +1.140546E+01 -4.835139E+00 +6.562126E+02 -9.904721E+00 +1.140546E+01 -9.904721E+00 +1.376071E+03 
 +5.637371E+02 +1.582308E+01 -2.949874E+00 +1.582308E+01 +6.913553E+02 -1.067207E+01 -2.949874E+00 -1.067207E+01 +1.340934E+03 
 +6.989755E+02 -8.552497E+00 +2.055712E+01 -8.552497E+00 +6.349399E+02 -1.411886E+01 +2.055712E+01 -1.411886E+01 +1.370289E+03 
 +6.276836E+02 +4.162899E+00 +1.432723E+01 +4.162899E+00 +5.879792E+02 +1.041624E+01 +1.432723E+01 +1.041624E+01 +1.324530E+03 
 +5.977604E+02 -4.525970E+00 -4.036086E+00 -4.525970E+00 +5.943356E+02 -9.649327E+00 -4.036086E+00 -9.649327E+00 +1.410154E+03 
 +6.149174E+02 -3.599213E+00 -7.185511E+00 -3.599213E+00 +5.955227E+02 -1.440169E+01 -7.185511E+00 -1.440169E+01 +1.456994E+03 
 +7.621473E+02 -2.593950E+01 +7.967572E+00 -2.593950E+01 +5.927341E+02 -1.817711E+01 +7.967572E+00 -1.817711E+01 +1.366673E+03 
 +5.945830E+02 +1.310533E+01 -6.526326E-01 +1.310533E+01 +6.578593E+02 -8.595535E+00 -6.526326E-01 -8.595535E+00 +1.327452E+03 
 +5.675433E+02 +2.912955E+01 -5.524636E+00 +2.912955E+01 +6.757018E+02 +2.343210E+01 -5.524636E+00 +2.343210E+01 +1.317181E+03 
 +6.059616E+02 +5.496943E+00 -2.383008E+01 +5.496943E+00 +6.179816E+02 -3.874622E+01 -2.383008E+01 -3.874622E+01 +1.247345E+03 
 +5.370583E+02 +2.348243E+01 -1.573657E+01 +2.348243E+01 +5.669252E+02 -7.857868E+00 -1.573657E+01 -7.857868E+00 +1.355222E+03 
 +6.738378E+02 -3.710163E+01 +1.483791E+00 -3.710163E+01 +6.628988E+02 +3.272010E-01 +1.483791E+00 +3.272010E-01 +1.336688E+03 
 +5.741582E+02 -1.783750E+01 +6.418745E+00 -1.783750E+01 +7.061781E+02 -3.742967E+00 +6.418745E+00 -3.742967E+00 +1.361635E+03 
 +6.280751E+02 +2.786590E+00 -2.081059E+00 +2.786590E+00 +6.430173E+02 +9.458873E+00 -2.081059E+00 +9.458873E+00 +1.300533E+03 
 +6.024250E+02 -1.818567E+01 -6.782888E+00 -1.818567E+01 +6.588339E+02 -2.072408E+01 -6.782888E+00 -2.072408E+01 +1.391589E+03 
 +7.501703E+02 +1.045534E+01 +1.514852E+01 +1.045534E+01 +6.381442E+02 -4.167847E+00 +1.514852E+01 -4.167847E+00 +1.373840E+03 
 +6.350419E+02 -1.349760E+01 -1.470597E+01 -1.349760E+01 +6.332496E+02 -9.618086E+00 -1.470597E+01 -9.618086E+00 +1.283006E+03 
 +5.949379E+02 -1.467399E+00 -1.926165E+01 -1.467399E+00 +6.110613E+02 -2.249370E+00 -1.926165E+01 -2.249370E+00 +1.418711E+03 
 +5.273076E+02 +3.311901E+01 -2.137066E+01 +3.311901E+01 +5.831793E+02 -1.610479E+00 -2.137066E+01 -1.610479E+00 +1.227779E+03 
 +6.153580E+02 -4.678214E+00 -4.330445E+00 -4.678214E+00 +6.493418E+02 +3.155165E+01 -4.330445E+00 +3.155165E+01 +1.416563E+03 
 +6.502829E+02 -1.170149E+01 +4.108730E+01 -1.170149E+01 +6.344427E+02 +1.121445E+01 +4.108730E+01 +1.121445E+01 +1.405895E+03 
 +6.211415E+02 +3.367083E+01 +1.411049E+01 +3.367083E+01 +6.096751E+02 -1.152248E+01 +1.411049E+01 -1.152248E+01 +1.324467E+03 
 +6.054070E+02 +1.774504E+01 -3.782688E+01 +1.774504E+01 +5.687103E+02 +1.120456E+01 -3.782688E+01 +1.120456E+01 +1.371887E+03 
 +6.426522E+02 +2.573422E+01 -1.380531E+01 +2.573422E+01 +6.251036E+02 +4.518519E+01 -1.380531E+01 +4.518519E+01 +1.346321E+03 
 +5.951110E+02 -1.515248E+01 +1.121285E+01 -1.515248E+01 +6.212438E+02 +1.105321E+01 +1.121285E+01 +1.105321E+01 +1.394516E+03 
 +6.920934E+02 +1.726273E+01 -3.907527E+00 +1.726273E+01 +5.977641E+02 -2.340549E+01 -3.907527E+00 -2.340549E+01 +1.389927E+03 
 +5.686991E+02 -2.842891E+00 +1.374221E+01 -2.842891E+00 +5.616718E+02 -1.835465E+01 +1.374221E+01 -1.835465E+01 +1.431181E+03 
 +5.912933E+02 -2.125645E+01 -2.417523E+01 -2.125645E+01 +6.010947E+02 -1.653537E+01 -2.417523E+01 -1.653537E+01 +1.396243E+03 
 +5.943271E+02 +2.030712E+01 -8.492188E-01 +2.030712E+01 +6.158864E+02 -8.970531E+00 -8.492188E-01 -8.970531E+00 +1.361489E+03 
 +6.495220E+02 -5.852422E+01 +1.717112E+01 -5.852422E+01 +6.315093E+02 +1.071142E+00 +1.717112E+01 +1.071142E+00 +1.317676E+03 
 +6.129285E+02 +2.393360E+01 -1.567679E+01 +2.393360E+01 +7.063502E+02 +3.578715E+00 -1.567679E+01 +3.578715E+00 +1.367343E+03 
 +5.894818E+02 -2.716894E+01 +1.223354E+00 -2.716894E+01 +6.863133E+02 +9.711630E+00 +1.223354E+00 +9.711630E+00 +1.331143E+03 
 +6.529818E+02 -5.466785E+00 -5.874715E+00 -5.466785E+00 +6.562277E+02 +2.190345E+01 -5.874715E+00 +2.190345E+01 +1.398731E+03 
 +6.367286E+02 +1.584410E+01 +1.899981E+01 +1.584410E+01 +6.142073E+02 +5.271882E+00 +1.899981E+01 +5.271882E+00 +1.395236E+03 
 +6.317100E+02 +3.017669E+01 -1.125156E+01 +3.017669E+01 +6.631133E+02 +1.933800E+00 -1.125156E+01 +1.933800E+00 +1.330425E+03 
 +6.391055E+02 +2.184458E+00 -8.545472E+00 +2.184458E+00 +6.403591E+02 -3.354971E+01 -8.545472E+00 -3.354971E+01 +1.440425E+03 
 +6.115142E+02 -1.245380E+01 +6.896902E+00 -1.245380E+01 +5.563395E+02 -1.365177E+01 +6.896902E+00 -1.365177E+01 +1.377422E+03 
 +5.595265E+02 +1.304071E+01 -2.376367E+00 +1.304071E+01 +5.698006E+02 +9.019681E+00 -2.376367E+00 +9.019681E+00 +1.369809E+03 
 +5.877655E+02 +1.538935E+01 -3.305359E+01 +1.538935E+01 +6.080421E+02 +4.547872E-03 -3.305359E+01 +4.547872E-03 +1.366051E+03 
 +6.811609E+02 -8.553579E+00 -7.189716E-02 -8.553579E+00 +5.738433E+02 -2.932194E+00 -7.189716E-02 -2.932194E+00 +1.328480E+03 
 +6.516129E+02 -4.223831E+01 -1.251117E+01 -4.223831E+01 +5.929145E+02 +1.267654E+01 -1.251117E+01 +1.267654E+01 +1.333100E+03 
 +5.941729E+02 +9.749195E+00 -1.195804E+01 +9.749195E+00 +5.797778E+02 +1.611708E+01 -1.195804E+01 +1.611708E+01 +1.405208E+03 
 +5.498617E+02 -5.723393E+00 +1.825246E+01 -5.723393E+00 +5.121122E+02 -6.463578E+00 +1.825246E+01 -6.463578E+00 +1.353349E+03 
 +5.788112E+02 +1.498338E+01 -1.170020E+01 +1.498338E+01 +6.125598E+02 +2.642124E+01 -1.170020E+01 +2.642124E+01 +1.259510E+03 
 +5.813588E+02 +8.658101E+00 -2.876809E+01 +8.658101E+00 +5.705587E+02 +3.071072E+00 -2.876809E+01 +3.071072E+00 +1.438210E+03 
 +5.964200E+02 -7.220221E+00 +2.925368E+00 -7.220221E+00 +5.729603E+02 -2.785915E+01 +2.925368E+00 -2.785915E+01 +1.418624E+03 
 +5.277645E+02 +5.384224E+00 +2.747546E+00 +5.384224E+00 +5.257842E+02 +4.808297E+00 +2.747546E+00 +4.808297E+00 +1.361297E+03 
 +5.981508E+02 +2.501153E+00 +2.505948E+01 +2.501153E+00 +5.999927E+02 -3.507758E+01 +2.505948E+01 -3.507758E+01 +1.405410E+03 
 +5.935135E+02 +3.815914E+01 -1.401905E+01 +3.815914E+01 +6.421785E+02 +9.953115E+00 -1.401905E+01 +9.953115E+00 +1.320232E+03 
 +5.646853E+02 +7.309442E+00 +2.921187E+01 +7.309442E+00 +5.901746E+02 +2.310061E+01 +2.921187E+01 +2.310061E+01 +1.401944E+03 
 +5.821631E+02 +3.113778E+01 -3.256742E+01 +3.113778E+01 +6.137075E+02 -2.799165E+00 -3.256742E+01 -2.799165E+00 +1.355842E+03 
 +5.823712E+02 +3.981634E+00 -2.632362E+01 +3.981634E+00 +5.872804E+02 -1.987439E+00 -2.632362E+01 -1.987439E+00 +1.372967E+03 
 +6.554582E+02 -2.241100E+01 +1.043664E+01 -2.241100E+01 +6.285873E+02 +2.043682E+01 +1.043664E+01 +2.043682E+01 +1.332793E+03 
 +6.481595E+02 -1.517279E+01 -3.734839E+01 -1.517279E+01 +6.713110E+02 +1.197917E+01 -3.734839E+01 +1.197917E+01 +1.381141E+03 
 +6.395201E+02 -3.380070E+01 +4.476336E+00 -3.380070E+01 +6.308753E+02 +1.728646E+01 +4.476336E+00 +1.728646E+01 +1.429161E+03 
 +5.251211E+02 +1.342975E+01 -1.444490E+00 +1.342975E+01 +5.207869E+02 -1.700190E+00 -1.444490E+00 -1.700190E+00 +1.354976E+03 
 +6.067330E+02 +1.588956E+00 -3.293663E+00 +1.588956E+00 +5.625845E+02 +2.600813E+00 -3.293663E+00 +2.600813E+00 +1.395678E+03 
 +6.153571E+02 +8.331506E+00 -1.634832E+01 +8.331506E+00 +6.364233E+02 -2.192662E+00 -1.634832E+01 -2.192662E+00 +1.345616E+03 
 +6.143791E+02 +2.337408E+01 +3.445538E+00 +2.337408E+01 +6.761097E+02 +1.334986E+00 +3.445538E+00 +1.334986E+00 +1.351032E+03 
 +6.331387E+02 -5.125584E+01 -7.466254E+00 -5.125584E+01 +6.459542E+02 +6.293457E+00 -7.466254E+00 +6.293457E+00 +1.362620E+03 
 +6.559626E+02 -2.343215E+00 -9.931756E+00 -2.343215E+00 +6.126668E+02 -1.452995E+01 -9.931756E+00 -1.452995E+01 +1.308174E+03 
 +5.532969E+02 +9.497973E+00 +7.497120E+00 +9.497973E+00 +6.907915E+02 -9.124334E+00 +7.497120E+00 -9.124334E+00 +1.302983E+03 
 +6.143801E+02 -6.525436E+00 -3.081180E+01 -6.525436E+00 +6.183250E+02 +2.664207E+01 -3.081180E+01 +2.664207E+01 +1.405506E+03 
 +6.652285E+02 -6.149629E+00 +1.294432E+01 -6.149629E+00 +6.323112E+02 -1.807878E+01 +1.294432E+01 -1.807878E+01 +1.340686E+03 
 +6.070687E+02 +3.068128E+01 +2.803222E+01 +3.068128E+01 +5.562012E+02 -3.151394E+01 +2.803222E+01 -3.151394E+01 +1.272030E+03 
 +5.839341E+02 +4.691655E+00 +2.180442E+00 +4.691655E+00 +6.039806E+02 -2.170594E+00 +2.180442E+00 -2.170594E+00 +1.479305E+03 
 +6.299775E+02 -2.453085E+01 +1.920486E+01 -2.453085E+01 +6.117505E+02 +3.664858E+01 +1.920486E+01 +3.664858E+01 +1.391693E+03 
 +6.216667E+02 +2.202242E+00 +2.142748E+01 +2.202242E+00 +6.460432E+02 -9.141067E+00 +2.142748E+01 -9.141067E+00 +1.403291E+03 
 +6.042999E+02 -1.458150E+01 -8.002942E+00 -1.458150E+01 +5.974044E+02 -2.059539E+01 -8.002942E+00 -2.059539E+01 +1.392875E+03 
 +6.384967E+02 -7.342380E+01 +1.066807E+01 -7.342380E+01 +5.334807E+02 -8.778515E+00 +1.066807E+01 -8.778515E+00 +1.258967E+03 
 +5.500382E+02 +1.193268E+01 -4.142362E-01 +1.193268E+01 +5.705761E+02 -2.606618E+01 -4.142362E-01 -2.606618E+01 +1.372982E+03 
 +6.220076E+02 +1.997875E+01 -1.279583E+01 +1.997875E+01 +5.902939E+02 -2.591822E+01 -1.279583E+01 -2.591822E+01 +1.402550E+03 
 +6.107413E+02 -3.755855E+01 -6.754712E+00 -3.755855E+01 +6.195289E+02 +7.666547E+00 -6.754712E+00 +7.666547E+00 +1.317986E+03 
 +5.794532E+02 -2.233076E+01 +1.331077E+01 -2.233076E+01 +6.510740E+02 +3.756058E+01 +1.331077E+01 +3.756058E+01 +1.395898E+03 
 +5.996557E+02 -1.772159E+00 +4.216840E+00 -1.772159E+00 +6.310146E+02 +4.189425E+00 +4.216840E+00 +4.189425E+00 +1.356003E+03 
 +6.177066E+02 +1.538860E-01 -7.529063E-01 +1.538860E-01 +5.675161E+02 -1.062220E+01 -7.529063E-01 -1.062220E+01 +1.378044E+03 
 +5.608867E+02 +2.164713E+01 +1.723823E+01 +2.164713E+01 +5.582630E+02 +1.252618E+01 +1.723823E+01 +1.252618E+01 +1.399301E+03 
 +6.318381E+02 -2.289458E+01 +9.613141E+00 -2.289458E+01 +6.148386E+02 -1.730366E+01 +9.613141E+00 -1.730366E+01 +1.333984E+03 
 +7.101121E+02 -2.359473E+01 -3.834612E+01 -2.359473E+01 +5.568537E+02 -3.469844E+01 -3.834612E+01 -3.469844E+01 +1.350990E+03 
 +5.946516E+02 -6.355179E+00 -4.396129E-01 -6.355179E+00 +5.849621E+02 -3.932872E+01 -4.396129E-01 -3.932872E+01 +1.352263E+03 
 +6.745739E+02 +5.253273E+01 -3.383082E-01 +5.253273E+01 +6.533974E+02 +1.704425E+01 -3.383082E-01 +1.704425E+01 +1.347972E+03 
 +6.241478E+02 +1.733038E+01 -3.796565E+00 +1.733038E+01 +6.330504E+02 +9.022471E+00 -3.796565E+00 +9.022471E+00 +1.386159E+03 
 +6.211489E+02 +2.124669E+01 -2.123742E+01 +2.124669E+01 +5.694057E+02 -9.603787E+00 -2.123742E+01 -9.603787E+00 +1.288264E+03 
 +6.287847E+02 -6.945681E+01 -1.498657E+01 -6.945681E+01 +6.901207E+02 -1.929708E+01 -1.498657E+01 -1.929708E+01 +1.364752E+03 
 +6.502382E+02 -4.381835E+01 -3.645597E+00 -4.381835E+01 +7.075398E+02 +9.202628E+00 -3.645597E+00 +9.202628E+00 +1.360967E+03 
 +6.038578E+02 +1.629924E+01 +9.614213E+00 +1.629924E+01 +6.221645E+02 -2.057227E+01 +9.614213E+00 -2.057227E+01 +1.325191E+03 
 +6.289471E+02 +2.168097E+01 +1.053832E+01 +2.168097E+01 +6.267417E+02 -1.289454E+00 +1.053832E+01 -1.289454E+00 +1.465071E+03 
 +6.398120E+02 +2.274806E+00 -2.954597E+01 +2.274806E+00 +6.807071E+02 +3.027326E+01 -2.954597E+01 +3.027326E+01 +1.366044E+03 
 +5.938354E+02 -1.389293E+01 +1.400890E+01 -1.389293E+01 +5.783340E+02 +1.276198E+01 +1.400890E+01 +1.276198E+01 +1.429000E+03 
 +6.290934E+02 +1.278653E+01 -2.101326E+01 +1.278653E+01 +5.712990E+02 +2.356120E+01 -2.101326E+01 +2.356120E+01 +1.354791E+03 
 +5.814765E+02 +8.398041E+00 +1.462295E+01 +8.398041E+00 +5.471063E+02 -4.707491E+00 +1.462295E+01 -4.707491E+00 +1.262844E+03 
 +6.781087E+02 -4.836795E+01 +5.745685E+00 -4.836795E+01 +6.001493E+02 -6.343061E+00 +5.745685E+00 -6.343061E+00 +1.335752E+03 
 +6.626036E+02 -4.180725E+01 -8.177217E+00 -4.180725E+01 +6.361495E+02 -4.463539E+00 -8.177217E+00 -4.463539E+00 +1.431531E+03 
 +5.575944E+02 +3.563315E+01 -1.767811E+01 +3.563315E+01 +5.713513E+02 -3.433501E+00 -1.767811E+01 -3.433501E+00 +1.297272E+03 
 +5.871636E+02 -1.113345E+01 +4.995641E+00 -1.113345E+01 +5.956488E+02 +1.950948E+01 +4.995641E+00 +1.950948E+01 +1.402070E+03 
 +5.588769E+02 +1.179100E+01 -4.090301E+01 +1.179100E+01 +5.761823E+02 +4.700271E-01 -4.090301E+01 +4.700271E-01 +1.347729E+03 
 +6.385457E+02 +2.778798E+01 +8.337337E+00 +2.778798E+01 +5.760376E+02 -1.709674E+01 +8.337337E+00 -1.709674E+01 +1.325859E+03 
 +6.167660E+02 -2.737394E+01 -5.433315E+00 -2.737394E+01 +6.923282E+02 -1.489118E+01 -5.433315E+00 -1.489118E+01 +1.359768E+03 
 +6.009360E+02 -4.316310E+00 +4.151740E+00 -4.316310E+00 +6.591605E+02 -5.189707E+00 +4.151740E+00 -5.189707E+00 +1.327492E+03 
 +5.685392E+02 +4.715064E+00 +2.685494E+01 +4.715064E+00 +5.788929E+02 -1.446992E+01 +2.685494E+01 -1.446992E+01 +1.382503E+03 
 +5.399131E+02 -4.960394E+00 -2.676955E+01 -4.960394E+00 +5.348534E+02 -4.012116E+01 -2.676955E+01 -4.012116E+01 +1.346376E+03 
 +6.132917E+02 +4.517754E+00 +1.359334E+01 +4.517754E+00 +5.987178E+02 -2.382204E+01 +1.359334E+01 -2.382204E+01 +1.384341E+03 
 +6.005567E+02 +9.794607E+00 +5.533848E+00 +9.794607E+00 +5.886464E+02 -3.498399E+00 +5.533848E+00 -3.498399E+00 +1.370849E+03 
 +5.628464E+02 -1.737631E+01 +5.026262E+00 -1.737631E+01 +6.196631E+02 -1.145054E+00 +5.026262E+00 -1.145054E+00 +1.363076E+03 
 +5.955540E+02 +4.831261E+01 +1.460768E+01 +4.831261E+01 +5.946071E+02 +6.725865E+00 +1.460768E+01 +6.725865E+00 +1.336728E+03 
 +5.722256E+02 -2.304510E+01 -2.391997E+00 -2.304510E+01 +5.741522E+02 -1.607883E+01 -2.391997E+00 -1.607883E+01 +1.352039E+03 
 +5.983331E+02 -2.700807E+01 +8.570755E+00 -2.700807E+01 +6.020491E+02 -2.087327E+00 +8.570755E+00 -2.087327E+00 +1.392454E+03 
 +5.450515E+02 -1.166161E+01 -2.863973E+01 -1.166161E+01 +5.849273E+02 +5.367971E+00 -2.863973E+01 +5.367971E+00 +1.386421E+03 
 +6.542512E+02 -4.123386E+00 -4.346836E+00 -4.123386E+00 +5.925736E+02 +1.001787E+01 -4.346836E+00 +1.001787E+01 +1.323474E+03 
 +6.336096E+02 +1.593124E+01 +1.499587E+01 +1.593124E+01 +6.191781E+02 +1.712521E-01 +1.499587E+01 +1.712521E-01 +1.402707E+03 
 +6.032297E+02 -5.633484E+01 -7.761089E+00 -5.633484E+01 +6.160883E+02 +9.074961E+00 -7.761089E+00 +9.074961E+00 +1.338630E+03 
 +6.372971E+02 -5.027180E+01 -1.026159E+00 -5.027180E+01 +6.386375E+02 +1.042789E+01 -1.026159E+00 +1.042789E+01 +1.339308E+03 
 +5.860643E+02 +9.684034E-01 +1.088824E+01 +9.684034E-01 +6.001642E+02 -1.791912E+01 +1.088824E+01 -1.791912E+01 +1.387765E+03 
 +7.081559E+02 +3.844883E+01 -2.030532E+01 +3.844883E+01 +5.950146E+02 +3.796588E+00 -2.030532E+01 +3.796588E+00 +1.330935E+03 
 +6.396428E+02 -5.839345E+00 -8.189816E+00 -5.839345E+00 +5.600433E+02 +1.581035E+00 -8.189816E+00 +1.581035E+00 +1.362127E+03 
 +6.783486E+02 +1.006159E+01 +8.944697E+00 +1.006159E+01 +6.116301E+02 -3.749291E+01 +8.944697E+00 -3.749291E+01 +1.385603E+03 
 +6.397451E+02 -9.190601E+00 +2.720901E+01 -9.190601E+00 +6.727858E+02 +7.291273E+00 +2.720901E+01 +7.291273E+00 +1.398842E+03 
 +6.642620E+02 -3.302999E+01 +8.970289E+00 -3.302999E+01 +6.778847E+02 +7.243654E+00 +8.970289E+00 +7.243654E+00 +1.325952E+03 
 +6.484080E+02 +4.763055E+01 -3.689587E+00 +4.763055E+01 +6.620797E+02 +1.978866E+00 -3.689587E+00 +1.978866E+00 +1.351742E+03 
 +6.758712E+02 +1.764971E+01 -8.099113E+00 +1.764971E+01 +6.221432E+02 +1.150750E+01 -8.099113E+00 +1.150750E+01 +1.335254E+03 
 +6.747627E+02 +7.944419E+00 +4.707589E+00 +7.944419E+00 +6.664858E+02 +2.153524E+01 +4.707589E+00 +2.153524E+01 +1.358783E+03 
 +5.808047E+02 -2.474037E+01 -2.163208E+01 -2.474037E+01 +5.949980E+02 -1.069919E+01 -2.163208E+01 -1.069919E+01 +1.387612E+03 
 +7.002778E+02 +6.239135E+00 -1.580944E+01 +6.239135E+00 +5.864839E+02 +4.587731E-01 -1.580944E+01 +4.587731E-01 +1.365472E+03 
 +5.859330E+02 -5.516606E+01 +8.661498E+00 -5.516606E+01 +6.267661E+02 -1.879046E+01 +8.661498E+00 -1.879046E+01 +1.283875E+03 
 +5.620583E+02 -5.279857E+00 +3.672668E+00 -5.279857E+00 +5.760070E+02 -4.068678E+01 +3.672668E+00 -4.068678E+01 +1.386791E+03 
 +6.041326E+02 -6.719037E+00 +2.248781E+01 -6.719037E+00 +6.226630E+02 +1.883042E+00 +2.248781E+01 +1.883042E+00 +1.360757E+03 
 +6.010827E+02 +4.162360E+01 -9.349576E+00 +4.162360E+01 +6.555276E+02 +4.771636E+00 -9.349576E+00 +4.771636E+00 +1.309629E+03 
 +5.654749E+02 +1.265036E+01 +1.519292E+01 +1.265036E+01 +5.954876E+02 -6.522398E+00 +1.519292E+01 -6.522398E+00 +1.372083E+03 
 +6.047832E+02 +3.927226E+00 -2.008699E+00 +3.927226E+00 +5.563395E+02 +2.196096E+01 -2.008699E+00 +2.196096E+01 +1.299378E+03 
 +6.134094E+02 -1.597846E+01 -9.674232E+00 -1.597846E+01 +6.235242E+02 +6.731041E+00 -9.674232E+00 +6.731041E+00 +1.417323E+03 
 +6.568680E+02 +1.240674E+00 -8.033517E+00 +1.240674E+00 +6.848149E+02 -2.083109E+01 -8.033517E+00 -2.083109E+01 +1.335730E+03 
 +6.671688E+02 +6.928904E+01 +1.204532E+01 +6.928904E+01 +6.137336E+02 -2.752873E+01 +1.204532E+01 -2.752873E+01 +1.346687E+03 
 +6.191246E+02 -1.349132E+00 -3.939886E+00 -1.349132E+00 +6.006880E+02 -8.935405E+00 -3.939886E+00 -8.935405E+00 +1.377085E+03 
 +6.293098E+02 +7.443388E+00 -2.100039E+01 +7.443388E+00 +6.187238E+02 -1.170840E+01 -2.100039E+01 -1.170840E+01 +1.402302E+03 
 +5.655389E+02 +1.609335E+01 +2.760373E+01 +1.609335E+01 +6.404339E+02 -1.301181E+01 +2.760373E+01 -1.301181E+01 +1.307578E+03 
 +6.217938E+02 +1.979403E+01 +6.282823E+00 +1.979403E+01 +7.596849E+02 -1.374548E+01 +6.282823E+00 -1.374548E+01 +1.386550E+03 
 +6.066049E+02 -3.283248E+01 +1.961080E-01 -3.283248E+01 +6.569512E+02 -2.867401E+01 +1.961080E-01 -2.867401E+01 +1.350941E+03 
 +5.380392E+02 +5.935992E+00 +2.311419E+01 +5.935992E+00 +5.503049E+02 -1.717668E+01 +2.311419E+01 -1.717668E+01 +1.410576E+03 
 +7.107579E+02 +3.629281E+01 -1.975010E+01 +3.629281E+01 +5.634439E+02 +3.491625E+01 -1.975010E+01 +3.491625E+01 +1.333900E+03 
 +5.672340E+02 -3.505040E+00 -1.209536E+01 -3.505040E+00 +5.557222E+02 -1.382637E+01 -1.209536E+01 -1.382637E+01 +1.329466E+03 
 +5.813644E+02 -7.493678E+00 -1.140205E+01 -7.493678E+00 +6.140333E+02 -2.038932E+01 -1.140205E+01 -2.038932E+01 +1.414822E+03 
 +6.421370E+02 -2.049752E+01 -1.181120E+01 -2.049752E+01 +5.983412E+02 +7.049067E+00 -1.181120E+01 +7.049067E+00 +1.330698E+03 
 +5.549001E+02 -1.687685E+01 +2.357419E+01 -1.687685E+01 +5.679384E+02 +1.995605E-01 +2.357419E+01 +1.995605E-01 +1.423647E+03 
 +6.182014E+02 -7.007302E+00 -8.660728E+00 -7.007302E+00 +6.967237E+02 +1.329871E+01 -8.660728E+00 +1.329871E+01 +1.328615E+03 
 +6.220882E+02 +4.307076E+01 +1.415849E-01 +4.307076E+01 +6.259224E+02 -6.968725E+00 +1.415849E-01 -6.968725E+00 +1.375249E+03 
 +7.243644E+02 +7.901726E+00 -2.011190E+01 +7.901726E+00 +6.146068E+02 +9.008116E+00 -2.011190E+01 +9.008116E+00 +1.355231E+03 
 +5.628775E+02 -9.414012E-01 +1.948691E+01 -9.414012E-01 +6.038755E+02 +6.754495E+00 +1.948691E+01 +6.754495E+00 +1.315365E+03 
 +7.301954E+02 -1.406423E+01 -7.129733E+00 -1.406423E+01 +6.034138E+02 -2.577572E+01 -7.129733E+00 -2.577572E+01 +1.347021E+03 
 +6.148882E+02 -2.790133E+01 -1.058038E+00 -2.790133E+01 +6.355521E+02 -2.469579E+00 -1.058038E+00 -2.469579E+00 +1.319284E+03 
 +6.259050E+02 -8.591927E+00 +1.523294E+01 -8.591927E+00 +6.427738E+02 +1.400969E+01 +1.523294E+01 +1.400969E+01 +1.295563E+03 
 +5.959579E+02 -6.887598E+00 -1.409000E+01 -6.887598E+00 +6.142311E+02 +1.913830E+00 -1.409000E+01 +1.913830E+00 +1.395112E+03 
 +6.189996E+02 -1.743025E+00 -1.395994E+01 -1.743025E+00 +5.981182E+02 +6.413001E+00 -1.395994E+01 +6.413001E+00 +1.345552E+03 
 +5.314881E+02 -2.062517E+01 +2.339826E+00 -2.062517E+01 +5.274121E+02 -1.366043E+01 +2.339826E+00 -1.366043E+01 +1.357893E+03 
 +5.763980E+02 -6.556575E+00 -3.397422E+00 -6.556575E+00 +5.680881E+02 +1.422898E+00 -3.397422E+00 +1.422898E+00 +1.370624E+03 
 +5.958150E+02 +4.208836E+00 +1.069678E+01 +4.208836E+00 +6.075494E+02 +1.207648E+01 +1.069678E+01 +1.207648E+01 +1.447556E+03 
 +5.757903E+02 +1.502072E+01 -3.941698E+00 +1.502072E+01 +6.767206E+02 -3.540054E+00 -3.941698E+00 -3.540054E+00 +1.322028E+03 
 +5.658321E+02 -9.364597E+00 -7.544132E+00 -9.364597E+00 +6.101484E+02 -1.279455E+01 -7.544132E+00 -1.279455E+01 +1.351723E+03 
 +6.584731E+02 -8.144134E+00 +2.148052E+01 -8.144134E+00 +6.216378E+02 +5.037047E+00 +2.148052E+01 +5.037047E+00 +1.321171E+03 
 +5.689323E+02 -1.484335E+01 -5.788316E+00 -1.484335E+01 +6.518768E+02 +2.439904E+01 -5.788316E+00 +2.439904E+01 +1.309964E+03 
 +5.717139E+02 +8.368144E+00 -4.780756E+00 +8.368144E+00 +6.311407E+02 +4.844287E+01 -4.780756E+00 +4.844287E+01 +1.339233E+03 
 +6.582931E+02 +2.978348E+01 -9.407053E+00 +2.978348E+01 +6.276166E+02 -2.028673E+00 -9.407053E+00 -2.028673E+00 +1.380361E+03 
 +6.074112E+02 -2.903871E+01 +5.149882E+00 -2.903871E+01 +5.641364E+02 -5.080703E+00 +5.149882E+00 -5.080703E+00 +1.424528E+03 
 +6.558799E+02 +1.658328E+00 -8.960235E+00 +1.658328E+00 +6.054083E+02 -2.026205E+01 -8.960235E+00 -2.026205E+01 +1.297214E+03 
 +5.964312E+02 +1.538860E+01 +3.175590E+01 +1.538860E+01 +6.701626E+02 -2.467263E+01 +3.175590E+01 -2.467263E+01 +1.368123E+03 
 +5.901167E+02 +2.051557E+01 +1.118712E+01 +2.051557E+01 +5.773572E+02 -1.194364E+01 +1.118712E+01 -1.194364E+01 +1.299063E+03 
 +5.487147E+02 -3.876322E+00 -2.390291E+01 -3.876322E+00 +5.613826E+02 +1.796248E+01 -2.390291E+01 +1.796248E+01 +1.388221E+03 
 +6.131439E+02 +4.867677E+00 -3.837009E+01 +4.867677E+00 +6.027363E+02 +3.272974E+00 -3.837009E+01 +3.272974E+00 +1.371349E+03 
 +5.963467E+02 -6.648552E+00 +2.318486E+00 -6.648552E+00 +6.848007E+02 -1.088461E+01 +2.318486E+00 -1.088461E+01 +1.360733E+03 
 +6.820107E+02 +1.772716E+01 -1.106123E+01 +1.772716E+01 +7.125772E+02 -1.080939E+01 -1.106123E+01 -1.080939E+01 +1.395362E+03 
 +5.749374E+02 +1.903299E-01 -3.427843E+00 +1.903299E-01 +6.019556E+02 -2.508033E+01 -3.427843E+00 -2.508033E+01 +1.364570E+03 
 +6.235100E+02 +1.328046E+01 +5.368859E+00 +1.328046E+01 +5.532258E+02 -5.941704E+00 +5.368859E+00 -5.941704E+00 +1.291284E+03 
 +6.099691E+02 -5.099955E+00 -2.077692E+00 -5.099955E+00 +5.739718E+02 -6.301530E+00 -2.077692E+00 -6.301530E+00 +1.310315E+03 
 +6.772454E+02 +4.260829E+01 +1.578858E+01 +4.260829E+01 +6.269318E+02 +1.461069E+01 +1.578858E+01 +1.461069E+01 +1.339035E+03 
 +6.214527E+02 +1.331471E+01 -1.810435E+01 +1.331471E+01 +7.451453E+02 +9.363520E+00 -1.810435E+01 +9.363520E+00 +1.389837E+03 
 +5.856292E+02 -3.000804E+01 +1.546517E+00 -3.000804E+01 +6.752345E+02 +6.147267E+00 +1.546517E+00 +6.147267E+00 +1.320581E+03 
 +6.207728E+02 -2.044697E+01 -2.861818E+01 -2.044697E+01 +6.773243E+02 +8.930628E+00 -2.861818E+01 +8.930628E+00 +1.392178E+03 
 +6.981189E+02 -4.363273E+00 +3.196085E+01 -4.363273E+00 +6.500385E+02 +8.023974E+00 +3.196085E+01 +8.023974E+00 +1.384583E+03 
 +6.019338E+02 +1.146865E+01 -3.993155E+01 +1.146865E+01 +5.990877E+02 +2.086558E+01 -3.993155E+01 +2.086558E+01 +1.376415E+03 
 +5.852621E+02 +1.877884E+01 +6.672070E+00 +1.877884E+01 +5.713008E+02 +2.567552E+01 +6.672070E+00 +2.567552E+01 +1.272274E+03 
 +6.154383E+02 +2.465917E+01 -9.698407E+00 +2.465917E+01 +5.605640E+02 +3.806731E+01 -9.698407E+00 +3.806731E+01 +1.291328E+03 
 +6.169337E+02 -1.084065E+01 -2.506676E+00 -1.084065E+01 +6.039640E+02 +2.178197E+01 -2.506676E+00 +2.178197E+01 +1.375404E+03 
 +5.930992E+02 -2.384487E+01 +2.877531E+01 -2.384487E+01 +5.446691E+02 -4.114598E+00 +2.877531E+01 -4.114598E+00 +1.387452E+03 
 +5.971255E+02 +7.911298E+00 -1.189723E+01 +7.911298E+00 +5.883456E+02 -5.481017E+00 -1.189723E+01 -5.481017E+00 +1.444436E+03 
 +6.050026E+02 -2.401045E+01 +1.842624E+01 -2.401045E+01 +6.598828E+02 +1.278328E+01 +1.842624E+01 +1.278328E+01 +1.323164E+03 
 +6.072068E+02 -2.455534E+01 +1.849042E+01 -2.455534E+01 +6.422030E+02 +1.829495E+01 +1.849042E+01 +1.829495E+01 +1.434168E+03 
 +5.451035E+02 +2.517871E-01 -5.937673E+00 +2.517871E-01 +6.158289E+02 +3.312282E+00 -5.937673E+00 +3.312282E+00 +1.267640E+03 
 +5.827699E+02 +2.625006E+01 +1.740856E+01 +2.625006E+01 +5.966545E+02 -4.029572E+00 +1.740856E+01 -4.029572E+00 +1.379770E+03 
 +5.775404E+02 -1.396804E+01 -4.253412E+01 -1.396804E+01 +6.258401E+02 +6.893979E+00 -4.253412E+01 +6.893979E+00 +1.325679E+03 
 +6.147850E+02 +1.525205E+01 +1.143208E+01 +1.525205E+01 +5.860524E+02 +8.998887E+00 +1.143208E+01 +8.998887E+00 +1.396168E+03 
 +6.040069E+02 -1.051647E+01 +2.440637E+01 -1.051647E+01 +5.772228E+02 +7.728278E+00 +2.440637E+01 +7.728278E+00 +1.376314E+03 
 +6.458654E+02 -4.280109E+00 -2.284484E+01 -4.280109E+00 +6.347929E+02 +1.967424E+01 -2.284484E+01 +1.967424E+01 +1.397685E+03 
 +6.205134E+02 +2.002081E+00 +8.324125E-01 +2.002081E+00 +5.892179E+02 +2.053835E+01 +8.324125E-01 +2.053835E+01 +1.303269E+03 
 +5.802388E+02 -9.121376E+00 -1.394369E+01 -9.121376E+00 +6.159220E+02 +5.315067E+00 -1.394369E+01 +5.315067E+00 +1.285930E+03 
 +5.265477E+02 -9.273755E+00 -2.133502E+01 -9.273755E+00 +5.562582E+02 -2.408208E+01 -2.133502E+01 -2.408208E+01 +1.352069E+03 
 +5.625474E+02 +3.091218E+00 +2.286480E+01 +3.091218E+00 +5.443311E+02 -6.138716E+00 +2.286480E+01 -6.138716E+00 +1.383938E+03 
 +6.339632E+02 +4.388386E+00 -2.515511E+01 +4.388386E+00 +6.078923E+02 -1.509915E+00 -2.515511E+01 -1.509915E+00 +1.395267E+03 
 +6.154122E+02 +2.272453E+01 -1.606216E+01 +2.272453E+01 +5.831039E+02 +2.580416E+01 -1.606216E+01 +2.580416E+01 +1.302965E+03 
 +5.460350E+02 +1.352919E+01 +1.274959E+01 +1.352919E+01 +5.587845E+02 +2.044350E+01 +1.274959E+01 +2.044350E+01 +1.386741E+03 
 +6.352436E+02 -1.962345E+01 +5.958644E+00 -1.962345E+01 +6.266469E+02 +6.283017E+00 +5.958644E+00 +6.283017E+00 +1.367148E+03 
 +5.519675E+02 -3.892105E+01 +3.161032E+00 -3.892105E+01 +6.838295E+02 +2.860653E+01 +3.161032E+00 +2.860653E+01 +1.338059E+03 
 +6.144799E+02 -4.914423E+01 -1.590487E-01 -4.914423E+01 +6.199636E+02 -8.550642E+00 -1.590487E-01 -8.550642E+00 +1.324071E+03 
 +5.733274E+02 -1.586761E+00 +2.517259E+01 -1.586761E+00 +6.997234E+02 -6.063906E+00 +2.517259E+01 -6.063906E+00 +1.352333E+03 
 +6.375031E+02 +3.035623E+01 -2.203567E+00 +3.035623E+01 +7.322410E+02 +1.223515E+01 -2.203567E+00 +1.223515E+01 +1.373388E+03 
 +5.416414E+02 +1.429347E+01 -1.265404E+01 +1.429347E+01 +5.681068E+02 -4.746358E+00 -1.265404E+01 -4.746358E+00 +1.351622E+03 
 +5.954418E+02 +1.953315E+01 +1.627731E+01 +1.953315E+01 +5.982133E+02 -7.607023E+00 +1.627731E+01 -7.607023E+00 +1.378521E+03 
 +6.508111E+02 -5.868282E+00 +9.883821E+00 -5.868282E+00 +7.277714E+02 +1.729769E+01 +9.883821E+00 +1.729769E+01 +1.388907E+03 
 +6.541194E+02 +1.309716E+01 +1.810370E+01 +1.309716E+01 +6.896888E+02 -9.856009E+00 +1.810370E+01 -9.856009E+00 +1.368220E+03 
 +6.666552E+02 -3.023689E+01 +1.154550E+01 -3.023689E+01 +6.652331E+02 -2.204372E+01 +1.154550E+01 -2.204372E+01 +1.357655E+03 
 +6.189667E+02 -2.466731E+01 -5.653977E+00 -2.466731E+01 +6.952555E+02 -3.689962E+00 -5.653977E+00 -3.689962E+00 +1.340436E+03 
 +6.075851E+02 -1.213651E+01 +1.574661E+01 -1.213651E+01 +5.973965E+02 +1.476142E+01 +1.574661E+01 +1.476142E+01 +1.437488E+03 
 +6.060175E+02 +2.762063E+01 -1.529733E+00 +2.762063E+01 +5.967702E+02 -5.038887E+00 -1.529733E+00 -5.038887E+00 +1.340315E+03 
 +6.235112E+02 -5.515534E+00 -1.615956E+01 -5.515534E+00 +5.761514E+02 +3.463401E+01 -1.615956E+01 +3.463401E+01 +1.316463E+03 
 +5.985690E+02 +9.222831E-01 -7.225314E+00 +9.222831E-01 +6.335900E+02 +3.855169E+01 -7.225314E+00 +3.855169E+01 +1.359700E+03 
 +6.834313E+02 -7.233410E+00 -3.988563E+00 -7.233410E+00 +6.612131E+02 -3.065118E+01 -3.988563E+00 -3.065118E+01 +1.358587E+03 
 +5.609965E+02 -4.188593E+01 +5.263236E+00 -4.188593E+01 +6.183348E+02 +8.973842E+00 +5.263236E+00 +8.973842E+00 +1.301526E+03 
 +6.765504E+02 +2.835200E+01 +2.491235E+01 +2.835200E+01 +5.971782E+02 +1.147465E+01 +2.491235E+01 +1.147465E+01 +1.336932E+03 
 +6.094526E+02 -9.634455E+00 -1.915664E+01 -9.634455E+00 +5.858970E+02 -5.929619E+00 -1.915664E+01 -5.929619E+00 +1.415443E+03 
 +7.014447E+02 -2.034114E+01 -5.410044E+00 -2.034114E+01 +5.704227E+02 -2.077653E+01 -5.410044E+00 -2.077653E+01 +1.322930E+03 
 +5.635385E+02 -3.134786E+00 +1.727866E+01 -3.134786E+00 +6.257103E+02 -5.083550E+00 +1.727866E+01 -5.083550E+00 +1.314369E+03 
 +6.066218E+02 -3.601612E+00 -1.969443E+01 -3.601612E+00 +6.360849E+02 +3.884783E+01 -1.969443E+01 +3.884783E+01 +1.457192E+03 
 +6.115273E+02 +6.814561E+00 +2.748888E+00 +6.814561E+00 +6.957049E+02 -8.619990E+00 +2.748888E+00 -8.619990E+00 +1.321428E+03 
 +6.171035E+02 +3.339753E+01 +8.411119E+00 +3.339753E+01 +6.302256E+02 +1.767047E+00 +8.411119E+00 +1.767047E+00 +1.367600E+03 
 +6.457214E+02 -4.934376E+00 -5.416938E+00 -4.934376E+00 +6.062963E+02 -3.147317E+01 -5.416938E+00 -3.147317E+01 +1.366082E+03 
 +6.901685E+02 -6.716401E+00 +1.438627E+01 -6.716401E+00 +5.907829E+02 -1.774788E+00 +1.438627E+01 -1.774788E+00 +1.373760E+03 
 +5.815823E+02 -1.097849E+01 +3.502170E+01 -1.097849E+01 +6.758085E+02 +1.501653E+01 +3.502170E+01 +1.501653E+01 +1.379875E+03 
 +6.609720E+02 -1.226159E+01 -1.712466E+01 -1.226159E+01 +6.835684E+02 -3.523029E-01 -1.712466E+01 -3.523029E-01 +1.358370E+03 
 +5.352509E+02 -3.947917E+00 -2.883381E+00 -3.947917E+00 +5.589558E+02 -9.479574E+00 -2.883381E+00 -9.479574E+00 +1.374540E+03 
 +5.849459E+02 +2.136228E+01 +3.268311E+01 +2.136228E+01 +6.260427E+02 +1.771816E+01 +3.268311E+01 +1.771816E+01 +1.388830E+03 
 +6.313025E+02 +3.884452E+01 -2.293297E+01 +3.884452E+01 +5.900705E+02 +9.577637E+00 -2.293297E+01 +9.577637E+00 +1.324658E+03 
 +5.915236E+02 +1.852812E+01 +1.142457E+01 +1.852812E+01 +5.271315E+02 +2.393154E+01 +1.142457E+01 +2.393154E+01 +1.342067E+03 
 +6.231293E+02 +5.390529E+00 +1.410268E+01 +5.390529E+00 +6.425338E+02 +1.255147E+01 +1.410268E+01 +1.255147E+01 +1.435580E+03 
 +5.639693E+02 -1.333899E+01 -6.796809E+00 -1.333899E+01 +6.365226E+02 +7.115223E+00 -6.796809E+00 +7.115223E+00 +1.323395E+03 
 +6.210676E+02 -4.666413E+01 +1.249478E+01 -4.666413E+01 +6.185425E+02 -5.033321E+00 +1.249478E+01 -5.033321E+00 +1.307387E+03 
 +6.471223E+02 -1.324592E+01 +5.868352E+00 -1.324592E+01 +6.137650E+02 -2.025127E+01 +5.868352E+00 -2.025127E+01 +1.393258E+03 
 +5.488193E+02 -2.324308E+01 +3.446468E+00 -2.324308E+01 +5.898342E+02 +4.606967E+00 +3.446468E+00 +4.606967E+00 +1.420695E+03 
 +5.293666E+02 -2.326996E+01 -3.814660E+01 -2.326996E+01 +5.779613E+02 -1.585262E+01 -3.814660E+01 -1.585262E+01 +1.252481E+03 
 +7.045280E+02 +1.803610E+01 +5.059160E+00 +1.803610E+01 +6.263934E+02 -1.648204E+01 +5.059160E+00 -1.648204E+01 +1.379297E+03 
 +6.007701E+02 +3.682881E+01 +9.767690E+00 +3.682881E+01 +6.782666E+02 +1.889804E+01 +9.767690E+00 +1.889804E+01 +1.303871E+03 
 +5.510806E+02 -1.099980E+00 +1.813350E+01 -1.099980E+00 +6.076512E+02 -1.094438E+01 +1.813350E+01 -1.094438E+01 +1.369066E+03 
 +5.866348E+02 +3.112080E+00 -1.045978E+00 +3.112080E+00 +5.414470E+02 -3.107800E+01 -1.045978E+00 -3.107800E+01 +1.309169E+03 
 +6.451371E+02 +2.028488E+01 -2.667255E+01 +2.028488E+01 +6.081884E+02 +3.084184E+01 -2.667255E+01 +3.084184E+01 +1.459804E+03 
 +6.366273E+02 -6.353811E+00 -3.778138E+01 -6.353811E+00 +6.178687E+02 +1.486801E+01 -3.778138E+01 +1.486801E+01 +1.336079E+03 
 +6.026540E+02 +1.137629E+00 +1.860262E+01 +1.137629E+00 +5.567344E+02 -2.641684E+01 +1.860262E+01 -2.641684E+01 +1.377035E+03 
 +6.651230E+02 -3.918806E+01 -2.953896E+00 -3.918806E+01 +6.445075E+02 +4.028063E+00 -2.953896E+00 +4.028063E+00 +1.323979E+03 
 +6.109883E+02 +2.867122E-02 +1.110132E+01 +2.867122E-02 +6.357254E+02 -2.535667E+01 +1.110132E+01 -2.535667E+01 +1.478392E+03 
 +6.025394E+02 +4.699141E+01 +2.781730E+01 +4.699141E+01 +6.247480E+02 -3.521074E+01 +2.781730E+01 -3.521074E+01 +1.345448E+03 
 +5.731556E+02 +2.390230E+01 -2.580945E+01 +2.390230E+01 +7.112153E+02 +1.681409E+01 -2.580945E+01 +1.681409E+01 +1.340785E+03 
 +6.193803E+02 +8.584684E+00 -8.655077E+00 +8.584684E+00 +6.403146E+02 +1.057320E+01 -8.655077E+00 +1.057320E+01 +1.474743E+03 
 +5.941475E+02 +2.135828E+01 +8.106335E+00 +2.135828E+01 +5.853202E+02 +6.733403E-02 +8.106335E+00 +6.733403E-02 +1.408268E+03 
 +6.616633E+02 +1.952415E+01 -4.242226E+00 +1.952415E+01 +6.409348E+02 +1.629336E+01 -4.242226E+00 +1.629336E+01 +1.375312E+03 
 +5.498837E+02 -4.320996E+01 +6.197683E-01 -4.320996E+01 +6.170447E+02 +4.568977E+00 +6.197683E-01 +4.568977E+00 +1.296520E+03 
 +5.614890E+02 +1.601681E+01 -5.816826E+00 +1.601681E+01 +6.084406E+02 -3.443889E-01 -5.816826E+00 -3.443889E-01 +1.394776E+03 
 +5.618306E+02 +1.637630E+01 -8.333836E-01 +1.637630E+01 +6.812726E+02 +3.428851E+01 -8.333836E-01 +3.428851E+01 +1.285740E+03 
 +5.904270E+02 +5.677021E+00 +5.238402E+00 +5.677021E+00 +6.077769E+02 +2.256480E+01 +5.238402E+00 +2.256480E+01 +1.355477E+03 
 +5.767769E+02 +2.014556E+01 -3.789752E+00 +2.014556E+01 +5.703418E+02 -8.515680E-01 -3.789752E+00 -8.515680E-01 +1.374543E+03 
 +7.639398E+02 +1.152847E+01 +8.822184E+00 +1.152847E+01 +6.017921E+02 +1.106593E+01 +8.822184E+00 +1.106593E+01 +1.362539E+03 
 +5.767088E+02 +2.917690E+01 -4.818406E-01 +2.917690E+01 +6.400648E+02 -2.614802E+00 -4.818406E-01 -2.614802E+00 +1.294412E+03 
 +6.378138E+02 -4.333235E+00 +7.408095E+00 -4.333235E+00 +6.059803E+02 -3.166355E+00 +7.408095E+00 -3.166355E+00 +1.434266E+03 
 +7.418856E+02 -1.596473E+01 -7.779547E-01 -1.596473E+01 +5.850903E+02 -3.225682E+01 -7.779547E-01 -3.225682E+01 +1.311618E+03 
 +7.046720E+02 -2.708012E+01 -1.769207E+00 -2.708012E+01 +6.469278E+02 -8.233786E+00 -1.769207E+00 -8.233786E+00 +1.382946E+03 
 +5.720654E+02 -3.802391E+01 +7.990690E-01 -3.802391E+01 +6.593840E+02 -3.527462E+00 +7.990690E-01 -3.527462E+00 +1.344399E+03 
 +6.200097E+02 -5.194586E+01 +1.258263E+01 -5.194586E+01 +6.258227E+02 -4.200349E+00 +1.258263E+01 -4.200349E+00 +1.300673E+03 
 +5.796386E+02 +4.922813E+00 -1.225919E+00 +4.922813E+00 +6.033503E+02 +1.280053E+01 -1.225919E+00 +1.280053E+01 +1.404723E+03 
 +5.873035E+02 +4.326605E-01 +2.892399E+00 +4.326605E-01 +6.705588E+02 +3.794361E+00 +2.892399E+00 +3.794361E+00 +1.300888E+03 
 +5.973227E+02 -2.228712E+01 -4.853637E+00 -2.228712E+01 +5.966066E+02 -1.708151E+01 -4.853637E+00 -1.708151E+01 +1.360298E+03 
 +6.298752E+02 -3.580307E+00 -1.622158E+01 -3.580307E+00 +6.135925E+02 +1.589121E+01 -1.622158E+01 +1.589121E+01 +1.426827E+03 
 +6.210256E+02 -9.898259E+00 +1.244075E+01 -9.898259E+00 +6.263497E+02 +4.669456E+00 +1.244075E+01 +4.669456E+00 +1.316432E+03 
 +6.453306E+02 -1.088285E+00 -1.579978E+00 -1.088285E+00 +5.918434E+02 -8.147981E+00 -1.579978E+00 -8.147981E+00 +1.361362E+03 
 +6.542847E+02 +4.120689E+00 -1.916487E+01 +4.120689E+00 +6.211015E+02 +3.836104E-01 -1.916487E+01 +3.836104E-01 +1.521491E+03 
 +6.235272E+02 -6.178334E+01 -1.755187E+01 -6.178334E+01 +6.089611E+02 -8.959628E+00 -1.755187E+01 -8.959628E+00 +1.287364E+03 
 +6.185287E+02 -8.497190E+00 +3.007719E+01 -8.497190E+00 +6.390105E+02 +5.998683E+00 +3.007719E+01 +5.998683E+00 +1.409463E+03 
 +5.901896E+02 +1.535617E+01 -6.929101E+00 +1.535617E+01 +6.622363E+02 +2.808404E+00 -6.929101E+00 +2.808404E+00 +1.324330E+03 
 +7.340013E+02 -3.759064E+01 +2.616361E+01 -3.759064E+01 +6.151678E+02 -3.184568E+00 +2.616361E+01 -3.184568E+00 +1.349771E+03 
 +5.813276E+02 -3.345594E+01 -3.795316E+00 -3.345594E+01 +5.818759E+02 -6.552845E+00 -3.795316E+00 -6.552845E+00 +1.361351E+03 
 +5.574822E+02 -3.447375E+01 -2.288271E+00 -3.447375E+01 +6.715711E+02 +6.949427E+00 -2.288271E+00 +6.949427E+00 +1.322437E+03 
 +6.013729E+02 +6.802514E+00 -1.238724E+01 +6.802514E+00 +6.961353E+02 +2.469638E+01 -1.238724E+01 +2.469638E+01 +1.343144E+03 
 +5.545593E+02 -6.073147E+00 +1.344147E+01 -6.073147E+00 +6.711169E+02 +7.710442E+00 +1.344147E+01 +7.710442E+00 +1.248575E+03 
 +5.812742E+02 +1.368690E+01 -5.017996E+00 +1.368690E+01 +5.417220E+02 +4.781344E+00 -5.017996E+00 +4.781344E+00 +1.403693E+03 
 +6.185241E+02 +3.747470E+01 +8.706135E+00 +3.747470E+01 +6.806302E+02 +3.051598E+00 +8.706135E+00 +3.051598E+00 +1.399414E+03 
 +6.421278E+02 +4.952795E+01 +9.735021E+00 +4.952795E+01 +6.875962E+02 -1.305832E+01 +9.735021E+00 -1.305832E+01 +1.340473E+03 
 +5.005917E+02 +5.244260E+00 +2.182096E+00 +5.244260E+00 +5.145879E+02 -2.193729E+01 +2.182096E+00 -2.193729E+01 +1.356006E+03 
 +5.631417E+02 -3.009684E-01 -9.421491E+00 -3.009684E-01 +5.340483E+02 -1.095195E+01 -9.421491E+00 -1.095195E+01 +1.352530E+03 
 +5.993748E+02 +1.933160E+01 -1.428652E+01 +1.933160E+01 +5.630864E+02 -2.243639E+01 -1.428652E+01 -2.243639E+01 +1.330877E+03 
 +6.269848E+02 -3.147789E+00 +8.691350E+00 -3.147789E+00 +5.433209E+02 +6.585495E+00 +8.691350E+00 +6.585495E+00 +1.343140E+03 
 +5.495922E+02 -2.329246E+01 -4.265708E+01 -2.329246E+01 +5.606613E+02 -5.846159E+00 -4.265708E+01 -5.846159E+00 +1.414820E+03 
 +5.966703E+02 -2.628214E+01 -7.259112E+00 -2.628214E+01 +6.216157E+02 -4.007573E+00 -7.259112E+00 -4.007573E+00 +1.303202E+03 
 +5.660134E+02 -6.342354E+00 +1.362490E+01 -6.342354E+00 +5.725151E+02 -1.347067E+01 +1.362490E+01 -1.347067E+01 +1.372588E+03 
 +6.014146E+02 +5.220531E+00 -5.991357E+00 +5.220531E+00 +5.611883E+02 +1.749670E+01 -5.991357E+00 +1.749670E+01 +1.318911E+03 
 +6.013176E+02 +3.570509E+00 +9.389597E+00 +3.570509E+00 +5.753188E+02 -8.481041E+00 +9.389597E+00 -8.481041E+00 +1.465752E+03 
 +5.981846E+02 -5.950703E+00 +1.515094E+01 -5.950703E+00 +6.024633E+02 -6.650270E+00 +1.515094E+01 -6.650270E+00 +1.370551E+03 
 +6.061440E+02 -4.666212E+00 -4.418404E+00 -4.666212E+00 +6.493168E+02 +3.220523E+01 -4.418404E+00 +3.220523E+01 +1.289846E+03 
 +6.384293E+02 +3.672067E+01 -1.062924E+01 +3.672067E+01 +6.566909E+02 +1.776011E+01 -1.062924E+01 +1.776011E+01 +1.308325E+03 
 +5.726744E+02 +1.150939E+01 +1.728461E+01 +1.150939E+01 +5.711622E+02 +3.838261E+00 +1.728461E+01 +3.838261E+00 +1.408812E+03 
 +5.640948E+02 +1.856902E+00 +1.954716E+01 +1.856902E+00 +5.802281E+02 +2.218687E+01 +1.954716E+01 +2.218687E+01 +1.357644E+03 
 +6.376185E+02 +3.990993E+01 -2.487162E+01 +3.990993E+01 +6.570544E+02 -2.190418E+01 -2.487162E+01 -2.190418E+01 +1.389402E+03 
 +6.715172E+02 +3.495815E+01 +2.661053E+00 +3.495815E+01 +5.908672E+02 -5.521937E+00 +2.661053E+00 -5.521937E+00 +1.330720E+03 
 +6.855366E+02 +4.341539E+00 -1.067419E+01 +4.341539E+00 +6.061251E+02 +1.900553E+00 -1.067419E+01 +1.900553E+00 +1.344916E+03 
 +6.269208E+02 +3.067665E+01 -7.978648E+00 +3.067665E+01 +6.516522E+02 +2.460287E+01 -7.978648E+00 +2.460287E+01 +1.336116E+03 
 +7.292570E+02 -5.017282E+01 -9.735349E+00 -5.017282E+01 +7.120032E+02 +1.828843E-01 -9.735349E+00 +1.828843E-01 +1.390875E+03 
 +6.026084E+02 -1.066962E+01 -2.593830E+01 -1.066962E+01 +6.325613E+02 +2.621357E+01 -2.593830E+01 +2.621357E+01 +1.419062E+03 
 +6.843259E+02 -2.654576E+01 +5.734501E+00 -2.654576E+01 +5.809534E+02 +5.188148E+00 +5.734501E+00 +5.188148E+00 +1.352174E+03 
 +5.756451E+02 -1.708884E+01 -1.773075E+01 -1.708884E+01 +6.621769E+02 +1.567521E+01 -1.773075E+01 +1.567521E+01 +1.328813E+03 
 +6.645132E+02 +8.366717E+00 +2.683216E+01 +8.366717E+00 +6.683521E+02 -1.841488E+01 +2.683216E+01 -1.841488E+01 +1.390588E+03 
 +6.265469E+02 -3.440949E+00 +2.191073E+01 -3.440949E+00 +6.036732E+02 -3.293225E+01 +2.191073E+01 -3.293225E+01 +1.352035E+03 
 +5.799914E+02 -3.205529E+00 +1.994164E+00 -3.205529E+00 +5.779247E+02 -5.712008E+01 +1.994164E+00 -5.712008E+01 +1.355504E+03 
 +6.252408E+02 +7.364958E-01 -2.106234E+01 +7.364958E-01 +6.449078E+02 +1.152496E+01 -2.106234E+01 +1.152496E+01 +1.408766E+03 
 +6.368928E+02 +4.808444E+01 +2.862152E+00 +4.808444E+01 +6.707346E+02 +4.873692E+00 +2.862152E+00 +4.873692E+00 +1.353346E+03 
 +6.783958E+02 +3.468360E+01 +3.473135E+00 +3.468360E+01 +6.252520E+02 +7.902925E+00 +3.473135E+00 +7.902925E+00 +1.355295E+03 
 +6.685998E+02 +1.881198E+01 -4.147294E+00 +1.881198E+01 +6.136495E+02 +4.245249E+00 -4.147294E+00 +4.245249E+00 +1.348929E+03 
 +6.005719E+02 -8.008421E-01 +9.039401E-01 -8.008421E-01 +6.039191E+02 -4.313472E+00 +9.039401E-01 -4.313472E+00 +1.397397E+03 
 +7.057376E+02 +3.151673E+00 +7.816872E+00 +3.151673E+00 +6.420501E+02 +5.415616E+00 +7.816872E+00 +5.415616E+00 +1.343767E+03 
 +5.770350E+02 +3.364013E+01 -1.489869E+01 +3.364013E+01 +7.161424E+02 +5.005729E+00 -1.489869E+01 +5.005729E+00 +1.324039E+03 
 +6.394893E+02 -5.076709E+01 +4.575236E+00 -5.076709E+01 +6.512470E+02 -1.019612E+01 +4.575236E+00 -1.019612E+01 +1.284336E+03 
 +5.888929E+02 -1.749578E+01 +1.634329E+01 -1.749578E+01 +5.793327E+02 -5.319462E+00 +1.634329E+01 -5.319462E+00 +1.391351E+03 
 +5.858627E+02 -2.326337E+00 +1.662911E+01 -2.326337E+00 +5.872953E+02 -3.312850E+01 +1.662911E+01 -3.312850E+01 +1.470275E+03 
 +5.431196E+02 +3.986464E+01 -2.214945E+00 +3.986464E+01 +5.826773E+02 -1.598375E+01 -2.214945E+00 -1.598375E+01 +1.256299E+03 
 +6.754902E+02 +2.326004E+01 -2.156095E+00 +2.326004E+01 +6.150591E+02 +1.482983E+01 -2.156095E+00 +1.482983E+01 +1.320677E+03 
 +6.245499E+02 -4.210838E+01 +8.259409E+00 -4.210838E+01 +6.399786E+02 +1.895853E+00 +8.259409E+00 +1.895853E+00 +1.310455E+03 
 +6.272302E+02 +1.834624E+01 +2.995745E+01 +1.834624E+01 +6.445828E+02 +2.052035E+00 +2.995745E+01 +2.052035E+00 +1.325258E+03 
 +5.643176E+02 +4.993045E+00 +8.956931E+00 +4.993045E+00 +5.878661E+02 -1.216842E+00 +8.956931E+00 -1.216842E+00 +1.402449E+03 
 +6.576440E+02 +8.050892E-01 +2.244541E+01 +8.050892E-01 +5.941185E+02 -2.263640E+00 +2.244541E+01 -2.263640E+00 +1.353410E+03 
 +5.470506E+02 +3.239850E+01 +1.587338E+01 +3.239850E+01 +6.140914E+02 -1.447559E+01 +1.587338E+01 -1.447559E+01 +1.290213E+03 
 +5.608970E+02 -2.128857E+01 -4.950475E+00 -2.128857E+01 +6.028929E+02 -4.370735E+00 -4.950475E+00 -4.370735E+00 +1.326398E+03 
 +5.774585E+02 -7.354992E+01 +4.655361E-01 -7.354992E+01 +6.707358E+02 -4.387613E+00 +4.655361E-01 -4.387613E+00 +1.348933E+03 
 +6.990544E+02 -3.318801E+01 -3.232745E+00 -3.318801E+01 +6.286324E+02 +9.102025E+00 -3.232745E+00 +9.102025E+00 +1.350396E+03 
 +7.001200E+02 -7.802057E+00 +1.243285E+00 -7.802057E+00 +5.656687E+02 +2.588598E+00 +1.243285E+00 +2.588598E+00 +1.330573E+03 
 +6.035820E+02 +1.466925E+01 -1.211082E+01 +1.466925E+01 +6.114659E+02 +4.778312E+00 -1.211082E+01 +4.778312E+00 +1.403178E+03 
 +6.744395E+02 +1.553624E+01 +2.830786E+01 +1.553624E+01 +6.465858E+02 -4.612109E+00 +2.830786E+01 -4.612109E+00 +1.447653E+03 
 +5.980219E+02 -2.106846E+01 +1.168070E+01 -2.106846E+01 +6.660248E+02 +1.887842E+01 +1.168070E+01 +1.887842E+01 +1.313138E+03 
 +5.719039E+02 +1.112805E+01 -1.430473E+01 +1.112805E+01 +6.418820E+02 +3.618639E+01 -1.430473E+01 +3.618639E+01 +1.428245E+03 
 +6.086965E+02 -3.192616E+00 -8.278090E+00 -3.192616E+00 +5.723547E+02 +2.049500E+01 -8.278090E+00 +2.049500E+01 +1.344778E+03 
 +5.717125E+02 -2.004265E+01 +2.180049E+01 -2.004265E+01 +5.475906E+02 +3.718659E+00 +2.180049E+01 +3.718659E+00 +1.416380E+03 
 +6.171113E+02 +3.008346E+00 -2.563759E+01 +3.008346E+00 +6.181115E+02 -9.309805E+00 -2.563759E+01 -9.309805E+00 +1.397858E+03 
 +6.574146E+02 +1.335886E+01 -4.143057E+00 +1.335886E+01 +5.800579E+02 -2.424217E+01 -4.143057E+00 -2.424217E+01 +1.320788E+03 
 +5.573354E+02 -2.019611E+01 +8.596854E+00 -2.019611E+01 +5.628353E+02 -5.086899E+00 +8.596854E+00 -5.086899E+00 +1.426121E+03 
 +5.478090E+02 +4.478204E-01 -3.100551E+01 +4.478204E-01 +5.990604E+02 +8.740500E+00 -3.100551E+01 +8.740500E+00 +1.382770E+03 
 +5.965147E+02 +1.749545E+01 +3.143019E+01 +1.749545E+01 +5.866345E+02 -3.990888E+00 +3.143019E+01 -3.990888E+00 +1.345688E+03 
 +5.486732E+02 +1.802752E+00 -2.789725E+01 +1.802752E+00 +6.486825E+02 -1.945036E+01 -2.789725E+01 -1.945036E+01 +1.247475E+03 
 +5.415923E+02 +8.170095E+00 -1.172127E+01 +8.170095E+00 +5.997370E+02 +2.305802E+00 -1.172127E+01 +2.305802E+00 +1.332501E+03 
 +5.835194E+02 -1.959486E+01 -6.190719E+00 -1.959486E+01 +5.940225E+02 +2.282107E+01 -6.190719E+00 +2.282107E+01 +1.342801E+03 
 +6.222570E+02 -1.523674E+01 +1.389026E+01 -1.523674E+01 +6.427995E+02 -5.906398E+00 +1.389026E+01 -5.906398E+00 +1.405647E+03 
 +5.983553E+02 -9.308900E-01 -1.322319E+01 -9.308900E-01 +6.467098E+02 -9.872217E+00 -1.322319E+01 -9.872217E+00 +1.363328E+03 
 +6.197537E+02 +3.791185E+01 +4.586106E+00 +3.791185E+01 +6.045911E+02 +6.357015E+00 +4.586106E+00 +6.357015E+00 +1.306651E+03 
 +6.829420E+02 +9.883806E+00 +1.532712E+01 +9.883806E+00 +5.409048E+02 -1.695519E+01 +1.532712E+01 -1.695519E+01 +1.311513E+03 
 +5.612092E+02 -2.364639E+01 +1.973589E+01 -2.364639E+01 +5.787634E+02 -1.301495E+01 +1.973589E+01 -1.301495E+01 +1.362583E+03 
 +5.871653E+02 +2.072226E+01 +4.663155E+00 +2.072226E+01 +6.124698E+02 -6.558216E+00 +4.663155E+00 -6.558216E+00 +1.270674E+03 
 +5.437934E+02 +4.489402E+01 +8.927427E+00 +4.489402E+01 +6.545774E+02 -1.667255E+01 +8.927427E+00 -1.667255E+01 +1.307185E+03 
 +5.515986E+02 -5.654506E+00 +1.612671E+01 -5.654506E+00 +5.747939E+02 -1.100673E+01 +1.612671E+01 -1.100673E+01 +1.394865E+03 
 +5.811508E+02 +2.375947E+01 +4.343773E+01 +2.375947E+01 +5.910970E+02 -6.467122E-01 +4.343773E+01 -6.467122E-01 +1.387432E+03 
 +6.634862E+02 -1.071592E+01 -9.791950E+00 -1.071592E+01 +6.935181E+02 -8.476271E+00 -9.791950E+00 -8.476271E+00 +1.331894E+03 
 +5.416079E+02 -1.292673E+00 -2.916426E+01 -1.292673E+00 +5.646751E+02 +4.065749E+01 -2.916426E+01 +4.065749E+01 +1.395976E+03 
 +6.328594E+02 +3.812067E+01 +5.636340E+01 +3.812067E+01 +6.406122E+02 +5.869576E+00 +5.636340E+01 +5.869576E+00 +1.397911E+03 
 +5.754891E+02 +3.698082E+00 +2.018197E+01 +3.698082E+00 +6.218058E+02 -6.622643E+00 +2.018197E+01 -6.622643E+00 +1.344190E+03 
 +6.641388E+02 -2.477320E+00 -2.267163E+01 -2.477320E+00 +6.352703E+02 +2.855426E+01 -2.267163E+01 +2.855426E+01 +1.400721E+03 
 +5.927810E+02 -2.558544E+01 -2.744448E-01 -2.558544E+01 +6.923368E+02 -1.576993E+00 -2.744448E-01 -1.576993E+00 +1.291252E+03 
 +6.255784E+02 -1.220454E+01 +4.481840E+00 -1.220454E+01 +6.186638E+02 -2.435441E+01 +4.481840E+00 -2.435441E+01 +1.445279E+03 
 +5.993324E+02 +1.942979E+01 -3.122825E+01 +1.942979E+01 +6.058209E+02 +2.218042E+01 -3.122825E+01 +2.218042E+01 +1.419954E+03 
 +6.607487E+02 +2.812149E+01 +3.403989E+01 +2.812149E+01 +6.128149E+02 +4.114749E+01 +3.403989E+01 +4.114749E+01 +1.402331E+03 
 +6.545910E+02 +4.700443E+01 +4.791615E+00 +4.700443E+01 +6.050048E+02 +1.571967E+01 +4.791615E+00 +1.571967E+01 +1.293151E+03 
 +6.956023E+02 -4.303325E+01 -7.460408E+00 -4.303325E+01 +6.087364E+02 -1.411068E+01 -7.460408E+00 -1.411068E+01 +1.315074E+03 
 +6.003089E+02 +3.453697E+01 +3.068179E+00 +3.453697E+01 +6.323267E+02 -1.053569E+00 +3.068179E+00 -1.053569E+00 +1.299536E+03 
 +6.248539E+02 -1.877181E+00 +6.990623E+00 -1.877181E+00 +5.982518E+02 +7.906348E+00 +6.990623E+00 +7.906348E+00 +1.430984E+03 
 +6.034913E+02 +2.022192E+01 -2.687323E+01 +2.022192E+01 +5.985136E+02 +1.247058E+01 -2.687323E+01 +1.247058E+01 +1.406409E+03 
 +6.062426E+02 -2.675821E+01 -1.275382E+01 -2.675821E+01 +5.777932E+02 -1.035246E+00 -1.275382E+01 -1.035246E+00 +1.401993E+03 
 +5.274091E+02 -5.020635E+00 -3.834225E+01 -5.020635E+00 +5.680921E+02 -6.077609E+00 -3.834225E+01 -6.077609E+00 +1.302203E+03 
 +6.127405E+02 +2.799828E+01 +2.584312E+01 +2.799828E+01 +6.470482E+02 -1.723547E+01 +2.584312E+01 -1.723547E+01 +1.309319E+03 
 +5.972455E+02 -1.817771E+01 +2.043173E+01 -1.817771E+01 +7.255134E+02 +3.214453E+00 +2.043173E+01 +3.214453E+00 +1.335333E+03 
 +6.450400E+02 -1.573284E+01 -1.604367E+01 -1.573284E+01 +6.401709E+02 -1.619745E+01 -1.604367E+01 -1.619745E+01 +1.376008E+03 
 +5.864736E+02 -1.927235E+01 +2.842186E+01 -1.927235E+01 +6.116706E+02 -2.143735E+01 +2.842186E+01 -2.143735E+01 +1.362755E+03 
 +6.381091E+02 -6.299460E+00 -2.555283E+01 -6.299460E+00 +6.653851E+02 -5.256998E+00 -2.555283E+01 -5.256998E+00 +1.357062E+03 
 +5.924664E+02 +5.387999E+00 +2.078923E+01 +5.387999E+00 +5.644100E+02 +1.146660E+01 +2.078923E+01 +1.146660E+01 +1.422749E+03 
 +6.794499E+02 -3.631495E+01 +1.027947E+01 -3.631495E+01 +6.198279E+02 -1.465444E+01 +1.027947E+01 -1.465444E+01 +1.318711E+03 
 +5.744784E+02 -4.516443E+01 +1.291512E+01 -4.516443E+01 +7.118282E+02 +1.106899E+01 +1.291512E+01 +1.106899E+01 +1.325271E+03 
 +5.966108E+02 +5.165248E+01 -1.000292E+00 +5.165248E+01 +6.338834E+02 +2.384055E+01 -1.000292E+00 +2.384055E+01 +1.319279E+03 
 +5.776891E+02 -5.564903E+00 -2.121393E+01 -5.564903E+00 +5.934117E+02 +1.710049E+00 -2.121393E+01 +1.710049E+00 +1.417241E+03 
 +6.150909E+02 -3.335349E+01 +3.107139E+01 -3.335349E+01 +5.904980E+02 +6.524680E+00 +3.107139E+01 +6.524680E+00 +1.293770E+03 
 +6.599859E+02 +5.249739E+00 +4.078697E+00 +5.249739E+00 +5.529304E+02 +4.843158E+00 +4.078697E+00 +4.843158E+00 +1.333647E+03 
 +5.908709E+02 +1.301563E+00 +1.190091E+01 +1.301563E+00 +5.719266E+02 +4.443396E+01 +1.190091E+01 +4.443396E+01 +1.386680E+03 
 +5.862435E+02 +7.066736E+00 -7.632883E+00 +7.066736E+00 +6.015355E+02 +4.072712E+01 -7.632883E+00 +4.072712E+01 +1.403125E+03 
 +6.278769E+02 -2.026715E+01 +1.379806E+01 -2.026715E+01 +6.710726E+02 -1.060849E+00 +1.379806E+01 -1.060849E+00 +1.313520E+03 
 +5.228612E+02 +1.029857E+01 +2.580469E+00 +1.029857E+01 +6.395761E+02 +1.113505E+01 +2.580469E+00 +1.113505E+01 +1.311189E+03 
 +6.675748E+02 -2.914672E+00 +8.562500E+00 -2.914672E+00 +5.968315E+02 -2.996173E+00 +8.562500E+00 -2.996173E+00 +1.311514E+03 
 +6.565683E+02 +7.094664E+00 +1.067982E+01 +7.094664E+00 +6.651230E+02 -2.386943E+00 +1.067982E+01 -2.386943E+00 +1.403941E+03 
 +6.165919E+02 +1.198566E+00 +3.001082E+01 +1.198566E+00 +6.075650E+02 +2.360620E+01 +3.001082E+01 +2.360620E+01 +1.392646E+03 
 +5.764543E+02 -1.386600E+01 -3.956514E+00 -1.386600E+01 +5.752015E+02 +9.374312E+00 -3.956514E+00 +9.374312E+00 +1.405762E+03 
 +6.934578E+02 +4.534652E+00 +4.636487E+00 +4.534652E+00 +6.165467E+02 -2.397906E-01 +4.636487E+00 -2.397906E-01 +1.358494E+03 
 +6.567060E+02 -3.716251E+01 +6.097942E+00 -3.716251E+01 +5.662810E+02 -1.954928E+01 +6.097942E+00 -1.954928E+01 +1.285772E+03 
 +5.588905E+02 +9.724670E+00 +7.299641E+00 +9.724670E+00 +5.473383E+02 -2.731038E+01 +7.299641E+00 -2.731038E+01 +1.390334E+03 
 +6.510024E+02 +1.678753E+01 -8.295666E+00 +1.678753E+01 +6.431578E+02 +1.415936E+01 -8.295666E+00 +1.415936E+01 +1.374983E+03 
 +5.793588E+02 +1.263018E+01 +1.213128E+01 +1.263018E+01 +6.165618E+02 -1.576112E+01 +1.213128E+01 -1.576112E+01 +1.330670E+03 
 +6.703340E+02 +2.437590E+01 -8.436944E+00 +2.437590E+01 +5.929745E+02 +5.997854E+00 -8.436944E+00 +5.997854E+00 +1.323992E+03 
 +5.589992E+02 +3.940466E+01 +4.749159E+00 +3.940466E+01 +6.738087E+02 -1.236172E+01 +4.749159E+00 -1.236172E+01 +1.326212E+03 
 +6.217025E+02 +1.239313E+01 +2.374934E+01 +1.239313E+01 +6.162402E+02 +2.749031E+01 +2.374934E+01 +2.749031E+01 +1.300083E+03 
 +6.337958E+02 +3.602533E+01 -2.768263E+01 +3.602533E+01 +5.949339E+02 +1.783904E+01 -2.768263E+01 +1.783904E+01 +1.319313E+03 
 +5.802460E+02 +6.434911E+00 -5.827949E+00 +6.434911E+00 +5.706422E+02 -2.249195E+00 -5.827949E+00 -2.249195E+00 +1.400753E+03 
 +5.821181E+02 -1.739141E+01 -4.506186E+00 -1.739141E+01 +5.836060E+02 +1.538543E+01 -4.506186E+00 +1.538543E+01 +1.406359E+03 
 +5.723190E+02 -3.004781E+00 +5.209088E+00 -3.004781E+00 +5.822628E+02 -3.191655E+00 +5.209088E+00 -3.191655E+00 +1.283565E+03 
 +5.702583E+02 +1.673939E+01 -3.666313E+01 +1.673939E+01 +5.975052E+02 -6.281748E+00 -3.666313E+01 -6.281748E+00 +1.357979E+03 
 +6.006418E+02 -5.067320E+00 +4.033691E+00 -5.067320E+00 +6.344741E+02 -9.497728E+00 +4.033691E+00 -9.497728E+00 +1.353654E+03 
 +6.200549E+02 +2.617470E+01 +1.814238E+00 +2.617470E+01 +7.190703E+02 -2.036764E+01 +1.814238E+00 -2.036764E+01 +1.347735E+03 
 +6.550525E+02 -1.348307E+01 +1.630571E+01 -1.348307E+01 +5.742527E+02 +3.245294E+00 +1.630571E+01 +3.245294E+00 +1.316287E+03 
 +5.588911E+02 -3.789611E+01 +5.045707E+00 -3.789611E+01 +5.313351E+02 -1.583116E+01 +5.045707E+00 -1.583116E+01 +1.279011E+03 
 +5.866974E+02 -1.482411E+01 -1.683019E+01 -1.482411E+01 +5.667463E+02 -1.374345E+01 -1.683019E+01 -1.374345E+01 +1.396181E+03 
 +6.145756E+02 +4.372687E+00 -2.981796E+00 +4.372687E+00 +5.860875E+02 -1.499788E+01 -2.981796E+00 -1.499788E+01 +1.373245E+03 
 +5.944404E+02 +3.312182E+01 -1.505411E+01 +3.312182E+01 +6.494587E+02 +1.156055E+01 -1.505411E+01 +1.156055E+01 +1.304246E+03 
 +5.807934E+02 -7.571612E+00 +2.055616E+01 -7.571612E+00 +6.234295E+02 +1.234682E+01 +2.055616E+01 +1.234682E+01 +1.449343E+03 
 +5.776929E+02 -2.350554E+01 +2.210307E+01 -2.350554E+01 +5.936058E+02 +1.447576E+01 +2.210307E+01 +1.447576E+01 +1.367851E+03 
 +6.475953E+02 +1.178385E+01 -1.396283E+01 +1.178385E+01 +5.717534E+02 -2.694820E+01 -1.396283E+01 -2.694820E+01 +1.415116E+03 
 +7.065504E+02 +8.793741E+00 -1.586745E+01 +8.793741E+00 +5.352408E+02 -1.593175E+01 -1.586745E+01 -1.593175E+01 +1.304510E+03 
 +5.661558E+02 +1.487803E+01 -7.580498E+00 +1.487803E+01 +5.447715E+02 -2.398786E+01 -7.580498E+00 -2.398786E+01 +1.407351E+03 
 +5.712489E+02 +4.003857E+00 -1.502314E+01 +4.003857E+00 +5.913123E+02 +1.219250E+01 -1.502314E+01 +1.219250E+01 +1.380400E+03 
 +5.303212E+02 +2.148028E+00 -1.992639E+01 +2.148028E+00 +6.066699E+02 +2.746468E+00 -1.992639E+01 +2.746468E+00 +1.278559E+03 
 +5.325156E+02 -2.095614E+01 +1.605678E+01 -2.095614E+01 +5.297926E+02 -8.893692E-01 +1.605678E+01 -8.893692E-01 +1.367814E+03 
 +6.584749E+02 -1.006545E+01 +8.095215E-02 -1.006545E+01 +5.718907E+02 +1.113896E+01 +8.095215E-02 +1.113896E+01 +1.296008E+03 
 +6.048105E+02 -1.728693E+01 +3.710832E+00 -1.728693E+01 +5.731075E+02 +7.183004E+00 +3.710832E+00 +7.183004E+00 +1.406282E+03 
 +5.852587E+02 +6.730233E+00 +1.519302E+01 +6.730233E+00 +5.750839E+02 -8.660385E+00 +1.519302E+01 -8.660385E+00 +1.377214E+03 
 +5.713430E+02 +3.017896E-01 +5.240573E+00 +3.017896E-01 +6.148311E+02 +1.003758E+01 +5.240573E+00 +1.003758E+01 +1.419614E+03 
 +6.505972E+02 -2.250390E+01 -1.774110E+01 -2.250390E+01 +6.476241E+02 -1.542907E+01 -1.774110E+01 -1.542907E+01 +1.334031E+03 
 +6.382324E+02 -2.933585E+01 -2.294400E+01 -2.933585E+01 +5.785571E+02 +1.521475E+01 -2.294400E+01 +1.521475E+01 +1.332737E+03 
 +6.649468E+02 +3.390583E+00 +1.285428E+01 +3.390583E+00 +5.738511E+02 -2.972254E+01 +1.285428E+01 -2.972254E+01 +1.380833E+03 
 +5.680687E+02 -3.102225E+01 +8.719283E+00 -3.102225E+01 +5.510542E+02 +1.496640E+01 +8.719283E+00 +1.496640E+01 +1.342704E+03 
 +5.685468E+02 +8.850818E+00 -2.298842E+01 +8.850818E+00 +6.273657E+02 +2.011132E+01 -2.298842E+01 +2.011132E+01 +1.389141E+03 
 +6.098536E+02 +4.754195E+01 -5.628849E+00 +4.754195E+01 +6.380265E+02 -6.689250E+00 -5.628849E+00 -6.689250E+00 +1.315448E+03 
 +5.827413E+02 -1.474737E+01 +6.418067E+00 -1.474737E+01 +5.838581E+02 -7.295869E+00 +6.418067E+00 -7.295869E+00 +1.415774E+03 
 +6.144563E+02 +2.924957E+01 -9.975024E+00 +2.924957E+01 +6.356398E+02 +1.260389E+01 -9.975024E+00 +1.260389E+01 +1.293088E+03 
 +5.843900E+02 -8.612936E+00 -6.696084E+00 -8.612936E+00 +5.713909E+02 -8.267491E+00 -6.696084E+00 -8.267491E+00 +1.383498E+03 
 +5.804544E+02 +1.747279E+00 -1.039790E+01 +1.747279E+00 +5.314100E+02 -1.445604E+01 -1.039790E+01 -1.445604E+01 +1.384804E+03 
 +6.176893E+02 +2.637860E+00 -1.232249E+01 +2.637860E+00 +6.328602E+02 -2.542222E+00 -1.232249E+01 -2.542222E+00 +1.391223E+03 
 +6.440462E+02 -2.428260E+01 -1.373828E+00 -2.428260E+01 +6.306132E+02 -2.137886E+01 -1.373828E+00 -2.137886E+01 +1.448445E+03 
 +5.520846E+02 +6.989485E-01 -4.634540E+00 +6.989485E-01 +5.459564E+02 -2.010881E+01 -4.634540E+00 -2.010881E+01 +1.362734E+03 
 +6.384443E+02 -4.787052E+00 -1.935741E+01 -4.787052E+00 +6.531359E+02 +1.703554E+01 -1.935741E+01 +1.703554E+01 +1.483209E+03 
 +7.091779E+02 +1.693805E+01 +7.745232E+00 +1.693805E+01 +6.320920E+02 -5.886992E+00 +7.745232E+00 -5.886992E+00 +1.361607E+03 
 +5.906183E+02 +2.198169E+01 +1.145777E+01 +2.198169E+01 +5.819270E+02 -1.543552E+01 +1.145777E+01 -1.543552E+01 +1.375496E+03 
 +6.588223E+02 +2.551858E+01 -6.434849E+00 +2.551858E+01 +7.262338E+02 +4.617536E+00 -6.434849E+00 +4.617536E+00 +1.392683E+03 
 +6.188295E+02 -4.830488E+00 +2.072804E+01 -4.830488E+00 +6.673938E+02 -2.443967E+00 +2.072804E+01 -2.443967E+00 +1.389206E+03 
 +6.239228E+02 +2.072996E+01 -9.887607E+00 +2.072996E+01 +7.361046E+02 -1.057705E+01 -9.887607E+00 -1.057705E+01 +1.334868E+03 
 +7.391183E+02 +5.244156E+01 +2.284721E+01 +5.244156E+01 +7.161187E+02 +6.798652E+00 +2.284721E+01 +6.798652E+00 +1.422549E+03 
 +6.037318E+02 +1.887801E+01 -2.598104E+01 +1.887801E+01 +6.238528E+02 +1.627212E+00 -2.598104E+01 +1.627212E+00 +1.427393E+03 
 +5.953381E+02 +4.260343E+00 +9.671737E+00 +4.260343E+00 +5.781082E+02 +1.309880E+01 +9.671737E+00 +1.309880E+01 +1.427932E+03 
 +5.535250E+02 +9.938519E+00 +4.074026E+01 +9.938519E+00 +5.528960E+02 -5.345531E+00 +4.074026E+01 -5.345531E+00 +1.352719E+03 
 +6.224285E+02 -2.508239E+01 +4.990232E+00 -2.508239E+01 +5.870952E+02 +1.825753E+00 +4.990232E+00 +1.825753E+00 +1.326994E+03 
 +5.957127E+02 +2.666415E+01 -6.087256E+00 +2.666415E+01 +6.488321E+02 +1.907288E+01 -6.087256E+00 +1.907288E+01 +1.341438E+03 
 +6.344828E+02 +7.803759E+00 -2.704330E+01 +7.803759E+00 +6.137449E+02 +2.796898E+01 -2.704330E+01 +2.796898E+01 +1.426909E+03 
 +6.068154E+02 -1.111318E+01 -2.191091E+01 -1.111318E+01 +5.965813E+02 -1.098190E+01 -2.191091E+01 -1.098190E+01 +1.414243E+03 
 +7.083266E+02 +3.754760E+00 -1.345886E+01 +3.754760E+00 +5.674676E+02 -1.106825E+01 -1.345886E+01 -1.106825E+01 +1.319327E+03 
 +5.313173E+02 +5.117328E+00 -4.060679E+01 +5.117328E+00 +5.285742E+02 -9.963765E+00 -4.060679E+01 -9.963765E+00 +1.326214E+03 
 +7.428221E+02 +5.447854E+00 +2.402810E+01 +5.447854E+00 +6.130378E+02 -6.578570E+00 +2.402810E+01 -6.578570E+00 +1.339965E+03 
 +6.204639E+02 -1.986428E+01 -2.289760E+01 -1.986428E+01 +6.169367E+02 -7.533371E+00 -2.289760E+01 -7.533371E+00 +1.437095E+03 
 +5.943912E+02 -3.053195E+01 -3.257400E+01 -3.053195E+01 +5.816451E+02 -1.946240E+01 -3.257400E+01 -1.946240E+01 +1.367273E+03 
 +6.051834E+02 -5.577138E+00 +2.268580E+01 -5.577138E+00 +6.230045E+02 +1.997000E+01 +2.268580E+01 +1.997000E+01 +1.414957E+03 
 +5.831479E+02 +1.513326E+01 -6.976653E+00 +1.513326E+01 +5.677593E+02 +4.325962E+00 -6.976653E+00 +4.325962E+00 +1.407029E+03 
 +5.816225E+02 -7.866585E+00 -1.484037E+01 -7.866585E+00 +5.836041E+02 +7.787311E+00 -1.484037E+01 +7.787311E+00 +1.419135E+03 
 +5.942067E+02 -3.312863E+01 +1.905718E+01 -3.312863E+01 +6.480140E+02 +1.147734E+01 +1.905718E+01 +1.147734E+01 +1.365145E+03 
 +5.449956E+02 -1.637117E+01 -5.035275E+00 -1.637117E+01 +6.012748E+02 -1.615470E+01 -5.035275E+00 -1.615470E+01 +1.309971E+03 
 +5.770140E+02 -2.955257E+01 -9.865499E+00 -2.955257E+01 +5.270331E+02 -1.407191E+01 -9.865499E+00 -1.407191E+01 +1.404559E+03 
 +6.281587E+02 +5.232574E+00 +3.447762E+00 +5.232574E+00 +5.943355E+02 -2.303306E+00 +3.447762E+00 -2.303306E+00 +1.320226E+03 
 +7.147112E+02 -1.515337E+01 -1.040448E+01 -1.515337E+01 +6.127081E+02 +8.027991E+00 -1.040448E+01 +8.027991E+00 +1.318622E+03 
 +6.167733E+02 +1.090226E+00 -1.241432E+01 +1.090226E+00 +6.153911E+02 +2.060990E+00 -1.241432E+01 +2.060990E+00 +1.440738E+03 
 +5.863223E+02 -6.118394E+00 +1.232109E+01 -6.118394E+00 +5.680732E+02 -1.485831E+01 +1.232109E+01 -1.485831E+01 +1.422921E+03 
 +5.934295E+02 -4.899140E+01 -2.085633E+01 -4.899140E+01 +6.827059E+02 +9.748186E-01 -2.085633E+01 +9.748186E-01 +1.339456E+03 
 +6.950577E+02 -1.802436E+01 -3.638732E+00 -1.802436E+01 +6.741428E+02 +7.751723E+00 -3.638732E+00 +7.751723E+00 +1.403415E+03 
 +5.950486E+02 +1.062692E+01 -1.212011E+01 +1.062692E+01 +5.810220E+02 -1.501277E+01 -1.212011E+01 -1.501277E+01 +1.391473E+03 
 +5.148802E+02 -1.704643E+00 +1.283707E+01 -1.704643E+00 +5.994064E+02 -2.487470E+00 +1.283707E+01 -2.487470E+00 +1.286128E+03 
 +6.693566E+02 +4.641901E+00 +1.468559E+01 +4.641901E+00 +6.610701E+02 +3.521119E+01 +1.468559E+01 +3.521119E+01 +1.423983E+03 
 +6.512951E+02 -1.433117E+00 -7.396698E+00 -1.433117E+00 +6.411746E+02 -9.613434E+00 -7.396698E+00 -9.613434E+00 +1.472538E+03 
 +5.934832E+02 +3.027209E+01 -1.037681E+00 +3.027209E+01 +6.561703E+02 -2.390241E+01 -1.037681E+00 -2.390241E+01 +1.314248E+03 
 +6.132806E+02 +5.207474E+00 +1.465334E+01 +5.207474E+00 +6.920883E+02 -8.814440E+00 +1.465334E+01 -8.814440E+00 +1.377740E+03 
 +6.125511E+02 -3.791770E+01 -1.268625E+01 -3.791770E+01 +6.912829E+02 -8.061297E+00 -1.268625E+01 -8.061297E+00 +1.336240E+03 
 +5.727608E+02 -6.154372E+00 +4.648159E+01 -6.154372E+00 +6.261676E+02 +2.031499E+01 +4.648159E+01 +2.031499E+01 +1.369151E+03 
 +6.203441E+02 -1.313820E+01 +6.598634E+00 -1.313820E+01 +5.675671E+02 +2.597554E+01 +6.598634E+00 +2.597554E+01 +1.339804E+03 
 +5.975498E+02 -1.158515E+01 -1.554836E+01 -1.158515E+01 +5.658114E+02 -1.290991E+01 -1.554836E+01 -1.290991E+01 +1.396135E+03 
 +5.765256E+02 +6.344831E+00 -2.610982E+01 +6.344831E+00 +6.073589E+02 +1.149452E+01 -2.610982E+01 +1.149452E+01 +1.354436E+03 
 +6.607840E+02 -2.182817E+00 -1.191174E+01 -2.182817E+00 +6.402248E+02 -2.386576E+01 -1.191174E+01 -2.386576E+01 +1.379407E+03 
 +6.648658E+02 +2.069268E+00 +1.179057E+01 +2.069268E+00 +5.258954E+02 -1.904554E+01 +1.179057E+01 -1.904554E+01 +1.309710E+03 
 +6.841570E+02 +4.593049E+00 -1.139994E+01 +4.593049E+00 +5.612776E+02 -2.432518E+00 -1.139994E+01 -2.432518E+00 +1.316758E+03 
 +5.896531E+02 +3.187073E+01 +1.916607E+01 +3.187073E+01 +6.714551E+02 -1.114347E+01 +1.916607E+01 -1.114347E+01 +1.340330E+03 
 +6.737241E+02 +5.990466E+01 +1.775015E+00 +5.990466E+01 +5.631979E+02 +8.580490E+00 +1.775015E+00 +8.580490E+00 +1.300069E+03 
 +6.554648E+02 +2.143764E+01 -1.648449E+01 +2.143764E+01 +5.799600E+02 -2.270581E+00 -1.648449E+01 -2.270581E+00 +1.278603E+03 
 +5.732274E+02 -1.504785E+01 +1.677744E-01 -1.504785E+01 +5.745729E+02 +1.081046E+00 +1.677744E-01 +1.081046E+00 +1.423414E+03 
 +6.020887E+02 +9.144301E+00 -3.234885E+01 +9.144301E+00 +5.777472E+02 +1.781696E+01 -3.234885E+01 +1.781696E+01 +1.369010E+03 
 +6.621829E+02 +5.614943E+00 -1.852224E-01 +5.614943E+00 +5.653860E+02 +7.732378E+00 -1.852224E-01 +7.732378E+00 +1.310101E+03 
 +5.682070E+02 +1.726341E+00 -3.190408E+01 +1.726341E+00 +5.494728E+02 -1.086546E+00 -3.190408E+01 -1.086546E+00 +1.387488E+03 
 +6.417581E+02 +1.427502E+01 +2.808873E-01 +1.427502E+01 +5.961764E+02 -1.075674E+01 +2.808873E-01 -1.075674E+01 +1.411430E+03 
 +6.650712E+02 +3.681311E+01 +5.834631E+00 +3.681311E+01 +5.975482E+02 +1.641633E+01 +5.834631E+00 +1.641633E+01 +1.298924E+03 
 +5.078910E+02 +5.988638E+00 +7.758307E+00 +5.988638E+00 +5.019822E+02 -1.411828E+01 +7.758307E+00 -1.411828E+01 +1.373060E+03 
 +5.852646E+02 -5.356916E+00 -1.641425E+00 -5.356916E+00 +6.070002E+02 +2.726339E+01 -1.641425E+00 +2.726339E+01 +1.430425E+03 
 +6.028281E+02 +1.223577E+01 +7.930636E+00 +1.223577E+01 +5.836901E+02 +8.500872E+00 +7.930636E+00 +8.500872E+00 +1.315251E+03 
 +5.737023E+02 +2.552143E+00 +2.232934E+01 +2.552143E+00 +5.672061E+02 -2.642979E+01 +2.232934E+01 -2.642979E+01 +1.368278E+03 
 +5.640765E+02 +1.263253E+01 +4.069002E+01 +1.263253E+01 +5.442488E+02 +2.311046E+01 +4.069002E+01 +2.311046E+01 +1.368678E+03 
 +5.632715E+02 +2.148637E+00 -2.947576E+01 +2.148637E+00 +5.554670E+02 -1.956570E+00 -2.947576E+01 -1.956570E+00 +1.336615E+03 
 +5.938270E+02 +1.592106E+01 +1.994401E+01 +1.592106E+01 +6.835040E+02 +1.655078E+00 +1.994401E+01 +1.655078E+00 +1.331744E+03 
 +6.398607E+02 -3.409198E-01 -4.627412E+00 -3.409198E-01 +6.276503E+02 +1.180863E+01 -4.627412E+00 +1.180863E+01 +1.377099E+03 
 +6.342090E+02 -5.237704E+01 -1.404821E+01 -5.237704E+01 +5.948326E+02 -9.833829E-01 -1.404821E+01 -9.833829E-01 +1.317307E+03 
 +5.976063E+02 -2.244774E+01 +1.388773E+00 -2.244774E+01 +5.464818E+02 +2.480092E+01 +1.388773E+00 +2.480092E+01 +1.410034E+03 
 +6.498004E+02 -4.053840E+01 -1.474984E+01 -4.053840E+01 +5.803273E+02 -5.976996E+00 -1.474984E+01 -5.976996E+00 +1.300501E+03 
 +5.590143E+02 +2.277633E+01 +1.471913E+01 +2.277633E+01 +6.007767E+02 -2.807482E+01 +1.471913E+01 -2.807482E+01 +1.300486E+03 
 +5.579885E+02 -2.637111E+01 -1.430367E+00 -2.637111E+01 +5.543712E+02 +1.914457E+00 -1.430367E+00 +1.914457E+00 +1.295491E+03 
 +6.257303E+02 -5.709542E+01 +7.634997E+00 -5.709542E+01 +6.168917E+02 +2.518002E+01 +7.634997E+00 +2.518002E+01 +1.295065E+03 
 +5.320862E+02 -6.233996E+00 -2.688606E+01 -6.233996E+00 +5.401773E+02 -9.361687E+00 -2.688606E+01 -9.361687E+00 +1.410231E+03 
 +6.744031E+02 -6.407711E+00 -2.662974E+00 -6.407711E+00 +5.447207E+02 -9.875651E+00 -2.662974E+00 -9.875651E+00 +1.347913E+03 
 +5.768740E+02 -2.309480E+01 -3.271080E+01 -2.309480E+01 +5.748100E+02 +2.748569E+01 -3.271080E+01 +2.748569E+01 +1.444572E+03 
 +6.560568E+02 -1.048515E+01 +1.766587E+01 -1.048515E+01 +6.329686E+02 -7.372935E+00 +1.766587E+01 -7.372935E+00 +1.323324E+03 
 +5.946968E+02 +1.133694E+01 -4.217492E+00 +1.133694E+01 +5.824790E+02 -3.501348E+01 -4.217492E+00 -3.501348E+01 +1.441283E+03 
 +5.985378E+02 -9.381516E+00 -1.568599E+01 -9.381516E+00 +5.871463E+02 +2.415517E+01 -1.568599E+01 +2.415517E+01 +1.383010E+03 
 +5.666694E+02 +4.721746E+00 -1.934844E+01 +4.721746E+00 +5.378495E+02 +3.094704E+01 -1.934844E+01 +3.094704E+01 +1.390999E+03 
 +6.189301E+02 +1.362225E+01 +5.599450E+00 +1.362225E+01 +6.153156E+02 +1.046120E+01 +5.599450E+00 +1.046120E+01 +1.367000E+03 
 +6.306710E+02 +7.106427E+00 -1.002049E+01 +7.106427E+00 +6.079897E+02 -2.662489E+00 -1.002049E+01 -2.662489E+00 +1.328575E+03 
 +6.079044E+02 -1.353881E+01 -1.951332E+01 -1.353881E+01 +6.006539E+02 -1.542315E+01 -1.951332E+01 -1.542315E+01 +1.447672E+03 
 +6.112886E+02 -4.867044E+01 +4.126919E+00 -4.867044E+01 +6.062673E+02 -1.222659E+01 +4.126919E+00 -1.222659E+01 +1.296064E+03 
 +6.779321E+02 -4.325082E+01 +2.086342E+00 -4.325082E+01 +6.899255E+02 -3.968226E+00 +2.086342E+00 -3.968226E+00 +1.369235E+03 
 +6.121133E+02 +2.103492E+01 +1.999420E+00 +2.103492E+01 +6.986947E+02 -5.751500E+00 +1.999420E+00 -5.751500E+00 +1.383137E+03 
 +5.477330E+02 -7.104805E-01 -2.269766E+01 -7.104805E-01 +5.580159E+02 +4.231831E+01 -2.269766E+01 +4.231831E+01 +1.375165E+03 
 +5.844996E+02 -1.461013E+01 +5.110649E-01 -1.461013E+01 +6.391620E+02 +4.743894E+01 +5.110649E-01 +4.743894E+01 +1.319344E+03 
 +5.984150E+02 +1.966343E+01 -1.641927E+01 +1.966343E+01 +7.127909E+02 -4.369439E+00 -1.641927E+01 -4.369439E+00 +1.367348E+03 
 +5.743235E+02 +9.844732E+00 -1.734211E+00 +9.844732E+00 +6.728140E+02 -1.446441E+01 -1.734211E+00 -1.446441E+01 +1.305325E+03 
 +5.821555E+02 +3.620466E+00 +9.405914E+00 +3.620466E+00 +6.271367E+02 +6.407350E+00 +9.405914E+00 +6.407350E+00 +1.415948E+03 
 +5.935528E+02 +5.006458E+01 -1.635268E+01 +5.006458E+01 +6.209770E+02 -1.016301E+00 -1.635268E+01 -1.016301E+00 +1.282013E+03 
 +6.229178E+02 +4.963705E+01 +4.317959E+00 +4.963705E+01 +6.429877E+02 +3.229012E+01 +4.317959E+00 +3.229012E+01 +1.272129E+03 
 +6.094062E+02 -1.637558E+01 +3.246732E+01 -1.637558E+01 +5.528876E+02 +3.131526E+00 +3.246732E+01 +3.131526E+00 +1.349800E+03 
 +6.435558E+02 +1.123132E+01 +3.020049E+01 +1.123132E+01 +6.832502E+02 +1.884160E+01 +3.020049E+01 +1.884160E+01 +1.353167E+03 
 +6.037187E+02 +9.096338E+00 +9.139704E+00 +9.096338E+00 +6.286938E+02 +1.467678E+01 +9.139704E+00 +1.467678E+01 +1.345705E+03 
 +6.306143E+02 +6.800732E+00 +2.829527E+01 +6.800732E+00 +6.310757E+02 -8.426196E+00 +2.829527E+01 -8.426196E+00 +1.377547E+03 
 +6.019848E+02 +2.730873E+01 +7.037288E+00 +2.730873E+01 +6.371988E+02 +3.891490E+00 +7.037288E+00 +3.891490E+00 +1.337948E+03 
 +6.440909E+02 -5.126643E+00 -8.667508E+00 -5.126643E+00 +6.076890E+02 +1.458967E+01 -8.667508E+00 +1.458967E+01 +1.356792E+03 
 +6.074127E+02 -2.281740E+01 +4.665143E+00 -2.281740E+01 +6.797332E+02 +1.190984E+00 +4.665143E+00 +1.190984E+00 +1.319716E+03 
 +6.315964E+02 +1.514978E+01 +3.376210E+01 +1.514978E+01 +6.235020E+02 +3.667111E+01 +3.376210E+01 +3.667111E+01 +1.404343E+03 
 +6.454209E+02 -2.450442E+01 -1.575952E+01 -2.450442E+01 +6.272222E+02 +2.755704E+01 -1.575952E+01 +2.755704E+01 +1.396641E+03 
 +5.942101E+02 -4.739547E+01 +5.516546E+00 -4.739547E+01 +6.830259E+02 -5.455980E+00 +5.516546E+00 -5.455980E+00 +1.323745E+03 
 +6.433811E+02 +8.248065E+00 +2.591110E+01 +8.248065E+00 +6.733680E+02 -8.654877E+00 +2.591110E+01 -8.654877E+00 +1.441263E+03 
 +6.334393E+02 +2.819811E+01 +5.706734E+00 +2.819811E+01 +6.931339E+02 +1.097775E+01 +5.706734E+00 +1.097775E+01 +1.351103E+03 
 +5.707007E+02 +3.522457E+00 -1.480466E+01 +3.522457E+00 +6.136218E+02 -1.778579E+00 -1.480466E+01 -1.778579E+00 +1.346021E+03 
 +6.072979E+02 -6.669642E-01 +2.183910E+01 -6.669642E-01 +5.875967E+02 +2.790282E+00 +2.183910E+01 +2.790282E+00 +1.437971E+03 
 +6.648205E+02 -4.585161E+01 -3.816468E+00 -4.585161E+01 +5.919025E+02 -1.690528E+01 -3.816468E+00 -1.690528E+01 +1.383650E+03 
 +6.655950E+02 -7.664638E+00 -1.539406E+01 -7.664638E+00 +5.408062E+02 -1.194487E+01 -1.539406E+01 -1.194487E+01 +1.326973E+03 
 +5.834620E+02 -2.066572E+01 -1.342750E+01 -2.066572E+01 +5.616732E+02 -1.111021E+01 -1.342750E+01 -1.111021E+01 +1.374148E+03 
 +6.116980E+02 -1.008810E+01 +9.736587E+00 -1.008810E+01 +5.430243E+02 -8.270687E+00 +9.736587E+00 -8.270687E+00 +1.280682E+03 
 +5.692418E+02 +1.116306E+01 -1.216603E+01 +1.116306E+01 +5.964766E+02 +3.571418E+00 -1.216603E+01 +3.571418E+00 +1.438118E+03 
 +6.407235E+02 -1.755859E+00 +1.926780E+01 -1.755859E+00 +6.338336E+02 +2.286367E+01 +1.926780E+01 +2.286367E+01 +1.310969E+03 
 +6.474183E+02 -6.098694E+01 +5.618420E+00 -6.098694E+01 +5.616644E+02 -2.494084E+01 +5.618420E+00 -2.494084E+01 +1.324801E+03 
 +6.163621E+02 +1.113119E+00 +2.708819E-01 +1.113119E+00 +6.945121E+02 -2.578329E+00 +2.708819E-01 -2.578329E+00 +1.351849E+03 
 +6.137064E+02 +2.964994E+00 -1.179052E+01 +2.964994E+00 +6.582794E+02 +4.740454E-01 -1.179052E+01 +4.740454E-01 +1.289821E+03 
 +5.764074E+02 +1.994622E+01 -3.042669E+01 +1.994622E+01 +6.474138E+02 +1.382848E+01 -3.042669E+01 +1.382848E+01 +1.362210E+03 
 +6.536567E+02 -6.465083E+00 -5.667132E+00 -6.465083E+00 +5.812317E+02 -1.231492E+01 -5.667132E+00 -1.231492E+01 +1.290578E+03 
 +6.138316E+02 +2.349381E+01 +1.322811E+01 +2.349381E+01 +6.659835E+02 +2.567800E+01 +1.322811E+01 +2.567800E+01 +1.315102E+03 
 +5.965811E+02 -1.825435E+01 -3.431536E+00 -1.825435E+01 +7.275292E+02 +3.182906E+00 -3.431536E+00 +3.182906E+00 +1.322125E+03 
 +5.951937E+02 -3.141697E+01 +3.177633E+00 -3.141697E+01 +5.726535E+02 +3.413967E-01 +3.177633E+00 +3.413967E-01 +1.298609E+03 
 +5.620409E+02 +2.742643E+01 +5.572196E+00 +2.742643E+01 +5.904071E+02 -1.047225E+00 +5.572196E+00 -1.047225E+00 +1.369909E+03 
 +5.875023E+02 +6.571007E+00 +1.568975E+01 +6.571007E+00 +6.056642E+02 +1.659937E+01 +1.568975E+01 +1.659937E+01 +1.354720E+03 
 +5.874160E+02 -9.769332E+00 -6.436480E+00 -9.769332E+00 +6.025709E+02 +1.567987E+01 -6.436480E+00 +1.567987E+01 +1.385058E+03 
 +5.976907E+02 +1.000294E+01 +3.603074E+01 +1.000294E+01 +5.898025E+02 -4.782337E+00 +3.603074E+01 -4.782337E+00 +1.374073E+03 
 +6.256927E+02 -1.834320E+01 -2.056632E+00 -1.834320E+01 +6.416584E+02 +1.342445E+01 -2.056632E+00 +1.342445E+01 +1.403147E+03 
 +6.453705E+02 +1.093320E+01 +3.376327E+00 +1.093320E+01 +6.839498E+02 +1.158224E-01 +3.376327E+00 +1.158224E-01 +1.350161E+03 
 +6.628886E+02 +2.967530E+00 -1.812429E+01 +2.967530E+00 +6.337529E+02 -2.136595E+01 -1.812429E+01 -2.136595E+01 +1.409667E+03 
 +6.081076E+02 +9.730988E+00 +2.638991E+01 +9.730988E+00 +5.786178E+02 -1.825901E+01 +2.638991E+01 -1.825901E+01 +1.333747E+03 
 +6.040207E+02 -5.061375E+00 -8.197829E+00 -5.061375E+00 +6.003541E+02 -9.286332E+00 -8.197829E+00 -9.286332E+00 +1.378208E+03 
 +6.193656E+02 +3.357130E+01 +1.432642E+01 +3.357130E+01 +6.697018E+02 +2.937912E+00 +1.432642E+01 +2.937912E+00 +1.314368E+03 
 +6.348901E+02 +4.120061E+01 -2.701222E+00 +4.120061E+01 +6.434716E+02 -1.633417E+01 -2.701222E+00 -1.633417E+01 +1.302479E+03 
 +6.327763E+02 -2.333311E+01 -2.309340E+01 -2.333311E+01 +6.226003E+02 -2.471496E+01 -2.309340E+01 -2.471496E+01 +1.383035E+03 
 +6.478165E+02 -1.490774E+01 -1.588758E+01 -1.490774E+01 +6.504753E+02 -2.462665E+01 -1.588758E+01 -2.462665E+01 +1.348852E+03 
 +6.509100E+02 +2.997836E+01 +6.362292E+00 +2.997836E+01 +6.679130E+02 -3.994643E+00 +6.362292E+00 -3.994643E+00 +1.323759E+03 
 +6.742274E+02 -1.572306E+01 -4.500051E+01 -1.572306E+01 +6.527006E+02 -2.127264E+01 -4.500051E+01 -2.127264E+01 +1.347677E+03 
 +6.457229E+02 +4.143388E+01 -1.789934E+01 +4.143388E+01 +6.867151E+02 -4.742665E+00 -1.789934E+01 -4.742665E+00 +1.393692E+03 
 +6.086349E+02 -7.858482E+00 -1.648631E+01 -7.858482E+00 +6.884000E+02 +9.719971E+00 -1.648631E+01 +9.719971E+00 +1.328735E+03 
 +6.531702E+02 -6.148795E+01 -1.141963E+01 -6.148795E+01 +6.701398E+02 +6.800132E-01 -1.141963E+01 +6.800132E-01 +1.328273E+03 
 +5.683832E+02 +1.603050E+01 +9.444205E+00 +1.603050E+01 +5.928741E+02 -3.528881E+01 +9.444205E+00 -3.528881E+01 +1.380604E+03 
 +5.993015E+02 +3.070052E+00 -3.896731E+01 +3.070052E+00 +5.769129E+02 +6.951792E+00 -3.896731E+01 +6.951792E+00 +1.368705E+03 
 +6.207585E+02 +2.435962E+01 +1.397688E+01 +2.435962E+01 +5.945486E+02 -7.607744E+00 +1.397688E+01 -7.607744E+00 +1.359932E+03 
 +6.197239E+02 -3.656063E+01 -5.031857E+00 -3.656063E+01 +6.276114E+02 +5.432968E+00 -5.031857E+00 +5.432968E+00 +1.340793E+03 
 +6.038530E+02 +3.155312E+00 +3.118075E+00 +3.155312E+00 +6.334360E+02 -5.517706E+00 +3.118075E+00 -5.517706E+00 +1.430639E+03 
 +5.394662E+02 -1.711225E+01 +1.349666E+00 -1.711225E+01 +6.971959E+02 +1.792650E+01 +1.349666E+00 +1.792650E+01 +1.334969E+03 
 +6.943634E+02 -3.090162E+01 +5.280421E+00 -3.090162E+01 +6.400322E+02 -1.259259E+01 +5.280421E+00 -1.259259E+01 +1.397025E+03 
 +6.060836E+02 +3.276077E+01 +1.519986E+01 +3.276077E+01 +5.509989E+02 +1.959705E+00 +1.519986E+01 +1.959705E+00 +1.299958E+03 
 +6.889986E+02 -1.882508E+01 +1.350584E+01 -1.882508E+01 +6.511823E+02 +2.463262E+01 +1.350584E+01 +2.463262E+01 +1.477735E+03 
 +5.833684E+02 -1.833499E+01 -3.273203E+01 -1.833499E+01 +6.900656E+02 +4.782543E+00 -3.273203E+01 +4.782543E+00 +1.292975E+03 
 +6.156851E+02 -2.118412E+01 +2.322396E+01 -2.118412E+01 +6.813773E+02 +3.245645E+01 +2.322396E+01 +3.245645E+01 +1.382187E+03 
 +5.797119E+02 +1.289754E+01 -1.447544E+01 +1.289754E+01 +6.633519E+02 -1.394779E+00 -1.447544E+01 -1.394779E+00 +1.314833E+03 
 +7.133587E+02 -8.294681E+00 +6.667390E+00 -8.294681E+00 +5.692404E+02 +5.351565E+00 +6.667390E+00 +5.351565E+00 +1.363718E+03 
 +6.166168E+02 -2.557898E+01 +4.112198E+00 -2.557898E+01 +5.917275E+02 -7.501847E+00 +4.112198E+00 -7.501847E+00 +1.337593E+03 
 +5.717896E+02 -5.494804E-01 +2.111027E+01 -5.494804E-01 +6.315765E+02 -6.630401E+00 +2.111027E+01 -6.630401E+00 +1.381725E+03 
 +6.900016E+02 -1.181890E+01 -2.687503E+01 -1.181890E+01 +5.826605E+02 +3.445452E+00 -2.687503E+01 +3.445452E+00 +1.349385E+03 
 +5.979049E+02 -2.085600E+01 -6.684151E+00 -2.085600E+01 +5.686110E+02 +4.411359E+01 -6.684151E+00 +4.411359E+01 +1.344561E+03 
 +5.724397E+02 +5.336695E+00 -3.522604E+00 +5.336695E+00 +6.033809E+02 -3.637046E+00 -3.522604E+00 -3.637046E+00 +1.345129E+03 
 +6.058329E+02 +2.424108E+00 +1.306048E+01 +2.424108E+00 +5.702996E+02 -3.714274E+01 +1.306048E+01 -3.714274E+01 +1.350401E+03 
 +5.736517E+02 -2.361209E+01 +4.219610E+01 -2.361209E+01 +6.261088E+02 +1.499667E+01 +4.219610E+01 +1.499667E+01 +1.317126E+03 
 +5.068325E+02 -1.507268E+00 -1.763736E+01 -1.507268E+00 +5.649052E+02 -1.406603E+01 -1.763736E+01 -1.406603E+01 +1.331370E+03 
 +7.392360E+02 +9.908231E+00 -8.864938E+00 +9.908231E+00 +6.356049E+02 +1.073251E+01 -8.864938E+00 +1.073251E+01 +1.391424E+03 
 +6.203497E+02 +2.788164E+00 -1.292408E+01 +2.788164E+00 +5.858970E+02 -1.732653E+01 -1.292408E+01 -1.732653E+01 +1.327756E+03 
 +6.555204E+02 -1.816768E+00 +2.256505E+01 -1.816768E+00 +5.539864E+02 -2.732343E+01 +2.256505E+01 -2.732343E+01 +1.277802E+03 
 +5.952197E+02 +9.940903E+00 +4.691046E+00 +9.940903E+00 +5.824472E+02 -1.385257E+01 +4.691046E+00 -1.385257E+01 +1.425771E+03 
 +6.782349E+02 +4.006591E+01 -6.611900E-01 +4.006591E+01 +6.577516E+02 -1.625499E+01 -6.611900E-01 -1.625499E+01 +1.357061E+03 
 +6.215293E+02 +4.799175E+00 +1.090650E+01 +4.799175E+00 +6.196662E+02 -3.840658E+00 +1.090650E+01 -3.840658E+00 +1.395588E+03 
 +5.959616E+02 +2.225396E+01 -3.289834E+00 +2.225396E+01 +6.216396E+02 +2.969981E+01 -3.289834E+00 +2.969981E+01 +1.365509E+03 
 +5.849494E+02 -1.975244E+01 -4.865951E+00 -1.975244E+01 +5.798132E+02 -1.538087E+00 -4.865951E+00 -1.538087E+00 +1.321638E+03 
 +5.923269E+02 +3.394130E+01 +2.097811E+00 +3.394130E+01 +6.193914E+02 +9.266294E+00 +2.097811E+00 +9.266294E+00 +1.399819E+03 
 +5.963676E+02 -1.708389E+01 +2.336223E+01 -1.708389E+01 +5.757532E+02 +3.165199E+01 +2.336223E+01 +3.165199E+01 +1.330799E+03 
 +5.685546E+02 -3.443223E+01 -6.410530E+00 -3.443223E+01 +6.169847E+02 -2.290054E+01 -6.410530E+00 -2.290054E+01 +1.300667E+03 
 +5.403754E+02 +1.420141E+01 -2.802649E+01 +1.420141E+01 +6.136310E+02 +2.463686E+01 -2.802649E+01 +2.463686E+01 +1.377498E+03 
 +6.020447E+02 +2.538603E+01 -6.878620E+00 +2.538603E+01 +5.987152E+02 +2.568230E+01 -6.878620E+00 +2.568230E+01 +1.389008E+03 
 +6.247616E+02 -1.165777E+01 +8.236935E+00 -1.165777E+01 +5.948356E+02 -3.381002E+00 +8.236935E+00 -3.381002E+00 +1.426453E+03 
 +5.195911E+02 -4.716461E-01 -6.749276E+00 -4.716461E-01 +5.287028E+02 +1.166211E+00 -6.749276E+00 +1.166211E+00 +1.396695E+03 
 +5.820703E+02 -1.594765E+00 -2.693752E+00 -1.594765E+00 +5.827368E+02 -2.774333E+00 -2.693752E+00 -2.774333E+00 +1.358365E+03 
 +5.775477E+02 +3.750079E+01 -3.551654E+00 +3.750079E+01 +6.996520E+02 +9.309627E-01 -3.551654E+00 +9.309627E-01 +1.328819E+03 
 +7.237711E+02 +1.520295E+01 -1.664226E+01 +1.520295E+01 +6.242350E+02 +9.928303E+00 -1.664226E+01 +9.928303E+00 +1.353122E+03 
 +5.545063E+02 -1.621091E+01 +5.188847E+01 -1.621091E+01 +5.505690E+02 -2.408549E+01 +5.188847E+01 -2.408549E+01 +1.348068E+03 
 +6.757177E+02 +3.028795E+01 -4.751679E+00 +3.028795E+01 +5.238156E+02 -1.195515E+01 -4.751679E+00 -1.195515E+01 +1.281764E+03 
 +5.535640E+02 +2.986439E+01 +1.711636E+01 +2.986439E+01 +5.713934E+02 +1.478766E+01 +1.711636E+01 +1.478766E+01 +1.447942E+03 
 +5.911837E+02 -1.466909E+01 -3.564051E+01 -1.466909E+01 +5.849203E+02 +1.849513E+01 -3.564051E+01 +1.849513E+01 +1.277342E+03 
 +6.190815E+02 +3.808567E+00 +1.549623E+00 +3.808567E+00 +6.037372E+02 +9.776793E+00 +1.549623E+00 +9.776793E+00 +1.427264E+03 
 +5.936835E+02 -5.466240E+01 -4.571822E-01 -5.466240E+01 +6.097394E+02 -1.387485E+01 -4.571822E-01 -1.387485E+01 +1.272136E+03 
 +7.047918E+02 -9.652436E+00 +2.502760E+00 -9.652436E+00 +5.938094E+02 -1.625059E+01 +2.502760E+00 -1.625059E+01 +1.328851E+03 
 +5.968468E+02 +1.390105E+01 +8.209461E+00 +1.390105E+01 +5.321718E+02 -1.550114E+01 +8.209461E+00 -1.550114E+01 +1.319056E+03 
 +5.920743E+02 -4.938834E-01 -1.433638E+01 -4.938834E-01 +5.912131E+02 -2.511780E+01 -1.433638E+01 -2.511780E+01 +1.363257E+03 
 +6.048001E+02 +2.425550E+01 +2.725529E+01 +2.425550E+01 +5.974638E+02 +2.090668E+01 +2.725529E+01 +2.090668E+01 +1.406193E+03 
 +6.602565E+02 -6.642442E+00 -1.001101E+00 -6.642442E+00 +6.480377E+02 -3.037301E+01 -1.001101E+00 -3.037301E+01 +1.395616E+03 
 +6.137175E+02 -2.563966E+01 -1.556139E-01 -2.563966E+01 +6.301644E+02 -1.492093E+01 -1.556139E-01 -1.492093E+01 +1.286066E+03 
 +5.942128E+02 +4.774956E+00 +1.525188E+01 +4.774956E+00 +6.877524E+02 +3.189216E-01 +1.525188E+01 +3.189216E-01 +1.354510E+03 
 +6.337502E+02 +2.305873E+01 -4.177124E-01 +2.305873E+01 +6.179069E+02 -3.138194E+01 -4.177124E-01 -3.138194E+01 +1.402769E+03 
 +6.655822E+02 +2.380542E+01 -2.245899E+01 +2.380542E+01 +5.529474E+02 +1.411890E+01 -2.245899E+01 +1.411890E+01 +1.259774E+03 
 +6.066740E+02 +1.788263E+00 +2.990103E+01 +1.788263E+00 +6.270709E+02 -7.194764E+00 +2.990103E+01 -7.194764E+00 +1.446943E+03 
 +6.384642E+02 +5.597003E+00 -1.975195E+01 +5.597003E+00 +6.411886E+02 -2.239941E+01 -1.975195E+01 -2.239941E+01 +1.386494E+03 
 +6.534203E+02 +2.793700E+00 +2.992934E+01 +2.793700E+00 +6.964504E+02 +8.931605E+00 +2.992934E+01 +8.931605E+00 +1.435213E+03 
 +5.768663E+02 +1.639748E+01 +4.631547E+00 +1.639748E+01 +6.368067E+02 -3.022402E+01 +4.631547E+00 -3.022402E+01 +1.291928E+03 
 +5.811335E+02 +2.881817E+00 +3.932396E+01 +2.881817E+00 +5.893524E+02 +3.134655E+00 +3.932396E+01 +3.134655E+00 +1.361172E+03 
 +6.044915E+02 -5.202849E+01 -1.144684E+01 -5.202849E+01 +6.909646E+02 -1.699540E+01 -1.144684E+01 -1.699540E+01 +1.318343E+03 
 +6.399808E+02 -3.954963E+01 -4.233688E-01 -3.954963E+01 +6.649067E+02 +8.345023E+00 -4.233688E-01 +8.345023E+00 +1.319126E+03 
 +5.562590E+02 -2.161810E+01 -1.020239E+01 -2.161810E+01 +5.657556E+02 -2.705960E+01 -1.020239E+01 -2.705960E+01 +1.269372E+03 
 +5.521774E+02 +3.185951E+00 -1.102971E+00 +3.185951E+00 +5.872492E+02 -1.101384E+01 -1.102971E+00 -1.101384E+01 +1.442728E+03 
 +5.445363E+02 +2.776027E+01 -6.229753E+00 +2.776027E+01 +6.370042E+02 +1.420648E+01 -6.229753E+00 +1.420648E+01 +1.290670E+03 
 +5.860361E+02 -1.539649E+01 -2.113061E+01 -1.539649E+01 +5.780862E+02 +1.576907E+01 -2.113061E+01 +1.576907E+01 +1.452274E+03 
 +6.242814E+02 +1.271426E+01 -1.810385E+01 +1.271426E+01 +5.675391E+02 +1.089425E+01 -1.810385E+01 +1.089425E+01 +1.351341E+03 
 +5.526361E+02 -1.066141E+01 -1.925476E+01 -1.066141E+01 +5.716232E+02 -7.284819E+00 -1.925476E+01 -7.284819E+00 +1.320564E+03 
 +6.642280E+02 -2.310970E+01 +4.175311E+00 -2.310970E+01 +6.309207E+02 -5.874393E+00 +4.175311E+00 -5.874393E+00 +1.301404E+03 
 +6.467765E+02 -4.109851E+01 -6.204674E+00 -4.109851E+01 +6.343796E+02 -9.378994E+00 -6.204674E+00 -9.378994E+00 +1.320988E+03 
 +6.012062E+02 -7.592651E+00 -5.332506E+00 -7.592651E+00 +5.901553E+02 -2.157953E+01 -5.332506E+00 -2.157953E+01 +1.424175E+03 
 +5.676621E+02 +2.704490E+00 +1.921313E+01 +2.704490E+00 +5.935604E+02 +1.657359E+00 +1.921313E+01 +1.657359E+00 +1.364805E+03 
 +5.388325E+02 -1.088864E+01 +2.597450E+01 -1.088864E+01 +6.019619E+02 +2.947553E+00 +2.597450E+01 +2.947553E+00 +1.243507E+03 
 +6.438138E+02 +1.347558E+01 -2.590309E+01 +1.347558E+01 +5.886785E+02 -2.095322E+01 -2.590309E+01 -2.095322E+01 +1.295245E+03 
 +6.057033E+02 +1.264886E+01 -1.614047E+01 +1.264886E+01 +5.965409E+02 -1.571546E+01 -1.614047E+01 -1.571546E+01 +1.433949E+03 
 +6.095897E+02 -3.431107E+01 +5.994715E+00 -3.431107E+01 +6.823606E+02 -1.204638E+01 +5.994715E+00 -1.204638E+01 +1.303650E+03 
 +5.903870E+02 -7.798381E+00 +6.429289E-01 -7.798381E+00 +6.331043E+02 -2.395890E+00 +6.429289E-01 -2.395890E+00 +1.419106E+03 
 +5.520642E+02 +6.756742E-01 -4.753115E+01 +6.756742E-01 +5.429316E+02 +8.105623E-01 -4.753115E+01 +8.105623E-01 +1.349275E+03 
 +6.083376E+02 -2.478758E+01 -6.567458E+00 -2.478758E+01 +5.824623E+02 -2.684568E+01 -6.567458E+00 -2.684568E+01 +1.440725E+03 
 +5.599822E+02 -2.867130E+01 +2.474706E+00 -2.867130E+01 +5.982248E+02 +5.603155E-01 +2.474706E+00 +5.603155E-01 +1.281829E+03 
 +6.825857E+02 +1.200011E+01 +1.749518E+01 +1.200011E+01 +6.282184E+02 +1.649047E+01 +1.749518E+01 +1.649047E+01 +1.352789E+03 
 +5.458783E+02 +3.035186E+01 +2.264435E+01 +3.035186E+01 +5.883539E+02 +4.361673E+01 +2.264435E+01 +4.361673E+01 +1.378606E+03 
 +5.861843E+02 -2.710408E+01 +1.085213E+00 -2.710408E+01 +5.939638E+02 -2.902241E+00 +1.085213E+00 -2.902241E+00 +1.300878E+03 
 +6.126028E+02 +3.748974E+01 +1.377539E+01 +3.748974E+01 +6.151235E+02 -2.192828E+01 +1.377539E+01 -2.192828E+01 +1.360150E+03 
 +6.352131E+02 +2.614253E+01 -2.567964E-01 +2.614253E+01 +6.000611E+02 -2.737398E-01 -2.567964E-01 -2.737398E-01 +1.335347E+03 
 +7.075893E+02 -9.329198E+00 +2.418947E+01 -9.329198E+00 +5.910923E+02 +4.518334E+00 +2.418947E+01 +4.518334E+00 +1.337553E+03 
 +5.564177E+02 +2.457110E+01 +5.828529E+00 +2.457110E+01 +5.677628E+02 +7.273977E+00 +5.828529E+00 +7.273977E+00 +1.354938E+03 
 +5.784271E+02 +5.560743E+00 +1.068769E+01 +5.560743E+00 +5.848572E+02 +1.632500E+01 +1.068769E+01 +1.632500E+01 +1.392993E+03 
 +6.502267E+02 -1.397758E+01 +2.684921E+01 -1.397758E+01 +6.173889E+02 -1.719483E-01 +2.684921E+01 -1.719483E-01 +1.383008E+03 
 +6.203878E+02 +6.841217E-01 -4.616297E+00 +6.841217E-01 +5.756757E+02 -1.725998E+01 -4.616297E+00 -1.725998E+01 +1.294434E+03 
 +5.860073E+02 -1.676012E+01 -3.902466E+00 -1.676012E+01 +6.226696E+02 -1.816325E+01 -3.902466E+00 -1.816325E+01 +1.317539E+03 
 +6.323634E+02 -2.216683E+00 -2.640729E+01 -2.216683E+00 +6.490817E+02 +2.695325E+01 -2.640729E+01 +2.695325E+01 +1.371555E+03 
 +5.857413E+02 -1.172094E+01 +5.563765E+00 -1.172094E+01 +6.441681E+02 +1.153990E+01 +5.563765E+00 +1.153990E+01 +1.352035E+03 
 +6.235252E+02 -5.757273E+01 -2.698372E+00 -5.757273E+01 +6.689141E+02 -2.460655E+00 -2.698372E+00 -2.460655E+00 +1.317650E+03 
 +6.437931E+02 -4.798765E+00 -4.614390E+00 -4.798765E+00 +6.827318E+02 +3.114279E+00 -4.614390E+00 +3.114279E+00 +1.296927E+03 
 +5.787960E+02 -1.371779E-01 +2.487023E+01 -1.371779E-01 +6.989604E+02 +8.013601E+00 +2.487023E+01 +8.013601E+00 +1.324477E+03 
 +6.221335E+02 +7.316591E+00 -1.180702E+01 +7.316591E+00 +6.264025E+02 +1.750607E+01 -1.180702E+01 +1.750607E+01 +1.446703E+03 
 +6.392724E+02 -3.659401E+01 -2.254090E+01 -3.659401E+01 +6.231788E+02 -3.994536E+00 -2.254090E+01 -3.994536E+00 +1.289547E+03 
 +5.900690E+02 +1.252491E+01 -1.143070E+01 +1.252491E+01 +5.806102E+02 -6.344025E-01 -1.143070E+01 -6.344025E-01 +1.499179E+03 
 +6.340413E+02 -1.153035E+01 -2.155793E+00 -1.153035E+01 +6.413023E+02 +1.170579E+01 -2.155793E+00 +1.170579E+01 +1.389818E+03 
 +6.560903E+02 -1.492001E+01 +4.947258E+00 -1.492001E+01 +5.914625E+02 +1.394571E+01 +4.947258E+00 +1.394571E+01 +1.308721E+03 
 +5.853912E+02 +4.311571E+01 -3.119059E+01 +4.311571E+01 +5.793496E+02 +1.442715E+01 -3.119059E+01 +1.442715E+01 +1.283902E+03 
 +6.549904E+02 +1.250479E+01 +1.609005E+01 +1.250479E+01 +6.418538E+02 +2.657203E+01 +1.609005E+01 +2.657203E+01 +1.384380E+03 
 +6.458591E+02 -1.141068E-02 +9.150480E+00 -1.141068E-02 +5.967877E+02 -1.383093E+01 +9.150480E+00 -1.383093E+01 +1.362216E+03 
 +6.039890E+02 +1.406806E+01 -2.373382E+01 +1.406806E+01 +5.878715E+02 -3.630937E+01 -2.373382E+01 -3.630937E+01 +1.369506E+03 
 +5.911277E+02 -1.781433E+01 +2.513620E+01 -1.781433E+01 +5.678015E+02 -1.795556E+01 +2.513620E+01 -1.795556E+01 +1.324185E+03 
 +6.435622E+02 +2.358990E+00 +6.219390E+00 +2.358990E+00 +6.499285E+02 -6.182009E+00 +6.219390E+00 -6.182009E+00 +1.348815E+03 
 +6.437488E+02 +3.214638E+00 -1.564439E+01 +3.214638E+00 +6.387191E+02 +6.030893E+00 -1.564439E+01 +6.030893E+00 +1.301983E+03 
 +5.831993E+02 -2.080281E+01 +1.072100E+01 -2.080281E+01 +6.017319E+02 +6.410847E-01 +1.072100E+01 +6.410847E-01 +1.446845E+03 
 +6.011666E+02 -3.702076E+00 +6.683702E+00 -3.702076E+00 +6.069842E+02 +1.177989E+01 +6.683702E+00 +1.177989E+01 +1.346324E+03 
 +5.773964E+02 +7.537636E+00 -1.170021E+01 +7.537636E+00 +6.618630E+02 +6.640995E-01 -1.170021E+01 +6.640995E-01 +1.328840E+03 
 +6.755367E+02 -1.221166E+01 -2.524826E+00 -1.221166E+01 +5.893461E+02 -1.305926E+01 -2.524826E+00 -1.305926E+01 +1.298979E+03 
 +5.740311E+02 -2.769683E+01 -2.043191E+01 -2.769683E+01 +5.872397E+02 +2.504230E+01 -2.043191E+01 +2.504230E+01 +1.308971E+03 
 +5.858085E+02 -4.295559E+00 +3.103100E+00 -4.295559E+00 +5.862016E+02 +2.186861E+01 +3.103100E+00 +2.186861E+01 +1.403565E+03 
 +6.286298E+02 +4.721206E+01 -1.165126E+01 +4.721206E+01 +5.987629E+02 -1.626501E+01 -1.165126E+01 -1.626501E+01 +1.331195E+03 
 +6.905422E+02 +2.258022E+01 -1.335649E+01 +2.258022E+01 +6.110393E+02 +1.563406E+01 -1.335649E+01 +1.563406E+01 +1.352527E+03 
 +6.039845E+02 +1.194128E+01 -2.156479E+01 +1.194128E+01 +5.926862E+02 +2.111311E+01 -2.156479E+01 +2.111311E+01 +1.385632E+03 
 +6.151475E+02 +2.155039E+01 -2.389581E+01 +2.155039E+01 +6.049292E+02 +3.556538E+01 -2.389581E+01 +3.556538E+01 +1.384810E+03 
 +5.880480E+02 -1.822945E+01 +2.146212E+01 -1.822945E+01 +5.849551E+02 -6.325930E+00 +2.146212E+01 -6.325930E+00 +1.311855E+03 
 +5.998088E+02 +3.291191E+00 +1.898044E+01 +3.291191E+00 +5.744587E+02 +2.586773E+01 +1.898044E+01 +2.586773E+01 +1.401945E+03 
 +6.157284E+02 -1.533714E+01 +3.018892E+01 -1.533714E+01 +6.204502E+02 +4.672620E+01 +3.018892E+01 +4.672620E+01 +1.415703E+03 
 +6.617750E+02 +1.091152E+01 -1.807133E+01 +1.091152E+01 +5.893428E+02 +1.592209E+01 -1.807133E+01 +1.592209E+01 +1.350257E+03 
 +6.484959E+02 -1.695637E+01 -1.497181E+01 -1.695637E+01 +5.709033E+02 -2.008161E+01 -1.497181E+01 -2.008161E+01 +1.296044E+03 
 +5.748265E+02 -2.309464E+01 +2.331280E+01 -2.309464E+01 +5.648051E+02 +1.669612E+01 +2.331280E+01 +1.669612E+01 +1.346729E+03 
 +5.864660E+02 +3.794004E+00 -1.429356E+01 +3.794004E+00 +5.609709E+02 +3.805217E+01 -1.429356E+01 +3.805217E+01 +1.423019E+03 
 +5.626108E+02 +2.901684E+01 -2.865373E+01 +2.901684E+01 +6.325476E+02 -2.123208E+01 -2.865373E+01 -2.123208E+01 +1.322282E+03 
 +6.348914E+02 +2.796003E+01 -6.469246E+00 +2.796003E+01 +6.056705E+02 -5.680752E+00 -6.469246E+00 -5.680752E+00 +1.264181E+03 
 +6.168542E+02 +1.740875E+01 +1.119734E+01 +1.740875E+01 +5.558554E+02 +8.879830E+00 +1.119734E+01 +8.879830E+00 +1.281504E+03 
 +5.614247E+02 +1.554234E+01 +2.070040E+01 +1.554234E+01 +6.425276E+02 +9.528708E+00 +2.070040E+01 +9.528708E+00 +1.309141E+03 
 +5.609181E+02 +1.447290E+01 +3.377018E+00 +1.447290E+01 +5.896163E+02 -6.420596E+00 +3.377018E+00 -6.420596E+00 +1.466717E+03 
 +6.492905E+02 -3.020903E+01 -1.149417E+01 -3.020903E+01 +5.804811E+02 +1.598608E+01 -1.149417E+01 +1.598608E+01 +1.329540E+03 
 +5.200260E+02 -1.000893E+01 +1.390486E+01 -1.000893E+01 +5.398150E+02 +7.178878E+00 +1.390486E+01 +7.178878E+00 +1.391200E+03 
 +6.248025E+02 -2.750901E+01 +1.068507E+01 -2.750901E+01 +6.095588E+02 -5.519403E+00 +1.068507E+01 -5.519403E+00 +1.291536E+03 
 +6.107324E+02 +2.663453E+01 +8.073056E+00 +2.663453E+01 +6.364871E+02 -2.320838E+00 +8.073056E+00 -2.320838E+00 +1.325503E+03 
 +5.646177E+02 +5.956116E+00 -1.323523E+01 +5.956116E+00 +6.163470E+02 +1.515013E+01 -1.323523E+01 +1.515013E+01 +1.422389E+03 
 +6.135395E+02 -2.208604E+01 -2.009132E+00 -2.208604E+01 +5.650077E+02 -1.774546E+01 -2.009132E+00 -1.774546E+01 +1.282230E+03 
 +7.214447E+02 +1.034754E+01 +2.583627E+00 +1.034754E+01 +5.796287E+02 -2.195922E+01 +2.583627E+00 -2.195922E+01 +1.348555E+03 
 +6.425693E+02 +2.512687E+01 -1.548024E+01 +2.512687E+01 +6.670576E+02 -3.227421E+01 -1.548024E+01 -3.227421E+01 +1.451876E+03 
 +5.787313E+02 -2.409291E+01 +1.028414E+00 -2.409291E+01 +6.583715E+02 +1.033390E+01 +1.028414E+00 +1.033390E+01 +1.308879E+03 
 +6.096677E+02 -1.160995E+01 +1.312713E+01 -1.160995E+01 +6.022141E+02 +4.026634E+01 +1.312713E+01 +4.026634E+01 +1.439523E+03 
 +5.811880E+02 -4.556087E+00 -2.405205E+00 -4.556087E+00 +6.376730E+02 +3.208936E+00 -2.405205E+00 +3.208936E+00 +1.260381E+03 
 +6.353836E+02 +5.709800E+00 +1.757031E+01 +5.709800E+00 +6.334861E+02 +1.234294E+01 +1.757031E+01 +1.234294E+01 +1.501494E+03 
 +6.197042E+02 -1.378753E+01 -1.656162E+01 -1.378753E+01 +6.511399E+02 -8.380652E+00 -1.656162E+01 -8.380652E+00 +1.348438E+03 
 +5.190236E+02 +2.381769E+00 +2.364767E+01 +2.381769E+00 +5.966976E+02 -3.890938E+00 +2.364767E+01 -3.890938E+00 +1.352844E+03 
 +6.992795E+02 +1.497194E+01 +3.684684E+00 +1.497194E+01 +5.934686E+02 -1.395755E+01 +3.684684E+00 -1.395755E+01 +1.360519E+03 
 +5.475328E+02 +1.370220E+01 +1.830105E+01 +1.370220E+01 +6.503886E+02 +4.651311E-01 +1.830105E+01 +4.651311E-01 +1.319858E+03 
 +7.207559E+02 -1.028911E+01 +7.709798E+00 -1.028911E+01 +6.250710E+02 +4.121712E+01 +7.709798E+00 +4.121712E+01 +1.340284E+03 
 +6.085203E+02 -1.997167E+01 +2.613544E+01 -1.997167E+01 +5.963882E+02 +1.969312E+01 +2.613544E+01 +1.969312E+01 +1.309405E+03 
 +5.896201E+02 -4.817131E+01 +2.420732E+00 -4.817131E+01 +5.576021E+02 +4.725711E+00 +2.420732E+00 +4.725711E+00 +1.273413E+03 
 +6.482738E+02 +2.215526E+00 -2.102448E+00 +2.215526E+00 +5.036803E+02 -7.738625E+00 -2.102448E+00 -7.738625E+00 +1.272297E+03 
 +6.717350E+02 -9.780218E+00 +1.633413E+01 -9.780218E+00 +5.719774E+02 +1.743328E+00 +1.633413E+01 +1.743328E+00 +1.373174E+03 
 +5.447576E+02 +1.767436E+01 -2.855370E+01 +1.767436E+01 +5.301298E+02 +2.355372E+01 -2.855370E+01 +2.355372E+01 +1.355215E+03 
 +6.093730E+02 +1.602035E+01 +3.994992E+00 +1.602035E+01 +5.857522E+02 -1.295576E+01 +3.994992E+00 -1.295576E+01 +1.391959E+03 
 +6.461779E+02 -3.625588E+01 -2.256547E+01 -3.625588E+01 +6.083812E+02 -1.634226E+01 -2.256547E+01 -1.634226E+01 +1.347332E+03 
 +5.941498E+02 +1.494007E+01 -1.818031E+01 +1.494007E+01 +6.071376E+02 +4.514804E+00 -1.818031E+01 +4.514804E+00 +1.428776E+03 
 +6.982852E+02 +3.094040E+01 -7.997610E+00 +3.094040E+01 +6.918625E+02 +7.164450E+00 -7.997610E+00 +7.164450E+00 +1.372502E+03 
 +6.104839E+02 +1.431042E+01 -2.599838E+01 +1.431042E+01 +6.550618E+02 -3.742836E+00 -2.599838E+01 -3.742836E+00 +1.361553E+03 
 +6.290378E+02 +3.536985E+01 +2.617970E+01 +3.536985E+01 +6.265562E+02 -3.544875E+00 +2.617970E+01 -3.544875E+00 +1.352346E+03 
 +5.643102E+02 +1.330011E+01 +3.744178E+01 +1.330011E+01 +5.437167E+02 -2.565113E+01 +3.744178E+01 -2.565113E+01 +1.423869E+03 
 +5.792122E+02 -6.338475E+00 +1.710639E+01 -6.338475E+00 +4.799846E+02 -4.386767E+00 +1.710639E+01 -4.386767E+00 +1.220683E+03 
 +6.081694E+02 -2.701504E+00 -5.923100E+00 -2.701504E+00 +5.959604E+02 -2.561918E+00 -5.923100E+00 -2.561918E+00 +1.435008E+03 
 +6.177007E+02 +1.509435E+00 -9.471305E+00 +1.509435E+00 +6.653474E+02 -5.590968E+00 -9.471305E+00 -5.590968E+00 +1.301165E+03 
 +6.013256E+02 -6.659121E-01 -2.114688E+01 -6.659121E-01 +6.055726E+02 -1.269269E+01 -2.114688E+01 -1.269269E+01 +1.409460E+03 
 +5.791021E+02 +4.661886E+00 +7.757111E+00 +4.661886E+00 +5.285779E+02 +1.758551E+01 +7.757111E+00 +1.758551E+01 +1.352258E+03 
 +6.075837E+02 -8.590242E+00 -6.884982E+00 -8.590242E+00 +5.703336E+02 -9.350375E+00 -6.884982E+00 -9.350375E+00 +1.437793E+03 
 +6.035015E+02 +2.801369E+00 -1.470768E+01 +2.801369E+00 +5.918815E+02 -3.729784E+01 -1.470768E+01 -3.729784E+01 +1.348316E+03 
 +6.548282E+02 +3.770165E+00 +8.214409E-01 +3.770165E+00 +5.487454E+02 -1.829829E+01 +8.214409E-01 -1.829829E+01 +1.237226E+03 
 +6.003617E+02 -2.139651E+01 +1.055268E+01 -2.139651E+01 +6.070663E+02 -5.443686E+00 +1.055268E+01 -5.443686E+00 +1.369644E+03 
 +6.119695E+02 -9.778745E+00 -2.162061E+01 -9.778745E+00 +6.371083E+02 -1.163268E+01 -2.162061E+01 -1.163268E+01 +1.379367E+03 
 +6.017470E+02 +6.156672E+01 +1.164537E+01 +6.156672E+01 +5.875551E+02 +9.104824E+00 +1.164537E+01 +9.104824E+00 +1.271949E+03 
 +6.186813E+02 +2.549992E+01 -4.045212E+01 +2.549992E+01 +6.851572E+02 +2.506499E+00 -4.045212E+01 +2.506499E+00 +1.388434E+03 
 +5.779372E+02 +1.152997E+01 +3.774141E+01 +1.152997E+01 +5.724435E+02 -1.135889E+01 +3.774141E+01 -1.135889E+01 +1.385446E+03 
 +6.612921E+02 -2.257874E+01 +4.496035E+00 -2.257874E+01 +6.018867E+02 -3.221479E+01 +4.496035E+00 -3.221479E+01 +1.341660E+03 
 +6.356682E+02 -3.263360E+01 -4.457997E+00 -3.263360E+01 +6.265469E+02 +2.619110E-01 -4.457997E+00 +2.619110E-01 +1.334204E+03 
 +5.829524E+02 +3.238639E+01 -9.298832E-01 +3.238639E+01 +5.913211E+02 +4.831089E+00 -9.298832E-01 +4.831089E+00 +1.379234E+03 
 +6.266804E+02 -2.854296E+01 -9.903764E+00 -2.854296E+01 +6.271523E+02 -1.573965E+01 -9.903764E+00 -1.573965E+01 +1.329937E+03 
 +6.151702E+02 -1.281117E+01 -1.477343E-01 -1.281117E+01 +6.045093E+02 +8.873176E+00 -1.477343E-01 +8.873176E+00 +1.425318E+03 
 +5.554453E+02 -1.489018E+01 +9.828279E+00 -1.489018E+01 +5.596067E+02 -2.035016E+01 +9.828279E+00 -2.035016E+01 +1.307800E+03 
 +7.628968E+02 -8.341917E+00 -2.264419E+00 -8.341917E+00 +6.322015E+02 -8.301316E+00 -2.264419E+00 -8.301316E+00 +1.392729E+03 
 +5.664747E+02 +3.140987E+01 -1.378501E+01 +3.140987E+01 +6.615546E+02 +1.240310E+01 -1.378501E+01 +1.240310E+01 +1.344633E+03 
 +6.616407E+02 +1.835562E+01 -2.732638E+00 +1.835562E+01 +5.810845E+02 -1.448420E+01 -2.732638E+00 -1.448420E+01 +1.284899E+03 
 +5.623695E+02 +6.280009E+00 -1.405916E+01 +6.280009E+00 +5.648051E+02 -2.492392E+01 -1.405916E+01 -2.492392E+01 +1.377966E+03 
 +6.354962E+02 -1.180427E+01 +1.350272E+01 -1.180427E+01 +6.167922E+02 +2.835036E+01 +1.350272E+01 +2.835036E+01 +1.302643E+03 
 +5.431409E+02 -2.311391E+01 -3.798987E+01 -2.311391E+01 +5.766049E+02 +2.168081E+01 -3.798987E+01 +2.168081E+01 +1.367216E+03 
 +6.328149E+02 -1.626044E+01 -1.759010E+01 -1.626044E+01 +5.702830E+02 -6.728977E+00 -1.759010E+01 -6.728977E+00 +1.351608E+03 
 +6.589111E+02 +1.456011E+01 -1.341132E+00 +1.456011E+01 +6.612161E+02 -2.366860E+00 -1.341132E+00 -2.366860E+00 +1.467105E+03 
 +6.367546E+02 -6.294221E+00 +1.275903E+00 -6.294221E+00 +6.648590E+02 -2.930067E+00 +1.275903E+00 -2.930067E+00 +1.331990E+03 
 +6.189160E+02 -2.527558E+01 -9.590243E+00 -2.527558E+01 +7.214337E+02 -1.120797E+01 -9.590243E+00 -1.120797E+01 +1.338985E+03 
 +6.623198E+02 -2.864802E-01 +1.266804E+01 -2.864802E-01 +6.370242E+02 -2.838438E+01 +1.266804E+01 -2.838438E+01 +1.374600E+03 
 +6.009158E+02 +2.604276E+00 -4.350944E+01 +2.604276E+00 +5.865118E+02 -1.777797E+01 -4.350944E+01 -1.777797E+01 +1.366625E+03 
 +6.201490E+02 +3.594220E+01 -2.487751E+00 +3.594220E+01 +6.876835E+02 +7.435658E+00 -2.487751E+00 +7.435658E+00 +1.292360E+03 
 +5.972811E+02 +1.380873E+01 +5.709783E+00 +1.380873E+01 +6.092642E+02 +2.129702E+01 +5.709783E+00 +2.129702E+01 +1.462574E+03 
 +5.513466E+02 -1.855500E+01 +1.084126E+01 -1.855500E+01 +6.283975E+02 -3.514083E+01 +1.084126E+01 -3.514083E+01 +1.420471E+03 
 +6.058826E+02 -1.734107E+01 -1.441968E+01 -1.734107E+01 +5.782703E+02 -2.439479E+01 -1.441968E+01 -2.439479E+01 +1.291492E+03 
 +6.477350E+02 -9.880964E+00 +6.328463E+00 -9.880964E+00 +6.066452E+02 -1.832247E+01 +6.328463E+00 -1.832247E+01 +1.415903E+03 
 +6.456226E+02 +1.390024E+01 +2.669494E+01 +1.390024E+01 +6.556552E+02 -1.556072E+01 +2.669494E+01 -1.556072E+01 +1.418998E+03 
 +5.631126E+02 +2.369606E+01 -1.797301E+01 +2.369606E+01 +6.009250E+02 +1.708890E+01 -1.797301E+01 +1.708890E+01 +1.385993E+03 
 +6.180563E+02 +1.541271E+01 +1.547975E+01 +1.541271E+01 +6.345165E+02 +4.813169E+00 +1.547975E+01 +4.813169E+00 +1.274484E+03 
 +6.209459E+02 -1.060140E+01 +1.228408E+01 -1.060140E+01 +6.306392E+02 -2.078263E+01 +1.228408E+01 -2.078263E+01 +1.349117E+03 
 +5.887739E+02 +3.888140E+01 -2.701263E+00 +3.888140E+01 +6.043856E+02 -2.121563E+00 -2.701263E+00 -2.121563E+00 +1.322115E+03 
 +6.352365E+02 +1.234375E+01 -1.455687E+01 +1.234375E+01 +6.403605E+02 -7.004504E+00 -1.455687E+01 -7.004504E+00 +1.324867E+03 
 +5.720187E+02 -1.436681E+01 -8.892497E-02 -1.436681E+01 +6.136063E+02 +1.353626E+01 -8.892497E-02 +1.353626E+01 +1.356264E+03 
 +5.834209E+02 -1.247649E+01 +1.140296E+01 -1.247649E+01 +6.072415E+02 +6.799802E+00 +1.140296E+01 +6.799802E+00 +1.336709E+03 
 +6.591281E+02 +3.893195E+01 -5.479517E+00 +3.893195E+01 +6.286041E+02 -2.079068E+01 -5.479517E+00 -2.079068E+01 +1.332998E+03 
 +6.469689E+02 +4.524556E+01 +1.126208E+01 +4.524556E+01 +6.101060E+02 -7.643045E+00 +1.126208E+01 -7.643045E+00 +1.341964E+03 
 +6.646581E+02 -4.872828E+01 -7.199059E+00 -4.872828E+01 +5.549865E+02 +1.098454E+01 -7.199059E+00 +1.098454E+01 +1.245025E+03 
 +5.801122E+02 -1.522538E+01 +8.809595E+00 -1.522538E+01 +5.535223E+02 +8.657628E+00 +8.809595E+00 +8.657628E+00 +1.385824E+03 
 +5.786754E+02 +4.762615E+00 +1.975862E+01 +4.762615E+00 +5.523751E+02 -1.620347E+01 +1.975862E+01 -1.620347E+01 +1.369507E+03 
 +6.012430E+02 -5.809414E+01 -4.548979E+00 -5.809414E+01 +6.056901E+02 -1.390215E+01 -4.548979E+00 -1.390215E+01 +1.240111E+03 
 +5.447676E+02 -7.912533E+00 -1.230795E+00 -7.912533E+00 +6.928624E+02 +1.532628E+01 -1.230795E+00 +1.532628E+01 +1.321585E+03 
 +6.343000E+02 +1.372407E+00 -3.171742E+01 +1.372407E+00 +6.322173E+02 +2.036559E+01 -3.171742E+01 +2.036559E+01 +1.328748E+03 
 +5.542267E+02 -9.640995E+00 -1.961378E+01 -9.640995E+00 +5.693891E+02 -3.945423E+00 -1.961378E+01 -3.945423E+00 +1.382106E+03 
 +6.037648E+02 +1.163007E+01 +1.374017E+01 +1.163007E+01 +6.141873E+02 +3.069547E+00 +1.374017E+01 +3.069547E+00 +1.294305E+03 
 +5.594399E+02 +1.954165E+01 -1.538055E+01 +1.954165E+01 +5.587759E+02 +1.575907E+01 -1.538055E+01 +1.575907E+01 +1.405817E+03 
 +5.426427E+02 -8.637506E+00 +4.735474E+00 -8.637506E+00 +5.693969E+02 +8.401469E+00 +4.735474E+00 +8.401469E+00 +1.326736E+03 
 +5.679082E+02 -1.143020E+01 +1.664875E+01 -1.143020E+01 +5.750696E+02 -3.577383E+01 +1.664875E+01 -3.577383E+01 +1.371757E+03 
 +6.051437E+02 +4.339041E+00 -3.008468E+00 +4.339041E+00 +6.022313E+02 -1.344882E+01 -3.008468E+00 -1.344882E+01 +1.399117E+03 
 +6.397813E+02 -4.956441E+01 +6.526186E+00 -4.956441E+01 +6.297534E+02 -9.546839E+00 +6.526186E+00 -9.546839E+00 +1.319575E+03 
 +5.884762E+02 -2.719863E+01 +5.221152E+00 -2.719863E+01 +6.262336E+02 +2.067509E+01 +5.221152E+00 +2.067509E+01 +1.370842E+03 
 +6.475419E+02 +3.621442E+01 -2.974260E+01 +3.621442E+01 +5.616758E+02 +8.987185E+00 -2.974260E+01 +8.987185E+00 +1.315774E+03 
 +6.240723E+02 -2.819483E+01 -2.386271E+01 -2.819483E+01 +6.108415E+02 -1.335471E+01 -2.386271E+01 -1.335471E+01 +1.402961E+03 
 +6.591223E+02 -1.303667E+01 -1.294467E+01 -1.303667E+01 +7.204277E+02 -2.223050E+01 -1.294467E+01 -2.223050E+01 +1.358057E+03 
 +5.735954E+02 +2.562918E+00 +8.814610E-01 +2.562918E+00 +5.856599E+02 +9.780967E+00 +8.814610E-01 +9.780967E+00 +1.323755E+03 
 +5.925482E+02 -3.345951E+00 +6.229071E+00 -3.345951E+00 +5.475928E+02 +1.376707E+00 +6.229071E+00 +1.376707E+00 +1.442107E+03 
 +5.563329E+02 +9.276527E+00 +3.389587E+00 +9.276527E+00 +5.631163E+02 -3.513019E+00 +3.389587E+00 -3.513019E+00 +1.367946E+03 
 +5.414278E+02 +3.049388E+00 -7.856479E+00 +3.049388E+00 +5.756730E+02 -1.334376E+00 -7.856479E+00 -1.334376E+00 +1.332933E+03 
 +5.833385E+02 -1.343670E+01 +2.528231E+01 -1.343670E+01 +6.609438E+02 -1.584171E+00 +2.528231E+01 -1.584171E+00 +1.359638E+03 
 +6.754548E+02 +2.567792E+01 -8.356259E+00 +2.567792E+01 +6.440154E+02 +2.177592E+00 -8.356259E+00 +2.177592E+00 +1.348377E+03 
 +5.519647E+02 +2.846099E+01 +3.173939E+00 +2.846099E+01 +7.241193E+02 +2.025931E+01 +3.173939E+00 +2.025931E+01 +1.293988E+03 
 +5.997556E+02 +3.544462E+01 +1.149074E+01 +3.544462E+01 +6.509361E+02 +3.047749E+00 +1.149074E+01 +3.047749E+00 +1.341432E+03 
 +5.816850E+02 +2.617973E+01 -4.005323E+00 +2.617973E+01 +6.443679E+02 +8.845597E+00 -4.005323E+00 +8.845597E+00 +1.315520E+03 
 +6.506695E+02 -1.246919E+01 +2.323836E+00 -1.246919E+01 +6.132120E+02 -1.731114E+01 +2.323836E+00 -1.731114E+01 +1.433648E+03 
 +6.105195E+02 +1.409536E+01 +1.765543E+01 +1.409536E+01 +6.335095E+02 -8.065679E+00 +1.765543E+01 -8.065679E+00 +1.343672E+03 
 +6.505613E+02 -1.188467E+01 +1.493960E+01 -1.188467E+01 +6.574681E+02 -2.627933E+01 +1.493960E+01 -2.627933E+01 +1.341089E+03 
 +6.070804E+02 -3.398210E+00 -2.859986E+01 -3.398210E+00 +6.153014E+02 -6.461531E+00 -2.859986E+01 -6.461531E+00 +1.327285E+03 
 +6.646081E+02 +2.556199E+01 +1.744156E+01 +2.556199E+01 +6.095284E+02 +2.090832E+00 +1.744156E+01 +2.090832E+00 +1.329621E+03 
 +7.020222E+02 -3.524522E+01 +7.943027E+00 -3.524522E+01 +5.628286E+02 +1.181875E+01 +7.943027E+00 +1.181875E+01 +1.337306E+03 
 +5.876237E+02 +4.485723E+00 -2.185568E+01 +4.485723E+00 +5.552340E+02 -1.585222E+01 -2.185568E+01 -1.585222E+01 +1.377112E+03 
 +5.742918E+02 +2.321937E+01 +8.198399E+00 +2.321937E+01 +5.793693E+02 -2.924222E+01 +8.198399E+00 -2.924222E+01 +1.361569E+03 
 +6.020148E+02 +6.376477E+01 -2.275632E+00 +6.376477E+01 +5.932976E+02 +6.297772E+00 -2.275632E+00 +6.297772E+00 +1.299057E+03 
 +6.128257E+02 -2.883755E+01 -9.449659E+00 -2.883755E+01 +6.077009E+02 -3.013362E+00 -9.449659E+00 -3.013362E+00 +1.351527E+03 
 +5.754734E+02 +1.016614E+01 -1.229006E+01 +1.016614E+01 +6.500187E+02 -6.037467E+00 -1.229006E+01 -6.037467E+00 +1.283201E+03 
 +6.023108E+02 +4.435496E+00 +1.959347E+01 +4.435496E+00 +6.128409E+02 +1.150130E+01 +1.959347E+01 +1.150130E+01 +1.406783E+03 
 +5.841658E+02 -2.622404E+01 -3.994035E+00 -2.622404E+01 +6.363452E+02 -2.636651E+00 -3.994035E+00 -2.636651E+00 +1.349435E+03 
 +5.544804E+02 +8.893723E+00 +1.718991E+01 +8.893723E+00 +5.873260E+02 +1.329587E+01 +1.718991E+01 +1.329587E+01 +1.410454E+03 
 +6.568525E+02 -1.160035E+01 -4.634606E+00 -1.160035E+01 +6.040499E+02 +1.356705E+01 -4.634606E+00 +1.356705E+01 +1.305309E+03 
 +5.966295E+02 +2.482554E+00 +3.838283E+01 +2.482554E+00 +7.049937E+02 -1.677997E+01 +3.838283E+01 -1.677997E+01 +1.388621E+03 
 +6.412737E+02 -8.656430E+00 +7.129638E+00 -8.656430E+00 +6.087560E+02 -1.953729E+01 +7.129638E+00 -1.953729E+01 +1.338498E+03 
 +5.835101E+02 +1.922647E+01 +3.402705E+00 +1.922647E+01 +6.123115E+02 +5.060761E+00 +3.402705E+00 +5.060761E+00 +1.277554E+03 
 +6.864069E+02 -3.883838E+01 -1.541128E+01 -3.883838E+01 +6.113489E+02 -2.776336E+01 -1.541128E+01 -2.776336E+01 +1.353977E+03 
 +5.581737E+02 -1.426571E+01 +5.183827E+00 -1.426571E+01 +5.557128E+02 +7.752544E+00 +5.183827E+00 +7.752544E+00 +1.462761E+03 
 +6.317164E+02 -9.110046E+00 +1.894944E+01 -9.110046E+00 +6.612181E+02 -1.553837E+01 +1.894944E+01 -1.553837E+01 +1.373328E+03 
 +6.329796E+02 +3.105665E+01 -3.011901E+01 +3.105665E+01 +7.256970E+02 +5.073463E+00 -3.011901E+01 +5.073463E+00 +1.361743E+03 
 +6.074267E+02 -1.045593E+01 +3.325475E+01 -1.045593E+01 +5.765314E+02 -2.047567E+01 +3.325475E+01 -2.047567E+01 +1.402498E+03 
 +5.802646E+02 -1.431204E+01 -6.807203E+00 -1.431204E+01 +5.701492E+02 -1.127188E+00 -6.807203E+00 -1.127188E+00 +1.389004E+03 
 +5.858784E+02 +1.161347E+01 +1.903947E+01 +1.161347E+01 +5.458490E+02 -1.617809E+01 +1.903947E+01 -1.617809E+01 +1.298125E+03 
 +5.524541E+02 -4.561456E+01 +1.414099E+01 -4.561456E+01 +5.910315E+02 -1.494160E+01 +1.414099E+01 -1.494160E+01 +1.353075E+03 
 +6.454014E+02 +4.913958E+01 -1.184732E+01 +4.913958E+01 +7.022426E+02 -1.276411E+01 -1.184732E+01 -1.276411E+01 +1.366564E+03 
 +5.869687E+02 +9.100938E+00 +1.695613E+01 +9.100938E+00 +7.183090E+02 -9.725568E+00 +1.695613E+01 -9.725568E+00 +1.396999E+03 
 +6.851798E+02 -5.214085E+01 -1.619587E+01 -5.214085E+01 +6.640291E+02 -3.512954E-01 -1.619587E+01 -3.512954E-01 +1.358720E+03 
 +6.263202E+02 +1.604753E+00 +6.712388E+00 +1.604753E+00 +6.095669E+02 -2.992309E+00 +6.712388E+00 -2.992309E+00 +1.312299E+03 
 +6.365376E+02 +1.855755E+01 +4.410841E+00 +1.855755E+01 +6.204539E+02 +6.469291E+00 +4.410841E+00 +6.469291E+00 +1.371448E+03 
 +5.859560E+02 -3.093025E+01 -2.669920E+01 -3.093025E+01 +5.849512E+02 +2.557279E+01 -2.669920E+01 +2.557279E+01 +1.316965E+03 
 +6.489507E+02 -6.387085E+01 -2.527169E+01 -6.387085E+01 +5.918618E+02 +1.189746E+00 -2.527169E+01 +1.189746E+00 +1.327060E+03 
 +6.486924E+02 -1.019112E+01 +5.163698E+00 -1.019112E+01 +6.118528E+02 +2.349062E+01 +5.163698E+00 +2.349062E+01 +1.419914E+03 
 +6.324653E+02 +6.642691E+00 -5.039041E+00 +6.642691E+00 +6.056592E+02 +1.674770E+01 -5.039041E+00 +1.674770E+01 +1.339063E+03 
 +6.653099E+02 -9.055184E+00 -7.898592E+00 -9.055184E+00 +6.028987E+02 -1.800955E+01 -7.898592E+00 -1.800955E+01 +1.338771E+03 
 +5.932187E+02 +7.852870E+00 -2.127343E+01 +7.852870E+00 +5.646097E+02 -2.083518E+01 -2.127343E+01 -2.083518E+01 +1.466979E+03 
 +6.349624E+02 +5.303312E+01 +1.445063E+01 +5.303312E+01 +5.483727E+02 +3.387103E+00 +1.445063E+01 +3.387103E+00 +1.239004E+03 
 +5.658174E+02 +4.502284E-01 +2.997845E+01 +4.502284E-01 +5.737683E+02 -1.295150E+01 +2.997845E+01 -1.295150E+01 +1.430379E+03 
 +6.847128E+02 +1.209282E+01 +5.635406E+00 +1.209282E+01 +6.036895E+02 -2.877060E+01 +5.635406E+00 -2.877060E+01 +1.386858E+03 
 +5.747531E+02 +1.224787E+00 -9.440666E+00 +1.224787E+00 +5.703832E+02 -1.895820E+01 -9.440666E+00 -1.895820E+01 +1.427667E+03 
 +6.065771E+02 +3.241619E+01 -1.546914E+01 +3.241619E+01 +6.155952E+02 +1.484220E+01 -1.546914E+01 +1.484220E+01 +1.304053E+03 
 +5.377852E+02 +1.374331E-01 +7.368428E-02 +1.374331E-01 +5.617838E+02 -1.346249E+01 +7.368428E-02 -1.346249E+01 +1.369817E+03 
 +6.256575E+02 +2.005396E+01 -1.144737E+01 +2.005396E+01 +6.035898E+02 -1.862750E+00 -1.144737E+01 -1.862750E+00 +1.461901E+03 
 +6.309796E+02 +5.059499E+01 -1.171644E+01 +5.059499E+01 +6.038110E+02 -2.497503E+01 -1.171644E+01 -2.497503E+01 +1.331233E+03 
 +6.641912E+02 -3.636333E+01 +9.609269E-01 -3.636333E+01 +5.497637E+02 -1.643636E+01 +9.609269E-01 -1.643636E+01 +1.310237E+03 
 +5.999919E+02 +1.404029E+00 +4.025732E+00 +1.404029E+00 +5.981841E+02 -1.414672E+01 +4.025732E+00 -1.414672E+01 +1.407924E+03 
 +6.353437E+02 +1.141707E+01 +1.149801E-01 +1.141707E+01 +6.158896E+02 -2.241813E+01 +1.149801E-01 -2.241813E+01 +1.407309E+03 
 +5.733958E+02 -6.607653E+00 -2.150289E+01 -6.607653E+00 +5.484049E+02 +2.320566E+01 -2.150289E+01 +2.320566E+01 +1.397796E+03 
 +5.751523E+02 -1.291483E+01 +1.705253E+01 -1.291483E+01 +5.951207E+02 +3.401377E+01 +1.705253E+01 +3.401377E+01 +1.300096E+03 
 +5.873385E+02 -3.925234E+01 +6.671468E+00 -3.925234E+01 +6.231966E+02 +2.778017E+01 +6.671468E+00 +2.778017E+01 +1.307465E+03 
 +5.955717E+02 +3.171021E+01 -9.346124E+00 +3.171021E+01 +6.291115E+02 +1.076025E+01 -9.346124E+00 +1.076025E+01 +1.465552E+03 
 +5.940372E+02 +7.087679E+01 +2.432206E+01 +7.087679E+01 +6.759182E+02 -3.677936E+00 +2.432206E+01 -3.677936E+00 +1.308433E+03 
 +5.875261E+02 +2.037209E+01 -2.282392E+01 +2.037209E+01 +6.013656E+02 +3.300274E+01 -2.282392E+01 +3.300274E+01 +1.376647E+03 
 +6.370941E+02 +3.790663E+01 -5.330512E+00 +3.790663E+01 +5.878364E+02 +1.609994E+01 -5.330512E+00 +1.609994E+01 +1.357327E+03 
 +6.802286E+02 +1.695072E+01 -2.109811E+01 +1.695072E+01 +6.111498E+02 +8.353680E+00 -2.109811E+01 +8.353680E+00 +1.374319E+03 
 +5.576948E+02 +1.550916E+01 -1.837052E+01 +1.550916E+01 +5.496511E+02 -4.889096E+00 -1.837052E+01 -4.889096E+00 +1.398776E+03 
 +5.795963E+02 -5.965280E+00 +3.645336E+00 -5.965280E+00 +5.929407E+02 -1.271453E+01 +3.645336E+00 -1.271453E+01 +1.358233E+03 
 +5.509178E+02 -2.385711E+01 -1.734348E+01 -2.385711E+01 +6.187610E+02 -1.545549E+01 -1.734348E+01 -1.545549E+01 +1.298412E+03 
 +6.088335E+02 +1.023471E+01 +1.882368E+01 +1.023471E+01 +6.079905E+02 -1.638380E+01 +1.882368E+01 -1.638380E+01 +1.356210E+03 
 +6.025698E+02 -1.359956E+01 -3.332925E+01 -1.359956E+01 +5.722420E+02 +1.146509E+01 -3.332925E+01 +1.146509E+01 +1.389921E+03 
 +6.028500E+02 +1.835663E+01 +3.575598E+01 +1.835663E+01 +6.013881E+02 -6.979037E-02 +3.575598E+01 -6.979037E-02 +1.355911E+03 
 +5.713503E+02 -2.394591E+01 -4.409101E+01 -2.394591E+01 +6.099780E+02 -1.050905E+01 -4.409101E+01 -1.050905E+01 +1.349087E+03 
 +6.149448E+02 +9.245445E+00 +1.195532E+01 +9.245445E+00 +6.342749E+02 -2.430251E+01 +1.195532E+01 -2.430251E+01 +1.393674E+03 
 +6.124048E+02 -6.514770E+00 -1.781166E+01 -6.514770E+00 +5.515484E+02 -2.271444E+01 -1.781166E+01 -2.271444E+01 +1.412842E+03 
 +5.676119E+02 -3.344090E+01 -1.498508E+01 -3.344090E+01 +5.160154E+02 -7.105918E-01 -1.498508E+01 -7.105918E-01 +1.313082E+03 
 +5.969211E+02 -2.466165E+01 -2.531569E+01 -2.466165E+01 +6.559328E+02 -1.951837E+01 -2.531569E+01 -1.951837E+01 +1.417137E+03 
 +5.929937E+02 -3.653500E+01 -4.673005E+00 -3.653500E+01 +6.252932E+02 -1.601575E+01 -4.673005E+00 -1.601575E+01 +1.296248E+03 
 +5.625388E+02 +1.096723E+01 +4.279036E+00 +1.096723E+01 +6.007545E+02 -5.204002E-01 +4.279036E+00 -5.204002E-01 +1.417464E+03 
 +6.190201E+02 +4.617244E+01 -9.726127E+00 +4.617244E+01 +6.141403E+02 +6.521011E+00 -9.726127E+00 +6.521011E+00 +1.287661E+03 
 +6.558293E+02 +5.963499E+00 -6.150743E+00 +5.963499E+00 +5.510731E+02 +2.030885E+01 -6.150743E+00 +2.030885E+01 +1.341651E+03 
 +5.653536E+02 +1.127271E+01 -1.107147E+01 +1.127271E+01 +5.111586E+02 -1.794821E+01 -1.107147E+01 -1.794821E+01 +1.327077E+03 
 +5.946541E+02 +2.243702E+01 -6.407580E+00 +2.243702E+01 +5.943383E+02 -4.963521E+00 -6.407580E+00 -4.963521E+00 +1.429449E+03 
 +6.571385E+02 -4.206565E+01 +8.395856E+00 -4.206565E+01 +5.828723E+02 +2.069899E+01 +8.395856E+00 +2.069899E+01 +1.301893E+03 
 +6.090746E+02 -2.146337E+01 +4.302350E+00 -2.146337E+01 +6.043702E+02 -1.492632E+01 +4.302350E+00 -1.492632E+01 +1.412133E+03 
 +5.858857E+02 -4.178030E+00 +1.622449E+01 -4.178030E+00 +6.356583E+02 +1.424583E+01 +1.622449E+01 +1.424583E+01 +1.316641E+03 
 +6.218032E+02 -3.012219E+01 -1.255198E+01 -3.012219E+01 +7.177729E+02 -2.703574E+00 -1.255198E+01 -2.703574E+00 +1.322166E+03 
 +5.657032E+02 -2.268649E+01 +8.524465E-01 -2.268649E+01 +6.799837E+02 -6.884217E+00 +8.524465E-01 -6.884217E+00 +1.312449E+03 
 +7.241692E+02 +3.249371E+01 -6.390521E+00 +3.249371E+01 +5.873170E+02 +7.619125E+00 -6.390521E+00 +7.619125E+00 +1.348211E+03 
 +5.463719E+02 +8.270630E+00 -2.574663E+01 +8.270630E+00 +6.099890E+02 +1.760004E+01 -2.574663E+01 +1.760004E+01 +1.275258E+03 
 +6.663644E+02 -3.239735E+01 -1.140161E+01 -3.239735E+01 +5.859308E+02 -3.910528E+00 -1.140161E+01 -3.910528E+00 +1.301057E+03 
 +5.938409E+02 -1.298901E+01 +1.902470E+01 -1.298901E+01 +6.866565E+02 -1.615710E+00 +1.902470E+01 -1.615710E+00 +1.329645E+03 
 +6.186485E+02 +1.637091E+01 -1.766818E+01 +1.637091E+01 +6.198969E+02 -9.590898E+00 -1.766818E+01 -9.590898E+00 +1.434475E+03 
 +7.129594E+02 +6.679265E+01 +2.052255E+00 +6.679265E+01 +6.225025E+02 -1.104314E+01 +2.052255E+00 -1.104314E+01 +1.362077E+03 
 +6.680676E+02 -3.954029E+00 -2.781698E+00 -3.954029E+00 +6.644025E+02 -1.257082E+01 -2.781698E+00 -1.257082E+01 +1.379111E+03 
 +5.457180E+02 +2.890720E+01 +1.288776E+00 +2.890720E+01 +6.640552E+02 +1.464945E+01 +1.288776E+00 +1.464945E+01 +1.290489E+03 
 +6.241854E+02 +2.776464E+01 -1.466942E+01 +2.776464E+01 +6.886561E+02 +8.343634E+00 -1.466942E+01 +8.343634E+00 +1.347385E+03 
 +6.731717E+02 +1.204006E+01 +1.753567E+01 +1.204006E+01 +6.544608E+02 -1.189662E+01 +1.753567E+01 -1.189662E+01 +1.463855E+03 
 +5.644445E+02 +7.705460E+00 +2.854436E-01 +7.705460E+00 +6.321766E+02 -3.024940E+01 +2.854436E-01 -3.024940E+01 +1.287534E+03 
 +5.935684E+02 +2.289169E+01 -1.764236E+01 +2.289169E+01 +6.312323E+02 -4.581776E+00 -1.764236E+01 -4.581776E+00 +1.301161E+03 
 +6.703726E+02 -2.639527E-01 -1.545938E+01 -2.639527E-01 +5.968079E+02 +9.783797E+00 -1.545938E+01 +9.783797E+00 +1.277654E+03 
 +6.152593E+02 +7.091922E+01 -4.894547E+00 +7.091922E+01 +6.686828E+02 +2.560615E-01 -4.894547E+00 +2.560615E-01 +1.342536E+03 
 +6.325952E+02 +1.886064E+01 +5.858096E+00 +1.886064E+01 +6.657061E+02 -2.607197E+01 +5.858096E+00 -2.607197E+01 +1.387174E+03 
 +7.327936E+02 -2.896741E+01 +1.532623E+00 -2.896741E+01 +5.908865E+02 +2.170041E+00 +1.532623E+00 +2.170041E+00 +1.333857E+03 
 +5.781624E+02 -1.662918E+01 +6.348242E+00 -1.662918E+01 +6.757448E+02 +1.136629E+01 +6.348242E+00 +1.136629E+01 +1.328146E+03 
 +6.098250E+02 -3.853337E+01 +1.793996E+01 -3.853337E+01 +6.864416E+02 -2.585559E+01 +1.793996E+01 -2.585559E+01 +1.314291E+03 
 +5.975163E+02 +1.896889E+01 -1.917688E+01 +1.896889E+01 +5.959405E+02 +1.045273E+01 -1.917688E+01 +1.045273E+01 +1.341018E+03 
 +5.701011E+02 -2.192333E+00 +8.529055E+00 -2.192333E+00 +5.878166E+02 +6.821181E+00 +8.529055E+00 +6.821181E+00 +1.344981E+03 
 +5.923819E+02 +1.049594E+01 -6.961011E+00 +1.049594E+01 +5.479934E+02 -2.936374E+01 -6.961011E+00 -2.936374E+01 +1.268292E+03 
 +5.790182E+02 -7.124044E+00 +1.243684E+01 -7.124044E+00 +5.895377E+02 -2.171836E+01 +1.243684E+01 -2.171836E+01 +1.445471E+03 
 +5.505444E+02 +3.252049E+00 -8.801347E+00 +3.252049E+00 +6.617521E+02 -7.862035E+00 -8.801347E+00 -7.862035E+00 +1.315023E+03 
 +5.990261E+02 +3.084818E+01 +2.172653E+01 +3.084818E+01 +6.644110E+02 -2.031758E+01 +2.172653E+01 -2.031758E+01 +1.339556E+03 
 +6.605403E+02 -3.710800E+01 +1.856763E+01 -3.710800E+01 +6.679315E+02 -3.167818E+01 +1.856763E+01 -3.167818E+01 +1.313683E+03 
 +6.712632E+02 -9.559474E+00 -2.196620E+01 -9.559474E+00 +6.617864E+02 +3.780869E+01 -2.196620E+01 +3.780869E+01 +1.477568E+03 
 +5.615740E+02 +2.018005E+01 +4.573004E+01 +2.018005E+01 +5.905716E+02 -2.143707E+01 +4.573004E+01 -2.143707E+01 +1.351495E+03 
 +6.634540E+02 +2.647938E+01 -5.672023E+00 +2.647938E+01 +6.774520E+02 -1.630689E+01 -5.672023E+00 -1.630689E+01 +1.352755E+03 
 +6.178034E+02 -4.666763E+01 -2.003458E+01 -4.666763E+01 +6.192346E+02 +1.408352E+00 -2.003458E+01 +1.408352E+00 +1.337171E+03 
 +6.677838E+02 -1.442927E+01 +2.317461E+00 -1.442927E+01 +6.107435E+02 -1.363949E+01 +2.317461E+00 -1.363949E+01 +1.431550E+03 
 +5.617381E+02 +1.815520E+00 +5.440649E+00 +1.815520E+00 +5.925319E+02 -1.081295E+01 +5.440649E+00 -1.081295E+01 +1.410581E+03 
 +5.579581E+02 -2.966702E+01 -1.967896E+01 -2.966702E+01 +5.684330E+02 -8.280922E+00 -1.967896E+01 -8.280922E+00 +1.312605E+03 
 +6.333455E+02 -2.263930E+01 -2.929945E+00 -2.263930E+01 +5.943063E+02 -5.915739E+00 -2.929945E+00 -5.915739E+00 +1.296387E+03 
 +5.899590E+02 +1.229570E+01 -2.167859E+00 +1.229570E+01 +6.499459E+02 +7.665383E-01 -2.167859E+00 +7.665383E-01 +1.284060E+03 
 +5.748765E+02 -3.732278E+01 -1.145862E+00 -3.732278E+01 +6.218649E+02 -2.892246E+01 -1.145862E+00 -2.892246E+01 +1.316206E+03 
 +5.647386E+02 +1.448802E+01 +1.709243E+01 +1.448802E+01 +6.295394E+02 -7.753420E+00 +1.709243E+01 -7.753420E+00 +1.301911E+03 
 +6.363616E+02 -1.268034E+00 +1.183552E+01 -1.268034E+00 +5.800408E+02 -7.510380E-01 +1.183552E+01 -7.510380E-01 +1.281455E+03 
 +5.626920E+02 -1.968326E+01 +6.431409E+00 -1.968326E+01 +5.551393E+02 +2.953506E+00 +6.431409E+00 +2.953506E+00 +1.422521E+03 
 +5.560980E+02 +1.560895E+01 +9.745995E+00 +1.560895E+01 +5.491761E+02 -1.361020E+01 +9.745995E+00 -1.361020E+01 +1.336652E+03 
 +6.124264E+02 -2.462019E+01 -1.357282E+01 -2.462019E+01 +5.678049E+02 -1.194917E+01 -1.357282E+01 -1.194917E+01 +1.310513E+03 
 +6.107276E+02 -4.199749E+00 -2.788675E-01 -4.199749E+00 +6.253278E+02 +2.820855E+01 -2.788675E-01 +2.820855E+01 +1.398120E+03 
 +6.880723E+02 -3.452656E+01 +3.186338E+00 -3.452656E+01 +6.488535E+02 -1.105380E+01 +3.186338E+00 -1.105380E+01 +1.356097E+03 
 +6.940820E+02 -1.505797E+01 -1.921961E+01 -1.505797E+01 +6.922304E+02 -7.224281E+00 -1.921961E+01 -7.224281E+00 +1.441865E+03 
 +6.227872E+02 +6.113696E+00 +2.215413E+01 +6.113696E+00 +6.207291E+02 -2.743302E+01 +2.215413E+01 -2.743302E+01 +1.393174E+03 
 +5.891876E+02 -8.309960E+00 -1.771592E+01 -8.309960E+00 +5.483003E+02 -2.698063E+01 -1.771592E+01 -2.698063E+01 +1.314354E+03 
 +6.306418E+02 +4.775876E+00 +6.072030E+00 +4.775876E+00 +6.015322E+02 +2.933448E+01 +6.072030E+00 +2.933448E+01 +1.332842E+03 
 +6.978405E+02 +2.071883E+01 +2.356567E+01 +2.071883E+01 +6.750916E+02 -3.232677E+01 +2.356567E+01 -3.232677E+01 +1.458419E+03 
 +6.226151E+02 +2.266654E+01 -1.229205E+01 +2.266654E+01 +7.503230E+02 -6.019800E+00 -1.229205E+01 -6.019800E+00 +1.389528E+03 
 +6.653897E+02 -3.317233E+01 -1.353619E+01 -3.317233E+01 +6.175116E+02 -1.325548E+01 -1.353619E+01 -1.325548E+01 +1.339380E+03 
 +5.600118E+02 +2.471870E+01 +7.152344E+00 +2.471870E+01 +5.395745E+02 -2.187488E+01 +7.152344E+00 -2.187488E+01 +1.411722E+03 
 +6.161996E+02 +7.705353E+00 -4.510990E+00 +7.705353E+00 +5.783116E+02 -2.801229E+01 -4.510990E+00 -2.801229E+01 +1.380526E+03 
 +6.234363E+02 -4.241565E+01 -5.582804E+00 -4.241565E+01 +6.347024E+02 +6.958480E+00 -5.582804E+00 +6.958480E+00 +1.325603E+03 
 +6.064628E+02 +5.590680E+01 -2.409741E+01 +5.590680E+01 +6.665636E+02 +4.324718E+00 -2.409741E+01 +4.324718E+00 +1.375452E+03 
 +5.930522E+02 +3.834678E+01 +1.492193E+01 +3.834678E+01 +6.807834E+02 +1.892443E+00 +1.492193E+01 +1.892443E+00 +1.339739E+03 
 +6.140121E+02 -1.235693E+01 +5.303668E+00 -1.235693E+01 +5.722393E+02 -2.821216E+01 +5.303668E+00 -2.821216E+01 +1.358116E+03 
 +6.288094E+02 -5.200400E+00 -7.038594E+00 -5.200400E+00 +6.314763E+02 -1.733488E+01 -7.038594E+00 -1.733488E+01 +1.339746E+03 
 +6.203601E+02 +6.781320E-02 -2.137877E+01 +6.781320E-02 +6.300989E+02 +1.590365E+01 -2.137877E+01 +1.590365E+01 +1.307379E+03 
 +5.743485E+02 +1.622787E+01 -9.305512E+00 +1.622787E+01 +6.127873E+02 +6.328835E+00 -9.305512E+00 +6.328835E+00 +1.265843E+03 
 +6.226052E+02 -2.824826E+01 +6.704544E+00 -2.824826E+01 +6.657538E+02 +1.155484E+01 +6.704544E+00 +1.155484E+01 +1.460717E+03 
 +6.262528E+02 -1.711405E+01 +7.647702E-01 -1.711405E+01 +6.790930E+02 -8.999859E-01 +7.647702E-01 -8.999859E-01 +1.373456E+03 
 +6.248308E+02 +2.652231E+01 +1.875554E+01 +2.652231E+01 +6.683287E+02 +1.559007E+01 +1.875554E+01 +1.559007E+01 +1.302646E+03 
 +5.782948E+02 -8.837667E+00 +7.283519E+00 -8.837667E+00 +5.652816E+02 -2.197343E+01 +7.283519E+00 -2.197343E+01 +1.371879E+03 
 +5.983503E+02 -1.218027E+01 -1.743282E+01 -1.218027E+01 +5.816572E+02 -2.949382E+01 -1.743282E+01 -2.949382E+01 +1.398411E+03 
 +5.788748E+02 +7.218933E+00 -3.762301E+00 +7.218933E+00 +5.733195E+02 -1.546031E+01 -3.762301E+00 -1.546031E+01 +1.416620E+03 
 +5.852543E+02 -8.644585E+00 +1.317334E+01 -8.644585E+00 +5.935530E+02 -6.816847E+00 +1.317334E+01 -6.816847E+00 +1.446915E+03 
 +6.303188E+02 -2.725371E+01 -1.437359E+00 -2.725371E+01 +6.312193E+02 +7.659903E+00 -1.437359E+00 +7.659903E+00 +1.294791E+03 
 +5.955112E+02 -2.174572E+01 -3.839146E+00 -2.174572E+01 +6.481424E+02 +2.561412E+00 -3.839146E+00 +2.561412E+00 +1.348276E+03 
 +5.612071E+02 -3.124872E+01 +2.148213E+01 -3.124872E+01 +6.466996E+02 +1.247240E+01 +2.148213E+01 +1.247240E+01 +1.335754E+03 
 +5.815984E+02 -2.821207E+01 +6.198935E+00 -2.821207E+01 +5.387144E+02 +1.538423E+01 +6.198935E+00 +1.538423E+01 +1.333924E+03 
 +5.704554E+02 -3.319021E+00 -2.085788E+01 -3.319021E+00 +5.918864E+02 +1.372651E+01 -2.085788E+01 +1.372651E+01 +1.324524E+03 
 +6.362703E+02 -1.795017E+01 +1.059464E+01 -1.795017E+01 +6.157900E+02 -1.958213E+01 +1.059464E+01 -1.958213E+01 +1.395174E+03 
 +6.029435E+02 -2.885843E+00 -1.343886E+00 -2.885843E+00 +6.504982E+02 +9.850004E+00 -1.343886E+00 +9.850004E+00 +1.317372E+03 
 +5.660028E+02 +2.493208E+01 +7.475921E+00 +2.493208E+01 +6.093262E+02 +4.303361E+00 +7.475921E+00 +4.303361E+00 +1.352297E+03 
 +6.088492E+02 -1.646644E+01 -1.996233E+01 -1.646644E+01 +6.097604E+02 -7.748762E+00 -1.996233E+01 -7.748762E+00 +1.284373E+03 
 +6.144221E+02 -1.865516E+01 +1.353649E+01 -1.865516E+01 +5.773134E+02 +1.713444E+01 +1.353649E+01 +1.713444E+01 +1.381979E+03 
 +5.676763E+02 +3.760176E+00 +1.083114E+01 +3.760176E+00 +5.528019E+02 -2.344445E-01 +1.083114E+01 -2.344445E-01 +1.404708E+03 
 +6.547985E+02 -1.579594E+00 -1.096575E+01 -1.579594E+00 +5.534466E+02 -3.306140E+00 -1.096575E+01 -3.306140E+00 +1.263698E+03 
 +5.706367E+02 -2.396596E+01 +8.549352E+00 -2.396596E+01 +5.788655E+02 -1.441703E+01 +8.549352E+00 -1.441703E+01 +1.381664E+03 
 +6.558035E+02 -3.129446E+01 -8.080840E-01 -3.129446E+01 +5.467555E+02 -1.680015E-01 -8.080840E-01 -1.680015E-01 +1.298468E+03 
 +5.231182E+02 -2.205789E+00 +1.047931E+01 -2.205789E+00 +5.540056E+02 +7.920185E+00 +1.047931E+01 +7.920185E+00 +1.396640E+03 
 +5.717758E+02 +2.734914E+00 -2.752702E+01 +2.734914E+00 +6.190178E+02 -1.656010E+01 -2.752702E+01 -1.656010E+01 +1.316247E+03 
 +6.634951E+02 -5.601475E+01 +7.852978E+00 -5.601475E+01 +6.198467E+02 -1.975592E+01 +7.852978E+00 -1.975592E+01 +1.340672E+03 
 +5.781364E+02 +2.662777E+01 -8.350188E-01 +2.662777E+01 +6.377289E+02 -6.007732E+00 -8.350188E-01 -6.007732E+00 +1.363205E+03 
 +6.328935E+02 +1.443316E+01 +6.930928E+00 +1.443316E+01 +6.429714E+02 -2.537915E+00 +6.930928E+00 -2.537915E+00 +1.422826E+03 
 +5.744293E+02 -4.188263E+00 -4.881662E-01 -4.188263E+00 +6.097883E+02 -2.175690E+01 -4.881662E-01 -2.175690E+01 +1.403380E+03 
 +5.879534E+02 -3.163136E+00 -1.979435E+01 -3.163136E+00 +5.617183E+02 +1.929262E+01 -1.979435E+01 +1.929262E+01 +1.349334E+03 
 +6.422410E+02 +2.897064E+00 +1.177131E+01 +2.897064E+00 +6.099778E+02 -4.759403E+00 +1.177131E+01 -4.759403E+00 +1.367446E+03 
 +5.959816E+02 +2.715863E-01 -7.329993E+00 +2.715863E-01 +6.304771E+02 -1.525361E+01 -7.329993E+00 -1.525361E+01 +1.315548E+03 
 +5.536462E+02 +5.731858E-01 -2.018278E+01 +5.731858E-01 +5.810159E+02 +1.409895E+01 -2.018278E+01 +1.409895E+01 +1.403376E+03 
 +6.608350E+02 +7.417499E+01 +1.803899E+00 +7.417499E+01 +7.026943E+02 -1.602938E+01 +1.803899E+00 -1.602938E+01 +1.359958E+03 
 +6.115892E+02 +2.264582E+01 +1.764757E+01 +2.264582E+01 +6.184103E+02 -1.992129E+01 +1.764757E+01 -1.992129E+01 +1.356122E+03 
 +5.792834E+02 -1.266535E+01 +8.695262E+00 -1.266535E+01 +5.637853E+02 +1.285655E+01 +8.695262E+00 +1.285655E+01 +1.442001E+03 
 +6.563391E+02 -1.490937E+01 +3.386893E+01 -1.490937E+01 +6.029405E+02 -5.760779E+00 +3.386893E+01 -5.760779E+00 +1.301156E+03 
 +6.043195E+02 +1.804028E+01 +3.635163E+00 +1.804028E+01 +5.532185E+02 -2.635814E+01 +3.635163E+00 -2.635814E+01 +1.368409E+03 
 +5.040147E+02 +2.174617E+01 +1.617619E+01 +2.174617E+01 +6.561230E+02 -1.570992E+01 +1.617619E+01 -1.570992E+01 +1.271117E+03 
 +7.327164E+02 -3.504977E+00 +1.302095E+01 -3.504977E+00 +6.399062E+02 -4.598194E+00 +1.302095E+01 -4.598194E+00 +1.332013E+03 
 +5.979592E+02 -1.312239E+01 +7.162444E+00 -1.312239E+01 +6.014318E+02 +1.053095E+01 +7.162444E+00 +1.053095E+01 +1.416781E+03 
 +6.098305E+02 -5.848019E+01 -2.840140E+00 -5.848019E+01 +6.130084E+02 +9.402817E+00 -2.840140E+00 +9.402817E+00 +1.278153E+03 
 +6.225211E+02 -2.355281E+01 -4.970305E+00 -2.355281E+01 +5.861431E+02 -6.358638E+00 -4.970305E+00 -6.358638E+00 +1.347831E+03 
 +6.008473E+02 +5.465280E+01 +2.034512E+01 +5.465280E+01 +5.841180E+02 -3.678035E+01 +2.034512E+01 -3.678035E+01 +1.290854E+03 
 +6.364393E+02 +3.176081E+00 -5.157789E+00 +3.176081E+00 +5.910969E+02 -8.108405E+00 -5.157789E+00 -8.108405E+00 +1.323019E+03 
 +6.689927E+02 +4.711266E+01 +5.369030E+00 +4.711266E+01 +6.167653E+02 +1.708232E+01 +5.369030E+00 +1.708232E+01 +1.309500E+03 
 +5.933263E+02 +3.428667E+01 -2.027597E+01 +3.428667E+01 +5.773659E+02 -2.407450E+01 -2.027597E+01 -2.407450E+01 +1.356367E+03 
 +5.860998E+02 -1.658587E+01 +2.022319E+00 -1.658587E+01 +5.391867E+02 -2.327445E+01 +2.022319E+00 -2.327445E+01 +1.333808E+03 
 +5.808539E+02 -5.981367E-01 -2.695792E+01 -5.981367E-01 +5.860068E+02 -3.333172E+00 -2.695792E+01 -3.333172E+00 +1.454317E+03 
 +5.926528E+02 -1.668482E+00 +2.192718E+00 -1.668482E+00 +5.675919E+02 +3.139828E+01 +2.192718E+00 +3.139828E+01 +1.348515E+03 
 +6.051529E+02 -3.592419E+01 -1.482482E+01 -3.592419E+01 +6.229583E+02 +1.454626E+01 -1.482482E+01 +1.454626E+01 +1.350902E+03 
 +6.539798E+02 +2.252328E+01 -2.169084E+01 +2.252328E+01 +6.654127E+02 +4.120654E+01 -2.169084E+01 +4.120654E+01 +1.361734E+03 
 +7.071940E+02 -2.927397E+01 +1.319376E+01 -2.927397E+01 +5.846508E+02 +1.402334E+00 +1.319376E+01 +1.402334E+00 +1.368734E+03 
 +6.053240E+02 +3.716791E+00 -6.594481E+00 +3.716791E+00 +5.944922E+02 -1.677433E+01 -6.594481E+00 -1.677433E+01 +1.450389E+03 
 +6.194538E+02 -1.724433E+01 -3.967651E-01 -1.724433E+01 +5.717742E+02 -1.356393E+01 -3.967651E-01 -1.356393E+01 +1.406876E+03 
 +7.131172E+02 +9.380985E+00 +3.877143E+00 +9.380985E+00 +6.531011E+02 -1.524232E+01 +3.877143E+00 -1.524232E+01 +1.411396E+03 
 +6.605754E+02 -1.379677E+01 -1.957185E+00 -1.379677E+01 +6.592053E+02 +2.224934E+00 -1.957185E+00 +2.224934E+00 +1.408068E+03 
 +6.285485E+02 +3.099981E+01 -8.867672E+00 +3.099981E+01 +5.832310E+02 +3.513377E+01 -8.867672E+00 +3.513377E+01 +1.369363E+03 
 +5.920275E+02 +9.816882E+00 +2.088432E+01 +9.816882E+00 +6.880957E+02 -3.696344E+00 +2.088432E+01 -3.696344E+00 +1.342346E+03 
 +6.598471E+02 -3.418183E+01 +8.712543E+00 -3.418183E+01 +5.740848E+02 +1.790956E+01 +8.712543E+00 +1.790956E+01 +1.286119E+03 
 +5.949623E+02 -3.664769E+00 +4.392748E+00 -3.664769E+00 +6.253019E+02 -1.642207E-01 +4.392748E+00 -1.642207E-01 +1.382154E+03 
 +5.469225E+02 +8.611704E+00 -1.976081E+01 +8.611704E+00 +5.560997E+02 -2.048373E+01 -1.976081E+01 -2.048373E+01 +1.384247E+03 
 +6.301251E+02 +7.302646E+00 +2.865389E+01 +7.302646E+00 +5.972281E+02 +3.313184E+00 +2.865389E+01 +3.313184E+00 +1.367809E+03 
 +6.028803E+02 -2.052307E+00 -2.110418E+01 -2.052307E+00 +6.430394E+02 +1.116485E+01 -2.110418E+01 +1.116485E+01 +1.312756E+03 
 +6.001466E+02 -1.134234E+01 +6.781630E+00 -1.134234E+01 +6.324599E+02 +2.241309E+00 +6.781630E+00 +2.241309E+00 +1.326950E+03 
 +7.203688E+02 +3.172124E+01 -2.285031E+01 +3.172124E+01 +6.256541E+02 -1.153901E+01 -2.285031E+01 -1.153901E+01 +1.305832E+03 
 +5.717413E+02 -1.313977E+01 +2.128815E+01 -1.313977E+01 +5.847457E+02 +1.581721E+01 +2.128815E+01 +1.581721E+01 +1.397639E+03 
 +6.656606E+02 -5.056461E+01 -7.491331E+00 -5.056461E+01 +5.794145E+02 -1.818139E+01 -7.491331E+00 -1.818139E+01 +1.330084E+03 
 +5.543672E+02 +9.624603E+00 -7.783108E+00 +9.624603E+00 +5.547945E+02 -4.918873E+01 -7.783108E+00 -4.918873E+01 +1.395673E+03 
 +6.420706E+02 +1.964413E+01 +1.217380E+01 +1.964413E+01 +5.976646E+02 +4.091234E+00 +1.217380E+01 +4.091234E+00 +1.402341E+03 
 +6.919036E+02 -4.001759E+00 -3.958380E+00 -4.001759E+00 +6.239902E+02 +2.401677E+01 -3.958380E+00 +2.401677E+01 +1.364164E+03 
 +6.590179E+02 +2.718294E+01 -6.483258E+00 +2.718294E+01 +5.784348E+02 +5.629322E+00 -6.483258E+00 +5.629322E+00 +1.356129E+03 
 +6.838680E+02 -2.508526E+01 -4.903420E+00 -2.508526E+01 +6.295966E+02 +4.441658E+00 -4.903420E+00 +4.441658E+00 +1.383389E+03 
 +5.939672E+02 -1.476010E+01 +1.426400E+01 -1.476010E+01 +6.061186E+02 +2.287052E+01 +1.426400E+01 +2.287052E+01 +1.334173E+03 
 +5.798899E+02 +8.849579E+00 -7.210324E+00 +8.849579E+00 +6.524085E+02 -2.976704E+00 -7.210324E+00 -2.976704E+00 +1.320996E+03 
 +6.412275E+02 +2.933995E+01 +2.097075E+01 +2.933995E+01 +7.095337E+02 -1.452139E+01 +2.097075E+01 -1.452139E+01 +1.361709E+03 
 +5.836622E+02 +1.338136E+01 -2.084008E+01 +1.338136E+01 +6.129843E+02 -1.067946E+01 -2.084008E+01 -1.067946E+01 +1.416699E+03 
 +5.319678E+02 -1.583519E+01 -2.907880E+01 -1.583519E+01 +5.859427E+02 +3.141046E+01 -2.907880E+01 +3.141046E+01 +1.293669E+03 
 +6.349868E+02 -3.122759E+00 -1.760745E+01 -3.122759E+00 +7.079848E+02 -9.006153E+00 -1.760745E+01 -9.006153E+00 +1.396766E+03 
 +5.746599E+02 -2.425417E+01 -9.621007E+00 -2.425417E+01 +6.563500E+02 +5.703029E+00 -9.621007E+00 +5.703029E+00 +1.268982E+03 
 +5.878156E+02 +5.710971E+01 -9.889541E+00 +5.710971E+01 +7.181048E+02 -1.096297E+01 -9.889541E+00 -1.096297E+01 +1.313317E+03 
 +6.001923E+02 +1.221224E+01 -2.899724E+01 +1.221224E+01 +6.691270E+02 -2.928945E+00 -2.899724E+01 -2.928945E+00 +1.359779E+03 
 +6.024964E+02 -5.553215E+00 +3.220590E+01 -5.553215E+00 +6.501598E+02 +1.234941E+00 +3.220590E+01 +1.234941E+00 +1.401916E+03 
 +6.179678E+02 -8.504040E+00 +2.411672E+01 -8.504040E+00 +6.359256E+02 -1.360043E+01 +2.411672E+01 -1.360043E+01 +1.387389E+03 
 +6.594897E+02 -4.031258E+01 +1.922509E+01 -4.031258E+01 +7.026028E+02 +1.203781E+00 +1.922509E+01 +1.203781E+00 +1.318988E+03 
 +6.588101E+02 -3.984969E+01 +5.640218E+00 -3.984969E+01 +6.710878E+02 +3.517577E+00 +5.640218E+00 +3.517577E+00 +1.314376E+03 
 +5.552043E+02 -4.173280E+01 +1.577015E+00 -4.173280E+01 +6.369636E+02 +1.570025E+01 +1.577015E+00 +1.570025E+01 +1.327407E+03 
 +5.944719E+02 +4.928972E+00 +3.044245E+01 +4.928972E+00 +6.383397E+02 +7.821696E+00 +3.044245E+01 +7.821696E+00 +1.361381E+03 
 +5.814642E+02 +1.487956E+01 +4.382537E-01 +1.487956E+01 +5.972200E+02 +1.449401E+01 +4.382537E-01 +1.449401E+01 +1.416931E+03 
 +7.420208E+02 -7.477836E+01 -1.411682E+01 -7.477836E+01 +6.846514E+02 +4.004628E+00 -1.411682E+01 +4.004628E+00 +1.374791E+03 
 +5.899443E+02 -4.610519E+00 -1.515598E+00 -4.610519E+00 +6.616036E+02 +1.199678E+01 -1.515598E+00 +1.199678E+01 +1.341461E+03 
 +5.488984E+02 -1.501015E+00 -1.802094E+00 -1.501015E+00 +5.902941E+02 -2.885637E+00 -1.802094E+00 -2.885637E+00 +1.387291E+03 
 +6.329193E+02 -5.426731E+01 -6.201284E+00 -5.426731E+01 +6.318983E+02 -3.594878E+00 -6.201284E+00 -3.594878E+00 +1.322066E+03 
 +5.908599E+02 -6.389182E+00 +3.835458E+00 -6.389182E+00 +5.763994E+02 -2.421759E+01 +3.835458E+00 -2.421759E+01 +1.323445E+03 
 +5.892345E+02 +2.102263E+01 +3.168418E+00 +2.102263E+01 +6.078011E+02 -1.713433E+01 +3.168418E+00 -1.713433E+01 +1.355374E+03 
 +6.157135E+02 -1.694132E+01 +6.267785E+00 -1.694132E+01 +6.474663E+02 -5.696595E+00 +6.267785E+00 -5.696595E+00 +1.304613E+03 
 +5.520491E+02 +3.571521E+00 +4.273017E+00 +3.571521E+00 +5.515625E+02 -5.731572E+00 +4.273017E+00 -5.731572E+00 +1.368760E+03 
 +5.610341E+02 -9.632046E+00 +7.414212E+00 -9.632046E+00 +5.592663E+02 +2.094777E+01 +7.414212E+00 +2.094777E+01 +1.411843E+03 
 +7.055615E+02 -1.387469E+01 +1.031249E+00 -1.387469E+01 +5.678257E+02 -8.940003E+00 +1.031249E+00 -8.940003E+00 +1.296825E+03 
 +5.851413E+02 -2.163004E+01 +2.807916E+01 -2.163004E+01 +6.023597E+02 +1.025708E+01 +2.807916E+01 +1.025708E+01 +1.395967E+03 
 +6.201281E+02 +1.943240E+01 -1.721239E+01 +1.943240E+01 +7.249426E+02 -8.234912E+00 -1.721239E+01 -8.234912E+00 +1.324739E+03 
 +6.461295E+02 +1.402523E+01 +1.193410E+01 +1.402523E+01 +5.959968E+02 -2.836080E+01 +1.193410E+01 -2.836080E+01 +1.334587E+03 
 +6.336882E+02 -4.844051E+01 +1.027018E+01 -4.844051E+01 +5.847316E+02 +3.548344E+00 +1.027018E+01 +3.548344E+00 +1.316552E+03 
 +6.300789E+02 +6.561127E+00 -1.536551E+01 +6.561127E+00 +6.389735E+02 +2.785112E+01 -1.536551E+01 +2.785112E+01 +1.408306E+03 
 +6.174950E+02 +3.188591E+01 +2.268151E+01 +3.188591E+01 +6.055164E+02 -3.395458E+00 +2.268151E+01 -3.395458E+00 +1.347247E+03 
 +6.578246E+02 +1.879366E+01 -3.731740E+00 +1.879366E+01 +6.216920E+02 +5.032750E+00 -3.731740E+00 +5.032750E+00 +1.312757E+03 
 +5.922214E+02 -1.104714E+01 -5.733220E+00 -1.104714E+01 +6.047051E+02 +2.324002E+01 -5.733220E+00 +2.324002E+01 +1.329797E+03 
 +6.044457E+02 +2.528385E+01 +3.971717E+01 +2.528385E+01 +6.700576E+02 +1.192951E+01 +3.971717E+01 +1.192951E+01 +1.311499E+03 
 +5.671205E+02 +6.757522E+00 -5.265100E-01 +6.757522E+00 +5.636533E+02 +2.525879E+01 -5.265100E-01 +2.525879E+01 +1.376138E+03 
 +5.769985E+02 -2.122504E+01 -4.735579E+00 -2.122504E+01 +5.959807E+02 +2.407436E+01 -4.735579E+00 +2.407436E+01 +1.349933E+03 
 +5.972115E+02 +1.779758E+01 +8.240331E+00 +1.779758E+01 +6.457826E+02 +2.252147E+01 +8.240331E+00 +2.252147E+01 +1.327831E+03 
 +6.243269E+02 +1.917203E+01 -1.809539E+01 +1.917203E+01 +6.329283E+02 +1.415744E+01 -1.809539E+01 +1.415744E+01 +1.354388E+03 
 +5.691049E+02 -1.064581E+01 +2.867873E+01 -1.064581E+01 +6.635958E+02 +7.997567E+00 +2.867873E+01 +7.997567E+00 +1.306148E+03 
 +6.012265E+02 +1.116573E+01 +2.484067E+01 +1.116573E+01 +6.316812E+02 +1.071350E+01 +2.484067E+01 +1.071350E+01 +1.307216E+03 
 +5.120764E+02 -8.049845E-01 -1.216154E+01 -8.049845E-01 +6.636516E+02 -1.551439E+01 -1.216154E+01 -1.551439E+01 +1.300018E+03 
 +7.276194E+02 +4.549208E+01 +2.453796E+00 +4.549208E+01 +6.443683E+02 +1.023764E+01 +2.453796E+00 +1.023764E+01 +1.357776E+03 
 +5.978371E+02 +1.189624E+01 +1.169680E+01 +1.189624E+01 +6.147598E+02 -1.235100E+01 +1.169680E+01 -1.235100E+01 +1.403556E+03 
 +6.180975E+02 +1.724653E+01 -1.675327E+01 +1.724653E+01 +6.651584E+02 -5.008746E+00 -1.675327E+01 -5.008746E+00 +1.337242E+03 
 +5.884088E+02 +2.208138E+01 +1.695696E+01 +2.208138E+01 +6.735065E+02 +2.205318E+01 +1.695696E+01 +2.205318E+01 +1.337669E+03 
 +6.027979E+02 -3.711589E+01 +7.896194E+00 -3.711589E+01 +5.756766E+02 +1.497783E+01 +7.896194E+00 +1.497783E+01 +1.294552E+03 
 +6.984124E+02 -1.975252E+01 -5.467931E+00 -1.975252E+01 +6.292705E+02 -1.288960E+01 -5.467931E+00 -1.288960E+01 +1.372824E+03 
 +5.785766E+02 -2.330346E+01 +3.228799E+00 -2.330346E+01 +5.844951E+02 -1.269541E+01 +3.228799E+00 -1.269541E+01 +1.423545E+03 
 +6.139681E+02 +2.159621E+01 +1.249755E+01 +2.159621E+01 +5.849066E+02 -3.526631E+00 +1.249755E+01 -3.526631E+00 +1.354622E+03 
 +7.018685E+02 +1.986823E+01 -4.110855E+00 +1.986823E+01 +5.815460E+02 +2.989712E+01 -4.110855E+00 +2.989712E+01 +1.350962E+03 
 +5.345476E+02 +1.682601E+01 -4.796803E-01 +1.682601E+01 +5.452665E+02 +4.200397E+01 -4.796803E-01 +4.200397E+01 +1.418300E+03 
 +5.790056E+02 +3.360169E+00 +5.824177E+00 +3.360169E+00 +5.904605E+02 -1.204100E+01 +5.824177E+00 -1.204100E+01 +1.342496E+03 
 +6.366595E+02 +1.640433E+01 +1.062554E+01 +1.640433E+01 +5.738885E+02 -9.376719E+00 +1.062554E+01 -9.376719E+00 +1.259511E+03 
 +5.583746E+02 -6.798393E+00 +1.229325E+00 -6.798393E+00 +6.260172E+02 +3.895641E+00 +1.229325E+00 +3.895641E+00 +1.363376E+03 
 +6.531667E+02 +9.023168E-01 +2.831956E+00 +9.023168E-01 +5.872253E+02 +3.496353E+01 +2.831956E+00 +3.496353E+01 +1.310621E+03 
 +6.189908E+02 +3.156129E+01 -2.759146E+01 +3.156129E+01 +6.434902E+02 +3.200657E+01 -2.759146E+01 +3.200657E+01 +1.348156E+03 
 +6.177065E+02 +6.525445E+01 -1.608352E+01 +6.525445E+01 +6.576964E+02 -1.995683E+00 -1.608352E+01 -1.995683E+00 +1.324032E+03 
 +6.243286E+02 +4.292980E+00 +1.128058E+01 +4.292980E+00 +6.462192E+02 +4.152164E+00 +1.128058E+01 +4.152164E+00 +1.402351E+03 
 +6.512109E+02 +7.242315E-01 -2.245767E+01 +7.242315E-01 +7.007974E+02 +5.613312E+00 -2.245767E+01 +5.613312E+00 +1.342897E+03 
 +5.944762E+02 +3.926159E+01 +6.731178E-01 +3.926159E+01 +6.419100E+02 +1.218477E+01 +6.731178E-01 +1.218477E+01 +1.307286E+03 
 +5.665713E+02 +2.338217E+01 -1.039614E+01 +2.338217E+01 +6.625460E+02 -7.565141E-01 -1.039614E+01 -7.565141E-01 +1.362985E+03 
 +6.735763E+02 -3.753954E+01 -1.600755E+01 -3.753954E+01 +6.382740E+02 +2.876995E+00 -1.600755E+01 +2.876995E+00 +1.320690E+03 
 +5.938646E+02 -6.271270E+01 -1.691468E+00 -6.271270E+01 +6.776940E+02 +2.983724E+01 -1.691468E+00 +2.983724E+01 +1.334772E+03 
 +6.306815E+02 +4.346176E+00 +2.329704E+01 +4.346176E+00 +6.713199E+02 +5.215374E+00 +2.329704E+01 +5.215374E+00 +1.529699E+03 
 +5.338428E+02 +1.877549E+00 +9.455796E+00 +1.877549E+00 +6.200799E+02 +9.477892E+00 +9.455796E+00 +9.477892E+00 +1.271000E+03 
 +5.945058E+02 +2.602948E+00 -1.336707E+01 +2.602948E+00 +5.685608E+02 +2.025162E+01 -1.336707E+01 +2.025162E+01 +1.340108E+03 
 +5.339338E+02 +5.420061E+01 -1.508973E+01 +5.420061E+01 +6.702584E+02 -8.418372E+00 -1.508973E+01 -8.418372E+00 +1.274803E+03 
 +5.697603E+02 -1.745882E+01 +2.244869E+01 -1.745882E+01 +6.982446E+02 -1.647973E+01 +2.244869E+01 -1.647973E+01 +1.320106E+03 
 +6.057364E+02 -2.781531E+01 +9.359219E+00 -2.781531E+01 +6.737104E+02 +1.683167E+01 +9.359219E+00 +1.683167E+01 +1.372455E+03 
 +6.392078E+02 -1.557795E+01 +1.378088E+00 -1.557795E+01 +5.866340E+02 +1.454459E+01 +1.378088E+00 +1.454459E+01 +1.285642E+03 
 +5.995913E+02 -3.864668E+01 +9.981400E+00 -3.864668E+01 +5.908207E+02 -1.957403E+01 +9.981400E+00 -1.957403E+01 +1.419644E+03 
 +6.537197E+02 -3.402461E+01 +1.918668E+01 -3.402461E+01 +6.035057E+02 +1.591998E+01 +1.918668E+01 +1.591998E+01 +1.343310E+03 
 +6.369778E+02 -1.694411E+01 -8.841228E+00 -1.694411E+01 +6.149685E+02 +2.709784E+01 -8.841228E+00 +2.709784E+01 +1.437387E+03 
 +6.325347E+02 -4.800926E+01 +1.991546E+01 -4.800926E+01 +6.065835E+02 -1.089689E+01 +1.991546E+01 -1.089689E+01 +1.253454E+03 
 +5.406588E+02 -3.090909E+01 +1.331762E+00 -3.090909E+01 +5.407777E+02 +7.632231E+00 +1.331762E+00 +7.632231E+00 +1.396728E+03 
 +5.559821E+02 +5.199408E+00 +4.281051E+00 +5.199408E+00 +5.681531E+02 +1.072419E+01 +4.281051E+00 +1.072419E+01 +1.362520E+03 
 +6.097203E+02 +2.356650E+01 +6.992819E+00 +2.356650E+01 +5.958375E+02 +3.231442E+01 +6.992819E+00 +3.231442E+01 +1.316976E+03 
 +6.754320E+02 -4.366460E+01 +5.383005E+00 -4.366460E+01 +5.403729E+02 -1.795320E+01 +5.383005E+00 -1.795320E+01 +1.316175E+03 
 +5.563337E+02 -7.085149E+00 +6.781235E+00 -7.085149E+00 +5.417185E+02 -1.709743E+01 +6.781235E+00 -1.709743E+01 +1.404770E+03 
 +6.222440E+02 -3.531615E+01 -5.233995E+00 -3.531615E+01 +6.072589E+02 -1.934254E+00 -5.233995E+00 -1.934254E+00 +1.381016E+03 
 +6.335070E+02 -2.619059E+01 -1.765673E+01 -2.619059E+01 +6.237689E+02 -1.336185E+01 -1.765673E+01 -1.336185E+01 +1.300909E+03 
 +5.993583E+02 +1.243156E+01 +2.080950E+01 +1.243156E+01 +5.814752E+02 +1.627106E+01 +2.080950E+01 +1.627106E+01 +1.414014E+03 
 +5.937752E+02 +7.306262E-01 -7.604776E+00 +7.306262E-01 +5.788116E+02 -1.710635E+01 -7.604776E+00 -1.710635E+01 +1.339693E+03 
 +5.705435E+02 +2.520869E+01 -6.236490E+00 +2.520869E+01 +5.909026E+02 -6.235635E+01 -6.236490E+00 -6.235635E+01 +1.375182E+03 
 +5.499547E+02 +2.878457E+01 -3.102766E+00 +2.878457E+01 +5.662759E+02 +7.518937E+00 -3.102766E+00 +7.518937E+00 +1.422928E+03 
 +6.250655E+02 +1.538681E+01 -4.752213E+00 +1.538681E+01 +5.743104E+02 +4.142267E+01 -4.752213E+00 +4.142267E+01 +1.300561E+03 
 +6.313714E+02 -4.227888E+01 -6.937837E+00 -4.227888E+01 +6.638589E+02 -9.881297E+00 -6.937837E+00 -9.881297E+00 +1.352935E+03 
 +5.760378E+02 -3.524947E+01 -5.362723E+00 -3.524947E+01 +5.926108E+02 +1.442218E+01 -5.362723E+00 +1.442218E+01 +1.347845E+03 
 +6.845164E+02 +1.196462E+01 +2.245502E+01 +1.196462E+01 +6.362001E+02 +2.762157E+00 +2.245502E+01 +2.762157E+00 +1.299349E+03 
 +6.068619E+02 +3.776298E+01 +8.723115E+00 +3.776298E+01 +5.723667E+02 +9.604913E+00 +8.723115E+00 +9.604913E+00 +1.288791E+03 
 +5.819677E+02 -1.927636E+01 -1.024163E+01 -1.927636E+01 +6.644242E+02 -1.613106E+01 -1.024163E+01 -1.613106E+01 +1.318216E+03 
 +6.593631E+02 -1.985527E+01 +1.705565E+01 -1.985527E+01 +7.047872E+02 -1.347639E+00 +1.705565E+01 -1.347639E+00 +1.359995E+03 
 +6.161998E+02 +1.903807E+01 -6.515171E+00 +1.903807E+01 +6.294197E+02 +2.021111E+01 -6.515171E+00 +2.021111E+01 +1.308981E+03 
 +5.673969E+02 -3.144389E+00 -8.208808E+00 -3.144389E+00 +5.811820E+02 +7.499454E+00 -8.208808E+00 +7.499454E+00 +1.455409E+03 
 +6.558471E+02 -2.419623E+01 -7.446961E+00 -2.419623E+01 +5.855350E+02 +2.500659E+01 -7.446961E+00 +2.500659E+01 +1.311035E+03 
 +6.214398E+02 -3.032555E+01 -1.078607E+01 -3.032555E+01 +6.333639E+02 +1.496525E+01 -1.078607E+01 +1.496525E+01 +1.334209E+03 
 +6.233309E+02 -2.951202E+01 +6.509444E+00 -2.951202E+01 +6.282136E+02 -1.407034E+01 +6.509444E+00 -1.407034E+01 +1.385408E+03 
 +6.366138E+02 -3.851830E+01 -2.697292E+01 -3.851830E+01 +6.412584E+02 +4.997756E+00 -2.697292E+01 +4.997756E+00 +1.334545E+03 
 +6.076885E+02 -9.807184E+00 -1.488521E+01 -9.807184E+00 +7.044769E+02 -1.387752E+01 -1.488521E+01 -1.387752E+01 +1.356842E+03 
 +6.342207E+02 +3.383252E+01 -2.990933E+00 +3.383252E+01 +6.642687E+02 -1.951430E+00 -2.990933E+00 -1.951430E+00 +1.323814E+03 
 +5.449935E+02 -1.091480E+01 +1.584819E+01 -1.091480E+01 +6.969772E+02 +7.146001E+00 +1.584819E+01 +7.146001E+00 +1.309688E+03 
 +5.802433E+02 -2.565126E+01 -2.336549E+01 -2.565126E+01 +6.044011E+02 -1.084137E+01 -2.336549E+01 -1.084137E+01 +1.281455E+03 
 +6.130905E+02 -8.748168E+00 -1.484432E-01 -8.748168E+00 +6.280981E+02 -2.243514E+01 -1.484432E-01 -2.243514E+01 +1.422397E+03 
 +6.469559E+02 -1.746706E+01 +1.064637E+01 -1.746706E+01 +6.392424E+02 +1.104042E+01 +1.064637E+01 +1.104042E+01 +1.331823E+03 
 +6.392877E+02 -2.398646E+00 +2.143814E+01 -2.398646E+00 +6.290060E+02 -7.628508E+00 +2.143814E+01 -7.628508E+00 +1.480423E+03 
 +6.776467E+02 +3.222427E+01 -2.295443E+00 +3.222427E+01 +6.025031E+02 +5.526580E+00 -2.295443E+00 +5.526580E+00 +1.299610E+03 
 +5.931509E+02 +3.593289E+00 -6.952123E+00 +3.593289E+00 +5.748361E+02 +1.623248E+01 -6.952123E+00 +1.623248E+01 +1.364017E+03 
 +6.502463E+02 +3.554501E+01 +1.714306E+01 +3.554501E+01 +6.198692E+02 -1.241705E+00 +1.714306E+01 -1.241705E+00 +1.336196E+03 
 +6.744109E+02 +4.756591E+01 +7.158448E+00 +4.756591E+01 +6.356868E+02 +9.179592E+00 +7.158448E+00 +9.179592E+00 +1.361287E+03 
 +5.873505E+02 +5.315298E+01 -3.687788E+00 +5.315298E+01 +5.834363E+02 +1.127430E+01 -3.687788E+00 +1.127430E+01 +1.315679E+03 
 +5.921719E+02 -2.985897E+01 -8.822967E+00 -2.985897E+01 +7.200880E+02 -1.590307E+01 -8.822967E+00 -1.590307E+01 +1.311750E+03 
 +6.710654E+02 -3.932816E+00 +1.914859E+01 -3.932816E+00 +6.151280E+02 -3.033540E+01 +1.914859E+01 -3.033540E+01 +1.369583E+03 
 +5.411516E+02 -8.318355E+00 -1.066027E+01 -8.318355E+00 +5.712213E+02 +1.256806E+01 -1.066027E+01 +1.256806E+01 +1.283473E+03 
 +6.630567E+02 -7.958996E+00 +4.744828E+00 -7.958996E+00 +6.436442E+02 +1.381165E+01 +4.744828E+00 +1.381165E+01 +1.332173E+03 
 +5.809801E+02 +2.034604E+01 +5.969152E+00 +2.034604E+01 +5.817197E+02 +1.063327E+01 +5.969152E+00 +1.063327E+01 +1.398345E+03 
 +5.460391E+02 +2.713855E+01 +2.609763E+00 +2.713855E+01 +5.455575E+02 -1.352500E+01 +2.609763E+00 -1.352500E+01 +1.371884E+03 
 +6.278552E+02 -9.112390E+00 +4.388448E+00 -9.112390E+00 +5.309877E+02 -1.043424E+01 +4.388448E+00 -1.043424E+01 +1.272521E+03 
 +6.761520E+02 +2.061813E+01 -5.551892E+00 +2.061813E+01 +5.913970E+02 -1.018965E+01 -5.551892E+00 -1.018965E+01 +1.335426E+03 
 +6.471797E+02 +5.919694E+01 -4.755365E+01 +5.919694E+01 +5.906056E+02 -1.072676E+01 -4.755365E+01 -1.072676E+01 +1.302121E+03 
 +6.030861E+02 -1.753105E+01 +1.799441E+01 -1.753105E+01 +6.093544E+02 -9.419410E+00 +1.799441E+01 -9.419410E+00 +1.424790E+03 
 +5.886425E+02 -2.363831E+01 +4.423661E+00 -2.363831E+01 +6.505862E+02 -2.820758E-01 +4.423661E+00 -2.820758E-01 +1.300135E+03 
 +5.727943E+02 -3.956506E+01 +5.373802E+00 -3.956506E+01 +6.490892E+02 +5.355755E+00 +5.373802E+00 +5.355755E+00 +1.339445E+03 
 +6.600153E+02 +2.253408E+01 +7.217071E+00 +2.253408E+01 +6.210073E+02 -5.476971E+00 +7.217071E+00 -5.476971E+00 +1.349851E+03 
 +6.530997E+02 +1.237663E+01 -7.216052E+00 +1.237663E+01 +5.699731E+02 +9.371768E+00 -7.216052E+00 +9.371768E+00 +1.354646E+03 
 +6.336103E+02 +2.729334E+01 -6.528162E+00 +2.729334E+01 +6.156949E+02 -3.245193E+00 -6.528162E+00 -3.245193E+00 +1.298021E+03 
 +5.721007E+02 +1.009670E+01 +2.402693E+01 +1.009670E+01 +6.172560E+02 +3.259099E+00 +2.402693E+01 +3.259099E+00 +1.443957E+03 
 +5.377390E+02 -1.311079E+01 +2.086420E+01 -1.311079E+01 +6.085984E+02 +3.518447E-01 +2.086420E+01 +3.518447E-01 +1.284310E+03 
 +5.565554E+02 -7.021684E+00 +1.413101E+01 -7.021684E+00 +5.608047E+02 +2.898612E+00 +1.413101E+01 +2.898612E+00 +1.357385E+03 
 +6.158309E+02 -2.549834E+00 +8.225786E+00 -2.549834E+00 +5.996190E+02 -2.996660E+01 +8.225786E+00 -2.996660E+01 +1.396513E+03 
 +5.798508E+02 -2.432805E+01 +8.637753E+00 -2.432805E+01 +5.751840E+02 -3.511355E+01 +8.637753E+00 -3.511355E+01 +1.391154E+03 
 +5.912640E+02 -5.027303E+01 +1.545655E+00 -5.027303E+01 +5.865640E+02 +1.228238E+01 +1.545655E+00 +1.228238E+01 +1.291814E+03 
 +6.074484E+02 +1.001575E+00 -1.849879E+01 +1.001575E+00 +5.912072E+02 -2.950252E+01 -1.849879E+01 -2.950252E+01 +1.361912E+03 
 +6.103256E+02 -1.276544E+01 -1.642646E+01 -1.276544E+01 +6.814415E+02 +3.395103E+00 -1.642646E+01 +3.395103E+00 +1.298216E+03 
 +5.446736E+02 -3.376696E+01 -7.457557E+00 -3.376696E+01 +7.143774E+02 +1.151074E+00 -7.457557E+00 +1.151074E+00 +1.296822E+03 
 +6.309788E+02 +2.313617E+01 -3.888347E+01 +2.313617E+01 +6.280641E+02 -1.913743E+00 -3.888347E+01 -1.913743E+00 +1.356850E+03 
 +5.918182E+02 +1.689951E+01 -3.440174E+01 +1.689951E+01 +6.146537E+02 +7.313723E+00 -3.440174E+01 +7.313723E+00 +1.375368E+03 
 +6.415651E+02 +6.654531E-01 +1.302065E+01 +6.654531E-01 +6.343514E+02 -9.254468E+00 +1.302065E+01 -9.254468E+00 +1.376071E+03 
 +5.841414E+02 +7.051383E+00 -5.006564E+00 +7.051383E+00 +6.798355E+02 +7.444077E+00 -5.006564E+00 +7.444077E+00 +1.315759E+03 
 +6.874222E+02 +1.570415E+01 +9.690598E+00 +1.570415E+01 +6.387801E+02 -1.553648E+01 +9.690598E+00 -1.553648E+01 +1.309122E+03 
 +5.179753E+02 -8.163694E+00 +2.210335E+01 -8.163694E+00 +6.437035E+02 -6.641751E+00 +2.210335E+01 -6.641751E+00 +1.240174E+03 
 +6.437732E+02 +4.170464E+01 +1.657782E+01 +4.170464E+01 +6.452053E+02 +7.497839E-01 +1.657782E+01 +7.497839E-01 +1.354085E+03 
 +6.226327E+02 -5.230946E+00 +4.840589E+00 -5.230946E+00 +6.238970E+02 -7.361586E+00 +4.840589E+00 -7.361586E+00 +1.294697E+03 
 +6.274174E+02 +2.105604E+01 -3.975264E+01 +2.105604E+01 +6.007319E+02 +4.554462E-01 -3.975264E+01 +4.554462E-01 +1.432564E+03 
 +5.941777E+02 -5.800441E+00 +3.119802E+01 -5.800441E+00 +5.964602E+02 +2.964333E+01 +3.119802E+01 +2.964333E+01 +1.323402E+03 
 +6.166222E+02 +3.143348E+00 -1.439713E+01 +3.143348E+00 +6.463788E+02 +3.853239E+00 -1.439713E+01 +3.853239E+00 +1.354411E+03 
 +5.263317E+02 -1.665725E+01 -4.422901E+00 -1.665725E+01 +6.389221E+02 +5.659085E+00 -4.422901E+00 +5.659085E+00 +1.295853E+03 
 +7.073026E+02 +5.437673E+00 -4.265540E+00 +5.437673E+00 +5.994563E+02 +6.513593E+00 -4.265540E+00 +6.513593E+00 +1.369345E+03 
 +6.126299E+02 +1.071389E+01 +6.635138E+00 +1.071389E+01 +5.925488E+02 +2.365657E+01 +6.635138E+00 +2.365657E+01 +1.386060E+03 
 +7.122516E+02 -2.615528E+01 -1.056696E+01 -2.615528E+01 +6.115779E+02 +9.672653E+00 -1.056696E+01 +9.672653E+00 +1.316729E+03 
 +5.708884E+02 +6.897023E+00 +3.526870E+00 +6.897023E+00 +5.710362E+02 -1.305387E+01 +3.526870E+00 -1.305387E+01 +1.421477E+03 
 +6.982004E+02 +2.746373E+01 +1.363189E+01 +2.746373E+01 +5.838667E+02 -8.058658E+00 +1.363189E+01 -8.058658E+00 +1.330587E+03 
 +6.062620E+02 -1.050074E+01 -1.166538E+01 -1.050074E+01 +6.065580E+02 -1.430674E+01 -1.166538E+01 -1.430674E+01 +1.384320E+03 
 +6.357956E+02 +1.402159E+01 -1.662781E+00 +1.402159E+01 +7.087288E+02 -9.471695E+00 -1.662781E+00 -9.471695E+00 +1.342586E+03 
 +5.754797E+02 -4.262691E+00 +1.684079E+01 -4.262691E+00 +6.358843E+02 +5.041473E+00 +1.684079E+01 +5.041473E+00 +1.288218E+03 
 +6.184050E+02 -2.643474E+01 -1.689782E+01 -2.643474E+01 +6.664545E+02 -5.406752E+00 -1.689782E+01 -5.406752E+00 +1.347012E+03 
 +6.283039E+02 -2.861493E+00 -1.792021E+01 -2.861493E+00 +6.884310E+02 -6.497127E+00 -1.792021E+01 -6.497127E+00 +1.357718E+03 
 +5.374218E+02 +1.227064E+01 -2.546916E+01 +1.227064E+01 +6.579572E+02 -3.478038E+01 -2.546916E+01 -3.478038E+01 +1.309236E+03 
 +7.093789E+02 +2.998454E+01 +1.920411E+01 +2.998454E+01 +6.150526E+02 +4.411410E+00 +1.920411E+01 +4.411410E+00 +1.335418E+03 
 +5.983946E+02 +3.823631E+01 -1.181857E+01 +3.823631E+01 +6.122566E+02 -3.322884E+00 -1.181857E+01 -3.322884E+00 +1.297054E+03 
 +6.911935E+02 +2.216046E+00 +8.008968E+00 +2.216046E+00 +6.209971E+02 -1.756554E+01 +8.008968E+00 -1.756554E+01 +1.289555E+03 
 +5.854533E+02 +4.354129E+01 +1.463426E+01 +4.354129E+01 +6.379366E+02 -2.285686E+01 +1.463426E+01 -2.285686E+01 +1.305420E+03 
 +6.402288E+02 +1.660386E+01 -2.200746E+01 +1.660386E+01 +6.623333E+02 -7.693053E+00 -2.200746E+01 -7.693053E+00 +1.332835E+03 
 +5.456131E+02 +6.948989E+00 +7.528748E+00 +6.948989E+00 +5.852361E+02 -1.124280E+01 +7.528748E+00 -1.124280E+01 +1.406321E+03 
 +6.002749E+02 -1.899302E+01 -2.293566E+00 -1.899302E+01 +5.242454E+02 +2.040580E+01 -2.293566E+00 +2.040580E+01 +1.308494E+03 
 +6.325576E+02 +1.165816E+01 +9.323469E+00 +1.165816E+01 +6.216971E+02 +1.007909E+01 +9.323469E+00 +1.007909E+01 +1.465779E+03 
 +6.011949E+02 +3.408928E+01 -1.281525E+00 +3.408928E+01 +6.194849E+02 -1.262846E+01 -1.281525E+00 -1.262846E+01 +1.304378E+03 
 +6.293281E+02 +1.705146E+01 -3.019094E+01 +1.705146E+01 +5.654457E+02 +2.090591E+01 -3.019094E+01 +2.090591E+01 +1.302245E+03 
 +6.133827E+02 +3.679844E+00 -1.029008E+01 +3.679844E+00 +5.765419E+02 +2.947989E+01 -1.029008E+01 +2.947989E+01 +1.371319E+03 
 +6.099988E+02 -6.738260E+00 +1.613080E+01 -6.738260E+00 +6.170737E+02 +1.565985E+01 +1.613080E+01 +1.565985E+01 +1.442090E+03 
 +6.402940E+02 +2.758312E+01 -8.522091E+00 +2.758312E+01 +6.139092E+02 +1.218176E+01 -8.522091E+00 +1.218176E+01 +1.313034E+03 
 +6.274806E+02 +2.809068E+01 +7.013579E+00 +2.809068E+01 +5.940539E+02 +2.513320E+01 +7.013579E+00 +2.513320E+01 +1.397144E+03 
 +5.823924E+02 -3.523471E+01 -2.023743E+01 -3.523471E+01 +6.060642E+02 +5.133252E+00 -2.023743E+01 +5.133252E+00 +1.307457E+03 
 +6.210200E+02 -1.794661E+01 +3.842490E+00 -1.794661E+01 +6.256110E+02 -4.900263E+01 +3.842490E+00 -4.900263E+01 +1.361215E+03 
 +5.861029E+02 +3.805696E+01 +6.786003E+00 +3.805696E+01 +6.227607E+02 -2.156053E-01 +6.786003E+00 -2.156053E-01 +1.281179E+03 
 +6.814655E+02 +1.547699E+00 -7.827318E+00 +1.547699E+00 +7.281357E+02 -1.311691E+01 -7.827318E+00 -1.311691E+01 +1.368710E+03 
 +5.779258E+02 +2.026697E+01 +8.049039E-01 +2.026697E+01 +6.576948E+02 +4.117049E+00 +8.049039E-01 +4.117049E+00 +1.312338E+03 
 +6.082127E+02 -1.166100E+01 -1.133547E+01 -1.166100E+01 +6.062616E+02 -5.370429E+00 -1.133547E+01 -5.370429E+00 +1.446346E+03 
 +6.088801E+02 -3.638329E+01 +2.354117E+01 -3.638329E+01 +5.875060E+02 -1.314909E+00 +2.354117E+01 -1.314909E+00 +1.295614E+03 
 +5.734391E+02 -2.475555E+00 -2.363158E+01 -2.475555E+00 +5.736079E+02 -1.157365E+01 -2.363158E+01 -1.157365E+01 +1.306630E+03 
 +5.813088E+02 -1.645370E+01 +3.385832E+01 -1.645370E+01 +6.256151E+02 +1.659225E+01 +3.385832E+01 +1.659225E+01 +1.309065E+03 
 +6.489463E+02 -2.229118E+01 +3.826142E-01 -2.229118E+01 +5.966581E+02 -1.214408E+01 +3.826142E-01 -1.214408E+01 +1.295180E+03 
 +6.131479E+02 -1.638361E+01 +2.366400E+01 -1.638361E+01 +6.081070E+02 +2.741272E+01 +2.366400E+01 +2.741272E+01 +1.309597E+03 
 +6.198859E+02 +1.138234E+01 -1.795233E+01 +1.138234E+01 +6.383983E+02 +1.126214E+00 -1.795233E+01 +1.126214E+00 +1.397093E+03 
 +7.069754E+02 -4.285164E+01 +1.274739E+00 -4.285164E+01 +6.354141E+02 +1.511834E+01 +1.274739E+00 +1.511834E+01 +1.360726E+03 
 +5.561516E+02 -3.459214E+00 +5.269076E+00 -3.459214E+00 +6.126907E+02 -5.018153E+00 +5.269076E+00 -5.018153E+00 +1.317897E+03 
 +5.939854E+02 -1.308708E+01 -1.965927E+00 -1.308708E+01 +5.873511E+02 -1.648204E+01 -1.965927E+00 -1.648204E+01 +1.465039E+03 
 +5.819838E+02 -4.230510E+01 -7.347219E+00 -4.230510E+01 +6.494551E+02 -2.125353E+00 -7.347219E+00 -2.125353E+00 +1.281876E+03 
 +6.213621E+02 -1.155586E+01 +1.178620E+01 -1.155586E+01 +6.043191E+02 -3.992097E+00 +1.178620E+01 -3.992097E+00 +1.298728E+03 
 +6.238243E+02 -1.896602E+01 -1.840840E+01 -1.896602E+01 +6.003988E+02 -7.693575E+00 -1.840840E+01 -7.693575E+00 +1.413969E+03 
 +6.866699E+02 +3.841374E+00 -3.027074E+00 +3.841374E+00 +5.557282E+02 -4.200146E+00 -3.027074E+00 -4.200146E+00 +1.308272E+03 
 +6.057764E+02 -2.490061E+01 +1.472876E+01 -2.490061E+01 +5.685016E+02 +2.533428E+01 +1.472876E+01 +2.533428E+01 +1.309444E+03 
 +5.794109E+02 +1.178784E+01 -3.130775E+01 +1.178784E+01 +5.709158E+02 +7.492068E+00 -3.130775E+01 +7.492068E+00 +1.387607E+03 
 +6.642183E+02 +3.072749E+01 -2.276179E+01 +3.072749E+01 +5.970175E+02 -1.358157E+01 -2.276179E+01 -1.358157E+01 +1.316576E+03 
 +5.866830E+02 +4.747844E+01 -1.649203E+01 +4.747844E+01 +6.404387E+02 -1.709875E+01 -1.649203E+01 -1.709875E+01 +1.337420E+03 
 +5.475253E+02 +2.765475E+01 -2.188076E+01 +2.765475E+01 +6.017880E+02 +7.187684E+00 -2.188076E+01 +7.187684E+00 +1.415643E+03 
 +5.629010E+02 -3.887048E+01 +6.181696E+00 -3.887048E+01 +6.153234E+02 -5.085216E+00 +6.181696E+00 -5.085216E+00 +1.263261E+03 
 +5.588466E+02 +3.743842E+01 +4.741671E+00 +3.743842E+01 +6.652115E+02 +8.790256E+00 +4.741671E+00 +8.790256E+00 +1.303986E+03 
 +6.325881E+02 +5.745237E+01 -9.505456E+00 +5.745237E+01 +6.319706E+02 -4.211810E+00 -9.505456E+00 -4.211810E+00 +1.318604E+03 
 +5.550865E+02 +3.455526E+01 -1.411008E+01 +3.455526E+01 +6.568500E+02 +5.892112E+00 -1.411008E+01 +5.892112E+00 +1.328807E+03 
 +6.938047E+02 -2.142840E+01 +1.839995E+01 -2.142840E+01 +6.186744E+02 -2.191845E+01 +1.839995E+01 -2.191845E+01 +1.336465E+03 
 +5.662395E+02 -3.141431E+00 -5.920943E+00 -3.141431E+00 +5.614255E+02 +3.880990E-01 -5.920943E+00 +3.880990E-01 +1.397793E+03 
 +6.314156E+02 -1.856458E+00 -1.531114E+01 -1.856458E+00 +6.017636E+02 -5.797285E+00 -1.531114E+01 -5.797285E+00 +1.492498E+03 
 +6.368958E+02 +1.365119E+01 -2.492299E+01 +1.365119E+01 +6.498845E+02 +3.987578E+00 -2.492299E+01 +3.987578E+00 +1.391630E+03 
 +5.900615E+02 +2.150957E+01 +2.586959E+00 +2.150957E+01 +6.968317E+02 -1.313234E+01 +2.586959E+00 -1.313234E+01 +1.300553E+03 
 +5.858953E+02 -1.508064E+01 -6.160291E+00 -1.508064E+01 +6.437094E+02 +2.790076E+00 -6.160291E+00 +2.790076E+00 +1.326184E+03 
 +5.948209E+02 +7.473564E+00 +1.235003E+01 +7.473564E+00 +6.875021E+02 +5.238770E+00 +1.235003E+01 +5.238770E+00 +1.386805E+03 
 +6.647785E+02 +1.193158E+01 +3.059284E+00 +1.193158E+01 +7.494379E+02 -8.434284E+00 +3.059284E+00 -8.434284E+00 +1.343240E+03 
 +6.854014E+02 -2.669378E+00 -1.027896E+00 -2.669378E+00 +6.765822E+02 -2.397808E+01 -1.027896E+00 -2.397808E+01 +1.448264E+03 
 +5.510175E+02 +3.291507E-01 -1.151982E+01 +3.291507E-01 +6.642062E+02 -2.939974E+00 -1.151982E+01 -2.939974E+00 +1.262643E+03 
 +6.231041E+02 -1.337317E+01 +3.226885E+01 -1.337317E+01 +6.040707E+02 -1.082247E+01 +3.226885E+01 -1.082247E+01 +1.367897E+03 
 +6.068602E+02 -8.410696E+00 +2.629087E+00 -8.410696E+00 +5.714694E+02 +2.423527E+01 +2.629087E+00 +2.423527E+01 +1.427075E+03 
 +5.412513E+02 -1.317869E+01 -9.599598E-02 -1.317869E+01 +5.101099E+02 -8.420943E+00 -9.599598E-02 -8.420943E+00 +1.341970E+03 
 +6.120836E+02 +2.701963E+00 -1.123867E+01 +2.701963E+00 +6.421274E+02 +8.545402E+00 -1.123867E+01 +8.545402E+00 +1.382678E+03 
 +6.046398E+02 +1.645116E+01 +1.364711E+01 +1.645116E+01 +6.703016E+02 +9.025200E+00 +1.364711E+01 +9.025200E+00 +1.272726E+03 
 +5.790937E+02 +3.928454E+01 +3.788041E+00 +3.928454E+01 +6.278561E+02 -1.296276E+01 +3.788041E+00 -1.296276E+01 +1.331877E+03 
 +6.365907E+02 -3.291222E+01 +2.646826E+01 -3.291222E+01 +6.769326E+02 -5.246872E-01 +2.646826E+01 -5.246872E-01 +1.347370E+03 
 +5.526497E+02 -1.506551E+01 -1.164176E+00 -1.506551E+01 +6.599376E+02 -1.432736E+00 -1.164176E+00 -1.432736E+00 +1.293796E+03 
 +6.024727E+02 -1.657644E+01 -1.163301E+01 -1.657644E+01 +5.948012E+02 -3.494293E+01 -1.163301E+01 -3.494293E+01 +1.356814E+03 
 +6.844507E+02 -6.280159E+01 +5.883897E+00 -6.280159E+01 +5.722888E+02 +7.754959E+00 +5.883897E+00 +7.754959E+00 +1.333210E+03 
 +5.524007E+02 -1.835116E+01 +2.244980E+01 -1.835116E+01 +5.921649E+02 -1.350105E+01 +2.244980E+01 -1.350105E+01 +1.381675E+03 
 +6.142162E+02 +1.051015E+01 -2.252883E+01 +1.051015E+01 +5.915167E+02 -2.682307E+01 -2.252883E+01 -2.682307E+01 +1.279418E+03 
 +6.355441E+02 -1.158523E+00 +1.283047E+01 -1.158523E+00 +7.095439E+02 -4.979715E+00 +1.283047E+01 -4.979715E+00 +1.382368E+03 
 +6.911743E+02 -2.198277E+01 +1.521413E+01 -2.198277E+01 +6.844511E+02 +1.130625E+01 +1.521413E+01 +1.130625E+01 +1.400772E+03 
 +4.937344E+02 -1.446039E+01 +1.338435E+01 -1.446039E+01 +5.347739E+02 +4.515739E+00 +1.338435E+01 +4.515739E+00 +1.339417E+03 
 +6.456223E+02 +1.603640E+01 +3.193455E+00 +1.603640E+01 +6.107893E+02 -8.771680E+00 +3.193455E+00 -8.771680E+00 +1.302134E+03 
 +5.498605E+02 +4.006625E+00 +4.930908E+00 +4.006625E+00 +6.701943E+02 -1.146562E+00 +4.930908E+00 -1.146562E+00 +1.255883E+03 
 +6.022066E+02 -9.008085E+00 -1.887797E+01 -9.008085E+00 +6.334700E+02 -6.615685E+00 -1.887797E+01 -6.615685E+00 +1.375728E+03 
 +5.675466E+02 -1.705107E+01 +2.379660E+01 -1.705107E+01 +6.640458E+02 -5.636078E+00 +2.379660E+01 -5.636078E+00 +1.311373E+03 
 +5.888910E+02 +1.678980E+01 -1.480961E+01 +1.678980E+01 +6.726379E+02 -6.744517E+00 -1.480961E+01 -6.744517E+00 +1.378276E+03 
 +6.092460E+02 -1.368872E+01 +1.208467E+01 -1.368872E+01 +6.498578E+02 -4.973249E+00 +1.208467E+01 -4.973249E+00 +1.265210E+03 
 +6.161621E+02 +7.411421E+00 -5.579699E+00 +7.411421E+00 +6.404475E+02 +1.746288E+01 -5.579699E+00 +1.746288E+01 +1.463924E+03 
 +5.658746E+02 +3.178177E+01 -1.219410E+01 +3.178177E+01 +6.515132E+02 -2.044307E+01 -1.219410E+01 -2.044307E+01 +1.334863E+03 
 +5.925804E+02 +3.262852E+01 -1.811443E+01 +3.262852E+01 +6.213501E+02 -7.492781E+00 -1.811443E+01 -7.492781E+00 +1.353455E+03 
 +6.733118E+02 +3.350968E+01 -2.366200E+01 +3.350968E+01 +6.010903E+02 -1.643505E+01 -2.366200E+01 -1.643505E+01 +1.311409E+03 
 +5.909031E+02 -3.624763E+01 -3.696201E+01 -3.624763E+01 +6.561106E+02 +7.221620E+00 -3.696201E+01 +7.221620E+00 +1.290533E+03 
 +6.141652E+02 -4.972389E+00 +2.729965E+00 -4.972389E+00 +6.358347E+02 +1.283021E+01 +2.729965E+00 +1.283021E+01 +1.374833E+03 
 +5.537595E+02 +6.463190E+01 -4.924824E+00 +6.463190E+01 +6.041365E+02 +1.198349E+01 -4.924824E+00 +1.198349E+01 +1.266909E+03 
 +7.158437E+02 -7.797664E+00 +2.953551E+00 -7.797664E+00 +6.482444E+02 +8.791338E+00 +2.953551E+00 +8.791338E+00 +1.403706E+03 
 +6.396597E+02 +2.389726E+01 -2.175169E+01 +2.389726E+01 +6.168559E+02 +2.612497E+01 -2.175169E+01 +2.612497E+01 +1.411145E+03 
 +5.911625E+02 -1.772065E+01 +2.031889E+01 -1.772065E+01 +5.683564E+02 +1.296289E+00 +2.031889E+01 +1.296289E+00 +1.324627E+03 
 +5.877850E+02 +6.460330E+00 -1.380314E+01 +6.460330E+00 +5.973724E+02 -2.083532E+01 -1.380314E+01 -2.083532E+01 +1.384912E+03 
 +5.943939E+02 -2.731314E+00 -1.082865E+01 -2.731314E+00 +6.408384E+02 -1.756534E+01 -1.082865E+01 -1.756534E+01 +1.294549E+03 
 +6.291860E+02 -1.349528E+00 +3.918494E+00 -1.349528E+00 +6.180430E+02 +1.956335E+00 +3.918494E+00 +1.956335E+00 +1.366970E+03 
 +5.541827E+02 -1.516372E+01 -4.320042E-01 -1.516372E+01 +5.796810E+02 +9.083707E+00 -4.320042E-01 +9.083707E+00 +1.393145E+03 
 +7.119559E+02 -1.902108E+01 -1.699511E+01 -1.902108E+01 +6.576503E+02 +7.478328E+00 -1.699511E+01 +7.478328E+00 +1.374606E+03 
 +5.372346E+02 +3.272976E+01 -2.942033E+01 +3.272976E+01 +6.309075E+02 -1.131268E+01 -2.942033E+01 -1.131268E+01 +1.246017E+03 
 +6.009363E+02 -1.436872E+00 +1.271042E+01 -1.436872E+00 +5.928526E+02 -8.764282E+00 +1.271042E+01 -8.764282E+00 +1.329125E+03 
 +6.026581E+02 -1.031393E+01 +1.171464E+01 -1.031393E+01 +5.954969E+02 -4.327893E+00 +1.171464E+01 -4.327893E+00 +1.416738E+03 
 +5.599652E+02 -1.222025E+01 -2.987425E+01 -1.222025E+01 +5.355891E+02 -3.862074E+01 -2.987425E+01 -3.862074E+01 +1.376187E+03 
 +6.542607E+02 -2.298538E+00 -6.071901E+00 -2.298538E+00 +6.146692E+02 -1.759565E+01 -6.071901E+00 -1.759565E+01 +1.358781E+03 
 +6.268091E+02 -7.933959E+00 -2.093663E+01 -7.933959E+00 +7.066204E+02 -8.049935E+00 -2.093663E+01 -8.049935E+00 +1.391280E+03 
 +6.466724E+02 +8.008302E+01 -2.100287E+01 +8.008302E+01 +6.632113E+02 +6.662477E+00 -2.100287E+01 +6.662477E+00 +1.346216E+03 
 +6.239145E+02 +3.043542E+01 -3.090804E+01 +3.043542E+01 +6.523656E+02 +2.367716E+01 -3.090804E+01 +2.367716E+01 +1.349128E+03 
 +6.556147E+02 -3.490801E+01 -1.488973E+01 -3.490801E+01 +5.202823E+02 -2.127298E+00 -1.488973E+01 -2.127298E+00 +1.299330E+03 
 +5.395264E+02 -3.112400E+01 +1.787155E+01 -3.112400E+01 +5.248376E+02 +3.786908E+00 +1.787155E+01 +3.786908E+00 +1.412012E+03 
 +6.700412E+02 +2.909965E+01 -6.489950E+00 +2.909965E+01 +6.077584E+02 -3.534292E+00 -6.489950E+00 -3.534292E+00 +1.278756E+03 
 +5.788275E+02 -4.732738E+00 -8.666264E-02 -4.732738E+00 +6.149542E+02 -8.211895E+00 -8.666264E-02 -8.211895E+00 +1.383318E+03 
 +6.293553E+02 -4.325963E+01 -1.916504E+01 -4.325963E+01 +6.804009E+02 +1.000288E+01 -1.916504E+01 +1.000288E+01 +1.326715E+03 
 +5.484088E+02 +7.594415E+00 -1.676575E+01 +7.594415E+00 +5.915533E+02 +7.817714E+00 -1.676575E+01 +7.817714E+00 +1.410628E+03 
 +6.327114E+02 -6.068269E+00 -4.245445E+00 -6.068269E+00 +5.737599E+02 +2.933855E+01 -4.245445E+00 +2.933855E+01 +1.365954E+03 
 +7.299706E+02 -2.263639E+01 -2.957616E+01 -2.263639E+01 +6.732666E+02 +5.541512E+00 -2.957616E+01 +5.541512E+00 +1.422142E+03 
 +5.506093E+02 -2.187193E+01 +9.763947E+00 -2.187193E+01 +6.657958E+02 -7.052894E+00 +9.763947E+00 -7.052894E+00 +1.305769E+03 
 +6.547534E+02 -1.261665E+01 -9.358872E+00 -1.261665E+01 +6.540310E+02 +2.518621E+01 -9.358872E+00 +2.518621E+01 +1.311078E+03 
 +6.343350E+02 +3.011949E+01 -2.601614E+01 +3.011949E+01 +6.519166E+02 +1.603719E+00 -2.601614E+01 +1.603719E+00 +1.363216E+03 
 +6.747632E+02 +9.121515E+00 -1.798893E+00 +9.121515E+00 +6.331268E+02 -3.396997E+01 -1.798893E+00 -3.396997E+01 +1.337464E+03 
 +5.963467E+02 -2.176283E+01 -1.005363E+01 -2.176283E+01 +5.823009E+02 -4.507605E+00 -1.005363E+01 -4.507605E+00 +1.442044E+03 
 +5.822617E+02 -2.525093E+01 -1.360911E+01 -2.525093E+01 +4.936652E+02 -7.773303E+00 -1.360911E+01 -7.773303E+00 +1.263709E+03 
 +7.024040E+02 -3.010931E+01 -5.721352E+00 -3.010931E+01 +5.731782E+02 -2.327624E+01 -5.721352E+00 -2.327624E+01 +1.369061E+03 
 +6.318740E+02 +1.043533E+01 +2.808516E+01 +1.043533E+01 +6.471515E+02 -2.529451E+01 +2.808516E+01 -2.529451E+01 +1.390596E+03 
 +6.520421E+02 +5.453305E+01 +7.728832E+00 +5.453305E+01 +6.033920E+02 +7.489781E+00 +7.728832E+00 +7.489781E+00 +1.323730E+03 
 +5.840324E+02 +1.317414E+01 +2.149087E+01 +1.317414E+01 +5.676145E+02 -1.675831E+01 +2.149087E+01 -1.675831E+01 +1.448524E+03 
 +5.498436E+02 -1.252088E+00 -2.959012E+01 -1.252088E+00 +5.324147E+02 -3.484069E+01 -2.959012E+01 -3.484069E+01 +1.349622E+03 
 +6.439852E+02 -3.133251E+01 -1.396348E+01 -3.133251E+01 +5.367724E+02 +1.931011E+01 -1.396348E+01 +1.931011E+01 +1.288104E+03 
 +5.696542E+02 -1.780308E+01 -8.175630E+00 -1.780308E+01 +5.632808E+02 +1.153950E+01 -8.175630E+00 +1.153950E+01 +1.416975E+03 
 +5.630430E+02 -8.025190E+00 -6.131512E+00 -8.025190E+00 +6.043643E+02 -4.406315E+00 -6.131512E+00 -4.406315E+00 +1.429054E+03 
 +5.938680E+02 +3.586895E+01 +9.705490E+00 +3.586895E+01 +6.799373E+02 -5.810085E+00 +9.705490E+00 -5.810085E+00 +1.310578E+03 
 +5.777669E+02 +2.067707E+01 +1.355864E+01 +2.067707E+01 +6.923023E+02 +5.741626E+00 +1.355864E+01 +5.741626E+00 +1.280348E+03 
 +6.376819E+02 +3.280536E+01 +9.847021E+00 +3.280536E+01 +6.416696E+02 +9.163411E+00 +9.847021E+00 +9.163411E+00 +1.365745E+03 
 +6.382077E+02 +3.172450E+01 +7.117067E+00 +3.172450E+01 +6.001290E+02 +5.723585E+00 +7.117067E+00 +5.723585E+00 +1.411649E+03 
 +5.816440E+02 -8.494922E+00 +5.563987E+00 -8.494922E+00 +5.641102E+02 -1.114137E+01 +5.563987E+00 -1.114137E+01 +1.335161E+03 
 +5.433923E+02 +3.851874E+00 -6.561217E+00 +3.851874E+00 +5.524982E+02 -2.698348E+01 -6.561217E+00 -2.698348E+01 +1.378097E+03 
 +6.032973E+02 +9.458185E+00 +4.487867E+00 +9.458185E+00 +6.465861E+02 -2.621554E+01 +4.487867E+00 -2.621554E+01 +1.362656E+03 
 +6.025605E+02 -2.315608E+01 +1.238142E+01 -2.315608E+01 +6.138980E+02 +4.715737E+00 +1.238142E+01 +4.715737E+00 +1.388004E+03 
 +5.548145E+02 +3.229382E+01 -2.284380E+01 +3.229382E+01 +5.292924E+02 -1.418836E+01 -2.284380E+01 -1.418836E+01 +1.313007E+03 
 +5.097383E+02 -2.244221E+01 +1.447339E+01 -2.244221E+01 +5.124078E+02 -5.402415E+00 +1.447339E+01 -5.402415E+00 +1.346206E+03 
 +5.698820E+02 -7.532969E+00 -3.548716E+01 -7.532969E+00 +6.010215E+02 -3.293436E+00 -3.548716E+01 -3.293436E+00 +1.343557E+03 
 +6.002228E+02 +4.412819E+01 +7.630233E-01 +4.412819E+01 +6.550236E+02 +6.408720E+00 +7.630233E-01 +6.408720E+00 +1.334149E+03 
 +6.609502E+02 +3.694505E+01 +7.739396E+00 +3.694505E+01 +6.313828E+02 +1.385089E+01 +7.739396E+00 +1.385089E+01 +1.344538E+03 
 +6.811417E+02 +5.436169E+00 +1.504658E+01 +5.436169E+00 +5.639980E+02 +7.056431E-01 +1.504658E+01 +7.056431E-01 +1.327131E+03 
 +5.549686E+02 -2.963237E+01 +1.114444E+01 -2.963237E+01 +5.847871E+02 -7.850490E+00 +1.114444E+01 -7.850490E+00 +1.299819E+03 
 +5.511620E+02 -2.680414E+01 -2.544294E+01 -2.680414E+01 +5.741201E+02 +1.706404E+01 -2.544294E+01 +1.706404E+01 +1.344811E+03 
 +6.113354E+02 -3.347291E+00 +1.708478E+01 -3.347291E+00 +5.869244E+02 -2.626192E+00 +1.708478E+01 -2.626192E+00 +1.460790E+03 
 +6.463209E+02 -6.654285E+00 +2.054370E+01 -6.654285E+00 +5.839717E+02 +2.831405E+01 +2.054370E+01 +2.831405E+01 +1.369136E+03 
 +5.673755E+02 +3.608445E+01 +4.168592E+01 +3.608445E+01 +5.449030E+02 -2.664530E+01 +4.168592E+01 -2.664530E+01 +1.331253E+03 
 +6.184387E+02 -7.066977E+00 +6.250107E+00 -7.066977E+00 +5.961135E+02 -4.177672E+01 +6.250107E+00 -4.177672E+01 +1.440450E+03 
 +5.953581E+02 +8.912823E+00 -4.388025E+01 +8.912823E+00 +6.146832E+02 -1.247232E+01 -4.388025E+01 -1.247232E+01 +1.408483E+03 
 +6.065400E+02 +5.632097E+00 -4.963638E+00 +5.632097E+00 +5.630319E+02 +2.055895E+01 -4.963638E+00 +2.055895E+01 +1.276964E+03 
 +6.358990E+02 -7.494187E+00 +2.442631E+01 -7.494187E+00 +5.664066E+02 +3.683500E+00 +2.442631E+01 +3.683500E+00 +1.268110E+03 
 +6.039197E+02 -3.034446E+01 -3.710238E+00 -3.034446E+01 +6.536602E+02 +2.526664E+01 -3.710238E+00 +2.526664E+01 +1.320923E+03 
 +5.984809E+02 -1.488310E+01 -1.324786E+01 -1.488310E+01 +7.026468E+02 -1.138490E+01 -1.324786E+01 -1.138490E+01 +1.349518E+03 
 +6.088145E+02 +3.906027E+01 +3.994939E+01 +3.906027E+01 +6.152396E+02 -2.587582E+01 +3.994939E+01 -2.587582E+01 +1.359041E+03 
 +6.067621E+02 -2.115489E+01 +8.097297E+00 -2.115489E+01 +5.804730E+02 -1.278038E+00 +8.097297E+00 -1.278038E+00 +1.391635E+03 
 +5.667672E+02 -1.333359E+01 +1.062084E+01 -1.333359E+01 +5.608854E+02 +5.462972E+00 +1.062084E+01 +5.462972E+00 +1.347897E+03 
 +7.013441E+02 +3.854830E+01 -2.644466E+00 +3.854830E+01 +6.374651E+02 -4.415766E+00 -2.644466E+00 -4.415766E+00 +1.374282E+03 
 +5.793585E+02 -4.963666E-01 -2.253734E+01 -4.963666E-01 +7.073911E+02 +6.501355E+00 -2.253734E+01 +6.501355E+00 +1.358798E+03 
 +6.634135E+02 +2.479434E+01 +1.596457E+01 +2.479434E+01 +6.652937E+02 -1.199380E+01 +1.596457E+01 -1.199380E+01 +1.329667E+03 
 +6.935433E+02 +6.045378E+00 +3.354342E+00 +6.045378E+00 +6.333388E+02 -4.448177E+00 +3.354342E+00 -4.448177E+00 +1.392915E+03 
 +5.298126E+02 +1.177833E+01 -1.285561E+01 +1.177833E+01 +6.028177E+02 +1.839783E+01 -1.285561E+01 +1.839783E+01 +1.283412E+03 
 +6.211518E+02 -3.495435E+01 -4.338730E+00 -3.495435E+01 +6.305236E+02 +1.099245E+01 -4.338730E+00 +1.099245E+01 +1.388105E+03 
 +5.765311E+02 +8.656985E+00 +1.439888E+01 +8.656985E+00 +6.198736E+02 -4.996095E+00 +1.439888E+01 -4.996095E+00 +1.377296E+03 
 +5.919207E+02 +5.300827E+01 -8.768736E+00 +5.300827E+01 +6.406119E+02 +6.351915E+00 -8.768736E+00 +6.351915E+00 +1.314197E+03 
 +7.276300E+02 +2.050084E+01 -1.955640E+01 +2.050084E+01 +6.832800E+02 +4.819885E+00 -1.955640E+01 +4.819885E+00 +1.423906E+03 
 +5.737280E+02 +5.584692E+00 -2.643532E+00 +5.584692E+00 +6.012689E+02 -9.948287E+00 -2.643532E+00 -9.948287E+00 +1.421793E+03 
 +6.368439E+02 -3.543051E+01 +3.272342E+01 -3.543051E+01 +6.443068E+02 -9.457809E+00 +3.272342E+01 -9.457809E+00 +1.379705E+03 
 +6.001562E+02 -2.518463E+01 -1.938679E+01 -2.518463E+01 +6.245493E+02 -1.328958E+01 -1.938679E+01 -1.328958E+01 +1.376417E+03 
 +6.168208E+02 +1.013641E+01 +2.797027E+01 +1.013641E+01 +6.025422E+02 -2.543535E+01 +2.797027E+01 -2.543535E+01 +1.373719E+03 
 +6.073876E+02 -1.514926E+01 +1.288864E+01 -1.514926E+01 +6.272108E+02 +1.114782E+01 +1.288864E+01 +1.114782E+01 +1.304875E+03 
 +6.683965E+02 +2.604913E-01 +2.137891E+01 +2.604913E-01 +6.196391E+02 +2.679829E+01 +2.137891E+01 +2.679829E+01 +1.326478E+03 
 +5.550507E+02 -9.853489E+00 -2.487202E+01 -9.853489E+00 +6.722871E+02 +1.125357E+01 -2.487202E+01 +1.125357E+01 +1.337845E+03 
 +6.721118E+02 -1.786570E+01 -2.769067E+01 -1.786570E+01 +6.500761E+02 -1.344864E-01 -2.769067E+01 -1.344864E-01 +1.296520E+03 
 +6.183733E+02 +2.029483E+01 -9.396811E+00 +2.029483E+01 +5.804847E+02 -8.418598E+00 -9.396811E+00 -8.418598E+00 +1.342585E+03 
 +6.021448E+02 +9.445364E+00 -3.672573E+01 +9.445364E+00 +5.922007E+02 +1.398665E+01 -3.672573E+01 +1.398665E+01 +1.348023E+03 
 +5.835438E+02 +4.362239E+00 +2.066201E+01 +4.362239E+00 +5.847937E+02 +1.754016E+01 +2.066201E+01 +1.754016E+01 +1.408226E+03 
 +6.640671E+02 +3.838909E+01 -1.228920E+01 +3.838909E+01 +6.640441E+02 +1.813509E+01 -1.228920E+01 +1.813509E+01 +1.359657E+03 
 +5.759749E+02 +2.066185E+01 +1.662654E+01 +2.066185E+01 +6.225047E+02 -2.422796E+00 +1.662654E+01 -2.422796E+00 +1.352230E+03 
 +6.366954E+02 +1.095075E+01 +1.434295E+01 +1.095075E+01 +6.542533E+02 +7.083027E+00 +1.434295E+01 +7.083027E+00 +1.345793E+03 
 +6.707935E+02 -3.088820E+01 -1.861908E+01 -3.088820E+01 +7.066274E+02 -4.035233E+00 -1.861908E+01 -4.035233E+00 +1.362747E+03 
 +6.010503E+02 -1.035599E+01 +2.374476E+01 -1.035599E+01 +6.099051E+02 -1.431829E+01 +2.374476E+01 -1.431829E+01 +1.390173E+03 
 +5.717444E+02 -7.485135E+00 -1.610389E+00 -7.485135E+00 +5.437672E+02 +4.815887E+00 -1.610389E+00 +4.815887E+00 +1.413335E+03 
 +6.619854E+02 -7.114326E+00 -2.118041E+00 -7.114326E+00 +6.113049E+02 -9.792778E+00 -2.118041E+00 -9.792778E+00 +1.329516E+03 
 +5.710727E+02 -7.899258E+00 -2.450493E+01 -7.899258E+00 +5.937435E+02 -1.307920E+01 -2.450493E+01 -1.307920E+01 +1.434612E+03 
 +5.862763E+02 -1.237587E+01 -1.827316E+01 -1.237587E+01 +5.685319E+02 +2.713692E+01 -1.827316E+01 +2.713692E+01 +1.298475E+03 
 +5.481415E+02 -1.854904E+01 -1.420423E+01 -1.854904E+01 +5.537534E+02 +3.325326E+01 -1.420423E+01 +3.325326E+01 +1.418069E+03 
 +5.361308E+02 -8.488121E+00 -5.796486E+00 -8.488121E+00 +5.942166E+02 -1.700283E+00 -5.796486E+00 -1.700283E+00 +1.331340E+03 
 +6.535665E+02 +1.545282E-01 -6.193554E+00 +1.545282E-01 +6.494125E+02 -5.097984E+00 -6.193554E+00 -5.097984E+00 +1.385042E+03 
 +6.468353E+02 +3.556390E-01 +2.499549E+00 +3.556390E-01 +6.008183E+02 +8.308323E+00 +2.499549E+00 +8.308323E+00 +1.387418E+03 
 +6.120268E+02 +1.658531E+01 -2.291958E+01 +1.658531E+01 +5.750019E+02 +4.851078E+00 -2.291958E+01 +4.851078E+00 +1.298963E+03 
 +6.666415E+02 +2.148227E+01 +1.962485E+01 +2.148227E+01 +6.015724E+02 +2.300753E+01 +1.962485E+01 +2.300753E+01 +1.320298E+03 
 +6.630057E+02 +3.265834E+01 +1.403643E+01 +3.265834E+01 +5.753444E+02 +5.868031E+00 +1.403643E+01 +5.868031E+00 +1.319867E+03 
 +6.682697E+02 +4.946608E+01 -1.926202E+01 +4.946608E+01 +5.781672E+02 -1.146247E+01 -1.926202E+01 -1.146247E+01 +1.289327E+03 
 +5.717665E+02 -1.784019E+01 -1.639602E+00 -1.784019E+01 +6.211536E+02 +1.239976E+01 -1.639602E+00 +1.239976E+01 +1.266967E+03 
 +5.735465E+02 -1.001038E+01 +3.845687E+01 -1.001038E+01 +5.770755E+02 +1.288200E+01 +3.845687E+01 +1.288200E+01 +1.390367E+03 
 +5.961301E+02 -1.494831E+01 -3.243490E+01 -1.494831E+01 +5.826526E+02 -1.374292E+01 -3.243490E+01 -1.374292E+01 +1.391464E+03 
 +5.970898E+02 -2.772252E+01 -1.917139E+01 -2.772252E+01 +6.078109E+02 -1.278944E+01 -1.917139E+01 -1.278944E+01 +1.339107E+03 
 +5.951147E+02 -7.590616E-01 -1.629353E+01 -7.590616E-01 +5.747397E+02 -6.847586E+00 -1.629353E+01 -6.847586E+00 +1.385703E+03 
 +6.161827E+02 +1.198159E+01 -2.067972E+01 +1.198159E+01 +5.971452E+02 +9.302347E+00 -2.067972E+01 +9.302347E+00 +1.402053E+03 
 +6.052480E+02 -1.421331E+01 +2.754951E+01 -1.421331E+01 +5.899466E+02 +1.307270E+01 +2.754951E+01 +1.307270E+01 +1.373320E+03 
 +6.380613E+02 +1.480192E+01 +3.524132E+01 +1.480192E+01 +6.086278E+02 +4.676458E+01 +3.524132E+01 +4.676458E+01 +1.393404E+03 
 +5.817042E+02 -1.549050E+01 -1.088822E+01 -1.549050E+01 +5.662789E+02 +1.970384E+00 -1.088822E+01 +1.970384E+00 +1.351447E+03 
 +5.379578E+02 +4.408723E+00 +2.322123E+01 +4.408723E+00 +5.664361E+02 +1.043317E+01 +2.322123E+01 +1.043317E+01 +1.368463E+03 
 +5.562089E+02 +3.417630E+00 +6.143207E+00 +3.417630E+00 +5.660397E+02 -2.158600E+01 +6.143207E+00 -2.158600E+01 +1.360311E+03 
 +5.874053E+02 -1.475063E+01 +5.175979E+00 -1.475063E+01 +5.629461E+02 -7.032783E+00 +5.175979E+00 -7.032783E+00 +1.322331E+03 
 +7.071868E+02 -1.814334E+01 -1.613745E+01 -1.814334E+01 +5.978783E+02 +2.642151E+00 -1.613745E+01 +2.642151E+00 +1.352585E+03 
 +6.961994E+02 +1.431890E+01 -8.324964E+00 +1.431890E+01 +5.651943E+02 -2.225767E+01 -8.324964E+00 -2.225767E+01 +1.338111E+03 
 +5.943962E+02 +2.854645E+01 +2.600587E+00 +2.854645E+01 +5.576854E+02 -4.168274E+00 +2.600587E+00 -4.168274E+00 +1.391397E+03 
 +6.440491E+02 -6.012156E+01 -7.816334E+00 -6.012156E+01 +6.614083E+02 +1.011471E+01 -7.816334E+00 +1.011471E+01 +1.309254E+03 
 +5.917801E+02 -9.517797E+00 +5.921349E+00 -9.517797E+00 +6.093444E+02 +3.268028E+01 +5.921349E+00 +3.268028E+01 +1.422318E+03 
 +6.482101E+02 +1.285919E+01 +2.154561E+01 +1.285919E+01 +5.098070E+02 +6.419756E+00 +2.154561E+01 +6.419756E+00 +1.308706E+03 
 +6.272955E+02 -3.390449E+01 -1.215693E+00 -3.390449E+01 +5.693910E+02 +2.452490E+01 -1.215693E+00 +2.452490E+01 +1.305948E+03 
 +6.413461E+02 +2.147228E+01 +4.565466E-01 +2.147228E+01 +5.979451E+02 +1.991306E+01 +4.565466E-01 +1.991306E+01 +1.311842E+03 
 +5.588784E+02 -1.946427E+01 -1.321245E+01 -1.946427E+01 +6.202479E+02 -8.054317E+00 -1.321245E+01 -8.054317E+00 +1.261272E+03 
 +6.770673E+02 -1.073180E+00 -3.839253E+00 -1.073180E+00 +5.673318E+02 -7.947780E+00 -3.839253E+00 -7.947780E+00 +1.295519E+03 
 +5.683204E+02 +6.777822E+00 +1.354005E+01 +6.777822E+00 +6.147430E+02 -3.235693E+01 +1.354005E+01 -3.235693E+01 +1.426827E+03 
 +5.890036E+02 +2.107420E+00 -2.781866E+01 +2.107420E+00 +6.170197E+02 -1.651015E+01 -2.781866E+01 -1.651015E+01 +1.356820E+03 
 +5.880519E+02 +1.669805E+01 -5.116924E+00 +1.669805E+01 +5.984315E+02 -2.866045E-01 -5.116924E+00 -2.866045E-01 +1.300805E+03 
 +6.238839E+02 -1.528424E+01 -1.463536E+01 -1.528424E+01 +7.123419E+02 +4.553464E+00 -1.463536E+01 +4.553464E+00 +1.392269E+03 
 +5.852076E+02 -1.244675E+01 -1.048468E+01 -1.244675E+01 +6.397615E+02 +1.037559E+01 -1.048468E+01 +1.037559E+01 +1.348320E+03 
 +6.257952E+02 -1.878992E+01 -4.237375E+00 -1.878992E+01 +6.023254E+02 +2.342252E+01 -4.237375E+00 +2.342252E+01 +1.328356E+03 
 +6.157736E+02 -2.693184E+01 +1.611265E+01 -2.693184E+01 +7.321687E+02 +7.549837E-01 +1.611265E+01 +7.549837E-01 +1.363102E+03 
 +6.310225E+02 +1.664142E+01 +1.231801E+01 +1.664142E+01 +7.481213E+02 +9.095114E+00 +1.231801E+01 +9.095114E+00 +1.349987E+03 
 +5.884658E+02 -9.145336E+00 -4.828035E+00 -9.145336E+00 +6.860699E+02 -7.900388E+00 -4.828035E+00 -7.900388E+00 +1.338340E+03 
 +7.085405E+02 +2.723536E+01 -1.099915E-02 +2.723536E+01 +6.260146E+02 -1.701545E+01 -1.099915E-02 -1.701545E+01 +1.372356E+03 
 +6.032172E+02 -9.131495E+00 +1.366154E+01 -9.131495E+00 +6.748409E+02 -1.203317E+01 +1.366154E+01 -1.203317E+01 +1.316578E+03 
 +5.682432E+02 +2.105272E+01 +3.557591E+00 +2.105272E+01 +6.153755E+02 +2.077214E+01 +3.557591E+00 +2.077214E+01 +1.334281E+03 
 +5.436201E+02 -2.042797E+01 -4.966598E+00 -2.042797E+01 +5.686625E+02 -1.655218E+01 -4.966598E+00 -1.655218E+01 +1.368002E+03 
 +6.259972E+02 -2.620930E+01 +4.776905E+00 -2.620930E+01 +6.347936E+02 -4.030812E+01 +4.776905E+00 -4.030812E+01 +1.372134E+03 
 +6.096902E+02 +3.892877E+01 -7.284813E+00 +3.892877E+01 +5.314182E+02 +2.141549E+00 -7.284813E+00 +2.141549E+00 +1.238182E+03 
 +5.867883E+02 -1.598757E+01 -3.928139E+00 -1.598757E+01 +5.599438E+02 -1.531196E+01 -3.928139E+00 -1.531196E+01 +1.440005E+03 
 +6.222336E+02 -1.352838E+01 +4.472615E+01 -1.352838E+01 +6.094700E+02 +1.545956E+01 +4.472615E+01 +1.545956E+01 +1.420507E+03 
 +5.624590E+02 +1.148943E+01 -1.853555E+01 +1.148943E+01 +5.661931E+02 -2.737485E+01 -1.853555E+01 -2.737485E+01 +1.364118E+03 
 +6.217461E+02 -2.180052E+01 +2.295976E+00 -2.180052E+01 +6.419049E+02 -1.925567E+01 +2.295976E+00 -1.925567E+01 +1.306866E+03 
 +5.707457E+02 +1.496269E+01 -1.393418E+01 +1.496269E+01 +6.403423E+02 +7.510000E+00 -1.393418E+01 +7.510000E+00 +1.347529E+03 
 +6.243829E+02 -3.085316E+01 +6.264252E+00 -3.085316E+01 +6.181570E+02 -2.010271E+01 +6.264252E+00 -2.010271E+01 +1.325673E+03 
 +5.611293E+02 -1.228373E+01 -1.958445E+01 -1.228373E+01 +5.612587E+02 -3.455646E+01 -1.958445E+01 -3.455646E+01 +1.383282E+03 
 +5.583904E+02 +2.276368E+01 +2.634441E+01 +2.276368E+01 +5.359395E+02 -6.637832E+00 +2.634441E+01 -6.637832E+00 +1.390903E+03 
 +6.631791E+02 +3.141679E+00 -1.226512E+01 +3.141679E+00 +5.832141E+02 -9.845621E+00 -1.226512E+01 -9.845621E+00 +1.291894E+03 
 +5.683275E+02 -7.809343E+00 +1.351165E+01 -7.809343E+00 +5.985079E+02 -2.191682E+00 +1.351165E+01 -2.191682E+00 +1.408850E+03 
 +6.344681E+02 +1.744083E+00 -4.113693E+00 +1.744083E+00 +5.922006E+02 +9.633542E+00 -4.113693E+00 +9.633542E+00 +1.351599E+03 
 +5.909058E+02 +2.757401E+01 +5.606339E+00 +2.757401E+01 +6.057959E+02 +8.487366E+00 +5.606339E+00 +8.487366E+00 +1.268851E+03 
 +5.982927E+02 -5.686188E+00 -1.903411E+01 -5.686188E+00 +5.901071E+02 -2.883009E+01 -1.903411E+01 -2.883009E+01 +1.349077E+03 
 +5.374632E+02 -2.786121E+01 +2.761639E+01 -2.786121E+01 +5.770260E+02 -1.770459E+01 +2.761639E+01 -1.770459E+01 +1.334081E+03 
 +5.893878E+02 -1.751749E+01 -2.340903E+00 -1.751749E+01 +5.840982E+02 +6.896000E+00 -2.340903E+00 +6.896000E+00 +1.461082E+03 
 +6.047188E+02 +8.268908E+00 -1.268898E+01 +8.268908E+00 +6.268042E+02 -1.320932E+00 -1.268898E+01 -1.320932E+00 +1.292737E+03 
 +5.738098E+02 +3.742773E+00 -1.046267E+01 +3.742773E+00 +5.696384E+02 +4.137856E+01 -1.046267E+01 +4.137856E+01 +1.380992E+03 
 +6.733425E+02 -1.353710E+01 -1.337270E+01 -1.353710E+01 +5.539887E+02 -4.861556E+00 -1.337270E+01 -4.861556E+00 +1.272344E+03 
 +6.356260E+02 -6.834063E+00 -2.187030E+01 -6.834063E+00 +6.468204E+02 +1.243806E+01 -2.187030E+01 +1.243806E+01 +1.469833E+03 
 +5.921616E+02 -1.838147E+01 +7.439058E+00 -1.838147E+01 +5.678624E+02 +1.401529E+01 +7.439058E+00 +1.401529E+01 +1.354444E+03 
 +6.206274E+02 -4.813437E+01 -1.552273E+01 -4.813437E+01 +5.773492E+02 -3.266334E+01 -1.552273E+01 -3.266334E+01 +1.318228E+03 
 +6.619100E+02 -4.426554E+00 -8.687251E+00 -4.426554E+00 +5.446493E+02 +1.597187E+00 -8.687251E+00 +1.597187E+00 +1.350453E+03 
 +5.295598E+02 +3.446748E+00 -2.988691E+00 +3.446748E+00 +5.466823E+02 -1.197509E+01 -2.988691E+00 -1.197509E+01 +1.380263E+03 
 +6.121675E+02 +4.278397E+00 +2.007280E+00 +4.278397E+00 +5.978966E+02 +1.844071E+01 +2.007280E+00 +1.844071E+01 +1.335154E+03 
 +6.329399E+02 +1.847573E+01 -1.549176E+01 +1.847573E+01 +5.955184E+02 +9.268064E+00 -1.549176E+01 +9.268064E+00 +1.315179E+03 
 +6.335412E+02 -2.455134E+01 -3.074049E+01 -2.455134E+01 +6.095012E+02 +6.400276E-01 -3.074049E+01 +6.400276E-01 +1.321436E+03 
 +6.105600E+02 -1.222665E+01 +4.084109E+01 -1.222665E+01 +5.411212E+02 +5.744105E-02 +4.084109E+01 +5.744105E-02 +1.392151E+03 
 +6.157538E+02 +3.562886E+01 +6.328848E+00 +3.562886E+01 +7.177752E+02 +1.370123E+01 +6.328848E+00 +1.370123E+01 +1.379789E+03 
 +5.898875E+02 -4.419826E+01 +1.214429E+01 -4.419826E+01 +6.424147E+02 +2.789659E+01 +1.214429E+01 +2.789659E+01 +1.336445E+03 
 +6.059413E+02 +3.429060E+00 +2.672304E+00 +3.429060E+00 +6.277905E+02 -9.687076E-01 +2.672304E+00 -9.687076E-01 +1.391941E+03 
 +6.774855E+02 -1.949129E+01 +2.254043E+01 -1.949129E+01 +6.635667E+02 -6.546023E+00 +2.254043E+01 -6.546023E+00 +1.365182E+03 
 +6.052170E+02 -2.908731E+01 -2.614955E+01 -2.908731E+01 +6.275460E+02 +8.180036E+00 -2.614955E+01 +8.180036E+00 +1.348928E+03 
 +5.533556E+02 -2.206045E+00 +3.958380E+01 -2.206045E+00 +5.361470E+02 -3.108211E+01 +3.958380E+01 -3.108211E+01 +1.334310E+03 
 +6.378639E+02 -2.587075E+01 +2.632893E+00 -2.587075E+01 +6.172229E+02 -7.543564E+00 +2.632893E+00 -7.543564E+00 +1.351792E+03 
 +6.077434E+02 +3.451020E+01 +1.563128E+01 +3.451020E+01 +6.838681E+02 -3.973488E+00 +1.563128E+01 -3.973488E+00 +1.357111E+03 
 +6.379890E+02 -4.278942E+00 +1.884213E+00 -4.278942E+00 +6.361730E+02 -7.777066E+00 +1.884213E+00 -7.777066E+00 +1.434994E+03 
 +6.422730E+02 +3.599692E+01 +4.639355E+00 +3.599692E+01 +6.021505E+02 +2.091319E+01 +4.639355E+00 +2.091319E+01 +1.313024E+03 
 +5.983539E+02 +1.102185E+01 -8.886074E-01 +1.102185E+01 +6.451576E+02 +5.566892E+00 -8.886074E-01 +5.566892E+00 +1.342865E+03 
 +5.815052E+02 +1.864585E+01 -3.738560E+01 +1.864585E+01 +6.530938E+02 +7.200560E+00 -3.738560E+01 +7.200560E+00 +1.370514E+03 
 +5.545656E+02 -2.438977E+00 +5.658903E+00 -2.438977E+00 +5.790328E+02 -1.146755E+01 +5.658903E+00 -1.146755E+01 +1.431766E+03 
 +6.296162E+02 -4.782314E+01 +1.578899E+01 -4.782314E+01 +6.563353E+02 +1.781957E+01 +1.578899E+01 +1.781957E+01 +1.345203E+03 
 +6.009894E+02 -2.102514E+01 -1.510081E+01 -2.102514E+01 +5.907784E+02 +2.844719E+00 -1.510081E+01 +2.844719E+00 +1.351867E+03 
 +6.513423E+02 +5.935334E+01 +5.331398E-01 +5.935334E+01 +5.867115E+02 +1.152088E+01 +5.331398E-01 +1.152088E+01 +1.309693E+03 
 +6.060012E+02 -1.964089E+01 +4.559537E+00 -1.964089E+01 +5.461947E+02 +8.461542E+00 +4.559537E+00 +8.461542E+00 +1.315260E+03 
 +6.312827E+02 -1.912037E+01 -8.332471E+00 -1.912037E+01 +5.103733E+02 +6.645810E+00 -8.332471E+00 +6.645810E+00 +1.279448E+03 
 +6.988666E+02 +2.395676E+01 +1.086604E+01 +2.395676E+01 +5.829365E+02 +9.898242E+00 +1.086604E+01 +9.898242E+00 +1.317934E+03 
 +6.572198E+02 +1.283771E+01 +1.770405E+01 +1.283771E+01 +5.885590E+02 +5.762752E+00 +1.770405E+01 +5.762752E+00 +1.302822E+03 
 +6.576473E+02 -1.492596E+01 -1.068810E+01 -1.492596E+01 +6.956517E+02 -1.112711E+01 -1.068810E+01 -1.112711E+01 +1.392299E+03 
 +5.733331E+02 +1.578846E+00 +1.378755E+01 +1.578846E+00 +5.692015E+02 +3.134445E+01 +1.378755E+01 +3.134445E+01 +1.402766E+03 
 +6.875833E+02 +6.626181E+00 +6.033861E+00 +6.626181E+00 +6.287560E+02 +2.069363E+00 +6.033861E+00 +2.069363E+00 +1.318155E+03 
 +5.873504E+02 +3.884581E+00 -2.937383E+00 +3.884581E+00 +5.997408E+02 +2.564747E+00 -2.937383E+00 +2.564747E+00 +1.411014E+03 
 +6.168394E+02 +5.315091E+01 +1.931361E+01 +5.315091E+01 +6.323580E+02 +9.832448E+00 +1.931361E+01 +9.832448E+00 +1.296566E+03 
 +6.277398E+02 -5.314545E+01 -5.185594E+00 -5.314545E+01 +6.365298E+02 +5.523586E-02 -5.185594E+00 +5.523586E-02 +1.329284E+03 
 +6.004382E+02 -1.325911E+01 -6.639978E+00 -1.325911E+01 +6.958012E+02 -5.463402E+00 -6.639978E+00 -5.463402E+00 +1.349456E+03 
 +6.530964E+02 -5.437716E+00 -5.776540E+00 -5.437716E+00 +6.027136E+02 -5.861284E+00 -5.776540E+00 -5.861284E+00 +1.323735E+03 
 +6.835836E+02 -2.293175E+01 +4.353687E+00 -2.293175E+01 +5.891814E+02 +3.386110E+00 +4.353687E+00 +3.386110E+00 +1.321854E+03 
 +6.210983E+02 +6.072352E+01 +9.610367E+00 +6.072352E+01 +6.400786E+02 -4.496942E+00 +9.610367E+00 -4.496942E+00 +1.324895E+03 
 +6.426775E+02 +7.164238E+00 -4.689748E+00 +7.164238E+00 +6.204683E+02 +3.199682E+01 -4.689748E+00 +3.199682E+01 +1.355397E+03 
 +5.660018E+02 -1.116136E+01 -1.479356E+01 -1.116136E+01 +5.794242E+02 +8.764865E+00 -1.479356E+01 +8.764865E+00 +1.315877E+03 
 +5.412454E+02 -2.790677E+01 +9.069990E+00 -2.790677E+01 +5.528862E+02 -2.590257E+01 +9.069990E+00 -2.590257E+01 +1.375178E+03 
 +7.426967E+02 +2.469652E+01 +5.998961E+00 +2.469652E+01 +6.463627E+02 -2.062206E+00 +5.998961E+00 -2.062206E+00 +1.400195E+03 
 +6.765009E+02 +2.884986E+01 -3.770173E+00 +2.884986E+01 +5.551251E+02 +6.129144E+00 -3.770173E+00 +6.129144E+00 +1.311685E+03 
 +6.480336E+02 +2.749726E+01 +3.240069E-01 +2.749726E+01 +5.879167E+02 +5.497151E+00 +3.240069E-01 +5.497151E+00 +1.301346E+03 
 +6.630386E+02 +1.161162E+01 +1.777209E+01 +1.161162E+01 +6.281761E+02 -3.715796E+01 +1.777209E+01 -3.715796E+01 +1.429195E+03 
 +5.672873E+02 +4.736326E+00 +1.625436E+01 +4.736326E+00 +5.461025E+02 +1.959060E-01 +1.625436E+01 +1.959060E-01 +1.343943E+03 
 +6.080161E+02 +8.282443E+00 -7.946708E+00 +8.282443E+00 +5.886774E+02 +1.107499E+01 -7.946708E+00 +1.107499E+01 +1.425732E+03 
 +6.201240E+02 -2.677977E+01 -7.339088E+00 -2.677977E+01 +5.894410E+02 -8.250030E+00 -7.339088E+00 -8.250030E+00 +1.239743E+03 
 +6.051139E+02 +1.467602E+01 +1.818913E+01 +1.467602E+01 +6.015960E+02 -3.508208E+01 +1.818913E+01 -3.508208E+01 +1.376890E+03 
 +5.297690E+02 +4.867035E+00 +9.809801E+00 +4.867035E+00 +5.037067E+02 -2.225104E+01 +9.809801E+00 -2.225104E+01 +1.324338E+03 
 +5.700724E+02 +5.456344E+00 +6.057629E+00 +5.456344E+00 +5.452679E+02 +3.588098E+00 +6.057629E+00 +3.588098E+00 +1.406985E+03 
 +5.880522E+02 +4.922388E+00 +4.980857E+00 +4.922388E+00 +5.812669E+02 -9.128015E+00 +4.980857E+00 -9.128015E+00 +1.376436E+03 
 +6.188237E+02 +4.136983E+01 -3.803503E+00 +4.136983E+01 +6.421679E+02 -1.809251E+01 -3.803503E+00 -1.809251E+01 +1.337873E+03 
 +5.715122E+02 -5.567630E+01 -1.485039E-01 -5.567630E+01 +6.669459E+02 +1.219837E+01 -1.485039E-01 +1.219837E+01 +1.322179E+03 
 +6.238737E+02 -2.482541E+01 +6.947263E+00 -2.482541E+01 +7.178954E+02 -1.134738E+01 +6.947263E+00 -1.134738E+01 +1.339953E+03 
 +5.799550E+02 -7.518696E+00 +2.390421E+00 -7.518696E+00 +6.495932E+02 -7.996052E+00 +2.390421E+00 -7.996052E+00 +1.348859E+03 
 +6.234592E+02 +1.847105E+01 -2.437475E+00 +1.847105E+01 +6.772454E+02 +2.267031E+01 -2.437475E+00 +2.267031E+01 +1.330512E+03 
 +5.287904E+02 +1.325153E+01 -1.964952E-01 +1.325153E+01 +6.325745E+02 -9.838604E+00 -1.964952E-01 -9.838604E+00 +1.322335E+03 
 +5.711952E+02 -5.427028E+01 +8.169623E+00 -5.427028E+01 +6.052491E+02 -6.369052E+00 +8.169623E+00 -6.369052E+00 +1.330833E+03 
 +6.168159E+02 -3.749524E+01 -1.736325E+00 -3.749524E+01 +6.832593E+02 -2.367830E+01 -1.736325E+00 -2.367830E+01 +1.341347E+03 
 +7.121842E+02 -1.676138E+01 +1.504202E+01 -1.676138E+01 +6.020709E+02 -5.925602E+00 +1.504202E+01 -5.925602E+00 +1.288984E+03 
 +5.962782E+02 +1.288423E+00 +3.155108E+01 +1.288423E+00 +5.662264E+02 -2.290500E+01 +3.155108E+01 -2.290500E+01 +1.417770E+03 
 +5.559240E+02 -5.356858E+00 +9.588534E+00 -5.356858E+00 +5.570537E+02 -1.256408E+01 +9.588534E+00 -1.256408E+01 +1.307085E+03 
 +5.916044E+02 -4.805967E+01 +1.705773E+01 -4.805967E+01 +6.474416E+02 +3.092123E+01 +1.705773E+01 +3.092123E+01 +1.333007E+03 
 +5.701201E+02 -1.277391E+01 +2.195824E+01 -1.277391E+01 +5.942019E+02 -1.376210E+01 +2.195824E+01 -1.376210E+01 +1.390824E+03 
 +5.729657E+02 -1.657434E+01 -1.586939E+01 -1.657434E+01 +5.800360E+02 -1.182331E+01 -1.586939E+01 -1.182331E+01 +1.386077E+03 
 +6.165912E+02 +1.137136E+01 -4.561631E+00 +1.137136E+01 +5.893008E+02 -5.485523E+00 -4.561631E+00 -5.485523E+00 +1.354985E+03 
 +5.733838E+02 -3.807091E+00 +9.029593E+00 -3.807091E+00 +5.694080E+02 +2.233253E+01 +9.029593E+00 +2.233253E+01 +1.414782E+03 
 +5.450481E+02 +1.824056E+01 -5.750982E+00 +1.824056E+01 +6.395841E+02 +1.482335E+00 -5.750982E+00 +1.482335E+00 +1.284143E+03 
 +6.511641E+02 -6.024215E+01 -4.100243E+00 -6.024215E+01 +6.517108E+02 -2.071522E+01 -4.100243E+00 -2.071522E+01 +1.325148E+03 
 +6.294661E+02 -7.391379E+01 +8.705513E+00 -7.391379E+01 +6.365358E+02 -3.879694E+00 +8.705513E+00 -3.879694E+00 +1.315222E+03 
 +5.480400E+02 -1.097557E+01 -2.089518E+01 -1.097557E+01 +5.270079E+02 +1.711590E+01 -2.089518E+01 +1.711590E+01 +1.354235E+03 
 +7.046918E+02 -4.106080E+01 -3.761163E+00 -4.106080E+01 +6.593482E+02 +2.055740E+01 -3.761163E+00 +2.055740E+01 +1.385080E+03 
 +5.638646E+02 -3.192392E+01 -3.963873E+00 -3.192392E+01 +6.985361E+02 -1.614648E+01 -3.963873E+00 -1.614648E+01 +1.343081E+03 
 +6.712549E+02 +7.693521E+01 +3.739882E+00 +7.693521E+01 +5.844359E+02 -2.951888E+01 +3.739882E+00 -2.951888E+01 +1.316683E+03 
 +6.224862E+02 -7.842932E+00 +6.133254E+01 -7.842932E+00 +6.050583E+02 +3.746391E+00 +6.133254E+01 +3.746391E+00 +1.404330E+03 
 +7.334551E+02 -2.133867E+01 +9.880699E+00 -2.133867E+01 +6.219477E+02 -6.038441E+00 +9.880699E+00 -6.038441E+00 +1.293720E+03 
 +6.468418E+02 -1.458811E+00 -1.151821E+01 -1.458811E+00 +6.100167E+02 -2.897957E+01 -1.151821E+01 -2.897957E+01 +1.368143E+03 
 +5.916844E+02 -2.062753E+01 -1.086078E+01 -2.062753E+01 +5.825349E+02 -1.177232E+01 -1.086078E+01 -1.177232E+01 +1.367810E+03 
 +6.112369E+02 +5.213084E+01 -4.901263E+00 +5.213084E+01 +6.925412E+02 +7.720695E+00 -4.901263E+00 +7.720695E+00 +1.339589E+03 
 +6.051935E+02 -1.478214E+01 +3.172168E+01 -1.478214E+01 +6.230495E+02 -7.820277E+00 +3.172168E+01 -7.820277E+00 +1.408975E+03 
 +5.588373E+02 -3.832646E+00 -4.728938E+00 -3.832646E+00 +5.725627E+02 -4.105849E+01 -4.728938E+00 -4.105849E+01 +1.307092E+03 
 +6.315578E+02 +5.269125E+00 -6.093956E+00 +5.269125E+00 +6.215048E+02 -1.675718E+01 -6.093956E+00 -1.675718E+01 +1.367313E+03 
 +6.202263E+02 -1.296732E+01 +1.424561E+01 -1.296732E+01 +6.501695E+02 +5.937811E+00 +1.424561E+01 +5.937811E+00 +1.369160E+03 
 +5.720472E+02 +1.865054E+01 -2.996896E-01 +1.865054E+01 +5.541517E+02 -2.850851E+01 -2.996896E-01 -2.850851E+01 +1.361395E+03 
 +6.009670E+02 -7.412816E-01 -1.873829E+01 -7.412816E-01 +6.138212E+02 +3.561721E+01 -1.873829E+01 +3.561721E+01 +1.424702E+03 
 +6.737474E+02 -2.641864E+01 -7.384456E+00 -2.641864E+01 +6.190986E+02 +8.277641E+00 -7.384456E+00 +8.277641E+00 +1.376312E+03 
 +6.623693E+02 +1.692500E+01 -3.556293E+00 +1.692500E+01 +6.212092E+02 +1.256998E+01 -3.556293E+00 +1.256998E+01 +1.322720E+03 
 +5.466496E+02 +9.977459E-01 +1.194894E+01 +9.977459E-01 +7.076727E+02 -1.480758E+01 +1.194894E+01 -1.480758E+01 +1.356488E+03 
 +6.304441E+02 +2.191379E+00 +1.677238E+01 +2.191379E+00 +6.885240E+02 -1.405968E+01 +1.677238E+01 -1.405968E+01 +1.392421E+03 
 +6.696699E+02 +4.427971E+01 +1.331019E+01 +4.427971E+01 +6.850247E+02 +1.123444E+01 +1.331019E+01 +1.123444E+01 +1.343005E+03 
 +6.936922E+02 +8.407781E+00 +1.330088E+01 +8.407781E+00 +5.527886E+02 +1.091017E+01 +1.330088E+01 +1.091017E+01 +1.312396E+03 
 +5.300796E+02 +1.514501E+01 +1.432789E+00 +1.514501E+01 +6.358380E+02 +3.686507E+00 +1.432789E+00 +3.686507E+00 +1.272638E+03 
 +6.573254E+02 -1.477582E+01 -6.390857E-01 -1.477582E+01 +7.110491E+02 +1.792115E+01 -6.390857E-01 +1.792115E+01 +1.375266E+03 
 +6.746279E+02 +5.326576E+01 -1.931774E+01 +5.326576E+01 +6.600536E+02 +3.613770E+00 -1.931774E+01 +3.613770E+00 +1.344551E+03 
 +5.937328E+02 -7.012198E+01 -1.730680E+01 -7.012198E+01 +6.187813E+02 +1.408021E+01 -1.730680E+01 +1.408021E+01 +1.264111E+03 
 +5.423117E+02 -1.839507E+01 +3.084221E+01 -1.839507E+01 +5.993505E+02 +2.214409E+01 +3.084221E+01 +2.214409E+01 +1.429492E+03 
 +5.785837E+02 +6.145013E+01 -8.144174E+00 +6.145013E+01 +6.410089E+02 -4.642937E+00 -8.144174E+00 -4.642937E+00 +1.291534E+03 
 +5.525073E+02 +1.158335E+00 +1.025820E+01 +1.158335E+00 +6.025745E+02 -6.600441E+00 +1.025820E+01 -6.600441E+00 +1.381292E+03 
 +6.108204E+02 -6.791155E+00 -8.236036E+00 -6.791155E+00 +6.012718E+02 -3.259689E+00 -8.236036E+00 -3.259689E+00 +1.338438E+03 
 +6.223051E+02 -2.671937E+01 +1.608572E+00 -2.671937E+01 +6.006707E+02 -2.231996E+01 +1.608572E+00 -2.231996E+01 +1.426665E+03 
 +6.068609E+02 +2.728821E+01 +4.144085E+00 +2.728821E+01 +6.998823E+02 +1.441766E+01 +4.144085E+00 +1.441766E+01 +1.303990E+03 
 +6.800508E+02 +4.597443E+01 -1.791278E+01 +4.597443E+01 +6.753703E+02 +2.141680E+01 -1.791278E+01 +2.141680E+01 +1.371957E+03 
 +6.701272E+02 +1.879901E+01 -8.745295E+00 +1.879901E+01 +5.324222E+02 -2.101762E+01 -8.745295E+00 -2.101762E+01 +1.284484E+03 
 +6.010087E+02 +5.756611E+00 -1.139175E+01 +5.756611E+00 +5.752866E+02 +4.374525E+00 -1.139175E+01 +4.374525E+00 +1.415057E+03 
 +6.044854E+02 -1.032508E+01 +3.172081E+00 -1.032508E+01 +7.072026E+02 +1.247152E+01 +3.172081E+00 +1.247152E+01 +1.336896E+03 
 +6.757170E+02 +5.340064E+00 -1.065546E+01 +5.340064E+00 +6.370818E+02 -2.252896E+01 -1.065546E+01 -2.252896E+01 +1.370840E+03 
 +5.730237E+02 +7.351274E+00 -1.703819E+01 +7.351274E+00 +5.941517E+02 +5.514617E+00 -1.703819E+01 +5.514617E+00 +1.408506E+03 
 +5.602999E+02 -1.398030E+01 +1.883243E+01 -1.398030E+01 +6.149539E+02 -2.682297E+00 +1.883243E+01 -2.682297E+00 +1.281622E+03 
 +5.775889E+02 -1.121832E+01 -5.384540E+00 -1.121832E+01 +5.473121E+02 -1.331583E+00 -5.384540E+00 -1.331583E+00 +1.363268E+03 
 +5.832325E+02 +2.113139E+01 -2.659264E+00 +2.113139E+01 +5.655563E+02 +2.850840E+01 -2.659264E+00 +2.850840E+01 +1.356226E+03 
 +5.429688E+02 -2.697493E+01 -1.272860E+01 -2.697493E+01 +5.601205E+02 -1.338856E+00 -1.272860E+01 -1.338856E+00 +1.417908E+03 
 +5.728270E+02 -1.477314E+00 +2.698845E+01 -1.477314E+00 +6.203345E+02 +3.528803E+00 +2.698845E+01 +3.528803E+00 +1.312379E+03 
 +6.566847E+02 +3.870944E+01 +2.113791E+01 +3.870944E+01 +6.401820E+02 -1.686880E+01 +2.113791E+01 -1.686880E+01 +1.334114E+03 
 +5.799795E+02 -9.389687E-01 +5.239614E+00 -9.389687E-01 +5.746591E+02 -1.377129E+01 +5.239614E+00 -1.377129E+01 +1.407689E+03 
 +5.786487E+02 +6.010528E+00 -8.848935E+00 +6.010528E+00 +5.779504E+02 +5.347058E+01 -8.848935E+00 +5.347058E+01 +1.307180E+03 
 +6.465478E+02 +4.286435E+01 +1.543198E+01 +4.286435E+01 +6.060577E+02 +9.312578E+00 +1.543198E+01 +9.312578E+00 +1.348920E+03 
 +6.928369E+02 -5.986748E+01 -2.729157E+01 -5.986748E+01 +6.523951E+02 +1.347102E+00 -2.729157E+01 +1.347102E+00 +1.377954E+03 
 +6.338677E+02 -2.473235E+01 -1.592262E+00 -2.473235E+01 +6.251221E+02 -8.293898E+00 -1.592262E+00 -8.293898E+00 +1.365064E+03 
 +6.158454E+02 +8.711253E+00 +9.677544E+00 +8.711253E+00 +5.448155E+02 +1.057090E+01 +9.677544E+00 +1.057090E+01 +1.259326E+03 
 +5.071898E+02 -1.256949E+01 +1.516082E-01 -1.256949E+01 +5.473283E+02 -6.958682E+00 +1.516082E-01 -6.958682E+00 +1.355597E+03 
 +6.150578E+02 -7.093617E-01 -1.065277E+01 -7.093617E-01 +6.042618E+02 -2.788726E+01 -1.065277E+01 -2.788726E+01 +1.410337E+03 
 +6.297835E+02 +1.319682E+01 -2.053483E+01 +1.319682E+01 +6.306624E+02 +1.275999E+01 -2.053483E+01 +1.275999E+01 +1.362012E+03 
 +5.593101E+02 -1.341158E+01 +2.068732E+01 -1.341158E+01 +6.588975E+02 +1.645380E+01 +2.068732E+01 +1.645380E+01 +1.318613E+03 
 +5.532247E+02 -2.131232E+01 -1.983511E+00 -2.131232E+01 +6.292844E+02 -5.331012E+00 -1.983511E+00 -5.331012E+00 +1.342010E+03 
 +5.965504E+02 +7.128869E+00 -4.414653E+00 +7.128869E+00 +6.251210E+02 -5.899429E+00 -4.414653E+00 -5.899429E+00 +1.286584E+03 
 +5.569960E+02 +2.473464E+01 -7.183894E+00 +2.473464E+01 +5.883323E+02 -2.161599E+01 -7.183894E+00 -2.161599E+01 +1.417906E+03 
 +5.955977E+02 +3.431089E+01 +8.878571E+00 +3.431089E+01 +6.402726E+02 +4.058867E+00 +8.878571E+00 +4.058867E+00 +1.260871E+03 
 +5.506855E+02 +3.232675E+00 +2.180670E+01 +3.232675E+00 +5.898237E+02 +3.852442E+00 +2.180670E+01 +3.852442E+00 +1.414535E+03 
 +6.138627E+02 +1.799271E+01 -2.118774E+00 +1.799271E+01 +6.932328E+02 -9.359055E+00 -2.118774E+00 -9.359055E+00 +1.314460E+03 
 +6.727284E+02 +2.401304E+01 -1.973576E+01 +2.401304E+01 +7.919089E+02 +5.026165E+00 -1.973576E+01 +5.026165E+00 +1.382647E+03 
 +6.018915E+02 +2.369617E+01 -1.001778E+01 +2.369617E+01 +6.921849E+02 -8.023272E+00 -1.001778E+01 -8.023272E+00 +1.343446E+03 
 +6.025007E+02 -6.440056E+00 +1.104763E+01 -6.440056E+00 +7.060510E+02 -3.183121E+01 +1.104763E+01 -3.183121E+01 +1.374660E+03 
 +6.772814E+02 -2.542092E+01 -2.393068E+01 -2.542092E+01 +6.619749E+02 -2.252292E+01 -2.393068E+01 -2.252292E+01 +1.332946E+03 
 +6.316892E+02 -2.283733E+00 +1.124651E+01 -2.283733E+00 +6.280984E+02 +2.078318E-01 +1.124651E+01 +2.078318E-01 +1.461760E+03 
 +6.378243E+02 +9.741751E+00 +2.371882E+01 +9.741751E+00 +6.325317E+02 -1.034697E+01 +2.371882E+01 -1.034697E+01 +1.314303E+03 
 +6.739341E+02 -1.023798E+01 +2.255356E+01 -1.023798E+01 +5.571984E+02 -5.080382E+00 +2.255356E+01 -5.080382E+00 +1.346182E+03 
 +5.632825E+02 -2.455763E+01 +6.236612E+00 -2.455763E+01 +5.690969E+02 -1.820225E+01 +6.236612E+00 -1.820225E+01 +1.404843E+03 
 +6.078086E+02 +2.680022E+01 +2.544268E+01 +2.680022E+01 +6.238001E+02 -3.980372E+01 +2.544268E+01 -3.980372E+01 +1.354887E+03 
 +6.159894E+02 -2.209795E+00 -4.074762E+01 -2.209795E+00 +6.297123E+02 +9.328733E+00 -4.074762E+01 +9.328733E+00 +1.325700E+03 
 +6.351585E+02 -8.063064E+00 +8.727844E-01 -8.063064E+00 +5.953514E+02 -3.082245E+01 +8.727844E-01 -3.082245E+01 +1.349399E+03 
 +6.156984E+02 -3.308801E+01 +2.979710E+00 -3.308801E+01 +6.034648E+02 -2.019856E+01 +2.979710E+00 -2.019856E+01 +1.320528E+03 
 +7.061838E+02 -5.387337E+01 +1.386606E-01 -5.387337E+01 +5.986414E+02 +5.418525E+00 +1.386606E-01 +5.418525E+00 +1.363372E+03 
 +5.803807E+02 -1.364329E+01 +3.300990E+00 -1.364329E+01 +5.588961E+02 -4.178832E+00 +3.300990E+00 -4.178832E+00 +1.384311E+03 
 +6.831295E+02 -1.880607E+01 -5.415736E+00 -1.880607E+01 +6.075124E+02 -1.516527E+01 -5.415736E+00 -1.516527E+01 +1.333636E+03 
 +5.801071E+02 +1.804222E+01 +4.479062E+01 +1.804222E+01 +5.463561E+02 +7.427521E+00 +4.479062E+01 +7.427521E+00 +1.409921E+03 
 +6.032687E+02 -1.402087E+01 -6.692826E+00 -1.402087E+01 +5.454670E+02 -3.046151E+01 -6.692826E+00 -3.046151E+01 +1.315025E+03 
 +6.215118E+02 -3.197596E+01 +2.178214E+01 -3.197596E+01 +6.155143E+02 -1.144048E+01 +2.178214E+01 -1.144048E+01 +1.363475E+03 
 +6.568668E+02 -1.987104E+01 -1.727682E+00 -1.987104E+01 +5.664440E+02 -2.232500E+01 -1.727682E+00 -2.232500E+01 +1.295907E+03 
 +6.149609E+02 -8.550028E+00 +8.257525E+00 -8.550028E+00 +5.735089E+02 -1.430355E+01 +8.257525E+00 -1.430355E+01 +1.315759E+03 
 +5.958342E+02 -2.030889E+01 -3.522844E+00 -2.030889E+01 +5.539652E+02 +7.468116E+00 -3.522844E+00 +7.468116E+00 +1.316316E+03 
 +5.785488E+02 -1.981316E+01 +3.811713E+00 -1.981316E+01 +5.999316E+02 -2.208718E+01 +3.811713E+00 -2.208718E+01 +1.421132E+03 
 +6.178540E+02 -1.150531E+01 -8.778209E+00 -1.150531E+01 +6.027831E+02 -1.201925E+01 -8.778209E+00 -1.201925E+01 +1.360036E+03 
 +6.593526E+02 +1.862892E+01 +2.609893E+00 +1.862892E+01 +6.108432E+02 -1.072127E+01 +2.609893E+00 -1.072127E+01 +1.364430E+03 
 +5.863187E+02 +1.844898E+01 -4.199532E+01 +1.844898E+01 +6.554025E+02 +2.678941E+01 -4.199532E+01 +2.678941E+01 +1.351076E+03 
 +5.866213E+02 -1.887294E+01 -2.599660E+01 -1.887294E+01 +5.722180E+02 +1.626198E+01 -2.599660E+01 +1.626198E+01 +1.495593E+03 
 +6.184648E+02 +2.881330E+01 -4.442517E-01 +2.881330E+01 +5.586143E+02 +7.695576E+00 -4.442517E-01 +7.695576E+00 +1.273319E+03 
 +6.264977E+02 -1.807387E+01 +1.491020E+01 -1.807387E+01 +5.835339E+02 -3.048549E+01 +1.491020E+01 -3.048549E+01 +1.336760E+03 
 +6.211359E+02 +4.269826E+00 -2.021445E+01 +4.269826E+00 +6.238364E+02 -2.138124E+01 -2.021445E+01 -2.138124E+01 +1.433251E+03 
 +5.978443E+02 +1.272887E+01 -5.782116E+00 +1.272887E+01 +6.575936E+02 -6.531783E+00 -5.782116E+00 -6.531783E+00 +1.369495E+03 
 +5.265233E+02 +2.759643E+01 +1.361619E-01 +2.759643E+01 +6.403260E+02 +1.238160E+01 +1.361619E-01 +1.238160E+01 +1.264492E+03 
 +6.789337E+02 -2.012040E+01 +2.243748E+01 -2.012040E+01 +6.574631E+02 -1.769327E+01 +2.243748E+01 -1.769327E+01 +1.494098E+03 
 +5.988986E+02 -2.780667E+01 -6.222531E+00 -2.780667E+01 +6.324426E+02 -7.725023E+00 -6.222531E+00 -7.725023E+00 +1.277404E+03 
 +6.319822E+02 +4.109033E+01 -4.893629E+00 +4.109033E+01 +6.963640E+02 +1.265518E+01 -4.893629E+00 +1.265518E+01 +1.350136E+03 
 +5.802503E+02 +2.564411E+01 +1.935594E+01 +2.564411E+01 +6.674456E+02 -1.244549E+01 +1.935594E+01 -1.244549E+01 +1.326101E+03 
 +5.762907E+02 -2.385015E+01 -2.865317E+01 -2.385015E+01 +5.985026E+02 +9.597883E+00 -2.865317E+01 +9.597883E+00 +1.327788E+03 
 +5.845215E+02 -6.644221E+00 -9.753872E+00 -6.644221E+00 +6.121234E+02 -5.414093E+00 -9.753872E+00 -5.414093E+00 +1.409847E+03 
 +5.977574E+02 -1.052877E+01 +7.880191E-01 -1.052877E+01 +6.554802E+02 +2.701625E+00 +7.880191E-01 +2.701625E+00 +1.250935E+03 
 +6.385445E+02 +1.010755E+01 +2.582660E+01 +1.010755E+01 +5.975781E+02 -1.368369E+01 +2.582660E+01 -1.368369E+01 +1.349840E+03 
 +6.368332E+02 +1.706117E-02 +2.292611E+00 +1.706117E-02 +6.042013E+02 -2.440437E+00 +2.292611E+00 -2.440437E+00 +1.340149E+03 
 +5.593841E+02 +1.489799E+01 +2.170968E+01 +1.489799E+01 +5.963741E+02 +1.109684E+01 +2.170968E+01 +1.109684E+01 +1.355282E+03 
 +6.287015E+02 +3.341936E+01 -3.025684E+01 +3.341936E+01 +6.262393E+02 +1.260297E+01 -3.025684E+01 +1.260297E+01 +1.370152E+03 
 +5.890792E+02 +9.343588E+00 +6.017617E+00 +9.343588E+00 +6.310389E+02 +2.387742E+01 +6.017617E+00 +2.387742E+01 +1.438673E+03 
 +5.664272E+02 -6.958899E+00 +1.269323E+01 -6.958899E+00 +5.752652E+02 +1.263478E+01 +1.269323E+01 +1.263478E+01 +1.367350E+03 
 +6.147960E+02 +2.866982E+01 -6.473606E+00 +2.866982E+01 +6.112121E+02 +2.283766E+01 -6.473606E+00 +2.283766E+01 +1.288961E+03 
 +6.014384E+02 -1.181757E+01 -2.189767E+00 -1.181757E+01 +6.174932E+02 +6.755162E+00 -2.189767E+00 +6.755162E+00 +1.416016E+03 
 +5.629990E+02 -1.373756E+01 -5.224848E+00 -1.373756E+01 +5.526381E+02 -4.313923E+00 -5.224848E+00 -4.313923E+00 +1.419695E+03 
 +6.946134E+02 -4.558951E+01 +1.412454E+01 -4.558951E+01 +5.739894E+02 +2.105057E+01 +1.412454E+01 +2.105057E+01 +1.322933E+03 
 +5.350638E+02 -3.266930E+01 -1.493820E+01 -3.266930E+01 +5.277927E+02 -2.901958E+01 -1.493820E+01 -2.901958E+01 +1.369781E+03 
 +5.636603E+02 -1.204828E+01 -2.121454E+01 -1.204828E+01 +5.810961E+02 -3.864470E+01 -2.121454E+01 -3.864470E+01 +1.352146E+03 
 +6.748824E+02 +4.188911E+01 +4.292348E+00 +4.188911E+01 +6.448099E+02 +1.272652E+01 +4.292348E+00 +1.272652E+01 +1.356747E+03 
 +6.211782E+02 -1.106667E+01 +1.069790E+01 -1.106667E+01 +6.601442E+02 +6.634412E+00 +1.069790E+01 +6.634412E+00 +1.300146E+03 
 +6.328166E+02 +7.824625E+00 +7.678291E+00 +7.824625E+00 +6.278099E+02 -2.994545E+01 +7.678291E+00 -2.994545E+01 +1.429973E+03 
 +6.209832E+02 +6.198634E+01 -3.316404E+01 +6.198634E+01 +6.387722E+02 -1.011459E+00 -3.316404E+01 -1.011459E+00 +1.322336E+03 
 +5.907119E+02 +1.430049E+01 -1.381124E+01 +1.430049E+01 +5.840023E+02 -5.632343E+00 -1.381124E+01 -5.632343E+00 +1.407407E+03 
 +6.204876E+02 -1.617397E+01 +1.971751E+01 -1.617397E+01 +5.895987E+02 -5.182937E-01 +1.971751E+01 -5.182937E-01 +1.403521E+03 
 +6.686680E+02 +5.957513E+01 +8.957243E+00 +5.957513E+01 +6.075059E+02 -1.370625E+01 +8.957243E+00 -1.370625E+01 +1.343867E+03 
 +6.301310E+02 -6.409985E+00 -9.016588E+00 -6.409985E+00 +5.696891E+02 +8.860373E+00 -9.016588E+00 +8.860373E+00 +1.293335E+03 
 +6.249664E+02 -3.123582E+00 +1.061533E+01 -3.123582E+00 +5.536887E+02 -1.858329E+00 +1.061533E+01 -1.858329E+00 +1.302194E+03 
 +6.256541E+02 +4.125938E-01 +9.843671E+00 +4.125938E-01 +5.981025E+02 +1.190092E+01 +9.843671E+00 +1.190092E+01 +1.308296E+03 
 +5.916551E+02 -1.417856E+01 -1.034817E+01 -1.417856E+01 +5.729619E+02 -2.264871E+01 -1.034817E+01 -2.264871E+01 +1.359569E+03 
 +6.545135E+02 +1.755011E+01 +2.798263E+00 +1.755011E+01 +6.615257E+02 -2.100875E+01 +2.798263E+00 -2.100875E+01 +1.375829E+03 
 +6.170878E+02 +3.287787E+00 +1.138708E+01 +3.287787E+00 +6.381577E+02 -2.627315E+01 +1.138708E+01 -2.627315E+01 +1.353005E+03 
 +6.589037E+02 -1.190404E+01 -1.367879E+00 -1.190404E+01 +6.185330E+02 +5.906119E+00 -1.367879E+00 +5.906119E+00 +1.411063E+03 
 +6.331321E+02 +3.784729E+00 +2.209421E+01 +3.784729E+00 +6.404180E+02 +2.136804E+01 +2.209421E+01 +2.136804E+01 +1.435997E+03 
 +6.576134E+02 -5.580212E+01 +5.364053E+00 -5.580212E+01 +6.333473E+02 -3.415901E+00 +5.364053E+00 -3.415901E+00 +1.269206E+03 
 +6.285941E+02 +9.137958E-01 +8.852872E+00 +9.137958E-01 +5.996024E+02 +2.202254E-01 +8.852872E+00 +2.202254E-01 +1.381099E+03 
 +6.092990E+02 -1.303388E-01 +3.497819E+01 -1.303388E-01 +5.611000E+02 +1.453279E+00 +3.497819E+01 +1.453279E+00 +1.365975E+03 
 +5.570127E+02 +1.039106E+01 -1.869622E+01 +1.039106E+01 +5.923754E+02 -3.039874E+01 -1.869622E+01 -3.039874E+01 +1.321811E+03 
 +6.050253E+02 +7.033028E+00 -1.143416E+01 +7.033028E+00 +5.852728E+02 -1.890981E+00 -1.143416E+01 -1.890981E+00 +1.366120E+03 
 +5.751861E+02 +2.045366E+01 -1.140502E+01 +2.045366E+01 +5.500374E+02 -2.539249E+01 -1.140502E+01 -2.539249E+01 +1.322059E+03 
 +5.217724E+02 -1.554258E+00 -1.559940E+01 -1.554258E+00 +5.802511E+02 -1.076417E+01 -1.559940E+01 -1.076417E+01 +1.327489E+03 
 +6.824453E+02 +4.045683E+01 -3.046388E+00 +4.045683E+01 +6.298049E+02 +1.484871E+01 -3.046388E+00 +1.484871E+01 +1.374979E+03 
 +6.387038E+02 -2.150002E+01 +1.277539E+01 -2.150002E+01 +6.138077E+02 +1.696695E+01 +1.277539E+01 +1.696695E+01 +1.425022E+03 
 +6.172703E+02 -1.371882E+01 -1.568474E+01 -1.371882E+01 +6.295487E+02 -3.153568E-01 -1.568474E+01 -3.153568E-01 +1.422830E+03 
 +6.015472E+02 +3.743742E+01 +7.079485E+00 +3.743742E+01 +6.232286E+02 +3.413278E+00 +7.079485E+00 +3.413278E+00 +1.368547E+03 
 +6.279257E+02 +3.119925E+01 +8.485925E+00 +3.119925E+01 +6.096451E+02 +2.129625E+01 +8.485925E+00 +2.129625E+01 +1.357906E+03 
 +6.106201E+02 +7.454428E+00 -1.786074E+01 +7.454428E+00 +6.222815E+02 +2.140890E+01 -1.786074E+01 +2.140890E+01 +1.312770E+03 
 +5.495632E+02 -1.252498E+01 +1.654809E+00 -1.252498E+01 +6.504177E+02 +8.326709E-01 +1.654809E+00 +8.326709E-01 +1.285001E+03 
 +6.202930E+02 +4.525600E+00 -1.408074E+01 +4.525600E+00 +5.836600E+02 +2.109568E+01 -1.408074E+01 +2.109568E+01 +1.266032E+03 
 +5.852773E+02 +2.835709E+00 -1.786071E+00 +2.835709E+00 +5.435215E+02 +8.254243E+00 -1.786071E+00 +8.254243E+00 +1.322933E+03 
 +6.412842E+02 +1.473928E+01 -1.103932E+01 +1.473928E+01 +6.656961E+02 -1.599432E+01 -1.103932E+01 -1.599432E+01 +1.370631E+03 
 +6.335573E+02 -1.443430E+01 -2.452466E+01 -1.443430E+01 +5.831000E+02 -3.327336E+01 -2.452466E+01 -3.327336E+01 +1.364102E+03 
 +6.830535E+02 -8.774775E+00 +9.550063E+00 -8.774775E+00 +5.685130E+02 -1.011292E+01 +9.550063E+00 -1.011292E+01 +1.291881E+03 
 +5.738933E+02 +1.412929E+01 +2.522849E+01 +1.412929E+01 +5.856500E+02 -6.782350E+00 +2.522849E+01 -6.782350E+00 +1.359493E+03 
 +6.341381E+02 +1.048095E+01 -6.687459E+00 +1.048095E+01 +6.392497E+02 -1.749423E+00 -6.687459E+00 -1.749423E+00 +1.451634E+03 
 +6.749264E+02 +4.053640E+01 +1.113783E+01 +4.053640E+01 +6.102817E+02 +2.953044E+00 +1.113783E+01 +2.953044E+00 +1.312685E+03 
 +5.947470E+02 -1.709217E-01 -1.566100E+01 -1.709217E-01 +5.840798E+02 +9.893210E+00 -1.566100E+01 +9.893210E+00 +1.409665E+03 
 +6.571868E+02 -2.120963E+01 -3.108833E+01 -2.120963E+01 +6.374221E+02 -1.900361E+01 -3.108833E+01 -1.900361E+01 +1.371474E+03 
 +7.105914E+02 +2.349685E+01 +4.060133E+00 +2.349685E+01 +6.052583E+02 +2.164108E+00 +4.060133E+00 +2.164108E+00 +1.331740E+03 
 +5.888994E+02 +1.279826E+00 -7.113969E+00 +1.279826E+00 +5.894678E+02 -9.643972E+00 -7.113969E+00 -9.643972E+00 +1.315754E+03 
 +6.689313E+02 -3.816300E+01 -8.599608E+00 -3.816300E+01 +6.043799E+02 +4.374878E+00 -8.599608E+00 +4.374878E+00 +1.333568E+03 
 +5.710474E+02 -7.854586E+00 -2.920826E+01 -7.854586E+00 +5.662361E+02 -2.365531E+01 -2.920826E+01 -2.365531E+01 +1.313391E+03 
 +5.499307E+02 -4.586877E+00 +1.382518E+01 -4.586877E+00 +5.481554E+02 +3.187419E+00 +1.382518E+01 +3.187419E+00 +1.373737E+03 
 +6.112115E+02 +4.643013E+00 +3.109779E+01 +4.643013E+00 +5.945940E+02 -1.248290E+01 +3.109779E+01 -1.248290E+01 +1.398920E+03 
 +6.396561E+02 +3.556055E+00 -2.422546E+01 +3.556055E+00 +6.220087E+02 +7.149014E+00 -2.422546E+01 +7.149014E+00 +1.499461E+03 
 +6.314475E+02 -9.830409E+00 -1.662003E+01 -9.830409E+00 +5.497815E+02 -1.574754E+01 -1.662003E+01 -1.574754E+01 +1.362385E+03 
 +6.475370E+02 -4.666329E+01 +6.193608E+00 -4.666329E+01 +5.326709E+02 +4.738758E-01 +6.193608E+00 +4.738758E-01 +1.269239E+03 
 +6.607473E+02 +9.407800E+00 -7.003051E+00 +9.407800E+00 +5.845684E+02 +1.589540E+01 -7.003051E+00 +1.589540E+01 +1.333469E+03 
 +5.565017E+02 +1.125480E+01 +1.759453E+01 +1.125480E+01 +5.603391E+02 +1.533014E+01 +1.759453E+01 +1.533014E+01 +1.326128E+03 
 +6.273630E+02 +2.681592E+00 -1.905976E+01 +2.681592E+00 +5.878472E+02 -7.274834E+00 -1.905976E+01 -7.274834E+00 +1.269834E+03 
 +5.974592E+02 +1.227441E+01 -7.326729E-01 +1.227441E+01 +5.863797E+02 +1.007318E+01 -7.326729E-01 +1.007318E+01 +1.382197E+03 
 +5.729897E+02 -1.076920E+01 -1.550125E+01 -1.076920E+01 +5.356743E+02 -5.043254E+00 -1.550125E+01 -5.043254E+00 +1.346401E+03 
 +6.030425E+02 -2.297454E+00 +2.150842E+01 -2.297454E+00 +6.118463E+02 +1.976706E+01 +2.150842E+01 +1.976706E+01 +1.316483E+03 
 +6.332493E+02 -1.964200E+01 -2.696748E+01 -1.964200E+01 +6.419775E+02 +1.027886E+01 -2.696748E+01 +1.027886E+01 +1.431393E+03 
 +6.557230E+02 -2.252407E+01 +2.704738E+01 -2.252407E+01 +6.121273E+02 +1.452051E+01 +2.704738E+01 +1.452051E+01 +1.310353E+03 
 +5.623853E+02 -2.534626E+01 +1.988643E+00 -2.534626E+01 +6.053075E+02 +1.708415E+01 +1.988643E+00 +1.708415E+01 +1.449322E+03 
 +5.957468E+02 +1.071893E+01 +1.324012E+01 +1.071893E+01 +6.199441E+02 +4.517140E+00 +1.324012E+01 +4.517140E+00 +1.273774E+03 
 +5.871077E+02 -1.068975E+01 +2.987758E+01 -1.068975E+01 +5.700754E+02 -6.244967E+00 +2.987758E+01 -6.244967E+00 +1.429165E+03 
 +5.833684E+02 -1.270998E+01 +6.646009E+00 -1.270998E+01 +6.662414E+02 +3.816954E+00 +6.646009E+00 +3.816954E+00 +1.271018E+03 
 +6.043459E+02 +1.600974E+01 +2.192187E+01 +1.600974E+01 +6.309455E+02 -9.100723E+00 +2.192187E+01 -9.100723E+00 +1.427242E+03 
 +5.812164E+02 -1.034494E+01 +7.131950E+00 -1.034494E+01 +5.929016E+02 +1.194539E+01 +7.131950E+00 +1.194539E+01 +1.357200E+03 
 +6.147249E+02 +2.647093E-01 -2.749026E+01 +2.647093E-01 +6.091520E+02 +1.005644E+01 -2.749026E+01 +1.005644E+01 +1.399362E+03 
 +5.818654E+02 +1.991334E+01 -1.758996E+00 +1.991334E+01 +6.167293E+02 -1.716878E+01 -1.758996E+00 -1.716878E+01 +1.351548E+03 
 +6.732542E+02 +5.111053E+00 -6.822917E+00 +5.111053E+00 +6.247380E+02 +2.362799E+01 -6.822917E+00 +2.362799E+01 +1.412561E+03 
 +5.949357E+02 -2.883403E+01 -4.071169E+00 -2.883403E+01 +5.779748E+02 +2.628408E+01 -4.071169E+00 +2.628408E+01 +1.319851E+03 
 +5.954752E+02 -3.540477E+01 +1.792368E+01 -3.540477E+01 +6.389752E+02 +1.238250E+01 +1.792368E+01 +1.238250E+01 +1.300720E+03 
 +5.459662E+02 -2.112322E+00 +1.074586E+01 -2.112322E+00 +6.787752E+02 -1.054446E+01 +1.074586E+01 -1.054446E+01 +1.275293E+03 
 +5.776622E+02 -4.169617E+01 -4.573526E+00 -4.169617E+01 +6.030535E+02 -1.833117E+01 -4.573526E+00 -1.833117E+01 +1.410177E+03 
 +5.817874E+02 -8.467139E+00 +1.244004E+01 -8.467139E+00 +7.076763E+02 +1.765150E+00 +1.244004E+01 +1.765150E+00 +1.311260E+03 
 +6.862660E+02 +2.759693E+01 -4.335149E+00 +2.759693E+01 +7.361169E+02 +1.108226E+01 -4.335149E+00 +1.108226E+01 +1.390310E+03 
 +6.365310E+02 -1.108865E+01 -1.218412E+01 -1.108865E+01 +6.286672E+02 +1.208426E+01 -1.218412E+01 +1.208426E+01 +1.314660E+03 
 +6.623515E+02 +3.661934E+01 +3.618037E+00 +3.661934E+01 +6.296801E+02 +1.220468E+01 +3.618037E+00 +1.220468E+01 +1.330670E+03 
 +5.992590E+02 +8.294186E-01 -4.024493E+01 +8.294186E-01 +5.948600E+02 +8.194725E+00 -4.024493E+01 +8.194725E+00 +1.343582E+03 
 +6.096146E+02 -1.317881E+01 -8.591503E-01 -1.317881E+01 +6.154103E+02 -1.492873E+00 -8.591503E-01 -1.492873E+00 +1.470851E+03 
 +5.531652E+02 -8.048765E+00 -5.216810E-01 -8.048765E+00 +6.014405E+02 -3.658760E+00 -5.216810E-01 -3.658760E+00 +1.258226E+03 
 +5.882543E+02 -7.784228E+00 +5.858517E+00 -7.784228E+00 +6.254318E+02 +3.679910E+00 +5.858517E+00 +3.679910E+00 +1.340110E+03 
 +6.145236E+02 -1.428549E+01 -3.051218E+01 -1.428549E+01 +6.296993E+02 -1.003991E+01 -3.051218E+01 -1.003991E+01 +1.437933E+03 
 +6.756083E+02 +2.575007E+01 -4.167015E+00 +2.575007E+01 +6.494938E+02 +1.106336E+00 -4.167015E+00 +1.106336E+00 +1.340587E+03 
 +6.214777E+02 -2.540562E+01 -2.514263E-01 -2.540562E+01 +6.427098E+02 +4.503411E+00 -2.514263E-01 +4.503411E+00 +1.442358E+03 
 +5.706777E+02 +4.769826E+00 +1.148578E+01 +4.769826E+00 +6.907324E+02 +1.740279E+00 +1.148578E+01 +1.740279E+00 +1.338442E+03 
 +5.961144E+02 -1.475190E+00 -5.192934E+01 -1.475190E+00 +6.353358E+02 +2.423661E+01 -5.192934E+01 +2.423661E+01 +1.421639E+03 
 +5.680132E+02 -1.232800E+01 -4.171817E+00 -1.232800E+01 +6.720622E+02 +5.603045E+00 -4.171817E+00 +5.603045E+00 +1.324853E+03 
 +6.489828E+02 +6.101543E+01 -1.259686E+01 +6.101543E+01 +7.268864E+02 +1.024160E+01 -1.259686E+01 +1.024160E+01 +1.355666E+03 
 +5.473445E+02 -7.315320E+00 -4.943422E+00 -7.315320E+00 +5.798260E+02 +2.322532E+01 -4.943422E+00 +2.322532E+01 +1.403834E+03 
 +6.353972E+02 -5.080381E+00 +1.296146E+01 -5.080381E+00 +5.888768E+02 +1.589062E+01 +1.296146E+01 +1.589062E+01 +1.387604E+03 
 +6.165492E+02 -2.392479E+01 +3.299437E+01 -2.392479E+01 +6.632863E+02 +1.718965E-01 +3.299437E+01 +1.718965E-01 +1.352938E+03 
 +6.317077E+02 +2.782859E+01 -9.368463E+00 +2.782859E+01 +6.181692E+02 +2.065909E+01 -9.368463E+00 +2.065909E+01 +1.324909E+03 
 +6.297856E+02 +8.475770E+00 -1.909188E+01 +8.475770E+00 +5.984743E+02 +2.183713E+01 -1.909188E+01 +2.183713E+01 +1.406179E+03 
 +6.066024E+02 -2.082396E+01 +2.433934E+01 -2.082396E+01 +5.981440E+02 -6.899726E+00 +2.433934E+01 -6.899726E+00 +1.383775E+03 
 +5.764483E+02 +2.944682E+01 -3.947046E+01 +2.944682E+01 +5.601565E+02 -1.818813E+01 -3.947046E+01 -1.818813E+01 +1.389193E+03 
 +5.379147E+02 -6.441370E+00 +1.372808E+01 -6.441370E+00 +5.234467E+02 -4.907524E+00 +1.372808E+01 -4.907524E+00 +1.382526E+03 
 +5.457927E+02 +1.708127E+01 +1.668582E+01 +1.708127E+01 +5.425001E+02 +2.372972E+00 +1.668582E+01 +2.372972E+00 +1.375426E+03 
 +5.931752E+02 -2.604354E+00 -8.754266E+00 -2.604354E+00 +5.594759E+02 +1.334870E+01 -8.754266E+00 +1.334870E+01 +1.387500E+03 
 +6.132521E+02 +1.727116E+01 -2.754745E+01 +1.727116E+01 +5.701816E+02 +7.371608E+00 -2.754745E+01 +7.371608E+00 +1.402796E+03 
 +5.548183E+02 +2.434426E+01 +2.435727E+01 +2.434426E+01 +5.422512E+02 -6.041853E+00 +2.435727E+01 -6.041853E+00 +1.395742E+03 
 +6.763445E+02 +3.672577E+01 -1.194963E+00 +3.672577E+01 +5.723903E+02 +3.824543E+00 -1.194963E+00 +3.824543E+00 +1.322655E+03 
 +5.882977E+02 +6.222203E+00 -2.025788E+01 +6.222203E+00 +6.824554E+02 +8.898753E+00 -2.025788E+01 +8.898753E+00 +1.348412E+03 
 +6.354118E+02 -9.515130E-01 +1.280404E+01 -9.515130E-01 +6.341204E+02 +1.201616E+01 +1.280404E+01 +1.201616E+01 +1.465724E+03 
 +5.845480E+02 -1.957124E+00 +6.442478E+00 -1.957124E+00 +5.702734E+02 -1.728644E+01 +6.442478E+00 -1.728644E+01 +1.316618E+03 
 +5.687715E+02 -1.806701E+01 -1.227465E+01 -1.806701E+01 +6.616121E+02 +2.287671E+00 -1.227465E+01 +2.287671E+00 +1.398490E+03 
 +5.923690E+02 +7.582268E+00 +1.832534E+01 +7.582268E+00 +5.824477E+02 +2.167101E+01 +1.832534E+01 +2.167101E+01 +1.441175E+03 
 +7.238302E+02 +1.832804E+01 -7.443585E+00 +1.832804E+01 +5.737019E+02 -1.159738E+00 -7.443585E+00 -1.159738E+00 +1.348078E+03 
 +6.390546E+02 -4.945187E+01 -9.771946E+00 -4.945187E+01 +6.426914E+02 -1.415030E+01 -9.771946E+00 -1.415030E+01 +1.321420E+03 
 +6.414538E+02 -2.052256E+01 -3.577096E+00 -2.052256E+01 +6.004064E+02 -2.213102E+01 -3.577096E+00 -2.213102E+01 +1.327585E+03 
 +5.625266E+02 -1.248895E+01 +1.148930E+01 -1.248895E+01 +6.094633E+02 +4.583648E+01 +1.148930E+01 +4.583648E+01 +1.442999E+03 
 +6.451886E+02 -5.355159E+01 +4.147418E+00 -5.355159E+01 +6.244449E+02 -1.780401E+00 +4.147418E+00 -1.780401E+00 +1.339141E+03 
 +6.032889E+02 +8.903586E+00 -2.673198E+01 +8.903586E+00 +5.670435E+02 -2.514629E+01 -2.673198E+01 -2.514629E+01 +1.357704E+03 
 +6.723734E+02 +4.152820E+01 +2.022128E+01 +4.152820E+01 +6.096289E+02 +9.895007E+00 +2.022128E+01 +9.895007E+00 +1.284168E+03 
 +5.853720E+02 -1.036494E+01 -7.127207E+00 -1.036494E+01 +6.086360E+02 -1.143870E+01 -7.127207E+00 -1.143870E+01 +1.469887E+03 
 +5.466190E+02 +1.269439E+01 +1.898926E+01 +1.269439E+01 +6.131031E+02 -5.355381E+00 +1.898926E+01 -5.355381E+00 +1.345542E+03 
 +6.299692E+02 +1.263619E+01 -3.352234E+01 +1.263619E+01 +6.346262E+02 +5.633719E+00 -3.352234E+01 +5.633719E+00 +1.420804E+03 
 +6.279015E+02 +5.527297E+00 +1.112841E+01 +5.527297E+00 +6.188480E+02 +2.614440E+00 +1.112841E+01 +2.614440E+00 +1.288449E+03 
 +6.729489E+02 -1.725812E+01 +5.442896E+00 -1.725812E+01 +6.187341E+02 -1.340086E+01 +5.442896E+00 -1.340086E+01 +1.347951E+03 
 +6.194890E+02 -4.813081E+01 -1.229907E+01 -4.813081E+01 +6.314200E+02 -1.004816E+01 -1.229907E+01 -1.004816E+01 +1.308186E+03 
 +6.094119E+02 +2.501225E+01 -1.360824E+01 +2.501225E+01 +5.888298E+02 +9.105474E+00 -1.360824E+01 +9.105474E+00 +1.381767E+03 
 +6.610405E+02 +7.769598E+00 +1.913605E+01 +7.769598E+00 +6.628741E+02 +5.333838E+00 +1.913605E+01 +5.333838E+00 +1.348971E+03 
 +6.305161E+02 +1.072835E+00 -1.404930E+01 +1.072835E+00 +6.507429E+02 +1.989675E+01 -1.404930E+01 +1.989675E+01 +1.368772E+03 
 +6.445224E+02 -9.570453E-01 -1.344507E+00 -9.570453E-01 +6.784149E+02 -2.271507E+00 -1.344507E+00 -2.271507E+00 +1.334475E+03 
 +5.665931E+02 -2.476970E+01 +4.648039E+00 -2.476970E+01 +7.233956E+02 +3.202468E+01 +4.648039E+00 +3.202468E+01 +1.364085E+03 
 +6.152064E+02 -1.423445E+01 +8.763752E+00 -1.423445E+01 +6.566904E+02 -2.308275E+01 +8.763752E+00 -2.308275E+01 +1.314936E+03 
 +6.269189E+02 +2.954476E+01 -2.746112E+00 +2.954476E+01 +6.360801E+02 -1.909309E+01 -2.746112E+00 -1.909309E+01 +1.330747E+03 
 +6.227916E+02 +1.809717E+01 -1.671288E+01 +1.809717E+01 +6.357876E+02 +6.074540E+00 -1.671288E+01 +6.074540E+00 +1.369603E+03 
 +5.756057E+02 +3.037768E+00 +1.597684E+01 +3.037768E+00 +6.516896E+02 +2.619372E+01 +1.597684E+01 +2.619372E+01 +1.314256E+03 
 +6.180666E+02 -7.602851E+00 +1.387803E+01 -7.602851E+00 +6.372268E+02 +1.012098E+01 +1.387803E+01 +1.012098E+01 +1.330979E+03 
 +6.895690E+02 +3.495283E+01 -6.376031E+00 +3.495283E+01 +6.101621E+02 -2.166238E+01 -6.376031E+00 -2.166238E+01 +1.323529E+03 
 +6.080500E+02 +8.648012E+00 -1.968084E+00 +8.648012E+00 +5.835386E+02 -3.719597E+01 -1.968084E+00 -3.719597E+01 +1.400343E+03 
 +6.002838E+02 +6.134046E+00 +9.566199E-01 +6.134046E+00 +5.693831E+02 +1.191236E+01 +9.566199E-01 +1.191236E+01 +1.371053E+03 
 +5.755930E+02 +5.690404E+00 -4.302412E+00 +5.690404E+00 +5.834713E+02 +2.259140E+01 -4.302412E+00 +2.259140E+01 +1.316183E+03 
 +6.572566E+02 -2.071000E+01 +3.167475E+01 -2.071000E+01 +6.148835E+02 -1.924006E+01 +3.167475E+01 -1.924006E+01 +1.366169E+03 
 +6.311954E+02 +3.107141E+01 +5.477472E+00 +3.107141E+01 +5.835678E+02 -1.165911E+01 +5.477472E+00 -1.165911E+01 +1.285458E+03 
 +6.443310E+02 -2.138021E+01 -1.818740E+01 -2.138021E+01 +6.533018E+02 +1.032230E+00 -1.818740E+01 +1.032230E+00 +1.380938E+03 
 +6.640182E+02 -3.347649E+01 -1.778694E+00 -3.347649E+01 +6.187131E+02 -1.408505E+01 -1.778694E+00 -1.408505E+01 +1.338589E+03 
 +5.278304E+02 +8.751585E+00 +1.943291E+00 +8.751585E+00 +5.515079E+02 +4.023053E+01 +1.943291E+00 +4.023053E+01 +1.376443E+03 
 +5.547380E+02 +1.012253E+01 +5.839022E+00 +1.012253E+01 +5.917343E+02 +2.182201E+01 +5.839022E+00 +2.182201E+01 +1.360169E+03 
 +5.702312E+02 +1.651001E+01 +1.177928E+01 +1.651001E+01 +5.343133E+02 +5.009421E+00 +1.177928E+01 +5.009421E+00 +1.261193E+03 
 +5.513331E+02 -1.855914E+01 -4.487386E+00 -1.855914E+01 +5.738730E+02 -5.013786E+00 -4.487386E+00 -5.013786E+00 +1.360210E+03 
 +5.667650E+02 +8.327826E+00 +1.947222E+01 +8.327826E+00 +5.612975E+02 +2.163778E+01 +1.947222E+01 +2.163778E+01 +1.271734E+03 
 +6.681046E+02 -4.592173E+00 -2.558734E+01 -4.592173E+00 +5.780665E+02 +2.996006E+01 -2.558734E+01 +2.996006E+01 +1.329852E+03 
 +5.419274E+02 -2.414781E+01 -1.864052E+01 -2.414781E+01 +6.314948E+02 +1.427537E+00 -1.864052E+01 +1.427537E+00 +1.267742E+03 
 +5.531293E+02 +1.999539E+01 -2.746292E+00 +1.999539E+01 +5.724319E+02 -3.095684E+01 -2.746292E+00 -3.095684E+01 +1.424179E+03 
 +6.174011E+02 +1.400207E+01 -7.528089E+00 +1.400207E+01 +6.219374E+02 +2.048758E+01 -7.528089E+00 +2.048758E+01 +1.383258E+03 
 +5.765050E+02 -1.844541E+01 +1.397446E+01 -1.844541E+01 +6.351028E+02 +2.141994E+01 +1.397446E+01 +2.141994E+01 +1.285453E+03 
 +5.962866E+02 +2.284447E+01 -2.247356E+00 +2.284447E+01 +5.435915E+02 +1.187801E+01 -2.247356E+00 +1.187801E+01 +1.275736E+03 
 +5.818754E+02 +6.099625E+00 -4.152521E+00 +6.099625E+00 +5.857952E+02 +4.623824E+01 -4.152521E+00 +4.623824E+01 +1.342667E+03 
 +5.687958E+02 -2.111642E+01 +1.433612E+01 -2.111642E+01 +7.084956E+02 +2.949190E+00 +1.433612E+01 +2.949190E+00 +1.357940E+03 
 +5.805017E+02 -5.763940E+01 +1.566113E+01 -5.763940E+01 +6.773751E+02 -2.111913E+01 +1.566113E+01 -2.111913E+01 +1.348998E+03 
 +5.512136E+02 +2.720217E+01 -2.841457E+01 +2.720217E+01 +6.474955E+02 +7.214340E-01 -2.841457E+01 +7.214340E-01 +1.337653E+03 
 +5.838763E+02 +2.815556E+01 -9.623228E+00 +2.815556E+01 +6.468533E+02 +2.081729E+01 -9.623228E+00 +2.081729E+01 +1.301397E+03 
 +6.399252E+02 -2.930063E+01 +2.747634E+00 -2.930063E+01 +7.155962E+02 +2.263345E+01 +2.747634E+00 +2.263345E+01 +1.367696E+03 
 +5.731693E+02 -3.187427E+00 -3.209583E+01 -3.187427E+00 +6.054689E+02 +1.886654E+01 -3.209583E+01 +1.886654E+01 +1.360425E+03 
 +5.792385E+02 +6.707742E+00 +1.582530E+01 +6.707742E+00 +5.618027E+02 -1.259131E+01 +1.582530E+01 -1.259131E+01 +1.309364E+03 
 +5.883442E+02 +1.559405E+01 -9.172193E+00 +1.559405E+01 +5.957744E+02 -2.096386E+01 -9.172193E+00 -2.096386E+01 +1.364477E+03 
 +7.289494E+02 -3.326198E+00 +8.455290E+00 -3.326198E+00 +6.436792E+02 -2.841624E+01 +8.455290E+00 -2.841624E+01 +1.394583E+03 
 +5.911606E+02 +1.234407E+01 -1.402180E+01 +1.234407E+01 +5.930916E+02 +3.029579E+00 -1.402180E+01 +3.029579E+00 +1.427614E+03 
 +7.268800E+02 +2.954507E+01 -6.418736E+00 +2.954507E+01 +5.707075E+02 +1.883436E+01 -6.418736E+00 +1.883436E+01 +1.361331E+03 
 +6.582667E+02 -1.337498E+01 -8.638048E-01 -1.337498E+01 +6.309711E+02 -5.389163E+00 -8.638048E-01 -5.389163E+00 +1.327332E+03 
 +6.163364E+02 -5.777571E-01 -5.014949E-02 -5.777571E-01 +5.702816E+02 +8.358871E+00 -5.014949E-02 +8.358871E+00 +1.266255E+03 
 +5.599039E+02 -2.040908E+01 -9.070279E-01 -2.040908E+01 +6.333893E+02 +8.825331E+00 -9.070279E-01 +8.825331E+00 +1.283371E+03 
 +5.487240E+02 +6.841640E+00 -3.059317E-01 +6.841640E+00 +6.720090E+02 +9.182993E-01 -3.059317E-01 +9.182993E-01 +1.306254E+03 
 +5.538046E+02 +5.711586E+00 +6.688820E+00 +5.711586E+00 +6.439078E+02 +1.681222E+00 +6.688820E+00 +1.681222E+00 +1.292060E+03 
 +6.791361E+02 -1.294675E+01 -7.175314E+00 -1.294675E+01 +6.880507E+02 -1.648078E+00 -7.175314E+00 -1.648078E+00 +1.429665E+03 
 +5.863318E+02 -1.170253E+01 +4.991254E+00 -1.170253E+01 +6.079849E+02 +2.390925E+01 +4.991254E+00 +2.390925E+01 +1.411440E+03 
 +6.774637E+02 +2.906381E+01 +6.628319E+00 +2.906381E+01 +5.783083E+02 -9.632809E+00 +6.628319E+00 -9.632809E+00 +1.343264E+03 
 +6.289080E+02 +3.662388E+01 -3.044750E+00 +3.662388E+01 +5.565183E+02 +1.236707E+01 -3.044750E+00 +1.236707E+01 +1.288002E+03 
 +6.517930E+02 +2.295118E+01 -3.028503E+01 +2.295118E+01 +6.523862E+02 +1.933612E+01 -3.028503E+01 +1.933612E+01 +1.441844E+03 
 +6.170964E+02 -2.048646E+01 +3.056948E+01 -2.048646E+01 +6.058080E+02 +1.331407E+01 +3.056948E+01 +1.331407E+01 +1.299406E+03 
 +5.453488E+02 -9.273519E-01 -5.120158E+00 -9.273519E-01 +5.562416E+02 -5.545945E+00 -5.120158E+00 -5.545945E+00 +1.406530E+03 
 +6.675110E+02 +1.844250E+01 +4.871997E+00 +1.844250E+01 +5.276746E+02 +6.788540E-01 +4.871997E+00 +6.788540E-01 +1.305880E+03 
 +6.037097E+02 +6.462536E+00 +5.752851E+00 +6.462536E+00 +5.235195E+02 -5.719648E+00 +5.752851E+00 -5.719648E+00 +1.279672E+03 
 +5.505652E+02 +2.503016E+01 -1.710735E+01 +2.503016E+01 +5.484080E+02 +5.485271E+00 -1.710735E+01 +5.485271E+00 +1.358722E+03 
 +6.298440E+02 +2.237665E+01 -3.192813E+01 +2.237665E+01 +5.958359E+02 +3.141302E+01 -3.192813E+01 +3.141302E+01 +1.382916E+03 
 +5.841190E+02 -2.609391E+01 -4.782775E+00 -2.609391E+01 +6.486840E+02 -4.494337E-01 -4.782775E+00 -4.494337E-01 +1.328399E+03 
 +6.945585E+02 +1.319273E+01 +7.018520E+00 +1.319273E+01 +6.006652E+02 +8.008855E+00 +7.018520E+00 +8.008855E+00 +1.333649E+03 
 +5.335370E+02 +7.058536E+00 +1.873109E+01 +7.058536E+00 +5.660151E+02 -8.431125E-02 +1.873109E+01 -8.431125E-02 +1.387148E+03 
 +5.731152E+02 -1.642530E+01 -3.284151E+01 -1.642530E+01 +5.644617E+02 +2.211725E+01 -3.284151E+01 +2.211725E+01 +1.370537E+03 
 +5.805981E+02 -9.348855E+00 -1.046930E+01 -9.348855E+00 +5.466993E+02 +2.536096E+00 -1.046930E+01 +2.536096E+00 +1.319374E+03 
 +5.456461E+02 -2.331291E+00 +3.956069E-01 -2.331291E+00 +5.513352E+02 +2.845638E+01 +3.956069E-01 +2.845638E+01 +1.349273E+03 
 +6.762296E+02 -1.597282E+00 +1.174059E+01 -1.597282E+00 +5.625197E+02 +9.567024E+00 +1.174059E+01 +9.567024E+00 +1.301850E+03 
 +6.191808E+02 -3.518754E+01 +1.393606E+01 -3.518754E+01 +6.254387E+02 -1.399001E+01 +1.393606E+01 -1.399001E+01 +1.325749E+03 
 +6.584488E+02 -1.790231E+01 +5.980646E+00 -1.790231E+01 +6.330956E+02 -4.127531E+00 +5.980646E+00 -4.127531E+00 +1.351455E+03 
 +5.977602E+02 +1.310164E+01 -2.343228E+01 +1.310164E+01 +5.775986E+02 -5.948565E+00 -2.343228E+01 -5.948565E+00 +1.362100E+03 
 +5.866575E+02 -2.246002E+00 +2.277758E+01 -2.246002E+00 +5.719797E+02 -8.435457E+00 +2.277758E+01 -8.435457E+00 +1.364078E+03 
 +6.868530E+02 -3.397932E+01 -2.050876E+01 -3.397932E+01 +6.627210E+02 +7.525043E+00 -2.050876E+01 +7.525043E+00 +1.358733E+03 
 +5.704149E+02 +5.388511E+00 +2.139525E+00 +5.388511E+00 +5.988769E+02 -7.614602E+00 +2.139525E+00 -7.614602E+00 +1.368563E+03 
 +5.648467E+02 +1.468796E+01 -3.072417E+00 +1.468796E+01 +6.062814E+02 -1.674506E+01 -3.072417E+00 -1.674506E+01 +1.294787E+03 
 +5.916990E+02 +1.059256E+01 +6.066478E+00 +1.059256E+01 +5.728640E+02 -1.366455E+01 +6.066478E+00 -1.366455E+01 +1.440404E+03 
 +6.694301E+02 +3.388870E+01 +1.003384E+01 +3.388870E+01 +6.317837E+02 +1.632843E+00 +1.003384E+01 +1.632843E+00 +1.274026E+03 
 +6.181010E+02 -1.333646E+01 -1.352109E+01 -1.333646E+01 +6.272241E+02 -1.832545E+01 -1.352109E+01 -1.832545E+01 +1.441477E+03 
 +5.988272E+02 +2.705466E+01 -1.773386E+00 +2.705466E+01 +6.601744E+02 +1.240900E+01 -1.773386E+00 +1.240900E+01 +1.295244E+03 
 +7.031875E+02 -3.312262E+01 -5.419958E+00 -3.312262E+01 +5.923145E+02 +2.470126E+00 -5.419958E+00 +2.470126E+00 +1.328012E+03 
 +6.756667E+02 -2.401318E+01 -2.914487E+00 -2.401318E+01 +5.878884E+02 -1.574899E+01 -2.914487E+00 -1.574899E+01 +1.337342E+03 
 +6.638953E+02 +2.605511E+01 +2.753714E+01 +2.605511E+01 +6.251144E+02 +3.640639E+01 +2.753714E+01 +3.640639E+01 +1.344698E+03 
 +5.320253E+02 -2.247423E+01 -1.885582E+01 -2.247423E+01 +6.487327E+02 +3.550757E+01 -1.885582E+01 +3.550757E+01 +1.271767E+03 
 +5.728842E+02 -1.358440E+01 +1.029681E+01 -1.358440E+01 +6.098597E+02 +1.135492E+01 +1.029681E+01 +1.135492E+01 +1.343584E+03 
 +5.989438E+02 +1.997503E+01 +9.564820E+00 +1.997503E+01 +5.845515E+02 +4.366728E+01 +9.564820E+00 +4.366728E+01 +1.307169E+03 
 +6.548657E+02 -3.349842E+00 -9.102590E-04 -3.349842E+00 +6.013531E+02 -1.038792E+01 -9.102590E-04 -1.038792E+01 +1.355126E+03 
 +6.067256E+02 +5.820076E+00 +2.081025E+01 +5.820076E+00 +6.510248E+02 -1.048902E+01 +2.081025E+01 -1.048902E+01 +1.338195E+03 
 +6.336889E+02 -2.588181E+01 +9.673144E+00 -2.588181E+01 +7.308828E+02 -6.896702E+00 +9.673144E+00 -6.896702E+00 +1.383962E+03 
 +6.276925E+02 -4.749294E+01 +1.170658E+01 -4.749294E+01 +6.739692E+02 +1.760737E+01 +1.170658E+01 +1.760737E+01 +1.332722E+03 
 +5.955845E+02 +2.112692E+01 +7.693352E+00 +2.112692E+01 +6.207579E+02 +9.329244E+00 +7.693352E+00 +9.329244E+00 +1.269988E+03 
 +5.917467E+02 +1.452457E+00 -2.678665E+00 +1.452457E+00 +6.130516E+02 +8.341373E+00 -2.678665E+00 +8.341373E+00 +1.432790E+03 
 +7.284133E+02 -2.942556E+01 -1.244904E+01 -2.942556E+01 +6.260810E+02 -2.208313E+00 -1.244904E+01 -2.208313E+00 +1.375747E+03 
 +6.437265E+02 -2.442920E+00 +1.651571E+01 -2.442920E+00 +6.988787E+02 +2.179744E+01 +1.651571E+01 +2.179744E+01 +1.377950E+03 
 +6.181145E+02 +3.216431E+01 +4.171050E-01 +3.216431E+01 +6.318010E+02 +1.581304E+01 +4.171050E-01 +1.581304E+01 +1.403007E+03 
 +6.143989E+02 +1.473662E+01 -2.020432E+01 +1.473662E+01 +6.621656E+02 -5.983624E+00 -2.020432E+01 -5.983624E+00 +1.389265E+03 
 +6.334001E+02 +1.964627E+01 +1.453857E+01 +1.964627E+01 +6.159155E+02 +3.587673E+00 +1.453857E+01 +3.587673E+00 +1.344234E+03 
 +6.030287E+02 -1.621940E+01 -1.186638E+01 -1.621940E+01 +5.995032E+02 -2.081323E+01 -1.186638E+01 -2.081323E+01 +1.283850E+03 
 +5.794428E+02 -2.027469E+01 +3.230989E+00 -2.027469E+01 +5.781921E+02 -2.248414E+01 +3.230989E+00 -2.248414E+01 +1.362580E+03 
 +5.776626E+02 +2.150357E+00 -1.056259E+01 +2.150357E+00 +5.886317E+02 +1.897914E+01 -1.056259E+01 +1.897914E+01 +1.349832E+03 
 +6.660430E+02 +6.158318E+00 -9.973328E+00 +6.158318E+00 +6.045527E+02 +5.618858E+00 -9.973328E+00 +5.618858E+00 +1.306481E+03 
 +5.876872E+02 +5.785205E+00 +1.507686E+00 +5.785205E+00 +6.610429E+02 +7.331026E+00 +1.507686E+00 +7.331026E+00 +1.286448E+03 
 +5.343198E+02 -2.852669E+00 -8.144866E+00 -2.852669E+00 +5.528147E+02 +3.782067E-01 -8.144866E+00 +3.782067E-01 +1.402689E+03 
 +5.735328E+02 +1.380007E+01 +8.576332E-01 +1.380007E+01 +5.443149E+02 +1.101180E+01 +8.576332E-01 +1.101180E+01 +1.290668E+03 
 +5.607028E+02 +2.140232E+00 +1.909047E+01 +2.140232E+00 +5.583968E+02 +1.680650E+01 +1.909047E+01 +1.680650E+01 +1.383323E+03 
 +5.985743E+02 -1.480377E+01 +6.631289E+00 -1.480377E+01 +5.819238E+02 +2.919801E+01 +6.631289E+00 +2.919801E+01 +1.312897E+03 
 +5.945304E+02 -2.796368E+01 -1.192703E+01 -2.796368E+01 +6.620494E+02 +1.540197E+00 -1.192703E+01 +1.540197E+00 +1.378319E+03 
 +5.986317E+02 -4.490175E+00 -5.567952E-02 -4.490175E+00 +6.649062E+02 -1.245242E+01 -5.567952E-02 -1.245242E+01 +1.305828E+03 
 +6.212798E+02 +3.946640E+01 -7.928686E+00 +3.946640E+01 +6.710433E+02 -1.044932E+01 -7.928686E+00 -1.044932E+01 +1.356054E+03 
 +5.901898E+02 -1.515259E+01 +1.495457E+01 -1.515259E+01 +6.538036E+02 -3.006147E+01 +1.495457E+01 -3.006147E+01 +1.356342E+03 
 +6.407194E+02 +3.530039E+01 -1.459034E+01 +3.530039E+01 +6.125901E+02 -2.385958E+01 -1.459034E+01 -2.385958E+01 +1.293172E+03 
 +5.679485E+02 +5.678877E+01 +9.388379E-01 +5.678877E+01 +6.521672E+02 -3.290746E+00 +9.388379E-01 -3.290746E+00 +1.287961E+03 
 +6.974125E+02 +2.437737E+01 +8.563373E+00 +2.437737E+01 +6.961113E+02 +2.606918E+00 +8.563373E+00 +2.606918E+00 +1.392516E+03 
 +5.724688E+02 +6.725919E+00 +5.069345E+00 +6.725919E+00 +6.106833E+02 -3.998975E+00 +5.069345E+00 -3.998975E+00 +1.411546E+03 
 +5.948514E+02 +4.347385E+00 +3.127806E+00 +4.347385E+00 +6.193936E+02 -8.755879E+00 +3.127806E+00 -8.755879E+00 +1.395912E+03 
 +6.897493E+02 -1.357191E+01 +1.097004E+01 -1.357191E+01 +7.506617E+02 +2.670106E+00 +1.097004E+01 +2.670106E+00 +1.406833E+03 
 +5.622391E+02 +3.533378E+01 -2.625893E+01 +3.533378E+01 +6.698516E+02 +2.215629E+01 -2.625893E+01 +2.215629E+01 +1.356464E+03 
 +5.775097E+02 -1.769838E+00 +3.328233E+01 -1.769838E+00 +5.807952E+02 +1.238008E+01 +3.328233E+01 +1.238008E+01 +1.385954E+03 
 +5.631299E+02 -1.320905E+01 -6.328536E+00 -1.320905E+01 +6.330308E+02 -2.646450E+01 -6.328536E+00 -2.646450E+01 +1.274405E+03 
 +6.220552E+02 -2.938804E+01 -5.030994E-01 -2.938804E+01 +6.658752E+02 +1.428178E+00 -5.030994E-01 +1.428178E+00 +1.329388E+03 
 +5.725109E+02 -1.147363E+00 -1.397707E+01 -1.147363E+00 +5.710773E+02 +4.321265E+00 -1.397707E+01 +4.321265E+00 +1.328573E+03 
 +5.712578E+02 -5.829550E+00 +4.182510E+00 -5.829550E+00 +6.105352E+02 -1.594596E+01 +4.182510E+00 -1.594596E+01 +1.349881E+03 
 +6.616652E+02 -4.701131E+01 +2.460741E+01 -4.701131E+01 +6.272141E+02 -1.024026E+01 +2.460741E+01 -1.024026E+01 +1.288809E+03 
 +6.045121E+02 +1.094656E+01 +4.366677E+01 +1.094656E+01 +6.070143E+02 +2.264775E+01 +4.366677E+01 +2.264775E+01 +1.445823E+03 
 +6.720232E+02 +2.061335E+01 -1.453346E+01 +2.061335E+01 +5.996768E+02 +1.518772E+01 -1.453346E+01 +1.518772E+01 +1.345779E+03 
 +5.868665E+02 +4.248318E+00 +1.747550E+01 +4.248318E+00 +6.018598E+02 +2.573726E+01 +1.747550E+01 +2.573726E+01 +1.347518E+03 
 +6.786785E+02 +3.969155E+00 -5.657901E+00 +3.969155E+00 +6.916968E+02 +1.051853E+01 -5.657901E+00 +1.051853E+01 +1.398557E+03 
 +6.231139E+02 +3.173576E+01 -1.992733E+00 +3.173576E+01 +6.285716E+02 -2.147500E+01 -1.992733E+00 -2.147500E+01 +1.359980E+03 
 +6.154435E+02 +3.168771E-01 -2.145751E+01 +3.168771E-01 +6.436055E+02 -1.686741E+01 -2.145751E+01 -1.686741E+01 +1.354378E+03 
 +6.657792E+02 -4.098416E+01 +7.338439E+00 -4.098416E+01 +6.829210E+02 +6.637689E-01 +7.338439E+00 +6.637689E-01 +1.339781E+03 
 +5.956933E+02 -2.420474E+01 +3.518473E+00 -2.420474E+01 +6.755419E+02 -3.518598E+00 +3.518473E+00 -3.518598E+00 +1.367370E+03 
 +6.293885E+02 -1.982737E+01 -1.567936E+01 -1.982737E+01 +7.269764E+02 -8.394478E+00 -1.567936E+01 -8.394478E+00 +1.324685E+03 
 +6.017148E+02 -3.176115E+01 -5.182074E+00 -3.176115E+01 +6.649338E+02 -9.362417E+00 -5.182074E+00 -9.362417E+00 +1.304978E+03 
 +5.360665E+02 +1.666790E+01 +1.390772E+01 +1.666790E+01 +6.305553E+02 -5.752116E+00 +1.390772E+01 -5.752116E+00 +1.283528E+03 
 +7.000847E+02 +7.856787E-01 -6.569224E-01 +7.856787E-01 +6.673508E+02 +9.206050E+00 -6.569224E-01 +9.206050E+00 +1.388882E+03 
 +6.103538E+02 -1.295632E+01 -7.372495E+00 -1.295632E+01 +5.958887E+02 +3.509516E+00 -7.372495E+00 +3.509516E+00 +1.352992E+03 
 +5.296150E+02 +1.726755E+01 -1.707694E+01 +1.726755E+01 +4.690884E+02 -7.572370E+00 -1.707694E+01 -7.572370E+00 +1.356564E+03 
 +6.227338E+02 +9.691396E-01 +9.061643E+00 +9.691396E-01 +5.672851E+02 +1.389440E+01 +9.061643E+00 +1.389440E+01 +1.279935E+03 
 +5.418903E+02 +9.178072E+00 +7.493101E+00 +9.178072E+00 +5.124854E+02 -2.936734E+00 +7.493101E+00 -2.936734E+00 +1.390855E+03 
 +6.218253E+02 -2.181544E+01 -1.706677E+01 -2.181544E+01 +5.229455E+02 -6.880669E+00 -1.706677E+01 -6.880669E+00 +1.257376E+03 
 +6.118054E+02 -3.398504E+01 -2.060024E+01 -3.398504E+01 +5.904203E+02 -5.752563E+00 -2.060024E+01 -5.752563E+00 +1.303691E+03 
 +6.038744E+02 +1.038475E+01 -1.671946E+01 +1.038475E+01 +6.378809E+02 -9.458917E+00 -1.671946E+01 -9.458917E+00 +1.363842E+03 
 +5.924762E+02 +2.383588E+01 +2.189227E+01 +2.383588E+01 +6.067628E+02 +1.623393E+01 +2.189227E+01 +1.623393E+01 +1.265553E+03 
 +6.540133E+02 -1.216304E+01 +5.439158E+00 -1.216304E+01 +6.255957E+02 +6.210965E+00 +5.439158E+00 +6.210965E+00 +1.352217E+03 
 +5.518215E+02 +1.444768E+01 +8.143078E+00 +1.444768E+01 +5.880800E+02 +2.567049E+00 +8.143078E+00 +2.567049E+00 +1.406601E+03 
 +5.588364E+02 -2.068506E+00 +2.192376E+01 -2.068506E+00 +5.623650E+02 +3.241189E+01 +2.192376E+01 +3.241189E+01 +1.349476E+03 
 +5.666382E+02 -3.139898E+01 -1.165512E+01 -3.139898E+01 +6.349598E+02 -2.390297E+01 -1.165512E+01 -2.390297E+01 +1.297843E+03 
 +6.043268E+02 -1.505161E+01 +5.835522E+00 -1.505161E+01 +6.205065E+02 +1.216502E+01 +5.835522E+00 +1.216502E+01 +1.374935E+03 
 +6.131378E+02 -7.891678E+00 +1.278961E+00 -7.891678E+00 +6.336322E+02 -1.471758E+01 +1.278961E+00 -1.471758E+01 +1.405360E+03 
 +6.330894E+02 -7.582337E+00 -3.103306E+01 -7.582337E+00 +6.428683E+02 -1.292790E+01 -3.103306E+01 -1.292790E+01 +1.365255E+03 
 +6.497521E+02 -3.902919E+00 -2.007150E+01 -3.902919E+00 +6.020461E+02 -2.230218E+01 -2.007150E+01 -2.230218E+01 +1.325816E+03 
 +5.567489E+02 -1.731217E+01 -2.293062E+00 -1.731217E+01 +5.648258E+02 +7.975442E+00 -2.293062E+00 +7.975442E+00 +1.290813E+03 
 +6.167795E+02 -2.487865E+01 +8.710803E+00 -2.487865E+01 +5.557873E+02 +4.059440E+01 +8.710803E+00 +4.059440E+01 +1.305644E+03 
 +5.922922E+02 +1.329916E+01 +6.824168E+00 +1.329916E+01 +6.375773E+02 -2.291273E+01 +6.824168E+00 -2.291273E+01 +1.349073E+03 
 +6.459252E+02 +1.767873E+01 +1.587349E+01 +1.767873E+01 +6.137019E+02 -2.009906E+01 +1.587349E+01 -2.009906E+01 +1.342656E+03 
 +4.832683E+02 -1.328067E+00 -4.884628E+00 -1.328067E+00 +5.613420E+02 -1.626443E+01 -4.884628E+00 -1.626443E+01 +1.393009E+03 
 +6.973322E+02 -2.843421E+01 -2.118072E+00 -2.843421E+01 +5.545718E+02 +1.596845E+01 -2.118072E+00 +1.596845E+01 +1.332729E+03 
 +6.423674E+02 -4.988030E+01 -1.575607E+01 -4.988030E+01 +6.657256E+02 +2.055409E+01 -1.575607E+01 +2.055409E+01 +1.363118E+03 
 +6.219586E+02 +1.537043E+01 +3.110760E+00 +1.537043E+01 +5.968047E+02 -6.321075E+00 +3.110760E+00 -6.321075E+00 +1.287886E+03 
 +6.072481E+02 -2.604181E+01 -5.034445E+00 -2.604181E+01 +6.190132E+02 -1.553678E+00 -5.034445E+00 -1.553678E+00 +1.399811E+03 
 +5.992687E+02 -9.584519E+00 -7.037942E+00 -9.584519E+00 +6.603856E+02 +3.422920E+00 -7.037942E+00 +3.422920E+00 +1.308865E+03 
 +5.540513E+02 -2.419819E+01 +4.451287E+00 -2.419819E+01 +5.975978E+02 -2.149149E+01 +4.451287E+00 -2.149149E+01 +1.333566E+03 
 +6.905253E+02 -5.032117E+01 +1.237465E+00 -5.032117E+01 +5.933681E+02 -1.050902E+01 +1.237465E+00 -1.050902E+01 +1.335422E+03 
 +5.381917E+02 +3.409293E+01 -1.193735E+01 +3.409293E+01 +5.939680E+02 +2.433210E+01 -1.193735E+01 +2.433210E+01 +1.250553E+03 
 +6.034492E+02 +1.933076E+01 +1.702807E+01 +1.933076E+01 +6.185162E+02 +1.783434E+00 +1.702807E+01 +1.783434E+00 +1.365124E+03 
 +6.072491E+02 -2.008061E+01 -2.872944E+01 -2.008061E+01 +5.961912E+02 +7.480259E+00 -2.872944E+01 +7.480259E+00 +1.361356E+03 
 +6.460526E+02 -7.769400E-01 +2.580499E+01 -7.769400E-01 +5.804665E+02 -3.436351E+01 +2.580499E+01 -3.436351E+01 +1.366202E+03 
 +6.032830E+02 +3.933494E+01 +4.826110E+00 +3.933494E+01 +5.686492E+02 -2.146543E+00 +4.826110E+00 -2.146543E+00 +1.289703E+03 
 +6.199494E+02 +2.246872E+01 -1.300081E+01 +2.246872E+01 +5.701085E+02 -1.672672E+00 -1.300081E+01 -1.672672E+00 +1.334752E+03 
 +5.961617E+02 +1.535561E+01 +6.608096E+00 +1.535561E+01 +5.918116E+02 +3.073735E+01 +6.608096E+00 +3.073735E+01 +1.405511E+03 
 +5.777850E+02 +1.156766E+01 -4.522933E+00 +1.156766E+01 +5.609511E+02 +6.244861E+00 -4.522933E+00 +6.244861E+00 +1.339623E+03 
 +5.924793E+02 -2.057059E+01 -1.320900E+01 -2.057059E+01 +5.888630E+02 -1.548533E+01 -1.320900E+01 -1.548533E+01 +1.323502E+03 
 +6.169961E+02 -6.427127E+00 -7.673106E-01 -6.427127E+00 +6.197128E+02 +2.563223E+00 -7.673106E-01 +2.563223E+00 +1.310724E+03 
 +6.625234E+02 +1.503114E+01 -1.441983E+01 +1.503114E+01 +6.117173E+02 -1.807970E+01 -1.441983E+01 -1.807970E+01 +1.308342E+03 
 +5.696176E+02 -1.827088E+01 -1.706481E+01 -1.827088E+01 +5.942682E+02 -3.689564E+01 -1.706481E+01 -3.689564E+01 +1.379521E+03 
 +6.861548E+02 +5.577540E+00 +1.901130E+01 +5.577540E+00 +6.511668E+02 -1.018592E+01 +1.901130E+01 -1.018592E+01 +1.367206E+03 
 +6.189888E+02 -1.297814E+01 -2.506386E+01 -1.297814E+01 +6.157330E+02 -3.848460E+00 -2.506386E+01 -3.848460E+00 +1.443012E+03 
 +6.584767E+02 +4.522144E+01 +3.188308E+01 +4.522144E+01 +5.970394E+02 -8.226048E+00 +3.188308E+01 -8.226048E+00 +1.297981E+03 
 +5.884008E+02 +1.891526E+01 +1.077124E+01 +1.891526E+01 +5.705046E+02 -1.481648E+01 +1.077124E+01 -1.481648E+01 +1.389768E+03 
 +6.584496E+02 -2.242560E+01 +1.939963E+01 -2.242560E+01 +6.167076E+02 +1.754784E+01 +1.939963E+01 +1.754784E+01 +1.295036E+03 
 +5.454521E+02 -1.635631E+01 +8.227658E+00 -1.635631E+01 +5.093168E+02 -2.336883E+01 +8.227658E+00 -2.336883E+01 +1.372159E+03 
 +7.197264E+02 +3.729378E+00 +8.558486E+00 +3.729378E+00 +5.692290E+02 -3.843817E+00 +8.558486E+00 -3.843817E+00 +1.355061E+03 
 +5.773626E+02 -3.200716E+00 -5.113550E+00 -3.200716E+00 +6.863624E+02 +3.247115E+00 -5.113550E+00 +3.247115E+00 +1.348702E+03 
 +6.830991E+02 +3.303972E+00 -3.069963E+00 +3.303972E+00 +6.468181E+02 +3.219445E+01 -3.069963E+00 +3.219445E+01 +1.367237E+03 
 +5.821525E+02 +1.298681E+01 +2.625881E+01 +1.298681E+01 +6.231957E+02 -2.129386E+01 +2.625881E+01 -2.129386E+01 +1.327874E+03 
 +6.600841E+02 -2.830482E+01 -3.681191E+00 -2.830482E+01 +5.666079E+02 -3.783480E+01 -3.681191E+00 -3.783480E+01 +1.348867E+03 
 +6.563442E+02 -1.225439E+01 +9.783991E+00 -1.225439E+01 +6.393939E+02 -1.801295E+01 +9.783991E+00 -1.801295E+01 +1.377636E+03 
 +5.882252E+02 +7.757335E+00 +5.632660E+00 +7.757335E+00 +5.984648E+02 -1.198849E+01 +5.632660E+00 -1.198849E+01 +1.438327E+03 
 +6.031556E+02 +3.198768E+01 +3.646153E+01 +3.198768E+01 +5.665375E+02 +4.362848E+00 +3.646153E+01 +4.362848E+00 +1.283377E+03 
 +7.238296E+02 +8.922591E-02 +8.495298E+00 +8.922591E-02 +6.108780E+02 -1.180624E+01 +8.495298E+00 -1.180624E+01 +1.333938E+03 
 +5.503972E+02 +2.609067E+01 -3.877242E+00 +2.609067E+01 +6.163110E+02 -1.825222E+01 -3.877242E+00 -1.825222E+01 +1.395521E+03 
 +5.615493E+02 +5.014316E+00 +6.962747E+00 +5.014316E+00 +6.662003E+02 +9.564939E+00 +6.962747E+00 +9.564939E+00 +1.347585E+03 
 +6.656787E+02 -5.108148E+01 +7.881651E+00 -5.108148E+01 +6.674845E+02 +2.270276E+01 +7.881651E+00 +2.270276E+01 +1.337140E+03 
 +6.741962E+02 +3.721236E+01 -5.603795E+00 +3.721236E+01 +6.494846E+02 +1.485651E+01 -5.603795E+00 +1.485651E+01 +1.340527E+03 
 +5.708656E+02 +9.743278E+00 +1.289048E+00 +9.743278E+00 +5.905720E+02 +8.953352E+00 +1.289048E+00 +8.953352E+00 +1.428886E+03 
 +6.311559E+02 +5.021354E+01 -5.827008E+00 +5.021354E+01 +5.696625E+02 +8.682533E+00 -5.827008E+00 +8.682533E+00 +1.274391E+03 
 +6.451410E+02 +4.151981E+01 +4.848489E+00 +4.151981E+01 +6.258015E+02 -1.157541E+01 +4.848489E+00 -1.157541E+01 +1.327523E+03 
 +5.462289E+02 -5.373884E+01 -1.436462E+00 -5.373884E+01 +6.477667E+02 +3.165440E+00 -1.436462E+00 +3.165440E+00 +1.285493E+03 
 +6.602656E+02 -2.138520E+01 +3.320843E+00 -2.138520E+01 +6.161883E+02 +6.544975E+00 +3.320843E+00 +6.544975E+00 +1.386119E+03 
 +6.702057E+02 +1.558399E+01 +1.971292E+01 +1.558399E+01 +5.987262E+02 +1.618782E+01 +1.971292E+01 +1.618782E+01 +1.303823E+03 
 +5.557347E+02 +4.746896E+01 +1.182500E+01 +4.746896E+01 +5.299958E+02 +7.430870E+00 +1.182500E+01 +7.430870E+00 +1.327276E+03 
 +6.237946E+02 -2.381277E+01 -4.897899E+00 -2.381277E+01 +6.808240E+02 -4.990126E+00 -4.897899E+00 -4.990126E+00 +1.331728E+03 
 +5.751066E+02 -2.937819E+01 -2.289789E+01 -2.937819E+01 +5.991238E+02 +3.034351E+01 -2.289789E+01 +3.034351E+01 +1.364494E+03 
 +5.798840E+02 -1.285145E+01 +1.152891E+01 -1.285145E+01 +5.401141E+02 +1.299915E+01 +1.152891E+01 +1.299915E+01 +1.385852E+03 
 +6.409225E+02 -3.888966E+01 -1.352709E+01 -3.888966E+01 +6.638015E+02 -1.008895E+01 -1.352709E+01 -1.008895E+01 +1.359305E+03 
 +6.437408E+02 -3.751950E+01 -7.547830E+00 -3.751950E+01 +6.481467E+02 -1.377488E+00 -7.547830E+00 -1.377488E+00 +1.394767E+03 
 +5.148448E+02 +8.980047E+00 -1.602776E+01 +8.980047E+00 +6.187555E+02 -8.126654E+00 -1.602776E+01 -8.126654E+00 +1.293476E+03 
 +6.133020E+02 -1.320070E+01 -1.261473E+01 -1.320070E+01 +5.909186E+02 -1.665962E+01 -1.261473E+01 -1.665962E+01 +1.395150E+03 
 +6.229963E+02 +1.337013E+01 +1.113411E+01 +1.337013E+01 +6.562458E+02 +8.982763E+00 +1.113411E+01 +8.982763E+00 +1.390339E+03 
 +6.248478E+02 -3.670187E+01 +8.718229E+00 -3.670187E+01 +6.285800E+02 +1.225378E+01 +8.718229E+00 +1.225378E+01 +1.271672E+03 
 +5.686208E+02 +7.111729E-01 -2.688539E+00 +7.111729E-01 +5.726588E+02 -2.932134E+01 -2.688539E+00 -2.932134E+01 +1.350803E+03 
 +6.378930E+02 +2.451818E+01 -1.983916E+01 +2.451818E+01 +6.656899E+02 -1.828859E+01 -1.983916E+01 -1.828859E+01 +1.430443E+03 
 +6.433535E+02 +1.455130E+01 +2.416654E+01 +1.455130E+01 +5.761377E+02 +1.267744E+00 +2.416654E+01 +1.267744E+00 +1.339993E+03 
 +5.883897E+02 -5.424727E+00 -2.790895E+01 -5.424727E+00 +5.433802E+02 +1.787455E+01 -2.790895E+01 +1.787455E+01 +1.371807E+03 
 +5.519670E+02 -6.680436E+00 +4.357077E+01 -6.680436E+00 +5.777958E+02 +1.103810E+01 +4.357077E+01 +1.103810E+01 +1.356708E+03 
 +6.321772E+02 -4.377320E+01 -4.412317E+00 -4.377320E+01 +6.484879E+02 +1.408641E+01 -4.412317E+00 +1.408641E+01 +1.346970E+03 
 +5.745179E+02 -3.090682E+01 +2.240003E+01 -3.090682E+01 +6.303519E+02 +3.177579E+01 +2.240003E+01 +3.177579E+01 +1.352651E+03 
 +6.092711E+02 -4.595945E+01 +6.662694E-01 -4.595945E+01 +5.906779E+02 -5.917105E+00 +6.662694E-01 -5.917105E+00 +1.281422E+03 
 +5.880850E+02 +3.332795E+01 +1.263661E+01 +3.332795E+01 +6.121884E+02 -2.250264E+01 +1.263661E+01 -2.250264E+01 +1.286245E+03 
 +5.511722E+02 +2.246157E+00 -1.586442E+01 +2.246157E+00 +6.466561E+02 -3.085423E+01 -1.586442E+01 -3.085423E+01 +1.385179E+03 
 +5.971128E+02 -1.660002E+01 +1.641397E+01 -1.660002E+01 +6.559454E+02 -1.178001E+01 +1.641397E+01 -1.178001E+01 +1.310272E+03 
 +6.463056E+02 +3.655854E+00 -3.386735E+01 +3.655854E+00 +6.933011E+02 -1.696416E+01 -3.386735E+01 -1.696416E+01 +1.384563E+03 
 +6.104585E+02 -3.675458E+01 +7.673602E+00 -3.675458E+01 +6.507799E+02 +8.685491E+00 +7.673602E+00 +8.685491E+00 +1.289248E+03 
 +5.976312E+02 -2.014717E+01 +2.031686E+01 -2.014717E+01 +6.057645E+02 -3.493470E+00 +2.031686E+01 -3.493470E+00 +1.423241E+03 
 +5.923348E+02 +2.993982E+01 -3.727052E+00 +2.993982E+01 +6.044802E+02 -1.919107E+01 -3.727052E+00 -1.919107E+01 +1.380952E+03 
 +6.139199E+02 +3.137097E+01 +3.512829E+00 +3.137097E+01 +6.398646E+02 +1.342662E+01 +3.512829E+00 +1.342662E+01 +1.331895E+03 
 +5.871543E+02 -1.413630E+01 +2.334619E+01 -1.413630E+01 +6.291514E+02 +5.505789E+00 +2.334619E+01 +5.505789E+00 +1.420536E+03 
 +6.656726E+02 -3.617736E+01 +1.161232E+01 -3.617736E+01 +6.900787E+02 +2.058524E+00 +1.161232E+01 +2.058524E+00 +1.348820E+03 
 +6.648676E+02 +3.635263E+01 -8.532199E+00 +3.635263E+01 +7.082689E+02 +1.262587E+01 -8.532199E+00 +1.262587E+01 +1.369150E+03 
 +5.328648E+02 +2.748327E+01 -5.068145E+00 +2.748327E+01 +6.723224E+02 +2.156203E+01 -5.068145E+00 +2.156203E+01 +1.303412E+03 
 +6.406308E+02 -4.382110E-02 +1.333630E+00 -4.382110E-02 +6.096796E+02 -1.849628E+01 +1.333630E+00 -1.849628E+01 +1.291964E+03 
 +5.917160E+02 -2.204141E+00 -1.850441E+01 -2.204141E+00 +6.386376E+02 -2.486293E+01 -1.850441E+01 -2.486293E+01 +1.374795E+03 
 +5.920557E+02 -1.283595E+01 +3.108724E+01 -1.283595E+01 +5.931046E+02 -3.701000E+00 +3.108724E+01 -3.701000E+00 +1.362020E+03 
 +6.601263E+02 -5.741749E+00 -2.231493E+01 -5.741749E+00 +6.441093E+02 +6.891517E+00 -2.231493E+01 +6.891517E+00 +1.421986E+03 
 +5.755301E+02 +2.128131E+01 +3.373112E+00 +2.128131E+01 +6.024398E+02 +4.947579E+00 +3.373112E+00 +4.947579E+00 +1.304643E+03 
 +6.948386E+02 -1.458740E+01 +1.883680E+00 -1.458740E+01 +5.987727E+02 +2.065237E-01 +1.883680E+00 +2.065237E-01 +1.350544E+03 
 +5.907731E+02 -9.216048E+00 -2.364902E+01 -9.216048E+00 +6.144753E+02 -2.763730E+01 -2.364902E+01 -2.763730E+01 +1.303028E+03 
 +7.126119E+02 +1.377796E+01 -1.952067E+01 +1.377796E+01 +6.495007E+02 +1.335057E+01 -1.952067E+01 +1.335057E+01 +1.340532E+03 
 +5.980837E+02 -5.556142E+00 +1.824110E+01 -5.556142E+00 +6.839312E+02 +2.070219E+01 +1.824110E+01 +2.070219E+01 +1.302393E+03 
 +5.896586E+02 -1.863983E+01 -2.957608E+01 -1.863983E+01 +6.337626E+02 -1.084466E+01 -2.957608E+01 -1.084466E+01 +1.421677E+03 
 +6.014300E+02 -4.424874E+01 -9.469332E-01 -4.424874E+01 +5.980299E+02 +1.067651E+01 -9.469332E-01 +1.067651E+01 +1.270481E+03 
 +7.429851E+02 -1.947238E+01 +1.719878E+00 -1.947238E+01 +5.878337E+02 -2.133877E+00 +1.719878E+00 -2.133877E+00 +1.309839E+03 
 +5.733893E+02 +3.315215E+01 +9.088198E+00 +3.315215E+01 +5.859346E+02 -4.194079E+01 +9.088198E+00 -4.194079E+01 +1.436799E+03 
 +6.304500E+02 -1.773900E+01 +1.957649E+01 -1.773900E+01 +6.191368E+02 -3.629753E+01 +1.957649E+01 -3.629753E+01 +1.333174E+03 
 +6.085365E+02 -5.795816E+00 +1.011920E+00 -5.795816E+00 +5.898656E+02 -5.117390E+01 +1.011920E+00 -5.117390E+01 +1.406269E+03 
 +7.044453E+02 -1.094470E+01 +8.864972E+00 -1.094470E+01 +5.837693E+02 +8.275953E+00 +8.864972E+00 +8.275953E+00 +1.359994E+03 
 +6.907270E+02 -5.014906E+01 -2.053922E+01 -5.014906E+01 +6.444728E+02 +5.516028E+00 -2.053922E+01 +5.516028E+00 +1.350938E+03 
 +6.295680E+02 -8.857755E+00 +4.898065E+01 -8.857755E+00 +6.186159E+02 +8.035310E+00 +4.898065E+01 +8.035310E+00 +1.417830E+03 
 +5.528245E+02 +5.164820E+00 +1.102267E+01 +5.164820E+00 +5.447844E+02 +4.414058E+00 +1.102267E+01 +4.414058E+00 +1.371604E+03 
 +5.842784E+02 -1.786153E+01 +2.719822E+01 -1.786153E+01 +6.060322E+02 +1.144495E+01 +2.719822E+01 +1.144495E+01 +1.302936E+03 
 +6.067777E+02 -3.346604E+01 -5.907955E+00 -3.346604E+01 +5.919719E+02 +3.321181E+01 -5.907955E+00 +3.321181E+01 +1.309834E+03 
 +6.468145E+02 -3.870752E+01 -1.880315E+01 -3.870752E+01 +5.924562E+02 -1.226855E+01 -1.880315E+01 -1.226855E+01 +1.318049E+03 
 +5.872389E+02 -1.001042E+01 -1.232993E+01 -1.001042E+01 +5.973202E+02 -4.636531E+00 -1.232993E+01 -4.636531E+00 +1.432110E+03 
 +6.658913E+02 +5.303253E+01 +5.904430E+00 +5.303253E+01 +6.421310E+02 -6.471813E-01 +5.904430E+00 -6.471813E-01 +1.347324E+03 
 +6.303110E+02 +3.369715E+01 +3.464686E+01 +3.369715E+01 +6.397524E+02 -1.258535E+01 +3.464686E+01 -1.258535E+01 +1.383937E+03 
 +6.441414E+02 +7.901764E+00 +1.656783E+01 +7.901764E+00 +6.111933E+02 -1.023314E+01 +1.656783E+01 -1.023314E+01 +1.286172E+03 
 +5.484137E+02 -1.250451E+01 -9.599085E+00 -1.250451E+01 +5.638228E+02 -5.830784E+00 -9.599085E+00 -5.830784E+00 +1.369911E+03 
 +5.788595E+02 -5.365215E+00 +5.464638E+00 -5.365215E+00 +5.655361E+02 +3.531818E+01 +5.464638E+00 +3.531818E+01 +1.317368E+03 
 +5.747155E+02 -1.017254E+00 +1.314157E+01 -1.017254E+00 +5.700448E+02 +1.163334E+00 +1.314157E+01 +1.163334E+00 +1.316235E+03 
 +5.637181E+02 +2.599833E+00 -1.328817E+01 +2.599833E+00 +5.667887E+02 -2.553918E+01 -1.328817E+01 -2.553918E+01 +1.350985E+03 
 +6.142822E+02 +1.858748E+01 -7.400849E+00 +1.858748E+01 +6.181056E+02 +1.268646E+01 -7.400849E+00 +1.268646E+01 +1.476798E+03 
 +5.315691E+02 +3.902599E+01 -1.948954E+01 +3.902599E+01 +6.071155E+02 -3.765625E+00 -1.948954E+01 -3.765625E+00 +1.291209E+03 
 +5.899216E+02 +4.716669E+01 +1.323019E+00 +4.716669E+01 +6.258312E+02 +2.029764E+00 +1.323019E+00 +2.029764E+00 +1.293856E+03 
 +5.949545E+02 +6.294831E+00 -1.918777E+00 +6.294831E+00 +6.231738E+02 +2.844521E+00 -1.918777E+00 +2.844521E+00 +1.443165E+03 
 +6.120097E+02 +8.492414E+00 -1.686040E+01 +8.492414E+00 +6.561236E+02 +1.292336E+00 -1.686040E+01 +1.292336E+00 +1.375914E+03 
 +6.089467E+02 +3.929432E+01 -2.122385E+00 +3.929432E+01 +6.386533E+02 +1.385240E+01 -2.122385E+00 +1.385240E+01 +1.283068E+03 
 +5.555187E+02 +4.963512E+00 -2.043956E+01 +4.963512E+00 +6.302227E+02 +4.600002E+00 -2.043956E+01 +4.600002E+00 +1.369656E+03 
 +6.182676E+02 +9.580145E+00 +7.119564E+00 +9.580145E+00 +6.137470E+02 +1.518589E+01 +7.119564E+00 +1.518589E+01 +1.315967E+03 
 +6.118040E+02 +1.225895E+01 -2.196562E+01 +1.225895E+01 +5.664911E+02 +1.853012E+00 -2.196562E+01 +1.853012E+00 +1.417633E+03 
 +6.720191E+02 -1.392422E+00 -1.110928E+00 -1.392422E+00 +6.020394E+02 +8.421573E+00 -1.110928E+00 +8.421573E+00 +1.337285E+03 
 +6.043752E+02 +4.615969E+01 +4.150223E+00 +4.615969E+01 +6.408004E+02 +2.400238E+01 +4.150223E+00 +2.400238E+01 +1.310328E+03 
 +5.872195E+02 +2.232679E+01 -2.020347E+01 +2.232679E+01 +6.160531E+02 +1.418429E+01 -2.020347E+01 +1.418429E+01 +1.410213E+03 
 +5.946770E+02 -1.649868E+01 -1.811273E+01 -1.649868E+01 +5.770067E+02 +1.807527E+01 -1.811273E+01 +1.807527E+01 +1.352842E+03 
 +5.725615E+02 -1.530202E+01 -9.902341E+00 -1.530202E+01 +5.587057E+02 -4.019213E+01 -9.902341E+00 -4.019213E+01 +1.357720E+03 
 +5.643421E+02 -8.820848E+00 +1.418287E+01 -8.820848E+00 +5.994412E+02 +2.026057E+00 +1.418287E+01 +2.026057E+00 +1.353212E+03 
 +6.129948E+02 -6.294906E-01 +1.398501E+01 -6.294906E-01 +6.622360E+02 +4.218131E+01 +1.398501E+01 +4.218131E+01 +1.333894E+03 
 +5.738109E+02 -8.064157E+00 +8.661847E+00 -8.064157E+00 +5.782502E+02 -2.415853E+01 +8.661847E+00 -2.415853E+01 +1.345848E+03 
 +5.798131E+02 +2.715432E+01 -5.513212E+00 +2.715432E+01 +5.993116E+02 +1.642411E+00 -5.513212E+00 +1.642411E+00 +1.308065E+03 
 +6.501371E+02 +3.804692E+01 +2.598118E+01 +3.804692E+01 +6.397397E+02 +2.093664E+01 +2.598118E+01 +2.093664E+01 +1.330493E+03 
 +5.877808E+02 +3.126236E+00 +1.865994E+00 +3.126236E+00 +7.341124E+02 -9.532601E-01 +1.865994E+00 -9.532601E-01 +1.385911E+03 
 +5.935190E+02 -4.290488E+01 +8.403554E+00 -4.290488E+01 +6.497529E+02 -4.138083E+00 +8.403554E+00 -4.138083E+00 +1.304874E+03 
 +5.936755E+02 +1.799519E+01 -2.497974E+01 +1.799519E+01 +5.785598E+02 +3.608083E+00 -2.497974E+01 +3.608083E+00 +1.436982E+03 
 +6.625529E+02 +3.937076E+01 -1.565443E+01 +3.937076E+01 +6.414651E+02 +6.155110E+00 -1.565443E+01 +6.155110E+00 +1.351565E+03 
 +6.700289E+02 -3.187384E+01 -1.138239E+00 -3.187384E+01 +5.978965E+02 -4.608232E+00 -1.138239E+00 -4.608232E+00 +1.368817E+03 
 +6.191757E+02 -1.737974E+01 -3.534660E+01 -1.737974E+01 +5.890551E+02 +2.877540E-01 -3.534660E+01 +2.877540E-01 +1.409220E+03 
 +6.194644E+02 -7.415600E-01 -1.666238E+01 -7.415600E-01 +5.866661E+02 +2.415734E+01 -1.666238E+01 +2.415734E+01 +1.387440E+03 
 +6.210848E+02 +2.082030E+01 +2.092646E+01 +2.082030E+01 +6.038874E+02 +1.095570E+01 +2.092646E+01 +1.095570E+01 +1.322073E+03 
 +6.271741E+02 +2.607383E+01 -6.017828E+00 +2.607383E+01 +6.355579E+02 +2.437898E+01 -6.017828E+00 +2.437898E+01 +1.358789E+03 
 +6.376351E+02 +9.578506E+00 -2.683315E+00 +9.578506E+00 +6.286797E+02 +2.452837E+01 -2.683315E+00 +2.452837E+01 +1.337012E+03 
 +6.072885E+02 +9.506553E+00 +1.953603E+01 +9.506553E+00 +5.983312E+02 -1.634093E+01 +1.953603E+01 -1.634093E+01 +1.462863E+03 
 +6.567283E+02 -1.329123E+01 -1.829937E+01 -1.329123E+01 +5.702917E+02 -6.365738E+00 -1.829937E+01 -6.365738E+00 +1.282654E+03 
 +5.617726E+02 -1.113439E-01 -1.170824E+01 -1.113439E-01 +6.528566E+02 +6.096291E+00 -1.170824E+01 +6.096291E+00 +1.305472E+03 
 +6.848312E+02 +1.789337E+00 -1.825468E+00 +1.789337E+00 +6.321899E+02 +4.087806E+00 -1.825468E+00 +4.087806E+00 +1.428106E+03 
 +5.779465E+02 -2.404376E+01 +2.137726E+01 -2.404376E+01 +5.581401E+02 -1.319738E+01 +2.137726E+01 -1.319738E+01 +1.429067E+03 
 +6.671458E+02 -2.909847E+01 -1.192906E+01 -2.909847E+01 +6.138510E+02 -2.117885E+01 -1.192906E+01 -2.117885E+01 +1.332742E+03 
 +6.650117E+02 +1.814426E+01 -1.140660E+01 +1.814426E+01 +5.158896E+02 +1.314335E+01 -1.140660E+01 +1.314335E+01 +1.284547E+03 
 +5.407167E+02 +6.427626E+00 -2.200567E+01 +6.427626E+00 +5.481614E+02 -4.074511E+00 -2.200567E+01 -4.074511E+00 +1.362054E+03 
 +6.018365E+02 +3.054136E+00 +1.851719E+01 +3.054136E+00 +6.557711E+02 +1.290180E+00 +1.851719E+01 +1.290180E+00 +1.334130E+03 
 +5.975322E+02 -5.159299E+01 -4.865668E+00 -5.159299E+01 +5.916440E+02 +1.195385E+01 -4.865668E+00 +1.195385E+01 +1.286031E+03 
 +5.766273E+02 -2.385622E+01 -1.733648E+01 -2.385622E+01 +6.038000E+02 -1.380679E+01 -1.733648E+01 -1.380679E+01 +1.390045E+03 
 +6.541844E+02 +3.254647E+01 +6.985565E+00 +3.254647E+01 +6.103683E+02 -1.686907E+01 +6.985565E+00 -1.686907E+01 +1.430578E+03 
 +6.373577E+02 +3.079493E+00 -2.782406E+00 +3.079493E+00 +5.958295E+02 +2.660653E+01 -2.782406E+00 +2.660653E+01 +1.320659E+03 
 +5.511957E+02 -9.006029E-01 -1.012475E+01 -9.006029E-01 +5.143858E+02 +1.275857E+01 -1.012475E+01 +1.275857E+01 +1.412438E+03 
 +5.815372E+02 -2.492978E+01 +1.618257E+01 -2.492978E+01 +5.592847E+02 +4.257743E+00 +1.618257E+01 +4.257743E+00 +1.327755E+03 
 +5.959963E+02 -2.449298E+01 +1.745134E+01 -2.449298E+01 +6.193140E+02 +5.576701E+00 +1.745134E+01 +5.576701E+00 +1.403665E+03 
 +6.381869E+02 -9.098698E+00 -2.981211E+01 -9.098698E+00 +6.388792E+02 -3.415670E+00 -2.981211E+01 -3.415670E+00 +1.314505E+03 
 +5.331132E+02 -1.019536E+01 -1.499405E+01 -1.019536E+01 +6.284556E+02 +5.665696E+00 -1.499405E+01 +5.665696E+00 +1.345777E+03 
 +7.022493E+02 -3.901548E+01 +2.011355E+01 -3.901548E+01 +6.322811E+02 +2.897470E+01 +2.011355E+01 +2.897470E+01 +1.372881E+03 
 +6.455887E+02 -1.004463E+01 +2.539039E+01 -1.004463E+01 +6.458513E+02 +2.896597E+01 +2.539039E+01 +2.896597E+01 +1.381685E+03 
 +5.981455E+02 -2.894854E+01 -5.873236E+00 -2.894854E+01 +6.185103E+02 -9.675345E+00 -5.873236E+00 -9.675345E+00 +1.351441E+03 
 +5.691783E+02 -1.426829E+01 -7.886465E+00 -1.426829E+01 +5.797496E+02 +9.859881E+00 -7.886465E+00 +9.859881E+00 +1.436868E+03 
 +5.490884E+02 -2.458253E+01 +8.408760E+00 -2.458253E+01 +6.604623E+02 -7.267004E-01 +8.408760E+00 -7.267004E-01 +1.258179E+03 
 +5.960332E+02 +5.458730E+00 +5.155697E+00 +5.458730E+00 +6.144728E+02 -9.038465E+00 +5.155697E+00 -9.038465E+00 +1.311950E+03 
 +6.945695E+02 +4.710549E+00 -6.740185E+00 +4.710549E+00 +5.739402E+02 -3.203239E+01 -6.740185E+00 -3.203239E+01 +1.356562E+03 
 +5.989072E+02 -5.320268E+00 +2.815112E+01 -5.320268E+00 +5.567568E+02 -1.170836E+01 +2.815112E+01 -1.170836E+01 +1.463047E+03 
 +5.920806E+02 +2.436588E+01 -2.350506E+01 +2.436588E+01 +5.741760E+02 +4.064233E+00 -2.350506E+01 +4.064233E+00 +1.403494E+03 
 +5.469080E+02 +9.443090E+00 -2.362147E+01 +9.443090E+00 +6.434954E+02 -2.927018E+01 -2.362147E+01 -2.927018E+01 +1.323915E+03 
 +7.295599E+02 -1.390377E+01 -5.102302E+00 -1.390377E+01 +6.457960E+02 -1.201321E+01 -5.102302E+00 -1.201321E+01 +1.387269E+03 
 +5.549511E+02 -1.134014E+01 +2.753149E+01 -1.134014E+01 +4.995649E+02 -3.655998E+00 +2.753149E+01 -3.655998E+00 +1.398984E+03 
 +7.023384E+02 +1.333682E+01 +9.338468E+00 +1.333682E+01 +5.627161E+02 -2.468980E+01 +9.338468E+00 -2.468980E+01 +1.305407E+03 
 +6.345389E+02 +3.231527E+00 -1.598851E+01 +3.231527E+00 +6.368872E+02 -2.145724E+01 -1.598851E+01 -2.145724E+01 +1.436923E+03 
 +5.285497E+02 -1.059799E+01 -1.025877E+01 -1.059799E+01 +5.595532E+02 -1.668766E+00 -1.025877E+01 -1.668766E+00 +1.327688E+03 
 +6.428444E+02 -2.825701E+01 +1.770813E+00 -2.825701E+01 +5.967847E+02 -2.704442E+01 +1.770813E+00 -2.704442E+01 +1.288453E+03 
 +5.625747E+02 -1.550005E+00 +5.632274E+00 -1.550005E+00 +6.852458E+02 -1.720062E+01 +5.632274E+00 -1.720062E+01 +1.371120E+03 
 +6.746793E+02 -4.114676E-01 -7.166919E+00 -4.114676E-01 +6.527106E+02 +8.617621E+00 -7.166919E+00 +8.617621E+00 +1.339470E+03 
 +5.452065E+02 +6.174359E+00 +1.694256E+01 +6.174359E+00 +5.544019E+02 +1.061933E+01 +1.694256E+01 +1.061933E+01 +1.397734E+03 
 +6.183721E+02 +1.573117E+01 +1.417894E+01 +1.573117E+01 +5.108356E+02 +1.502712E+01 +1.417894E+01 +1.502712E+01 +1.247006E+03 
 +6.565894E+02 -5.263297E+00 +1.248182E+01 -5.263297E+00 +6.112617E+02 +1.208245E+01 +1.248182E+01 +1.208245E+01 +1.287331E+03 
 +5.614943E+02 -8.713852E+00 -8.624887E+00 -8.713852E+00 +6.215503E+02 +1.772586E+01 -8.624887E+00 +1.772586E+01 +1.387546E+03 
 +5.964605E+02 +1.300571E+01 +1.446925E+01 +1.300571E+01 +6.437607E+02 -8.928335E+00 +1.446925E+01 -8.928335E+00 +1.358961E+03 
 +5.741755E+02 -2.790045E+01 -7.377338E+00 -2.790045E+01 +6.193304E+02 -1.049626E+01 -7.377338E+00 -1.049626E+01 +1.397722E+03 
 +6.053143E+02 +2.897324E+00 -1.553522E+01 +2.897324E+00 +6.683470E+02 +2.182912E+01 -1.553522E+01 +2.182912E+01 +1.356857E+03 
 +7.318013E+02 +3.085205E+01 -2.169889E+01 +3.085205E+01 +6.337717E+02 +4.547071E+00 -2.169889E+01 +4.547071E+00 +1.377027E+03 
 +6.536438E+02 +1.293849E+01 -1.316694E+01 +1.293849E+01 +6.608479E+02 +1.654457E+01 -1.316694E+01 +1.654457E+01 +1.354078E+03 
 +6.214331E+02 +2.707136E+01 -4.298059E+01 +2.707136E+01 +6.326252E+02 +7.920810E+00 -4.298059E+01 +7.920810E+00 +1.371710E+03 
 +6.019910E+02 +4.682881E+01 -6.527768E+00 +4.682881E+01 +6.472874E+02 -3.538329E+01 -6.527768E+00 -3.538329E+01 +1.321455E+03 
 +6.852269E+02 +3.258259E+01 -1.069736E+00 +3.258259E+01 +6.569023E+02 +1.853140E-01 -1.069736E+00 +1.853140E-01 +1.402987E+03 
 +5.730139E+02 -4.840555E+00 -7.896444E+00 -4.840555E+00 +6.061348E+02 -2.698455E+00 -7.896444E+00 -2.698455E+00 +1.334378E+03 
 +6.128535E+02 +2.058554E+00 -3.192524E-01 +2.058554E+00 +6.110579E+02 +1.034052E+01 -3.192524E-01 +1.034052E+01 +1.438255E+03 
 +5.666761E+02 -1.295450E+01 -3.506082E+00 -1.295450E+01 +6.804924E+02 +2.253455E+01 -3.506082E+00 +2.253455E+01 +1.363496E+03 
 +6.553713E+02 -1.818172E+01 +7.670511E+00 -1.818172E+01 +6.133292E+02 -3.324404E+01 +7.670511E+00 -3.324404E+01 +1.411814E+03 
 +5.313884E+02 +9.054315E+00 -7.557062E+00 +9.054315E+00 +5.367112E+02 -5.181133E+00 -7.557062E+00 -5.181133E+00 +1.381680E+03 
 +7.285528E+02 +1.575782E+01 -7.643340E+00 +1.575782E+01 +5.672676E+02 +7.173214E+00 -7.643340E+00 +7.173214E+00 +1.358165E+03 
 +5.930818E+02 +4.885820E+00 -2.388272E+01 +4.885820E+00 +6.515092E+02 -9.916680E+00 -2.388272E+01 -9.916680E+00 +1.344680E+03 
 +6.788359E+02 +3.663345E+01 -7.121379E+00 +3.663345E+01 +6.139354E+02 +1.467238E+01 -7.121379E+00 +1.467238E+01 +1.297084E+03 
 +5.592883E+02 +1.488842E+01 -3.203583E+00 +1.488842E+01 +5.972997E+02 +7.104094E+00 -3.203583E+00 +7.104094E+00 +1.392624E+03 
 +7.080604E+02 +1.196419E+01 -4.170588E+00 +1.196419E+01 +6.276508E+02 +8.948249E+00 -4.170588E+00 +8.948249E+00 +1.348737E+03 
 +5.863820E+02 +2.966606E+01 +1.813592E+01 +2.966606E+01 +6.570173E+02 -1.312218E+01 +1.813592E+01 -1.312218E+01 +1.336886E+03 
 +6.102223E+02 +8.389195E+00 -2.628337E+01 +8.389195E+00 +6.282515E+02 -1.431414E+00 -2.628337E+01 -1.431414E+00 +1.394591E+03 
 +6.317127E+02 +1.157679E+01 +6.391045E+00 +1.157679E+01 +5.991293E+02 -1.034502E+01 +6.391045E+00 -1.034502E+01 +1.390218E+03 
 +6.173964E+02 +1.072434E+01 -1.592075E+01 +1.072434E+01 +5.995876E+02 -9.914504E+00 -1.592075E+01 -9.914504E+00 +1.388241E+03 
 +5.534369E+02 -3.044125E+01 -6.899070E+00 -3.044125E+01 +5.668282E+02 +4.160389E+00 -6.899070E+00 +4.160389E+00 +1.372144E+03 
 +5.344083E+02 -7.011085E+00 -2.544242E+01 -7.011085E+00 +5.483965E+02 +5.736479E+00 -2.544242E+01 +5.736479E+00 +1.355956E+03 
 +6.041116E+02 -6.111503E+00 +2.973438E+01 -6.111503E+00 +6.204362E+02 -2.173917E+01 +2.973438E+01 -2.173917E+01 +1.388702E+03 
 +6.020663E+02 +1.498663E+01 -2.955080E+01 +1.498663E+01 +6.017204E+02 -4.299918E+00 -2.955080E+01 -4.299918E+00 +1.336924E+03 
 +5.452129E+02 -9.417436E-01 -2.278756E+01 -9.417436E-01 +5.493004E+02 +1.528375E+01 -2.278756E+01 +1.528375E+01 +1.349112E+03 
 +5.944852E+02 -1.645675E+01 -2.888899E+00 -1.645675E+01 +5.875297E+02 -2.496999E+00 -2.888899E+00 -2.496999E+00 +1.369059E+03 
 +5.745914E+02 -3.588976E+01 +3.595916E+01 -3.588976E+01 +5.685202E+02 -2.129747E-01 +3.595916E+01 -2.129747E-01 +1.370744E+03 
 +6.295496E+02 +9.671981E+00 +4.856533E+00 +9.671981E+00 +5.954935E+02 +1.154130E+01 +4.856533E+00 +1.154130E+01 +1.435884E+03 
 +7.050146E+02 +2.167175E+01 +4.548741E+00 +2.167175E+01 +6.083018E+02 -7.256114E+00 +4.548741E+00 -7.256114E+00 +1.361957E+03 
 +5.719803E+02 -4.391207E+00 -1.785173E+00 -4.391207E+00 +5.980383E+02 +2.163313E+01 -1.785173E+00 +2.163313E+01 +1.426500E+03 
 +6.857953E+02 +1.522906E+00 +1.938807E+01 +1.522906E+00 +6.285682E+02 +2.300211E+01 +1.938807E+01 +2.300211E+01 +1.411102E+03 
 +5.818344E+02 -7.483096E+01 +2.683954E+01 -7.483096E+01 +6.166043E+02 +1.004437E+01 +2.683954E+01 +1.004437E+01 +1.337525E+03 
 +6.312291E+02 -3.018918E+01 -1.210519E+01 -3.018918E+01 +6.648718E+02 -4.086082E+00 -1.210519E+01 -4.086082E+00 +1.374057E+03 
 +6.192344E+02 +8.418840E+00 -6.978008E+00 +8.418840E+00 +5.950023E+02 +1.811865E+01 -6.978008E+00 +1.811865E+01 +1.427168E+03 
 +5.970986E+02 -2.962419E+01 +2.982512E-01 -2.962419E+01 +5.926048E+02 -1.291879E+00 +2.982512E-01 -1.291879E+00 +1.371182E+03 
 +6.008691E+02 -1.944425E+01 +5.280305E+01 -1.944425E+01 +6.134979E+02 -4.101810E+00 +5.280305E+01 -4.101810E+00 +1.349520E+03 
 +6.891629E+02 +2.465046E+01 -3.368698E+00 +2.465046E+01 +6.305286E+02 -8.860608E+00 -3.368698E+00 -8.860608E+00 +1.334148E+03 
 +6.024490E+02 -1.394949E+01 +8.160645E+00 -1.394949E+01 +5.782028E+02 +1.249200E+01 +8.160645E+00 +1.249200E+01 +1.266251E+03 
 +6.177679E+02 +5.164906E+00 +7.773448E+00 +5.164906E+00 +5.939205E+02 -1.678784E+01 +7.773448E+00 -1.678784E+01 +1.420446E+03 
 +6.224625E+02 +1.458287E+01 +4.065130E+00 +1.458287E+01 +5.885777E+02 -3.123098E+00 +4.065130E+00 -3.123098E+00 +1.343153E+03 
 +5.821433E+02 -6.671316E+00 +9.116919E+00 -6.671316E+00 +5.812199E+02 -2.984027E+00 +9.116919E+00 -2.984027E+00 +1.421923E+03 
 +6.718135E+02 +2.851279E+01 +1.185537E+01 +2.851279E+01 +5.995535E+02 +2.338509E+00 +1.185537E+01 +2.338509E+00 +1.329617E+03 
 +5.662072E+02 -2.597367E+00 -2.602102E+01 -2.597367E+00 +5.958485E+02 +9.490288E-01 -2.602102E+01 +9.490288E-01 +1.393659E+03 
 +6.092487E+02 -2.008310E+01 +1.201263E+01 -2.008310E+01 +6.005002E+02 -3.066701E+01 +1.201263E+01 -3.066701E+01 +1.350912E+03 
 +6.088837E+02 -2.087818E+00 +1.889346E+01 -2.087818E+00 +6.358398E+02 +2.446848E+01 +1.889346E+01 +2.446848E+01 +1.370375E+03 
 +6.521067E+02 +3.159936E+01 -3.044648E+00 +3.159936E+01 +5.591475E+02 +2.206475E+01 -3.044648E+00 +2.206475E+01 +1.284872E+03 
 +7.052435E+02 +7.786625E+00 -2.264723E-01 +7.786625E+00 +5.789832E+02 +1.980602E+01 -2.264723E-01 +1.980602E+01 +1.382538E+03 
 +7.252484E+02 +3.731375E+01 +5.748328E+00 +3.731375E+01 +6.529676E+02 +9.119465E+00 +5.748328E+00 +9.119465E+00 +1.391475E+03 
 +5.741636E+02 +1.750993E+01 +1.105824E+00 +1.750993E+01 +5.661761E+02 -3.740392E+00 +1.105824E+00 -3.740392E+00 +1.414226E+03 
 +5.063633E+02 -1.303889E+01 -1.237007E+01 -1.303889E+01 +5.172166E+02 +7.308877E+00 -1.237007E+01 +7.308877E+00 +1.343623E+03 
 +5.850605E+02 +1.974844E+01 -2.812617E+01 +1.974844E+01 +5.590084E+02 +1.305777E+01 -2.812617E+01 +1.305777E+01 +1.392246E+03 
 +6.202496E+02 +1.426398E+01 +1.087269E+00 +1.426398E+01 +6.145195E+02 -1.785823E+00 +1.087269E+00 -1.785823E+00 +1.360923E+03 
 +6.211861E+02 +2.405993E+01 +2.254344E+01 +2.405993E+01 +6.421577E+02 -4.178082E+00 +2.254344E+01 -4.178082E+00 +1.314957E+03 
 +6.057852E+02 -1.741744E+01 -2.779807E+01 -1.741744E+01 +6.179598E+02 +1.186377E+01 -2.779807E+01 +1.186377E+01 +1.416922E+03 
 +6.308430E+02 +7.958504E+00 +2.367938E+01 +7.958504E+00 +6.205552E+02 -3.139181E+01 +2.367938E+01 -3.139181E+01 +1.308885E+03 
 +7.186865E+02 -8.724123E+00 +1.334859E+01 -8.724123E+00 +6.244218E+02 +7.590482E+00 +1.334859E+01 +7.590482E+00 +1.369650E+03 
 +5.321201E+02 -1.206660E+01 +8.526231E+00 -1.206660E+01 +5.369940E+02 +1.372848E+01 +8.526231E+00 +1.372848E+01 +1.356257E+03 
 +5.378515E+02 -8.898410E+00 +2.266855E+01 -8.898410E+00 +5.271796E+02 +9.174106E+00 +2.266855E+01 +9.174106E+00 +1.332037E+03 
 +6.106837E+02 +2.730620E+01 +1.289062E+01 +2.730620E+01 +6.714482E+02 -5.050183E+00 +1.289062E+01 -5.050183E+00 +1.281238E+03 
 +6.163239E+02 +2.750665E-02 +4.454165E+01 +2.750665E-02 +5.830559E+02 +1.425580E+00 +4.454165E+01 +1.425580E+00 +1.440363E+03 
 +6.245441E+02 +1.397310E+01 -2.851321E+01 +1.397310E+01 +6.499518E+02 +3.387516E+00 -2.851321E+01 +3.387516E+00 +1.327477E+03 
 +6.425690E+02 +1.064664E+01 +3.952919E+01 +1.064664E+01 +6.495957E+02 -6.851442E+00 +3.952919E+01 -6.851442E+00 +1.327032E+03 
 +5.970110E+02 +1.659307E+01 -3.270997E+01 +1.659307E+01 +5.942006E+02 +1.043402E+01 -3.270997E+01 +1.043402E+01 +1.322934E+03 
 +6.209221E+02 +4.629938E+00 -1.106687E+00 +4.629938E+00 +6.536826E+02 +8.827513E+00 -1.106687E+00 +8.827513E+00 +1.435303E+03 
 +6.033143E+02 +3.530001E+01 -1.431178E+01 +3.530001E+01 +6.421885E+02 -2.266819E+00 -1.431178E+01 -2.266819E+00 +1.287138E+03 
 +6.086443E+02 -1.949890E+01 +2.640315E+01 -1.949890E+01 +6.139647E+02 +1.272245E+01 +2.640315E+01 +1.272245E+01 +1.360507E+03 
 +5.946909E+02 -1.897583E+01 +2.595960E+00 -1.897583E+01 +5.771429E+02 +7.214252E+00 +2.595960E+00 +7.214252E+00 +1.433082E+03 
 +6.221718E+02 -1.347637E+01 +6.412449E+00 -1.347637E+01 +5.865287E+02 +5.391473E+00 +6.412449E+00 +5.391473E+00 +1.374444E+03 
 +6.438867E+02 -2.124325E+01 +1.883614E+01 -2.124325E+01 +6.206287E+02 +2.622109E+01 +1.883614E+01 +2.622109E+01 +1.334776E+03 
 +6.097134E+02 -1.558241E+01 -6.859941E+00 -1.558241E+01 +5.907038E+02 +1.187088E+01 -6.859941E+00 +1.187088E+01 +1.421691E+03 
 +6.138658E+02 -1.470112E+01 +1.908535E+01 -1.470112E+01 +6.125858E+02 +3.098255E+00 +1.908535E+01 +3.098255E+00 +1.381528E+03 
 +5.799076E+02 +2.313464E+01 -8.198932E+00 +2.313464E+01 +5.538774E+02 +4.691190E+00 -8.198932E+00 +4.691190E+00 +1.325431E+03 
 +6.354335E+02 +1.613936E+01 +8.880733E+00 +1.613936E+01 +5.783314E+02 +1.764064E+01 +8.880733E+00 +1.764064E+01 +1.479159E+03 
 +5.947889E+02 +3.071185E+01 -8.573922E+00 +3.071185E+01 +5.751960E+02 -2.797365E+01 -8.573922E+00 -2.797365E+01 +1.355859E+03 
 +5.987463E+02 -1.616316E+01 +2.517773E+01 -1.616316E+01 +5.843917E+02 -4.064182E+01 +2.517773E+01 -4.064182E+01 +1.318665E+03 
 +6.318056E+02 -5.443940E+01 +6.054105E-01 -5.443940E+01 +6.503309E+02 +2.461643E+00 +6.054105E-01 +2.461643E+00 +1.334899E+03 
 +6.094932E+02 +4.021955E+01 +4.852231E+00 +4.021955E+01 +6.551365E+02 +1.171467E+01 +4.852231E+00 +1.171467E+01 +1.335798E+03 
 +5.969270E+02 +8.063612E+00 -2.924555E+01 +8.063612E+00 +6.592327E+02 -7.556411E+00 -2.924555E+01 -7.556411E+00 +1.336970E+03 
 +6.537564E+02 -3.876614E+01 -1.998706E+01 -3.876614E+01 +6.706232E+02 +1.500566E+01 -1.998706E+01 +1.500566E+01 +1.359445E+03 
 +6.081951E+02 +1.870529E+01 -6.324225E+00 +1.870529E+01 +6.649314E+02 +9.068104E+00 -6.324225E+00 +9.068104E+00 +1.358660E+03 
 +5.729498E+02 -1.408184E-01 -3.212450E+01 -1.408184E-01 +5.984912E+02 -2.784025E+01 -3.212450E+01 -2.784025E+01 +1.354475E+03 
 +6.051143E+02 +1.798361E+01 -4.822685E-01 +1.798361E+01 +6.273011E+02 -3.102444E+01 -4.822685E-01 -3.102444E+01 +1.351773E+03 
 +5.987254E+02 +3.359144E+01 -5.006492E+00 +3.359144E+01 +5.680897E+02 -1.802009E+01 -5.006492E+00 -1.802009E+01 +1.299709E+03 
 +5.322440E+02 -1.336557E+00 -1.492325E+00 -1.336557E+00 +5.610732E+02 -2.374987E+00 -1.492325E+00 -2.374987E+00 +1.353660E+03 
 +6.434837E+02 +2.078694E+01 -7.010358E+00 +2.078694E+01 +6.455145E+02 +8.270182E+00 -7.010358E+00 +8.270182E+00 +1.397162E+03 
 +5.922929E+02 -4.849675E+01 +5.220415E+00 -4.849675E+01 +6.130335E+02 -1.523063E+00 +5.220415E+00 -1.523063E+00 +1.295179E+03 
 +6.981146E+02 +2.199526E+01 +1.037455E+01 +2.199526E+01 +6.281443E+02 -1.749617E+01 +1.037455E+01 -1.749617E+01 +1.365786E+03 
 +5.567659E+02 -3.609805E+01 -6.099728E-01 -3.609805E+01 +6.877131E+02 +1.436672E+01 -6.099728E-01 +1.436672E+01 +1.336913E+03 
 +6.370673E+02 +2.844670E+01 -2.205972E+01 +2.844670E+01 +6.641811E+02 -8.090267E+00 -2.205972E+01 -8.090267E+00 +1.373287E+03 
 +5.661993E+02 +5.336598E+01 -7.682387E+00 +5.336598E+01 +6.162318E+02 -2.401498E+01 -7.682387E+00 -2.401498E+01 +1.277449E+03 
 +5.661622E+02 -1.387943E+01 -2.312603E+01 -1.387943E+01 +6.061711E+02 +5.530374E+00 -2.312603E+01 +5.530374E+00 +1.409666E+03 
 +5.743394E+02 +6.419632E+01 +9.835005E+00 +6.419632E+01 +6.413722E+02 +1.608130E+01 +9.835005E+00 +1.608130E+01 +1.285688E+03 
 +6.122198E+02 +3.107790E+01 -1.132252E+01 +3.107790E+01 +7.118876E+02 +1.214111E+01 -1.132252E+01 +1.214111E+01 +1.368666E+03 
 +6.090102E+02 +2.630346E+01 -1.534284E+01 +2.630346E+01 +6.514099E+02 -1.096626E+01 -1.534284E+01 -1.096626E+01 +1.346535E+03 
 +6.454798E+02 -1.108729E+00 +1.845859E+01 -1.108729E+00 +6.511486E+02 -2.202873E+00 +1.845859E+01 -2.202873E+00 +1.343624E+03 
 +5.892787E+02 -1.162669E+01 -2.142525E+01 -1.162669E+01 +6.514163E+02 -2.710368E+01 -2.142525E+01 -2.710368E+01 +1.341158E+03 
 +5.988491E+02 +1.855413E+01 -1.772711E+01 +1.855413E+01 +6.702779E+02 -9.465638E+00 -1.772711E+01 -9.465638E+00 +1.294044E+03 
 +6.247434E+02 -4.314091E+01 -1.172419E+01 -4.314091E+01 +5.990911E+02 +4.030374E+00 -1.172419E+01 +4.030374E+00 +1.275627E+03 
 +5.441562E+02 +7.296265E+00 +1.783001E+01 +7.296265E+00 +5.701094E+02 +1.450818E+01 +1.783001E+01 +1.450818E+01 +1.370474E+03 
 +5.866412E+02 +2.475497E+00 +1.934428E+01 +2.475497E+00 +6.068590E+02 +1.075890E+01 +1.934428E+01 +1.075890E+01 +1.319936E+03 
 +5.611562E+02 -1.618596E+01 +2.744919E+01 -1.618596E+01 +5.754150E+02 +4.807338E-01 +2.744919E+01 +4.807338E-01 +1.425958E+03 
 +6.225673E+02 +1.092035E+00 +4.668068E+00 +1.092035E+00 +6.113775E+02 +1.537141E+01 +4.668068E+00 +1.537141E+01 +1.360802E+03 
 +6.631335E+02 -6.725993E+01 -2.086403E+01 -6.725993E+01 +6.509107E+02 +4.377697E+00 -2.086403E+01 +4.377697E+00 +1.348687E+03 
 +6.420222E+02 -1.490602E+01 +5.300645E+00 -1.490602E+01 +5.756352E+02 +3.156235E+00 +5.300645E+00 +3.156235E+00 +1.351357E+03 
 +6.066432E+02 +2.450480E+01 -3.796283E+00 +2.450480E+01 +5.348770E+02 +3.329457E+00 -3.796283E+00 +3.329457E+00 +1.289499E+03 
 +6.331397E+02 +8.923673E+00 +1.016720E+01 +8.923673E+00 +6.009390E+02 -3.540963E+01 +1.016720E+01 -3.540963E+01 +1.392994E+03 
 +5.930535E+02 -7.263937E+00 +2.925126E+01 -7.263937E+00 +6.014539E+02 -5.688109E+00 +2.925126E+01 -5.688109E+00 +1.333482E+03 
 +5.696931E+02 -1.769463E+01 +7.732880E-01 -1.769463E+01 +5.494620E+02 +2.128767E+01 +7.732880E-01 +2.128767E+01 +1.376246E+03 
 +6.508057E+02 +3.614038E+01 +6.997271E+00 +3.614038E+01 +5.506969E+02 +5.282938E+00 +6.997271E+00 +5.282938E+00 +1.285299E+03 
 +6.108239E+02 +1.302725E+01 +1.822581E+01 +1.302725E+01 +6.659824E+02 -3.897176E+00 +1.822581E+01 -3.897176E+00 +1.440431E+03 
 +5.553019E+02 -2.657296E+01 -2.993869E+01 -2.657296E+01 +6.426464E+02 -2.480844E+00 -2.993869E+01 -2.480844E+00 +1.283540E+03 
 +6.650198E+02 +5.630677E+00 -1.199611E+01 +5.630677E+00 +6.305704E+02 +9.722854E+00 -1.199611E+01 +9.722854E+00 +1.410371E+03 
 +5.963497E+02 -4.082466E+01 -2.234966E+01 -4.082466E+01 +6.765739E+02 -1.831309E+01 -2.234966E+01 -1.831309E+01 +1.354228E+03 
 +6.245422E+02 -2.038932E+01 +2.496476E+01 -2.038932E+01 +6.109606E+02 -1.530869E+00 +2.496476E+01 -1.530869E+00 +1.458878E+03 
 +5.649918E+02 -3.560829E+00 +2.115007E+01 -3.560829E+00 +5.621793E+02 +3.472813E+01 +2.115007E+01 +3.472813E+01 +1.312922E+03 
 +5.511004E+02 -1.760283E+01 -5.735348E+00 -1.760283E+01 +5.620088E+02 -2.703135E+00 -5.735348E+00 -2.703135E+00 +1.415125E+03 
 +6.463425E+02 -4.737692E+00 +4.574811E+00 -4.737692E+00 +5.727704E+02 +1.281132E+01 +4.574811E+00 +1.281132E+01 +1.370000E+03 
 +6.750876E+02 -4.367424E+01 -4.332119E+00 -4.367424E+01 +5.531700E+02 +1.177540E+01 -4.332119E+00 +1.177540E+01 +1.292937E+03 
 +6.187539E+02 +2.815738E+01 +1.032463E+01 +2.815738E+01 +5.523306E+02 -6.790541E+00 +1.032463E+01 -6.790541E+00 +1.257817E+03 
 +6.274907E+02 +7.899544E+00 +8.126067E+00 +7.899544E+00 +5.838538E+02 -1.983231E+00 +8.126067E+00 -1.983231E+00 +1.416171E+03 
 +6.758078E+02 -5.806057E+00 +1.256295E+01 -5.806057E+00 +6.173179E+02 +2.150082E+01 +1.256295E+01 +2.150082E+01 +1.418857E+03 
 +5.755478E+02 +1.042688E+01 -7.589527E+00 +1.042688E+01 +6.095709E+02 -1.325970E+01 -7.589527E+00 -1.325970E+01 +1.369367E+03 
 +5.970264E+02 +1.695267E+01 +2.522183E+01 +1.695267E+01 +6.286600E+02 -7.764431E+00 +2.522183E+01 -7.764431E+00 +1.387631E+03 
 +6.660217E+02 +9.816631E+00 +1.847321E+01 +9.816631E+00 +6.807048E+02 +7.237090E+00 +1.847321E+01 +7.237090E+00 +1.408373E+03 
 +5.298942E+02 +2.478793E+00 -4.207255E-01 +2.478793E+00 +6.563761E+02 +2.072479E+01 -4.207255E-01 +2.072479E+01 +1.343568E+03 
 +6.621133E+02 +2.481306E+01 +7.038426E+00 +2.481306E+01 +6.511690E+02 +3.817447E+00 +7.038426E+00 +3.817447E+00 +1.337791E+03 
 +6.494452E+02 -8.569341E+00 +2.442908E+01 -8.569341E+00 +6.004932E+02 +3.637873E+00 +2.442908E+01 +3.637873E+00 +1.334227E+03 
 +6.124592E+02 +6.947271E+00 +9.567826E+00 +6.947271E+00 +5.638923E+02 +1.110723E+01 +9.567826E+00 +1.110723E+01 +1.306153E+03 
 +6.224716E+02 -1.076777E+01 -1.371336E+01 -1.076777E+01 +6.045810E+02 +3.760824E+00 -1.371336E+01 +3.760824E+00 +1.353070E+03 
 +6.032532E+02 -2.863028E+01 +1.143770E+01 -2.863028E+01 +6.225368E+02 -3.542857E+01 +1.143770E+01 -3.542857E+01 +1.353659E+03 
 +6.342903E+02 +9.549320E+00 +2.656317E+01 +9.549320E+00 +6.362404E+02 -1.752067E+01 +2.656317E+01 -1.752067E+01 +1.461363E+03 
 +6.587554E+02 +9.035471E+00 -1.208183E+00 +9.035471E+00 +5.710465E+02 +2.232875E+01 -1.208183E+00 +2.232875E+01 +1.333476E+03 
 +5.947041E+02 +2.764266E+00 -3.725262E+01 +2.764266E+00 +5.599297E+02 +1.433705E+01 -3.725262E+01 +1.433705E+01 +1.461221E+03 
 +6.074397E+02 +7.535807E+00 -2.410714E+01 +7.535807E+00 +5.907898E+02 -1.693963E+01 -2.410714E+01 -1.693963E+01 +1.372792E+03 
 +5.857546E+02 +1.079403E+00 +9.770610E+00 +1.079403E+00 +6.142733E+02 -1.524457E+01 +9.770610E+00 -1.524457E+01 +1.402362E+03 
 +6.119310E+02 +4.631104E+01 +2.824447E+00 +4.631104E+01 +6.586383E+02 -1.392671E+01 +2.824447E+00 -1.392671E+01 +1.331979E+03 
 +5.935120E+02 +1.294376E+01 +1.038264E+01 +1.294376E+01 +6.263969E+02 +1.207175E+01 +1.038264E+01 +1.207175E+01 +1.418986E+03 
 +5.821146E+02 -2.552709E+01 +1.406504E+01 -2.552709E+01 +5.949952E+02 +1.763423E+01 +1.406504E+01 +1.763423E+01 +1.420588E+03 
 +6.190486E+02 +4.105605E+00 +2.664429E+01 +4.105605E+00 +6.925393E+02 -1.345849E+01 +2.664429E+01 -1.345849E+01 +1.324623E+03 
 +5.553305E+02 -2.312055E+00 -1.425361E+01 -2.312055E+00 +6.091005E+02 -3.872472E+00 -1.425361E+01 -3.872472E+00 +1.308629E+03 
 +5.303681E+02 +2.057757E+01 +9.157915E+00 +2.057757E+01 +5.589579E+02 +2.961112E+00 +9.157915E+00 +2.961112E+00 +1.329299E+03 
 +5.815963E+02 -5.909273E+00 -9.931857E-01 -5.909273E+00 +5.919030E+02 -3.108434E+01 -9.931857E-01 -3.108434E+01 +1.365299E+03 
 +6.125724E+02 -7.686976E+00 -2.769494E+01 -7.686976E+00 +5.794952E+02 +2.390861E+00 -2.769494E+01 +2.390861E+00 +1.430680E+03 
 +6.273708E+02 -1.391272E+01 -2.390097E+01 -1.391272E+01 +6.684627E+02 -7.343184E+00 -2.390097E+01 -7.343184E+00 +1.380281E+03 
 +6.074423E+02 -9.843048E+00 -1.104140E+01 -9.843048E+00 +6.144751E+02 -2.546845E+01 -1.104140E+01 -2.546845E+01 +1.420005E+03 
 +6.062526E+02 -1.054540E+01 +3.129602E+01 -1.054540E+01 +5.692589E+02 -8.175341E+00 +3.129602E+01 -8.175341E+00 +1.305809E+03 
 +5.682637E+02 +6.361133E+00 -3.451180E+00 +6.361133E+00 +5.723148E+02 +1.909402E+01 -3.451180E+00 +1.909402E+01 +1.369343E+03 
 +5.693939E+02 -3.190063E+00 +2.284570E+00 -3.190063E+00 +6.129714E+02 +1.891405E+01 +2.284570E+00 +1.891405E+01 +1.288751E+03 
 +6.009821E+02 -2.528505E+01 -6.664497E+00 -2.528505E+01 +7.008508E+02 +7.776100E+00 -6.664497E+00 +7.776100E+00 +1.343441E+03 
 +6.481321E+02 -4.626615E+00 -2.105359E+01 -4.626615E+00 +6.236914E+02 -1.055948E+01 -2.105359E+01 -1.055948E+01 +1.366986E+03 
 +6.124059E+02 +2.722184E+01 +1.911581E+01 +2.722184E+01 +6.071476E+02 -1.052592E+01 +1.911581E+01 -1.052592E+01 +1.380566E+03 
 +5.946658E+02 -2.736942E+00 -8.006713E+00 -2.736942E+00 +6.029454E+02 -4.121130E+00 -8.006713E+00 -4.121130E+00 +1.389898E+03 
 +6.077546E+02 -3.064101E+01 +3.619171E+01 -3.064101E+01 +6.446694E+02 -5.616130E-01 +3.619171E+01 -5.616130E-01 +1.290611E+03 
 +6.473850E+02 +2.566969E+01 +5.496867E+00 +2.566969E+01 +6.376739E+02 +2.999523E+01 +5.496867E+00 +2.999523E+01 +1.439177E+03 
 +5.869117E+02 -8.490908E+00 -1.601586E+01 -8.490908E+00 +7.140648E+02 -1.343187E+01 -1.601586E+01 -1.343187E+01 +1.347229E+03 
 +6.238203E+02 +1.146367E+01 -6.444836E+00 +1.146367E+01 +7.369578E+02 +5.635928E+00 -6.444836E+00 +5.635928E+00 +1.375527E+03 
 +6.960081E+02 +3.343039E+01 +1.322269E+01 +3.343039E+01 +6.178406E+02 +4.112844E+00 +1.322269E+01 +4.112844E+00 +1.317247E+03 
 +5.895661E+02 -1.591870E+01 +1.812828E+01 -1.591870E+01 +5.868043E+02 -1.778524E+01 +1.812828E+01 -1.778524E+01 +1.420161E+03 
 +6.000615E+02 -2.019086E+01 -7.755087E+00 -2.019086E+01 +6.208088E+02 +6.832789E+00 -7.755087E+00 +6.832789E+00 +1.420042E+03 
 +5.553439E+02 -1.589798E+01 -2.293401E+01 -1.589798E+01 +5.435350E+02 +3.737519E+00 -2.293401E+01 +3.737519E+00 +1.352672E+03 
 +5.830734E+02 +1.086743E+01 -1.687091E+01 +1.086743E+01 +6.014575E+02 -4.686835E-01 -1.687091E+01 -4.686835E-01 +1.293651E+03 
 +6.597054E+02 -4.745388E+01 -3.842865E+00 -4.745388E+01 +6.204253E+02 +1.369068E+01 -3.842865E+00 +1.369068E+01 +1.332546E+03 
 +6.396685E+02 +3.186207E+01 -7.404799E+00 +3.186207E+01 +5.581962E+02 -1.332886E+00 -7.404799E+00 -1.332886E+00 +1.291479E+03 
 +5.988323E+02 +8.731991E+00 +1.405712E+01 +8.731991E+00 +5.926040E+02 -1.862337E+01 +1.405712E+01 -1.862337E+01 +1.478037E+03 
 +5.781469E+02 +2.822425E+01 +1.122862E+01 +2.822425E+01 +6.351166E+02 +9.466860E+00 +1.122862E+01 +9.466860E+00 +1.315743E+03 
 +6.815132E+02 +7.398566E+00 -1.034339E+01 +7.398566E+00 +6.245866E+02 -1.210151E+01 -1.034339E+01 -1.210151E+01 +1.359230E+03 
 +5.902095E+02 +2.082031E+01 +3.122806E+01 +2.082031E+01 +6.177153E+02 -4.835847E+01 +3.122806E+01 -4.835847E+01 +1.364183E+03 
 +5.593884E+02 +4.195236E+01 -3.412349E+01 +4.195236E+01 +5.910188E+02 -1.701461E+01 -3.412349E+01 -1.701461E+01 +1.329173E+03 
 +6.153599E+02 +1.593096E+01 -1.503306E+01 +1.593096E+01 +5.626474E+02 +8.096240E+00 -1.503306E+01 +8.096240E+00 +1.279586E+03 
 +6.068459E+02 +1.584678E+01 +1.153668E+00 +1.584678E+01 +5.878443E+02 +1.823247E+01 +1.153668E+00 +1.823247E+01 +1.388728E+03 
 +5.729056E+02 -4.745553E+00 -3.647191E+01 -4.745553E+00 +6.012469E+02 +3.918829E+01 -3.647191E+01 +3.918829E+01 +1.384226E+03 
 +6.066462E+02 -4.322162E+01 -4.899018E+00 -4.322162E+01 +6.826924E+02 -1.419443E+01 -4.899018E+00 -1.419443E+01 +1.350489E+03 
 +6.304081E+02 -2.995271E+01 +1.461646E+01 -2.995271E+01 +6.837913E+02 +6.564151E+00 +1.461646E+01 +6.564151E+00 +1.336186E+03 
 +6.077678E+02 -2.212469E+01 -1.045711E+00 -2.212469E+01 +7.181609E+02 -9.345117E+00 -1.045711E+00 -9.345117E+00 +1.338232E+03 
 +6.185193E+02 +1.035079E+01 +1.047296E+01 +1.035079E+01 +7.412057E+02 -5.765582E+00 +1.047296E+01 -5.765582E+00 +1.377963E+03 
 +5.979548E+02 +1.386245E+01 +9.971843E+00 +1.386245E+01 +6.285486E+02 +2.059398E+01 +9.971843E+00 +2.059398E+01 +1.407657E+03 
 +6.109001E+02 -1.694339E+01 +2.422310E+01 -1.694339E+01 +6.118962E+02 +2.123462E+01 +2.422310E+01 +2.123462E+01 +1.325383E+03 
 +6.121849E+02 -1.025488E+01 -4.143027E+01 -1.025488E+01 +6.114974E+02 +9.316701E+00 -4.143027E+01 +9.316701E+00 +1.399208E+03 
 +6.892083E+02 -1.977948E+01 +9.620869E+00 -1.977948E+01 +6.663284E+02 -4.044229E+01 +9.620869E+00 -4.044229E+01 +1.367538E+03 
 +5.913237E+02 +4.327061E+00 +7.810470E+00 +4.327061E+00 +5.591227E+02 -1.813065E+00 +7.810470E+00 -1.813065E+00 +1.352298E+03 
 +5.715151E+02 -5.617476E-01 -3.408937E+01 -5.617476E-01 +5.587663E+02 +4.341646E+01 -3.408937E+01 +4.341646E+01 +1.361672E+03 
 +6.428967E+02 -8.460161E+00 -2.091341E+01 -8.460161E+00 +6.005702E+02 -2.347230E+01 -2.091341E+01 -2.347230E+01 +1.328062E+03 
 +5.966660E+02 +3.178836E+01 -1.194372E+01 +3.178836E+01 +5.982312E+02 +1.473927E+01 -1.194372E+01 +1.473927E+01 +1.300272E+03 
 +5.983760E+02 -5.421702E-01 +2.030185E+01 -5.421702E-01 +5.852289E+02 +3.790256E+00 +2.030185E+01 +3.790256E+00 +1.426374E+03 
 +6.103855E+02 +7.689290E+00 +2.294655E+01 +7.689290E+00 +5.953932E+02 -1.712730E+01 +2.294655E+01 -1.712730E+01 +1.402373E+03 
 +6.133709E+02 +3.773442E+01 +3.652243E+00 +3.773442E+01 +6.439263E+02 -1.387732E+01 +3.652243E+00 -1.387732E+01 +1.302948E+03 
 +5.917635E+02 +2.961747E+00 +9.809775E+00 +2.961747E+00 +6.717620E+02 +3.430927E+00 +9.809775E+00 +3.430927E+00 +1.323338E+03 
 +6.698015E+02 +1.086057E+00 +3.657876E+00 +1.086057E+00 +6.606049E+02 +1.047008E-01 +3.657876E+00 +1.047008E-01 +1.438307E+03 
 +6.205751E+02 +4.090265E+01 -2.349878E+00 +4.090265E+01 +5.779725E+02 +1.070463E+01 -2.349878E+00 +1.070463E+01 +1.266989E+03 
 +6.406381E+02 -3.655821E+01 +1.133501E+01 -3.655821E+01 +5.578123E+02 +6.571559E-01 +1.133501E+01 +6.571559E-01 +1.296124E+03 
 +7.041364E+02 +1.926972E+01 +1.493489E+01 +1.926972E+01 +6.140551E+02 -5.147292E+00 +1.493489E+01 -5.147292E+00 +1.334892E+03 
 +6.133619E+02 +6.657148E+00 -1.024668E+01 +6.657148E+00 +6.119749E+02 -1.472504E+01 -1.024668E+01 -1.472504E+01 +1.416797E+03 
 +6.501959E+02 -1.692767E+01 -1.508542E+01 -1.692767E+01 +6.190370E+02 -6.245703E+00 -1.508542E+01 -6.245703E+00 +1.382186E+03 
 +5.385173E+02 +6.860376E+00 +2.206179E+01 +6.860376E+00 +5.622023E+02 +2.191429E+01 +2.206179E+01 +2.191429E+01 +1.339056E+03 
 +5.524457E+02 +4.607929E+00 +4.388676E+00 +4.607929E+00 +5.309880E+02 +5.393466E+00 +4.388676E+00 +5.393466E+00 +1.381098E+03 
 +5.729508E+02 -1.112497E+01 +1.393461E+01 -1.112497E+01 +5.566647E+02 -1.513907E+00 +1.393461E+01 -1.513907E+00 +1.411459E+03 
 +5.552595E+02 +1.296352E+01 +1.712769E+01 +1.296352E+01 +6.301706E+02 +3.608796E+00 +1.712769E+01 +3.608796E+00 +1.407032E+03 
 +6.092707E+02 +3.379031E+01 -8.964983E+00 +3.379031E+01 +6.331197E+02 +3.162290E+00 -8.964983E+00 +3.162290E+00 +1.276555E+03 
 +5.859277E+02 -1.255571E+01 -3.259357E+01 -1.255571E+01 +6.101390E+02 -1.144602E+01 -3.259357E+01 -1.144602E+01 +1.466034E+03 
 +6.054785E+02 +2.609941E+00 +2.179142E+00 +2.609941E+00 +6.145279E+02 -4.173285E+01 +2.179142E+00 -4.173285E+01 +1.407295E+03 
 +6.162669E+02 -1.968651E+01 +2.967724E-01 -1.968651E+01 +6.644566E+02 -1.266678E+01 +2.967724E-01 -1.266678E+01 +1.323767E+03 
 +6.380159E+02 +4.982794E+00 +1.922589E+01 +4.982794E+00 +6.718142E+02 -1.848138E+01 +1.922589E+01 -1.848138E+01 +1.356209E+03 
 +6.640727E+02 +9.526048E+00 -1.870059E+01 +9.526048E+00 +6.589132E+02 +1.907454E-01 -1.870059E+01 +1.907454E-01 +1.317738E+03 
 +6.614419E+02 -5.810313E+01 -5.888975E+00 -5.810313E+01 +5.755591E+02 -1.499316E+01 -5.888975E+00 -1.499316E+01 +1.299892E+03 
 +6.491620E+02 -2.425182E+01 +2.127959E+01 -2.425182E+01 +6.124781E+02 -1.105196E+01 +2.127959E+01 -1.105196E+01 +1.360779E+03 
 +5.663199E+02 +3.239999E+01 +5.361300E+00 +3.239999E+01 +6.086345E+02 +2.116406E+01 +5.361300E+00 +2.116406E+01 +1.319595E+03 
 +6.398079E+02 +2.281129E+01 -1.145086E+01 +2.281129E+01 +6.762079E+02 +4.627801E+00 -1.145086E+01 +4.627801E+00 +1.342700E+03 
 +6.178105E+02 +1.382331E+01 +3.586485E+01 +1.382331E+01 +6.217063E+02 -2.285324E+00 +3.586485E+01 -2.285324E+00 +1.358844E+03 
 +5.907571E+02 -1.968502E+01 -1.071380E+01 -1.968502E+01 +6.161993E+02 +2.624969E+01 -1.071380E+01 +2.624969E+01 +1.404446E+03 
 +5.845477E+02 -4.675797E+01 +7.961056E+00 -4.675797E+01 +6.815914E+02 +1.083495E+01 +7.961056E+00 +1.083495E+01 +1.276810E+03 
 +6.034907E+02 -4.692122E-01 +1.854988E+00 -4.692122E-01 +6.788387E+02 +9.266681E+00 +1.854988E+00 +9.266681E+00 +1.298068E+03 
 +5.882255E+02 +3.120387E+01 +2.066090E+01 +3.120387E+01 +6.184282E+02 -8.772618E+00 +2.066090E+01 -8.772618E+00 +1.334221E+03 
 +5.910999E+02 +1.844826E+01 +8.805557E+00 +1.844826E+01 +5.995339E+02 -2.861893E+01 +8.805557E+00 -2.861893E+01 +1.393026E+03 
 +5.849568E+02 +1.390396E+00 -2.245815E+01 +1.390396E+00 +5.528182E+02 +2.910525E+01 -2.245815E+01 +2.910525E+01 +1.327398E+03 
 +5.889812E+02 +1.708991E+00 +2.428321E+01 +1.708991E+00 +6.323531E+02 +2.547304E+00 +2.428321E+01 +2.547304E+00 +1.347282E+03 
 +6.091569E+02 -3.537862E+01 -9.756184E+00 -3.537862E+01 +6.790146E+02 -3.366264E+00 -9.756184E+00 -3.366264E+00 +1.307504E+03 
 +6.611757E+02 -1.155871E+01 -6.446587E+00 -1.155871E+01 +6.611597E+02 -1.421354E+01 -6.446587E+00 -1.421354E+01 +1.459135E+03 
 +6.645719E+02 +2.388577E-01 +1.660760E+01 +2.388577E-01 +6.304903E+02 -7.981559E+00 +1.660760E+01 -7.981559E+00 +1.358464E+03 
 +6.405840E+02 -5.002351E+01 +9.724312E+00 -5.002351E+01 +6.320308E+02 -5.262435E+00 +9.724312E+00 -5.262435E+00 +1.329951E+03 
 +6.193970E+02 +2.482313E+00 +4.013677E+01 +2.482313E+00 +6.244572E+02 +1.771589E+01 +4.013677E+01 +1.771589E+01 +1.463217E+03 
 +5.994323E+02 +1.467264E+01 -2.043980E+01 +1.467264E+01 +6.156801E+02 +3.607981E+01 -2.043980E+01 +3.607981E+01 +1.492549E+03 
 +5.632665E+02 +2.127024E+01 +2.267276E+01 +2.127024E+01 +6.005507E+02 -1.241640E+01 +2.267276E+01 -1.241640E+01 +1.271918E+03 
 +6.816931E+02 +5.879888E-01 -1.583962E-01 +5.879888E-01 +6.212285E+02 +3.056676E+01 -1.583962E-01 +3.056676E+01 +1.354117E+03 
 +6.206133E+02 +3.116109E+00 -1.292676E+00 +3.116109E+00 +6.164218E+02 +3.832396E+01 -1.292676E+00 +3.832396E+01 +1.318365E+03 
 +5.715320E+02 +3.561477E+01 +2.909299E+00 +3.561477E+01 +6.000827E+02 -1.709525E+01 +2.909299E+00 -1.709525E+01 +1.334251E+03 
 +6.505724E+02 +2.287381E+01 -5.367930E+00 +2.287381E+01 +5.905277E+02 -1.088649E+01 -5.367930E+00 -1.088649E+01 +1.309140E+03 
 +5.708253E+02 +1.329315E+01 -6.064952E+00 +1.329315E+01 +6.743021E+02 +4.022101E+00 -6.064952E+00 +4.022101E+00 +1.303031E+03 
 +6.062521E+02 -3.427172E+01 +1.581414E+01 -3.427172E+01 +6.266196E+02 +6.793707E+00 +1.581414E+01 +6.793707E+00 +1.311552E+03 
 +5.752284E+02 -4.116177E+01 -8.178541E+00 -4.116177E+01 +6.351288E+02 +3.126980E+01 -8.178541E+00 +3.126980E+01 +1.410424E+03 
 +6.339095E+02 +1.031812E+01 -1.661497E+01 +1.031812E+01 +5.550161E+02 +1.002574E+01 -1.661497E+01 +1.002574E+01 +1.339854E+03 
 +5.440569E+02 -4.505754E-01 +8.158929E+00 -4.505754E-01 +5.571523E+02 +3.907563E+01 +8.158929E+00 +3.907563E+01 +1.328849E+03 
 +6.250722E+02 -4.061508E+01 +1.214055E+01 -4.061508E+01 +5.962921E+02 +1.364424E+01 +1.214055E+01 +1.364424E+01 +1.229116E+03 
 +5.688217E+02 +3.196920E+01 +1.093453E+01 +3.196920E+01 +5.748540E+02 -1.884672E+01 +1.093453E+01 -1.884672E+01 +1.375620E+03 
 +5.963822E+02 +1.069463E+01 -2.320433E+01 +1.069463E+01 +5.612889E+02 +9.539756E+00 -2.320433E+01 +9.539756E+00 +1.321532E+03 
 +6.081763E+02 -3.358381E+01 +1.413099E+01 -3.358381E+01 +6.467697E+02 -9.761125E+00 +1.413099E+01 -9.761125E+00 +1.301125E+03 
 +6.492115E+02 -4.102986E+01 +3.020648E-01 -4.102986E+01 +6.837006E+02 +1.605349E+00 +3.020648E-01 +1.605349E+00 +1.360142E+03 
 +5.695359E+02 +2.901005E+01 +2.102316E+01 +2.901005E+01 +5.926768E+02 -1.905820E+01 +2.102316E+01 -1.905820E+01 +1.276758E+03 
 +6.224955E+02 +1.357225E+01 -2.902541E+01 +1.357225E+01 +6.192971E+02 +1.120274E+01 -2.902541E+01 +1.120274E+01 +1.479637E+03 
 +5.970361E+02 -1.176960E+01 -4.116227E+01 -1.176960E+01 +6.159305E+02 +2.010381E+01 -4.116227E+01 +2.010381E+01 +1.325619E+03 
 +6.806425E+02 +2.055972E+01 +5.884539E+00 +2.055972E+01 +6.024070E+02 -3.034933E+01 +5.884539E+00 -3.034933E+01 +1.342683E+03 
 +6.300724E+02 -3.062238E+01 -1.326754E+01 -3.062238E+01 +6.393802E+02 +8.580976E+00 -1.326754E+01 +8.580976E+00 +1.391108E+03 
 +5.531237E+02 -1.007379E+01 +1.021695E+01 -1.007379E+01 +5.816224E+02 +5.873154E+01 +1.021695E+01 +5.873154E+01 +1.418240E+03 
 +6.811604E+02 +1.495737E+01 +3.095117E+00 +1.495737E+01 +5.641957E+02 +1.456981E+01 +3.095117E+00 +1.456981E+01 +1.319982E+03 
 +5.314487E+02 +2.041283E+00 -1.897472E+01 +2.041283E+00 +5.934114E+02 -1.076955E+01 -1.897472E+01 -1.076955E+01 +1.382358E+03 
 +7.018331E+02 +3.385965E+01 -1.190962E+01 +3.385965E+01 +6.998651E+02 +2.586613E+01 -1.190962E+01 +2.586613E+01 +1.426872E+03 
 +6.135051E+02 +3.395344E+00 +1.537427E+01 +3.395344E+00 +6.715480E+02 -2.625872E-01 +1.537427E+01 -2.625872E-01 +1.376519E+03 
 +6.096167E+02 +6.174778E+00 -3.618650E+00 +6.174778E+00 +5.754572E+02 +8.817505E-01 -3.618650E+00 +8.817505E-01 +1.332596E+03 
 +5.491087E+02 +8.284246E+00 -1.075252E+01 +8.284246E+00 +5.064613E+02 -3.677560E+01 -1.075252E+01 -3.677560E+01 +1.389273E+03 
 +6.567322E+02 +3.817912E+01 -4.123407E+00 +3.817912E+01 +6.255322E+02 -7.385939E+00 -4.123407E+00 -7.385939E+00 +1.312811E+03 
 +6.407634E+02 -1.745426E+01 -1.930598E+01 -1.745426E+01 +6.042369E+02 +1.370901E+01 -1.930598E+01 +1.370901E+01 +1.443928E+03 
 +5.767667E+02 +4.460264E+00 -3.310522E+01 +4.460264E+00 +5.216580E+02 +2.725991E+01 -3.310522E+01 +2.725991E+01 +1.364024E+03 
 +6.462942E+02 +9.390199E-01 +2.299016E+00 +9.390199E-01 +5.519797E+02 -1.137753E+01 +2.299016E+00 -1.137753E+01 +1.294007E+03 
 +6.062598E+02 -3.788775E+01 -7.392189E+00 -3.788775E+01 +6.822222E+02 -2.731907E+01 -7.392189E+00 -2.731907E+01 +1.324740E+03 
 +6.791415E+02 -1.355094E+01 +1.449429E+01 -1.355094E+01 +6.648514E+02 -1.110289E+01 +1.449429E+01 -1.110289E+01 +1.346621E+03 
 +5.853318E+02 -1.457370E+01 +2.042849E+00 -1.457370E+01 +7.056053E+02 -1.084078E+01 +2.042849E+00 -1.084078E+01 +1.342866E+03 
 +5.879980E+02 +2.916748E+01 +4.369688E+00 +2.916748E+01 +7.160377E+02 +1.420297E+00 +4.369688E+00 +1.420297E+00 +1.364885E+03 
 +5.942583E+02 +3.031429E+01 -3.015141E+00 +3.031429E+01 +6.244857E+02 +8.998573E+00 -3.015141E+00 +8.998573E+00 +1.364016E+03 
 +6.508090E+02 -3.720457E+01 -1.676454E+00 -3.720457E+01 +6.439824E+02 +1.503819E+00 -1.676454E+00 +1.503819E+00 +1.341515E+03 
 +6.092669E+02 +4.289868E+00 -1.004074E+01 +4.289868E+00 +6.412101E+02 +1.235493E+01 -1.004074E+01 +1.235493E+01 +1.428155E+03 
 +6.735589E+02 -1.531810E+01 -6.325991E-01 -1.531810E+01 +6.408611E+02 +1.153237E+01 -6.325991E-01 +1.153237E+01 +1.331019E+03 
 +6.023513E+02 -6.387493E+00 +1.297965E+01 -6.387493E+00 +6.213524E+02 -6.569612E+00 +1.297965E+01 -6.569612E+00 +1.361751E+03 
 +5.961459E+02 +1.016432E+01 -4.053811E+00 +1.016432E+01 +5.520620E+02 -4.019482E+00 -4.053811E+00 -4.019482E+00 +1.380864E+03 
 +5.952723E+02 -9.558292E+00 +9.120765E+00 -9.558292E+00 +5.568625E+02 -2.260347E+01 +9.120765E+00 -2.260347E+01 +1.459415E+03 
 +5.486229E+02 +1.588119E+01 -4.501324E+01 +1.588119E+01 +5.544850E+02 -1.315910E+01 -4.501324E+01 -1.315910E+01 +1.373765E+03 
 +5.841870E+02 +1.926549E+01 +1.947470E+00 +1.926549E+01 +5.832841E+02 +5.173769E+00 +1.947470E+00 +5.173769E+00 +1.316353E+03 
 +5.551553E+02 -3.279653E+01 +1.941957E+01 -3.279653E+01 +5.756993E+02 -2.252515E+01 +1.941957E+01 -2.252515E+01 +1.437070E+03 
 +6.211939E+02 -4.221105E+00 +1.959287E+01 -4.221105E+00 +7.095196E+02 -8.048181E+00 +1.959287E+01 -8.048181E+00 +1.308861E+03 
 +5.981074E+02 +1.907167E+01 -9.995470E+00 +1.907167E+01 +7.021288E+02 -1.248878E+01 -9.995470E+00 -1.248878E+01 +1.359771E+03 
 +6.086931E+02 +1.121031E+01 +6.759614E+00 +1.121031E+01 +6.557708E+02 -3.925690E+00 +6.759614E+00 -3.925690E+00 +1.379037E+03 
 +5.726511E+02 -1.195441E+01 +1.120575E+01 -1.195441E+01 +6.191823E+02 +1.852021E+01 +1.120575E+01 +1.852021E+01 +1.291514E+03 
 +5.603118E+02 +2.714047E-01 -2.869024E+01 +2.714047E-01 +5.316996E+02 -2.004607E+01 -2.869024E+01 -2.004607E+01 +1.442577E+03 
 +5.882784E+02 -4.883464E+01 +9.896851E+00 -4.883464E+01 +6.439377E+02 -2.709523E-01 +9.896851E+00 -2.709523E-01 +1.305216E+03 
 +5.684142E+02 -2.922692E+01 -3.490779E+01 -2.922692E+01 +5.839473E+02 -5.631451E+00 -3.490779E+01 -5.631451E+00 +1.407655E+03 
 +5.421675E+02 -1.026154E+01 +2.611090E+01 -1.026154E+01 +5.561299E+02 -2.164870E+01 +2.611090E+01 -2.164870E+01 +1.241250E+03 
 +5.915607E+02 +1.822507E+00 -1.311115E+01 +1.822507E+00 +6.444302E+02 -4.189477E+00 -1.311115E+01 -4.189477E+00 +1.442942E+03 
 +5.816547E+02 +4.760912E+01 +6.858846E+00 +4.760912E+01 +6.203986E+02 +3.280471E+00 +6.858846E+00 +3.280471E+00 +1.261378E+03 
 +6.178695E+02 +3.013280E+01 -6.682027E+00 +3.013280E+01 +5.965450E+02 +5.934509E+00 -6.682027E+00 +5.934509E+00 +1.491800E+03 
 +5.769216E+02 -3.190548E+00 +1.070452E+01 -3.190548E+00 +6.030703E+02 -4.510996E+00 +1.070452E+01 -4.510996E+00 +1.290771E+03 
 +5.990574E+02 +3.247241E+01 -8.597747E+00 +3.247241E+01 +5.960812E+02 -3.366576E+00 -8.597747E+00 -3.366576E+00 +1.423137E+03 
 +5.545364E+02 +2.080651E+01 -2.724666E+00 +2.080651E+01 +5.659352E+02 -1.889654E+01 -2.724666E+00 -1.889654E+01 +1.409748E+03 
 +5.674783E+02 +1.485337E+01 +9.543915E+00 +1.485337E+01 +5.531791E+02 -2.309564E+00 +9.543915E+00 -2.309564E+00 +1.360773E+03 
 +6.676273E+02 -3.196617E+01 -2.310074E+01 -3.196617E+01 +5.767328E+02 +7.156281E+00 -2.310074E+01 +7.156281E+00 +1.334161E+03 
 +5.438222E+02 -1.738112E+01 -2.203879E-01 -1.738112E+01 +6.308487E+02 -4.315247E+00 -2.203879E-01 -4.315247E+00 +1.327304E+03 
 +7.192133E+02 +1.934787E+01 -7.801674E+00 +1.934787E+01 +6.803124E+02 -3.137228E+01 -7.801674E+00 -3.137228E+01 +1.518838E+03 
 +6.073360E+02 -2.786644E+01 +5.543975E+00 -2.786644E+01 +6.617106E+02 +1.235390E+01 +5.543975E+00 +1.235390E+01 +1.326270E+03 
 +6.618967E+02 -1.274821E+01 +1.636045E+01 -1.274821E+01 +6.029415E+02 +3.668534E+00 +1.636045E+01 +3.668534E+00 +1.321276E+03 
 +6.758335E+02 +4.328079E+01 +1.313076E+01 +4.328079E+01 +6.415578E+02 +6.810775E+00 +1.313076E+01 +6.810775E+00 +1.324987E+03 
 +6.329338E+02 -3.077483E+01 +1.164223E+00 -3.077483E+01 +5.716843E+02 -3.517669E+01 +1.164223E+00 -3.517669E+01 +1.355101E+03 
 +6.588983E+02 +3.096349E+00 +1.273942E+01 +3.096349E+00 +5.883036E+02 -2.115575E+01 +1.273942E+01 -2.115575E+01 +1.312498E+03 
 +5.799723E+02 +2.843361E+00 -6.438562E+00 +2.843361E+00 +6.113275E+02 -1.546673E+01 -6.438562E+00 -1.546673E+01 +1.388203E+03 
 +6.369769E+02 +1.838598E+01 -6.681726E+00 +1.838598E+01 +7.263671E+02 -5.256185E+00 -6.681726E+00 -5.256185E+00 +1.354827E+03 
 +6.618539E+02 -3.932841E+01 +6.435701E+00 -3.932841E+01 +7.221534E+02 +5.922733E+00 +6.435701E+00 +5.922733E+00 +1.386453E+03 
 +6.360505E+02 +6.069433E+00 +3.398627E+00 +6.069433E+00 +5.684102E+02 -9.336032E+00 +3.398627E+00 -9.336032E+00 +1.322158E+03 
 +7.046385E+02 +1.107934E+01 -1.413739E+01 +1.107934E+01 +5.899350E+02 +8.209559E+00 -1.413739E+01 +8.209559E+00 +1.329992E+03 
 +5.406447E+02 +1.057686E+01 -3.770906E-01 +1.057686E+01 +6.335309E+02 -1.739549E+00 -3.770906E-01 -1.739549E+00 +1.286200E+03 
 +7.419958E+02 +2.080410E+01 -5.171683E+00 +2.080410E+01 +6.383624E+02 +6.570654E+00 -5.171683E+00 +6.570654E+00 +1.369714E+03 
 +6.088033E+02 -2.616219E+01 +5.656303E+00 -2.616219E+01 +5.862628E+02 +1.623729E+00 +5.656303E+00 +1.623729E+00 +1.305187E+03 
 +5.896821E+02 +1.577682E+01 +1.248710E+01 +1.577682E+01 +5.959654E+02 -1.238735E+01 +1.248710E+01 -1.238735E+01 +1.402933E+03 
 +6.259495E+02 +1.583285E+00 -1.097966E+01 +1.583285E+00 +6.460527E+02 -2.296107E+00 -1.097966E+01 -2.296107E+00 +1.337859E+03 
 +6.967241E+02 +1.815830E+01 +8.581943E+00 +1.815830E+01 +6.245359E+02 +2.829328E+01 +8.581943E+00 +2.829328E+01 +1.401750E+03 
 +5.996048E+02 +7.561622E+00 +1.127912E+01 +7.561622E+00 +6.142250E+02 +2.065647E+00 +1.127912E+01 +2.065647E+00 +1.446449E+03 
 +6.308712E+02 -1.744075E+01 -1.339342E+01 -1.744075E+01 +6.752699E+02 -7.327020E+00 -1.339342E+01 -7.327020E+00 +1.312834E+03 
 +6.018493E+02 -8.931258E+00 +1.925471E+01 -8.931258E+00 +5.903581E+02 -7.730562E+00 +1.925471E+01 -7.730562E+00 +1.363028E+03 
 +5.969456E+02 -3.376120E+01 -6.024356E+00 -3.376120E+01 +5.485415E+02 -1.280514E+01 -6.024356E+00 -1.280514E+01 +1.263066E+03 
 +5.827205E+02 +3.027827E+00 +4.311082E-01 +3.027827E+00 +5.544359E+02 +3.030064E+01 +4.311082E-01 +3.030064E+01 +1.434838E+03 
 +5.715024E+02 -2.128245E+01 -1.395118E+01 -2.128245E+01 +5.775179E+02 -6.846860E+00 -1.395118E+01 -6.846860E+00 +1.395560E+03 
 +6.554626E+02 +4.231642E+00 +2.297205E+01 +4.231642E+00 +6.239827E+02 +1.542678E+01 +2.297205E+01 +1.542678E+01 +1.338958E+03 
 +5.537960E+02 -1.154079E+01 +2.269829E+01 -1.154079E+01 +5.624745E+02 -1.858119E+01 +2.269829E+01 -1.858119E+01 +1.432489E+03 
 +6.328387E+02 -1.711934E+01 -2.850707E+01 -1.711934E+01 +6.228838E+02 +4.050966E+00 -2.850707E+01 +4.050966E+00 +1.336050E+03 
 +6.395801E+02 +1.307094E+01 +3.707407E+00 +1.307094E+01 +6.438812E+02 -1.266647E+01 +3.707407E+00 -1.266647E+01 +1.408436E+03 
 +6.110792E+02 -1.576517E+01 +2.185395E+01 -1.576517E+01 +6.721656E+02 -1.303133E+01 +2.185395E+01 -1.303133E+01 +1.345291E+03 
 +6.624431E+02 +1.169133E+01 -2.382196E+01 +1.169133E+01 +6.664980E+02 -4.914079E-01 -2.382196E+01 -4.914079E-01 +1.361389E+03 
 +5.743174E+02 +1.132542E+01 +3.032856E+01 +1.132542E+01 +5.942925E+02 -2.266120E+01 +3.032856E+01 -2.266120E+01 +1.347938E+03 
 +5.588679E+02 -9.555121E+00 -1.485585E+01 -9.555121E+00 +6.641589E+02 -1.161776E+01 -1.485585E+01 -1.161776E+01 +1.295815E+03 
 +6.351549E+02 -5.255853E+01 -2.048062E+00 -5.255853E+01 +6.034312E+02 -6.652136E+00 -2.048062E+00 -6.652136E+00 +1.312998E+03 
 +6.110536E+02 +2.310450E+01 +7.516998E+00 +2.310450E+01 +5.858905E+02 -8.879449E+00 +7.516998E+00 -8.879449E+00 +1.314852E+03 
 +5.826871E+02 -3.511593E+01 -5.148919E-02 -3.511593E+01 +5.879084E+02 -1.125899E+01 -5.148919E-02 -1.125899E+01 +1.345891E+03 
 +5.876530E+02 -5.333256E+00 -1.771320E+01 -5.333256E+00 +6.004409E+02 -1.999223E+01 -1.771320E+01 -1.999223E+01 +1.363733E+03 
 +6.660239E+02 -7.321089E+00 -2.021562E-01 -7.321089E+00 +6.095459E+02 -3.380979E+01 -2.021562E-01 -3.380979E+01 +1.386042E+03 
 +5.952962E+02 +2.204476E+01 -3.211769E+00 +2.204476E+01 +5.992336E+02 -2.636544E+00 -3.211769E+00 -2.636544E+00 +1.407775E+03 
 +6.198818E+02 +4.130351E+00 +2.276092E+01 +4.130351E+00 +6.273322E+02 -8.260888E+00 +2.276092E+01 -8.260888E+00 +1.402817E+03 
 +5.599458E+02 +5.136948E+00 -1.446422E+01 +5.136948E+00 +6.118749E+02 +2.052306E+00 -1.446422E+01 +2.052306E+00 +1.357011E+03 
 +6.293762E+02 +3.797131E+01 +6.525344E+00 +3.797131E+01 +6.055324E+02 +2.152761E+01 +6.525344E+00 +2.152761E+01 +1.336107E+03 
 +6.682578E+02 +5.436002E+01 -4.095837E+00 +5.436002E+01 +5.979180E+02 -4.632806E+00 -4.095837E+00 -4.632806E+00 +1.309305E+03 
 +5.768234E+02 +6.396849E+00 +2.741637E+01 +6.396849E+00 +6.034662E+02 -2.832465E+01 +2.741637E+01 -2.832465E+01 +1.292534E+03 
 +6.444399E+02 +1.816162E+00 -1.664389E+01 +1.816162E+00 +6.385041E+02 +1.211421E+01 -1.664389E+01 +1.211421E+01 +1.422095E+03 
 +5.932503E+02 -1.236972E+01 -1.243983E+01 -1.236972E+01 +6.148678E+02 +3.928014E+01 -1.243983E+01 +3.928014E+01 +1.449433E+03 
 +6.048477E+02 -2.386843E+01 +3.417041E+01 -2.386843E+01 +5.746834E+02 -1.020079E+01 +3.417041E+01 -1.020079E+01 +1.338549E+03 
 +6.201642E+02 -1.133011E+00 -3.431800E+01 -1.133011E+00 +6.229981E+02 +2.172615E+00 -3.431800E+01 +2.172615E+00 +1.474644E+03 
 +5.918341E+02 +1.223364E+01 -3.003679E+01 +1.223364E+01 +6.000271E+02 -1.803160E+01 -3.003679E+01 -1.803160E+01 +1.365964E+03 
 +6.394363E+02 -2.750488E+01 -2.360304E+00 -2.750488E+01 +6.250357E+02 +3.496482E+01 -2.360304E+00 +3.496482E+01 +1.391590E+03 
 +6.137167E+02 -9.838612E+00 -8.583380E+00 -9.838612E+00 +6.995170E+02 +7.880350E+00 -8.583380E+00 +7.880350E+00 +1.338376E+03 
 +5.838687E+02 +4.347638E+00 -1.766670E+01 +4.347638E+00 +5.698582E+02 -2.954596E+01 -1.766670E+01 -2.954596E+01 +1.377301E+03 
 +5.951444E+02 -2.250750E+01 -1.441418E+01 -2.250750E+01 +6.817618E+02 +1.754409E-01 -1.441418E+01 +1.754409E-01 +1.311772E+03 
 +5.622612E+02 -2.608275E+00 -1.355266E+01 -2.608275E+00 +6.958625E+02 +1.662350E-01 -1.355266E+01 +1.662350E-01 +1.318741E+03 
 +6.911113E+02 +3.330006E+01 +9.481524E+00 +3.330006E+01 +6.404385E+02 -1.216448E+01 +9.481524E+00 -1.216448E+01 +1.342274E+03 
 +5.371605E+02 -4.330140E+01 +4.744848E+00 -4.330140E+01 +6.450629E+02 -1.954857E+01 +4.744848E+00 -1.954857E+01 +1.280924E+03 
 +6.511805E+02 -1.492942E+01 -2.682206E+01 -1.492942E+01 +5.891663E+02 +5.373980E-01 -2.682206E+01 +5.373980E-01 +1.315724E+03 
 +5.608409E+02 -4.164000E+00 -3.394371E+01 -4.164000E+00 +5.747916E+02 -8.277595E+00 -3.394371E+01 -8.277595E+00 +1.435354E+03 
 +5.761687E+02 +1.082142E+01 +3.340030E+01 +1.082142E+01 +5.361793E+02 -1.755117E+01 +3.340030E+01 -1.755117E+01 +1.415552E+03 
 +6.437160E+02 -1.319691E+01 +1.964248E+00 -1.319691E+01 +6.262745E+02 +1.286316E+00 +1.964248E+00 +1.286316E+00 +1.421998E+03 
 +5.778051E+02 -5.855605E+00 -2.263806E+00 -5.855605E+00 +6.135098E+02 -1.909753E+01 -2.263806E+00 -1.909753E+01 +1.388633E+03 
 +6.286982E+02 -3.333137E+01 +6.269044E-02 -3.333137E+01 +6.151284E+02 -2.510808E+00 +6.269044E-02 -2.510808E+00 +1.331808E+03 
 +6.301201E+02 +1.436275E+01 -5.302255E+00 +1.436275E+01 +6.617012E+02 +3.584211E+00 -5.302255E+00 +3.584211E+00 +1.323646E+03 
 +5.623198E+02 -6.585620E+00 -8.030663E-01 -6.585620E+00 +6.989206E+02 -8.099442E+00 -8.030663E-01 -8.099442E+00 +1.312628E+03 
 +7.537316E+02 -3.228994E+01 -2.320613E+00 -3.228994E+01 +6.437468E+02 -1.542176E+01 -2.320613E+00 -1.542176E+01 +1.405696E+03 
 +5.676194E+02 -1.462750E+01 +1.535929E+01 -1.462750E+01 +5.559160E+02 -1.509214E+01 +1.535929E+01 -1.509214E+01 +1.332028E+03 
 +6.642362E+02 -2.052448E+01 +4.030852E+01 -2.052448E+01 +6.646509E+02 -2.738914E+00 +4.030852E+01 -2.738914E+00 +1.454224E+03 
 +6.262619E+02 +4.122789E+01 -5.235785E-01 +4.122789E+01 +6.775428E+02 +4.690443E+00 -5.235785E-01 +4.690443E+00 +1.353448E+03 
 +5.540971E+02 -9.733497E+00 -3.345741E+01 -9.733497E+00 +6.022718E+02 -3.616553E+01 -3.345741E+01 -3.616553E+01 +1.414619E+03 
 +6.130179E+02 -3.506390E+01 +1.440863E+01 -3.506390E+01 +6.033289E+02 -9.343795E+00 +1.440863E+01 -9.343795E+00 +1.438556E+03 
 +5.640773E+02 -9.014243E+00 +4.165918E+01 -9.014243E+00 +5.626689E+02 -2.151917E+01 +4.165918E+01 -2.151917E+01 +1.361525E+03 
 +6.064073E+02 -4.425374E+00 -2.868164E+01 -4.425374E+00 +5.778069E+02 +8.748172E+00 -2.868164E+01 +8.748172E+00 +1.351786E+03 
 +6.120521E+02 +5.366408E+00 +1.810875E+01 +5.366408E+00 +6.251046E+02 -1.364866E+01 +1.810875E+01 -1.364866E+01 +1.416319E+03 
 +6.097527E+02 +1.326126E+01 -3.496783E+00 +1.326126E+01 +5.907555E+02 -3.271446E+00 -3.496783E+00 -3.271446E+00 +1.299615E+03 
 +6.943861E+02 -3.610930E+01 -1.469104E-01 -3.610930E+01 +6.277894E+02 +1.450786E+01 -1.469104E-01 +1.450786E+01 +1.363376E+03 
 +6.572889E+02 -9.716252E+00 -1.293185E+01 -9.716252E+00 +5.935353E+02 -3.008766E+01 -1.293185E+01 -3.008766E+01 +1.331079E+03 
 +6.729381E+02 +5.324272E+01 -9.802166E-01 +5.324272E+01 +5.550430E+02 -2.046320E-01 -9.802166E-01 -2.046320E-01 +1.313453E+03 
 +5.666814E+02 +1.898102E+00 +1.378611E+00 +1.898102E+00 +5.843223E+02 -3.715777E+01 +1.378611E+00 -3.715777E+01 +1.404162E+03 
 +5.730578E+02 -2.011796E+01 -2.187077E+01 -2.011796E+01 +5.609574E+02 +1.144260E+01 -2.187077E+01 +1.144260E+01 +1.457213E+03 
 +6.683686E+02 -1.298442E+01 +6.764881E+00 -1.298442E+01 +6.539160E+02 -1.236763E+01 +6.764881E+00 -1.236763E+01 +1.477665E+03 
 +6.478151E+02 -9.203853E+00 -1.100912E+01 -9.203853E+00 +6.127886E+02 -3.086336E+01 -1.100912E+01 -3.086336E+01 +1.351378E+03 
 +5.857822E+02 -9.301849E+00 +5.679241E+00 -9.301849E+00 +5.662344E+02 +6.033041E+00 +5.679241E+00 +6.033041E+00 +1.312494E+03 
 +5.904571E+02 +1.382078E+01 +1.185750E+01 +1.382078E+01 +5.792149E+02 -4.039205E+00 +1.185750E+01 -4.039205E+00 +1.330465E+03 
 +5.941047E+02 +2.041087E+01 +1.448634E+01 +2.041087E+01 +5.393270E+02 +1.632215E+01 +1.448634E+01 +1.632215E+01 +1.377859E+03 
 +6.319666E+02 +1.979985E+01 +2.618479E+01 +1.979985E+01 +5.912184E+02 +8.494566E+00 +2.618479E+01 +8.494566E+00 +1.332740E+03 
 +6.001890E+02 +7.272745E+00 -3.185112E+01 +7.272745E+00 +6.729019E+02 +2.396462E+01 -3.185112E+01 +2.396462E+01 +1.398055E+03 
 +5.666752E+02 -4.736862E+01 -1.542677E+01 -4.736862E+01 +6.922975E+02 -8.707177E+00 -1.542677E+01 -8.707177E+00 +1.335189E+03 
 +5.724133E+02 +4.885463E+00 +2.061997E+01 +4.885463E+00 +5.679836E+02 -8.356943E+00 +2.061997E+01 -8.356943E+00 +1.349243E+03 
 +5.656244E+02 +4.638007E+00 -4.661450E+00 +4.638007E+00 +5.906967E+02 -2.022183E+01 -4.661450E+00 -2.022183E+01 +1.401387E+03 
 +5.993975E+02 +2.958439E+01 +2.099956E+01 +2.958439E+01 +6.241387E+02 -1.913562E+01 +2.099956E+01 -1.913562E+01 +1.285367E+03 
 +6.163124E+02 -8.860625E+00 -1.506882E+01 -8.860625E+00 +6.614470E+02 -3.415202E+00 -1.506882E+01 -3.415202E+00 +1.394989E+03 
 +6.661714E+02 +2.467009E+01 +4.069633E+00 +2.467009E+01 +7.430285E+02 -1.594832E+01 +4.069633E+00 -1.594832E+01 +1.368577E+03 
 +6.547690E+02 +3.216634E+01 +2.327651E+00 +3.216634E+01 +7.232570E+02 -1.397584E+01 +2.327651E+00 -1.397584E+01 +1.352068E+03 
 +5.642527E+02 -8.023563E+00 +3.003384E+01 -8.023563E+00 +5.550203E+02 +6.209321E+00 +3.003384E+01 +6.209321E+00 +1.416744E+03 
 +6.624501E+02 -3.569219E+01 +1.490464E+01 -3.569219E+01 +5.502776E+02 +9.083456E+00 +1.490464E+01 +9.083456E+00 +1.306604E+03 
 +5.912527E+02 -1.702562E+01 +5.364850E+00 -1.702562E+01 +5.877703E+02 -1.543876E+01 +5.364850E+00 -1.543876E+01 +1.400011E+03 
 +5.730978E+02 +3.848473E+01 -1.229195E+01 +3.848473E+01 +5.697345E+02 -2.310166E+01 -1.229195E+01 -2.310166E+01 +1.358355E+03 
 +6.459218E+02 -3.355739E+01 +1.024848E+01 -3.355739E+01 +6.093682E+02 -2.519293E+01 +1.024848E+01 -2.519293E+01 +1.337407E+03 
 +6.391040E+02 +1.708400E+01 +1.189152E+01 +1.708400E+01 +5.970303E+02 -1.949438E+01 +1.189152E+01 -1.949438E+01 +1.458645E+03 
 +6.206391E+02 +2.186833E+00 +2.844754E+01 +2.186833E+00 +5.522842E+02 -2.287535E+01 +2.844754E+01 -2.287535E+01 +1.384180E+03 
 +5.594791E+02 +4.037441E+00 -1.725315E+01 +4.037441E+00 +5.761603E+02 -1.249839E+00 -1.725315E+01 -1.249839E+00 +1.445543E+03 
 +6.552460E+02 -5.936438E+00 -2.316692E+01 -5.936438E+00 +5.577906E+02 +4.394665E+00 -2.316692E+01 +4.394665E+00 +1.283597E+03 
 +5.294326E+02 -1.315820E+01 -1.696351E+01 -1.315820E+01 +5.444576E+02 -2.508164E+00 -1.696351E+01 -2.508164E+00 +1.425111E+03 
 +6.444165E+02 -3.644717E+01 -5.777301E+00 -3.644717E+01 +5.759269E+02 -2.434842E+01 -5.777301E+00 -2.434842E+01 +1.272967E+03 
 +6.153747E+02 -1.875796E+00 +4.698256E+01 -1.875796E+00 +6.178353E+02 -1.157477E+00 +4.698256E+01 -1.157477E+00 +1.407305E+03 
 +6.143904E+02 +3.465720E+01 +1.483092E+01 +3.465720E+01 +6.129861E+02 +5.485352E+00 +1.483092E+01 +5.485352E+00 +1.329871E+03 
 +5.413880E+02 -5.021280E+00 -9.429980E+00 -5.021280E+00 +5.573971E+02 -9.492779E+00 -9.429980E+00 -9.492779E+00 +1.384687E+03 
 +6.174987E+02 -2.874195E+00 -3.490039E+00 -2.874195E+00 +5.750491E+02 +4.610461E+01 -3.490039E+00 +4.610461E+01 +1.390686E+03 
 +6.161500E+02 +1.101589E+01 -1.614874E+01 +1.101589E+01 +6.409874E+02 -2.111965E+01 -1.614874E+01 -2.111965E+01 +1.400748E+03 
 +6.398643E+02 +8.188772E+00 -1.073491E+01 +8.188772E+00 +6.492802E+02 -3.446822E+01 -1.073491E+01 -3.446822E+01 +1.400317E+03 
 +5.443304E+02 -5.199649E+01 -2.270937E-01 -5.199649E+01 +6.342959E+02 -9.741487E+00 -2.270937E-01 -9.741487E+00 +1.261064E+03 
 +5.907588E+02 +2.028832E+01 -6.498599E+00 +2.028832E+01 +6.396844E+02 +2.049531E+01 -6.498599E+00 +2.049531E+01 +1.297352E+03 
 +6.440303E+02 +4.857520E+00 -3.003438E+01 +4.857520E+00 +5.839915E+02 +5.391972E+00 -3.003438E+01 +5.391972E+00 +1.378816E+03 
 +6.497314E+02 -4.969227E+01 +1.243537E+01 -4.969227E+01 +5.825278E+02 -4.350119E+00 +1.243537E+01 -4.350119E+00 +1.275048E+03 
 +5.770983E+02 +4.733120E+01 +1.772225E+01 +4.733120E+01 +6.043998E+02 +5.221311E-01 +1.772225E+01 +5.221311E-01 +1.304801E+03 
 +6.287786E+02 +6.113715E+01 -1.033670E+01 +6.113715E+01 +6.024056E+02 +7.766768E+00 -1.033670E+01 +7.766768E+00 +1.290662E+03 
 +5.942362E+02 +2.099366E+00 -2.124242E-01 +2.099366E+00 +5.775809E+02 +1.233137E+01 -2.124242E-01 +1.233137E+01 +1.385313E+03 
 +5.993795E+02 +6.622212E+00 +1.626764E+01 +6.622212E+00 +5.813455E+02 -1.950824E+01 +1.626764E+01 -1.950824E+01 +1.365514E+03 
 +6.544316E+02 +3.058578E+01 +9.929353E-01 +3.058578E+01 +6.095034E+02 -1.104184E+01 +9.929353E-01 -1.104184E+01 +1.293848E+03 
 +6.158511E+02 -1.650893E+01 +2.195547E+01 -1.650893E+01 +5.958170E+02 +2.644050E+01 +2.195547E+01 +2.644050E+01 +1.381504E+03 
 +5.687637E+02 +7.329589E+00 +2.947450E+01 +7.329589E+00 +5.266138E+02 -2.319328E+01 +2.947450E+01 -2.319328E+01 +1.421122E+03 
 +6.255098E+02 +6.164222E+01 +1.618618E+01 +6.164222E+01 +5.573619E+02 +6.961347E+00 +1.618618E+01 +6.961347E+00 +1.265549E+03 
 +6.195720E+02 +1.056478E+01 -4.287752E+00 +1.056478E+01 +6.229899E+02 +1.415781E+01 -4.287752E+00 +1.415781E+01 +1.386026E+03 
 +5.909496E+02 -3.339265E+01 -1.541951E+00 -3.339265E+01 +5.585359E+02 +7.643970E-01 -1.541951E+00 +7.643970E-01 +1.389109E+03 
 +6.721227E+02 -7.215146E+00 -2.687489E+01 -7.215146E+00 +5.829360E+02 -1.082239E+00 -2.687489E+01 -1.082239E+00 +1.381367E+03 
 +5.941906E+02 -1.267511E+01 -3.505426E+01 -1.267511E+01 +5.668454E+02 -3.927052E+01 -3.505426E+01 -3.927052E+01 +1.346456E+03 
 +5.789761E+02 -9.831134E+00 +2.292192E+01 -9.831134E+00 +6.313157E+02 -2.071246E+01 +2.292192E+01 -2.071246E+01 +1.383734E+03 
 +6.264410E+02 +1.738177E+01 -7.779157E+00 +1.738177E+01 +6.365040E+02 +5.916253E+00 -7.779157E+00 +5.916253E+00 +1.309434E+03 
 +6.441525E+02 +2.417455E+00 -1.063055E+01 +2.417455E+00 +6.198235E+02 -1.853234E+01 -1.063055E+01 -1.853234E+01 +1.433550E+03 
 +5.935825E+02 -8.151283E+00 -1.386418E+00 -8.151283E+00 +6.128188E+02 -1.646271E+01 -1.386418E+00 -1.646271E+01 +1.394969E+03 
 +6.440858E+02 +2.879356E+01 +6.182589E+00 +2.879356E+01 +6.009716E+02 +5.199890E-01 +6.182589E+00 +5.199890E-01 +1.336911E+03 
 +5.058279E+02 +4.055923E+01 +4.340062E+00 +4.055923E+01 +6.375728E+02 -1.773040E-01 +4.340062E+00 -1.773040E-01 +1.278911E+03 
 +6.821668E+02 +8.044441E-01 -1.354783E+01 +8.044441E-01 +5.553920E+02 -8.054732E+00 -1.354783E+01 -8.054732E+00 +1.297578E+03 
 +5.816578E+02 -1.873530E+01 +4.555690E+01 -1.873530E+01 +5.797036E+02 -6.668128E+00 +4.555690E+01 -6.668128E+00 +1.408277E+03 
 +5.879513E+02 -1.935729E+01 -6.954024E+00 -1.935729E+01 +5.890494E+02 -1.422537E+01 -6.954024E+00 -1.422537E+01 +1.258912E+03 
 +6.504984E+02 -3.545929E+01 -3.429985E+01 -3.545929E+01 +6.242534E+02 -5.332594E+00 -3.429985E+01 -5.332594E+00 +1.323250E+03 
 +6.479280E+02 -2.264808E+01 -4.507076E+00 -2.264808E+01 +5.664529E+02 -2.783111E+01 -4.507076E+00 -2.783111E+01 +1.311225E+03 
 +6.840725E+02 -1.362508E+01 +2.151498E+01 -1.362508E+01 +5.595575E+02 -1.737703E+01 +2.151498E+01 -1.737703E+01 +1.318234E+03 
 +5.957706E+02 -6.537937E-01 +2.068013E+01 -6.537937E-01 +6.151195E+02 +1.217193E+01 +2.068013E+01 +1.217193E+01 +1.382974E+03 
 +6.371092E+02 -5.997912E+01 -2.840867E+01 -5.997912E+01 +6.208090E+02 +2.893468E+00 -2.840867E+01 +2.893468E+00 +1.307490E+03 
 +5.575089E+02 +2.030339E+00 -9.553875E+00 +2.030339E+00 +5.659349E+02 -1.089812E+00 -9.553875E+00 -1.089812E+00 +1.405488E+03 
 +6.077844E+02 -6.682897E+00 -3.030887E+01 -6.682897E+00 +5.770830E+02 +1.793906E+01 -3.030887E+01 +1.793906E+01 +1.417840E+03 
 +7.282625E+02 -4.368723E+00 +1.020350E+01 -4.368723E+00 +6.017068E+02 -1.601758E+01 +1.020350E+01 -1.601758E+01 +1.324336E+03 
 +6.221447E+02 +2.470793E+01 +2.130014E+01 +2.470793E+01 +6.167991E+02 -3.604272E+01 +2.130014E+01 -3.604272E+01 +1.364796E+03 
 +6.186440E+02 +2.218311E+01 -1.951228E+01 +2.218311E+01 +5.654847E+02 +7.758408E+00 -1.951228E+01 +7.758408E+00 +1.285302E+03 
 +5.949382E+02 -2.292088E+01 +4.287986E+00 -2.292088E+01 +6.382032E+02 +4.189022E+00 +4.287986E+00 +4.189022E+00 +1.357510E+03 
 +5.804709E+02 -2.739370E+00 -1.474078E+01 -2.739370E+00 +6.887761E+02 +2.424977E+00 -1.474078E+01 +2.424977E+00 +1.349320E+03 
 +6.638214E+02 -1.087718E+01 -9.022050E+00 -1.087718E+01 +6.363485E+02 -1.124588E+01 -9.022050E+00 -1.124588E+01 +1.326741E+03 
 +5.976769E+02 -1.106228E+01 -3.246821E+00 -1.106228E+01 +6.595275E+02 -1.660306E+01 -3.246821E+00 -1.660306E+01 +1.316420E+03 
 +5.823619E+02 +2.074528E+01 -1.235459E+01 +2.074528E+01 +5.659415E+02 -1.944434E+01 -1.235459E+01 -1.944434E+01 +1.415154E+03 
 +5.772101E+02 -1.813504E+00 +1.032149E+01 -1.813504E+00 +6.070172E+02 +2.541098E+00 +1.032149E+01 +2.541098E+00 +1.407719E+03 
 +6.617454E+02 -2.632775E+00 -2.540783E-01 -2.632775E+00 +5.955860E+02 +2.596135E+00 -2.540783E-01 +2.596135E+00 +1.405231E+03 
 +6.184227E+02 -5.237140E+01 -2.082931E+01 -5.237140E+01 +6.051696E+02 -7.810554E+00 -2.082931E+01 -7.810554E+00 +1.310548E+03 
 +5.881667E+02 +4.775201E+00 -7.616666E+00 +4.775201E+00 +6.883041E+02 -1.620972E+01 -7.616666E+00 -1.620972E+01 +1.330060E+03 
 +6.117601E+02 +3.376219E-01 +1.792216E+01 +3.376219E-01 +6.866203E+02 -2.484733E+01 +1.792216E+01 -2.484733E+01 +1.380392E+03 
 +5.953076E+02 -5.869504E+00 -2.215545E+01 -5.869504E+00 +7.084452E+02 +7.011325E+00 -2.215545E+01 +7.011325E+00 +1.325786E+03 
 +6.131802E+02 +1.216901E+01 -1.027100E+01 +1.216901E+01 +5.990654E+02 +3.711459E+01 -1.027100E+01 +3.711459E+01 +1.391113E+03 
 +5.705507E+02 -1.802874E+01 -9.012375E+00 -1.802874E+01 +5.862930E+02 -5.858609E+00 -9.012375E+00 -5.858609E+00 +1.395112E+03 
 +5.938575E+02 -1.312224E+01 +1.218277E+01 -1.312224E+01 +6.124114E+02 -2.322409E+01 +1.218277E+01 -2.322409E+01 +1.305510E+03 
 +6.065170E+02 +2.230405E+01 -1.211927E+01 +2.230405E+01 +5.974432E+02 +2.533848E+01 -1.211927E+01 +2.533848E+01 +1.316815E+03 
 +5.340516E+02 -8.730844E+00 +2.843346E+01 -8.730844E+00 +5.380056E+02 -4.410493E+00 +2.843346E+01 -4.410493E+00 +1.351307E+03 
 +6.493414E+02 -2.264488E+01 -1.360885E+01 -2.264488E+01 +6.146161E+02 +5.194046E+00 -1.360885E+01 +5.194046E+00 +1.330279E+03 
 +6.797204E+02 +4.201678E+01 -1.207549E+01 +4.201678E+01 +5.949340E+02 +1.680817E+01 -1.207549E+01 +1.680817E+01 +1.336295E+03 
 +6.161588E+02 +3.825294E+00 +6.116654E+00 +3.825294E+00 +5.899417E+02 -2.021929E+01 +6.116654E+00 -2.021929E+01 +1.418364E+03 
 +5.687955E+02 +1.733290E+01 +2.305157E+01 +1.733290E+01 +5.627636E+02 +4.197880E+00 +2.305157E+01 +4.197880E+00 +1.331954E+03 
 +6.911497E+02 -1.843089E+01 -4.619596E+00 -1.843089E+01 +6.339765E+02 +1.013224E+00 -4.619596E+00 +1.013224E+00 +1.339840E+03 
 +5.411442E+02 -1.411769E+01 -6.393804E+00 -1.411769E+01 +6.306071E+02 -1.284370E+00 -6.393804E+00 -1.284370E+00 +1.302803E+03 
 +6.966522E+02 +1.690800E+01 -9.714482E+00 +1.690800E+01 +5.614493E+02 -1.079371E+01 -9.714482E+00 -1.079371E+01 +1.315928E+03 
 +5.803358E+02 -1.458372E+00 -5.185661E+00 -1.458372E+00 +6.248534E+02 -1.319487E+01 -5.185661E+00 -1.319487E+01 +1.403781E+03 
 +6.647291E+02 -1.151329E+01 -5.007957E+00 -1.151329E+01 +5.735178E+02 +2.926558E+00 -5.007957E+00 +2.926558E+00 +1.299873E+03 
 +5.915400E+02 -2.738493E+01 +3.372444E+01 -2.738493E+01 +6.484133E+02 +1.067000E+01 +3.372444E+01 +1.067000E+01 +1.328107E+03 
 +6.830435E+02 -5.076764E+01 +8.690928E-02 -5.076764E+01 +6.721254E+02 +4.521236E+00 +8.690928E-02 +4.521236E+00 +1.390040E+03 
 +5.959676E+02 +3.946999E+00 -2.408331E+01 +3.946999E+00 +5.965323E+02 -2.766328E+01 -2.408331E+01 -2.766328E+01 +1.385920E+03 
 +6.122101E+02 +2.319092E+01 -3.628993E+00 +2.319092E+01 +5.675089E+02 -2.140631E+01 -3.628993E+00 -2.140631E+01 +1.338256E+03 
 +6.213704E+02 +8.350577E+00 +4.101034E+00 +8.350577E+00 +5.601074E+02 +8.342019E+00 +4.101034E+00 +8.342019E+00 +1.310091E+03 
 +6.520346E+02 +1.859040E+01 +1.968481E+01 +1.859040E+01 +5.854965E+02 -4.918986E-01 +1.968481E+01 -4.918986E-01 +1.367428E+03 
 +5.884366E+02 +3.290422E+01 -2.394055E+01 +3.290422E+01 +5.961255E+02 +1.539952E+01 -2.394055E+01 +1.539952E+01 +1.323238E+03 
 +5.934828E+02 -3.847916E+00 +1.304497E-01 -3.847916E+00 +5.720894E+02 +2.063572E+00 +1.304497E-01 +2.063572E+00 +1.367134E+03 
 +6.996353E+02 +1.931480E+01 -1.040155E+01 +1.931480E+01 +6.594023E+02 +1.270330E+01 -1.040155E+01 +1.270330E+01 +1.352495E+03 
 +5.903478E+02 -8.946766E+00 -1.316287E+01 -8.946766E+00 +5.977990E+02 +4.474066E+01 -1.316287E+01 +4.474066E+01 +1.341782E+03 
 +6.014767E+02 +1.262921E+01 +1.438441E+01 +1.262921E+01 +5.705238E+02 -4.004859E+00 +1.438441E+01 -4.004859E+00 +1.252707E+03 
 +5.688701E+02 -2.197901E+01 -1.607272E+01 -2.197901E+01 +5.840413E+02 -2.373490E+01 -1.607272E+01 -2.373490E+01 +1.383906E+03 
 +6.059456E+02 +4.700573E+01 +1.668298E+01 +4.700573E+01 +5.459629E+02 +1.845221E+01 +1.668298E+01 +1.845221E+01 +1.232843E+03 
 +5.499191E+02 +5.442663E+00 +7.292247E+00 +5.442663E+00 +5.997981E+02 -9.485806E+00 +7.292247E+00 -9.485806E+00 +1.395467E+03 
 +5.884089E+02 +3.619783E+01 -2.277751E+01 +3.619783E+01 +6.773728E+02 -7.263714E+00 -2.277751E+01 -7.263714E+00 +1.340079E+03 
 +6.800125E+02 -3.281782E+01 -1.365649E+01 -3.281782E+01 +6.219321E+02 +1.569549E+01 -1.365649E+01 +1.569549E+01 +1.325402E+03 
 +5.608568E+02 +4.058012E+00 -2.041779E+01 +4.058012E+00 +5.423183E+02 +2.055254E+01 -2.041779E+01 +2.055254E+01 +1.337948E+03 
 +6.466102E+02 -7.515333E+00 -2.396407E+01 -7.515333E+00 +5.678992E+02 +1.167926E+01 -2.396407E+01 +1.167926E+01 +1.330348E+03 
 +6.173398E+02 -3.758942E+01 -5.201375E+00 -3.758942E+01 +6.754946E+02 -1.557849E+01 -5.201375E+00 -1.557849E+01 +1.348117E+03 
 +6.045217E+02 -1.544504E+01 -2.607122E+01 -1.544504E+01 +6.317747E+02 -2.377306E+01 -2.607122E+01 -2.377306E+01 +1.396099E+03 
 +6.300449E+02 -1.312927E+01 +7.320390E+00 -1.312927E+01 +6.984673E+02 -1.128975E+01 +7.320390E+00 -1.128975E+01 +1.322911E+03 
 +6.179030E+02 -1.738740E+01 -3.378722E+00 -1.738740E+01 +6.481713E+02 +4.960885E+00 -3.378722E+00 +4.960885E+00 +1.321112E+03 
 +5.287289E+02 +1.050099E+01 -5.029709E-01 +1.050099E+01 +5.354634E+02 +2.067838E+01 -5.029709E-01 +2.067838E+01 +1.391211E+03 
 +6.908171E+02 -1.619801E+01 -1.143327E+01 -1.619801E+01 +5.924747E+02 +1.901866E+00 -1.143327E+01 +1.901866E+00 +1.321356E+03 
 +5.475425E+02 -1.609008E+01 -5.946665E+00 -1.609008E+01 +6.240792E+02 -2.910605E+00 -5.946665E+00 -2.910605E+00 +1.244125E+03 
 +5.718544E+02 +5.697010E-01 +2.935220E+01 +5.697010E-01 +6.106964E+02 +2.259857E+01 +2.935220E+01 +2.259857E+01 +1.340604E+03 
 +5.975175E+02 -5.266757E+00 +1.668060E+01 -5.266757E+00 +5.643965E+02 -5.106473E+00 +1.668060E+01 -5.106473E+00 +1.413340E+03 
 +7.144960E+02 +4.940166E+00 +1.109916E+01 +4.940166E+00 +5.771693E+02 +1.077506E+01 +1.109916E+01 +1.077506E+01 +1.324084E+03 
 +5.982539E+02 +1.995696E+01 -9.724759E-01 +1.995696E+01 +5.835493E+02 +3.566430E-01 -9.724759E-01 +3.566430E-01 +1.398200E+03 
 +5.328728E+02 -2.998792E+00 +5.923607E+00 -2.998792E+00 +5.446451E+02 +1.855741E+01 +5.923607E+00 +1.855741E+01 +1.311563E+03 
 +6.154656E+02 +6.870842E+00 +4.464703E+00 +6.870842E+00 +6.227402E+02 +3.436888E+01 +4.464703E+00 +3.436888E+01 +1.368818E+03 
 +5.936953E+02 -1.826405E+01 -1.273483E+01 -1.826405E+01 +6.587516E+02 +1.534328E+01 -1.273483E+01 +1.534328E+01 +1.285703E+03 
 +6.036893E+02 +1.569018E+01 -4.514583E+01 +1.569018E+01 +6.322130E+02 +4.874351E-01 -4.514583E+01 +4.874351E-01 +1.406600E+03 
 +6.461949E+02 -7.017152E+01 -7.446382E+00 -7.017152E+01 +5.979238E+02 -7.971414E+00 -7.446382E+00 -7.971414E+00 +1.273244E+03 
 +6.017634E+02 -9.678115E-01 -4.475685E+01 -9.678115E-01 +5.529873E+02 -2.078934E+01 -4.475685E+01 -2.078934E+01 +1.384282E+03 
 +5.984992E+02 -3.423848E+01 +1.729601E+01 -3.423848E+01 +6.101799E+02 +1.813362E+00 +1.729601E+01 +1.813362E+00 +1.345876E+03 
 +5.929985E+02 +2.596411E+01 +1.181773E+01 +2.596411E+01 +6.118369E+02 -3.152881E+00 +1.181773E+01 -3.152881E+00 +1.350017E+03 
 +6.787831E+02 +4.691413E+01 +3.450164E+00 +4.691413E+01 +5.827318E+02 +1.713556E+01 +3.450164E+00 +1.713556E+01 +1.318187E+03 
 +5.723416E+02 +1.899627E+01 +5.010738E+01 +1.899627E+01 +5.847137E+02 +1.694828E+01 +5.010738E+01 +1.694828E+01 +1.391911E+03 
 +5.767333E+02 +8.402686E+00 +7.762865E-01 +8.402686E+00 +5.777964E+02 -2.886939E+01 +7.762865E-01 -2.886939E+01 +1.392992E+03 
 +5.907172E+02 -1.707953E+01 -1.123478E+01 -1.707953E+01 +6.704665E+02 -1.445352E+01 -1.123478E+01 -1.445352E+01 +1.365532E+03 
 +6.303547E+02 +6.085680E+00 +2.208099E+01 +6.085680E+00 +5.891649E+02 +1.636227E+01 +2.208099E+01 +1.636227E+01 +1.407325E+03 
 +7.269944E+02 -1.005357E+00 -1.821008E+01 -1.005357E+00 +6.249951E+02 +4.758789E+00 -1.821008E+01 +4.758789E+00 +1.382110E+03 
 +5.728985E+02 +2.206985E+01 -2.244979E+01 +2.206985E+01 +6.341277E+02 -1.383632E+01 -2.244979E+01 -1.383632E+01 +1.362382E+03 
 +6.018746E+02 +2.107550E+01 +4.484788E+01 +2.107550E+01 +6.156918E+02 +2.538735E+01 +4.484788E+01 +2.538735E+01 +1.390911E+03 
 +6.855391E+02 -6.272081E+00 +1.575355E+01 -6.272081E+00 +5.732341E+02 +1.959177E+01 +1.575355E+01 +1.959177E+01 +1.275690E+03 
 +6.568297E+02 +1.159318E+01 -1.229359E+01 +1.159318E+01 +5.832701E+02 -1.994644E+01 -1.229359E+01 -1.994644E+01 +1.371002E+03 
 +5.908019E+02 -1.697130E+01 +1.284742E+00 -1.697130E+01 +6.053942E+02 +1.524665E+01 +1.284742E+00 +1.524665E+01 +1.422611E+03 
 +5.495751E+02 +5.855090E+00 -4.780592E+01 +5.855090E+00 +5.229702E+02 +1.370946E+01 -4.780592E+01 +1.370946E+01 +1.339336E+03 
 +6.129175E+02 +3.823205E+01 -1.351216E+01 +3.823205E+01 +6.521561E+02 -2.675130E+01 -1.351216E+01 -2.675130E+01 +1.253708E+03 
 +5.797469E+02 +1.802043E+01 +9.477468E+00 +1.802043E+01 +6.140756E+02 -3.287339E+01 +9.477468E+00 -3.287339E+01 +1.423925E+03 
 +6.936761E+02 +4.300240E+01 -3.613219E+00 +4.300240E+01 +6.137759E+02 -3.532393E+00 -3.613219E+00 -3.532393E+00 +1.352328E+03 
 +6.146893E+02 +3.216925E+01 -1.761793E+01 +3.216925E+01 +6.234764E+02 +4.468900E+00 -1.761793E+01 +4.468900E+00 +1.339262E+03 
 +5.828323E+02 +5.688537E+00 +2.263182E+01 +5.688537E+00 +6.002336E+02 -1.116656E+01 +2.263182E+01 -1.116656E+01 +1.313682E+03 
 +6.501210E+02 +3.628704E+00 -1.167762E+01 +3.628704E+00 +5.760049E+02 +1.051174E+01 -1.167762E+01 +1.051174E+01 +1.338410E+03 
 +6.288699E+02 -1.846880E+01 +1.131613E+01 -1.846880E+01 +5.251447E+02 -9.725361E+00 +1.131613E+01 -9.725361E+00 +1.287003E+03 
 +6.139792E+02 -5.977870E+00 +1.146786E+00 -5.977870E+00 +5.478883E+02 -7.400506E-01 +1.146786E+00 -7.400506E-01 +1.295933E+03 
 +6.489280E+02 -1.610216E+01 -5.030007E+00 -1.610216E+01 +5.446179E+02 -6.673308E+00 -5.030007E+00 -6.673308E+00 +1.325225E+03 
 +7.242292E+02 +5.394610E+00 +1.803337E+00 +5.394610E+00 +5.976097E+02 -1.771975E+01 +1.803337E+00 -1.771975E+01 +1.365839E+03 
 +6.058248E+02 +1.533051E+01 +1.835258E+01 +1.533051E+01 +6.354157E+02 -2.333900E+01 +1.835258E+01 -2.333900E+01 +1.389007E+03 
 +5.601464E+02 +6.791116E+00 +3.839468E+01 +6.791116E+00 +5.480522E+02 -2.013221E+01 +3.839468E+01 -2.013221E+01 +1.424054E+03 
 +5.882321E+02 -1.269782E+01 -1.049341E+01 -1.269782E+01 +5.157908E+02 +1.175273E+01 -1.049341E+01 +1.175273E+01 +1.323524E+03 
 +6.150725E+02 +3.705495E+01 +7.052067E+00 +3.705495E+01 +5.435125E+02 -1.330329E+01 +7.052067E+00 -1.330329E+01 +1.257030E+03 
 +6.578094E+02 +2.931297E+01 +3.478071E+00 +2.931297E+01 +6.292947E+02 +1.072276E+00 +3.478071E+00 +1.072276E+00 +1.321006E+03 
 +5.954467E+02 -2.966102E+01 +3.064061E-01 -2.966102E+01 +7.119049E+02 -6.959321E+00 +3.064061E-01 -6.959321E+00 +1.365249E+03 
 +5.762628E+02 -1.507172E+00 -2.654302E+01 -1.507172E+00 +5.941329E+02 -6.081478E+00 -2.654302E+01 -6.081478E+00 +1.412107E+03 
 +6.331500E+02 -1.048639E+01 +2.501839E+01 -1.048639E+01 +6.418873E+02 +2.527121E+01 +2.501839E+01 +2.527121E+01 +1.377273E+03 
 +6.119055E+02 -2.703042E+01 -6.632429E+00 -2.703042E+01 +7.816542E+02 +1.024866E+01 -6.632429E+00 +1.024866E+01 +1.389935E+03 
 +6.238132E+02 +8.807613E+00 +3.601335E+00 +8.807613E+00 +6.797644E+02 +1.117102E+01 +3.601335E+00 +1.117102E+01 +1.312588E+03 
 +5.275256E+02 +1.719028E+01 -1.134269E+01 +1.719028E+01 +5.997267E+02 +1.039142E+01 -1.134269E+01 +1.039142E+01 +1.252140E+03 
 +6.664233E+02 -2.586521E+01 +1.507378E+01 -2.586521E+01 +6.318625E+02 +2.327157E+01 +1.507378E+01 +2.327157E+01 +1.367401E+03 
 +5.815388E+02 -1.222436E+01 -1.711233E+01 -1.222436E+01 +5.583670E+02 +1.214861E+01 -1.711233E+01 +1.214861E+01 +1.376805E+03 
 +5.848721E+02 +1.887675E+01 -5.509799E-02 +1.887675E+01 +6.058351E+02 +1.689006E+01 -5.509799E-02 +1.689006E+01 +1.379356E+03 
 +5.732293E+02 -4.635449E+01 +8.311587E+00 -4.635449E+01 +6.796805E+02 -7.030965E+00 +8.311587E+00 -7.030965E+00 +1.309581E+03 
 +5.719827E+02 -1.485165E+01 -1.834163E+00 -1.485165E+01 +6.519038E+02 -1.177989E+01 -1.834163E+00 -1.177989E+01 +1.303855E+03 
 +6.345302E+02 +4.497639E+01 +3.024662E+00 +4.497639E+01 +6.808961E+02 +1.945617E+01 +3.024662E+00 +1.945617E+01 +1.324663E+03 
 +6.151034E+02 +1.385699E+01 +1.953414E+00 +1.385699E+01 +6.912194E+02 +1.379416E+01 +1.953414E+00 +1.379416E+01 +1.335583E+03 
 +6.510629E+02 +3.743909E+01 +2.240652E+00 +3.743909E+01 +5.608420E+02 +6.447807E+00 +2.240652E+00 +6.447807E+00 +1.329351E+03 
 +5.104035E+02 -7.878673E+00 -6.080166E+00 -7.878673E+00 +5.066863E+02 +9.965408E+00 -6.080166E+00 +9.965408E+00 +1.413337E+03 
 +6.086660E+02 +4.036111E+00 -1.474776E+01 +4.036111E+00 +5.745939E+02 -8.692520E+00 -1.474776E+01 -8.692520E+00 +1.380234E+03 
 +5.757043E+02 -1.676943E+01 +1.998831E+01 -1.676943E+01 +6.124749E+02 -2.282979E+01 +1.998831E+01 -2.282979E+01 +1.406554E+03 
 +6.031442E+02 +1.642730E+01 -2.321032E+01 +1.642730E+01 +5.952940E+02 +2.309269E+01 -2.321032E+01 +2.309269E+01 +1.406023E+03 
 +6.538187E+02 +3.835246E+01 +2.848199E+01 +3.835246E+01 +6.097358E+02 +1.092208E+01 +2.848199E+01 +1.092208E+01 +1.346510E+03 
 +6.027957E+02 -2.070587E+01 -6.171793E+00 -2.070587E+01 +6.844688E+02 -7.742265E+00 -6.171793E+00 -7.742265E+00 +1.326599E+03 
 +6.587449E+02 -4.740112E+01 +2.198012E+01 -4.740112E+01 +6.589216E+02 +2.507290E+01 +2.198012E+01 +2.507290E+01 +1.364458E+03 
 +5.740498E+02 -5.941644E-01 +8.076974E+00 -5.941644E-01 +5.640964E+02 -2.981461E+01 +8.076974E+00 -2.981461E+01 +1.394007E+03 
 +6.642892E+02 +1.392963E+01 +1.057175E+01 +1.392963E+01 +5.728012E+02 -1.231658E+00 +1.057175E+01 -1.231658E+00 +1.306832E+03 
 +5.988521E+02 -1.474816E+00 +1.793389E+00 -1.474816E+00 +5.821464E+02 +1.157127E+01 +1.793389E+00 +1.157127E+01 +1.477318E+03 
 +5.384203E+02 +2.250475E-01 -2.096668E+01 +2.250475E-01 +5.328126E+02 -7.238878E+00 -2.096668E+01 -7.238878E+00 +1.342123E+03 
 +5.813464E+02 -8.970741E+00 -2.147139E+01 -8.970741E+00 +5.928679E+02 +1.414620E+01 -2.147139E+01 +1.414620E+01 +1.354703E+03 
 +5.679647E+02 +3.834909E+00 -5.113575E+00 +3.834909E+00 +6.716423E+02 +6.257935E+00 -5.113575E+00 +6.257935E+00 +1.267125E+03 
 +6.351197E+02 -4.101117E+01 -1.588573E+01 -4.101117E+01 +6.441489E+02 -1.421200E+01 -1.588573E+01 -1.421200E+01 +1.300665E+03 
 +5.805941E+02 +8.124002E-01 -9.773982E+00 +8.124002E-01 +6.229613E+02 +3.063162E+01 -9.773982E+00 +3.063162E+01 +1.397203E+03 
 +6.333954E+02 +1.344579E+01 +1.960326E+01 +1.344579E+01 +6.110515E+02 -1.209283E+01 +1.960326E+01 -1.209283E+01 +1.323450E+03 
 +5.838412E+02 +4.947125E+01 +3.021174E+00 +4.947125E+01 +5.947266E+02 -6.826688E+00 +3.021174E+00 -6.826688E+00 +1.343422E+03 
 +6.823430E+02 +1.050779E+01 +2.012636E+00 +1.050779E+01 +5.436288E+02 +1.286263E+01 +2.012636E+00 +1.286263E+01 +1.338894E+03 
 +5.996323E+02 -2.973206E+01 -4.841057E+00 -2.973206E+01 +5.743003E+02 -2.561709E+01 -4.841057E+00 -2.561709E+01 +1.277970E+03 
 +5.437633E+02 -8.607335E+00 +6.214122E+00 -8.607335E+00 +5.741341E+02 -1.687639E+01 +6.214122E+00 -1.687639E+01 +1.362910E+03 
 +6.289708E+02 +2.199154E+00 -2.065967E-01 +2.199154E+00 +6.100101E+02 -3.435025E+00 -2.065967E-01 -3.435025E+00 +1.332683E+03 
 +6.213692E+02 +6.376328E-01 +8.034436E+00 +6.376328E-01 +6.093196E+02 +1.426254E+00 +8.034436E+00 +1.426254E+00 +1.413195E+03 
 +6.241827E+02 -3.365748E+01 -1.428227E+01 -3.365748E+01 +6.838921E+02 +2.459656E+00 -1.428227E+01 +2.459656E+00 +1.325204E+03 
 +6.235442E+02 +9.194019E+00 -3.338149E+01 +9.194019E+00 +6.573805E+02 +9.357000E+00 -3.338149E+01 +9.357000E+00 +1.390066E+03 
 +5.946967E+02 +1.141315E+01 -1.237572E+01 +1.141315E+01 +5.806483E+02 +2.672210E+01 -1.237572E+01 +2.672210E+01 +1.305843E+03 
 +5.652275E+02 -3.407434E-01 +9.338161E+00 -3.407434E-01 +6.015134E+02 -1.685569E+01 +9.338161E+00 -1.685569E+01 +1.338100E+03 
 +5.493640E+02 +1.451705E+01 +7.149647E+00 +1.451705E+01 +6.181590E+02 +4.722778E+00 +7.149647E+00 +4.722778E+00 +1.247999E+03 
 +6.257030E+02 +1.480371E+01 -6.092439E+00 +1.480371E+01 +6.471898E+02 +4.257597E+00 -6.092439E+00 +4.257597E+00 +1.398961E+03 
 +5.805703E+02 -1.364220E-01 -1.101089E+01 -1.364220E-01 +6.825106E+02 +1.647004E+00 -1.101089E+01 +1.647004E+00 +1.314154E+03 
 +6.701796E+02 +9.423842E+00 -4.322559E+00 +9.423842E+00 +5.397218E+02 -1.931790E+01 -4.322559E+00 -1.931790E+01 +1.285553E+03 
 +5.901393E+02 -4.645284E+00 -1.269437E+00 -4.645284E+00 +5.822535E+02 -1.518917E+01 -1.269437E+00 -1.518917E+01 +1.477255E+03 
 +6.293997E+02 -2.283518E+01 +1.041384E+01 -2.283518E+01 +6.921442E+02 +9.695965E+00 +1.041384E+01 +9.695965E+00 +1.324929E+03 
 +6.662364E+02 -1.295785E+01 +4.812962E+00 -1.295785E+01 +6.189608E+02 +3.382730E+00 +4.812962E+00 +3.382730E+00 +1.282949E+03 
 +5.703029E+02 +4.948161E+00 -1.131720E+01 +4.948161E+00 +5.806028E+02 +2.153545E+01 -1.131720E+01 +2.153545E+01 +1.411666E+03 
 +6.081105E+02 -2.293994E+01 +1.851929E+01 -2.293994E+01 +5.653828E+02 -2.512080E+00 +1.851929E+01 -2.512080E+00 +1.333621E+03 
 +6.285534E+02 +1.351717E+01 -1.182427E+01 +1.351717E+01 +5.934761E+02 -5.308739E+01 -1.182427E+01 -5.308739E+01 +1.330323E+03 
 +5.846550E+02 +2.838359E+01 -2.773594E+00 +2.838359E+01 +6.329137E+02 +5.014966E+00 -2.773594E+00 +5.014966E+00 +1.313684E+03 
 +6.385812E+02 -5.332692E+01 -1.228855E+00 -5.332692E+01 +6.314210E+02 +1.156804E+01 -1.228855E+00 +1.156804E+01 +1.307888E+03 
 +6.224198E+02 -6.822105E+00 +4.822234E+01 -6.822105E+00 +6.650140E+02 +1.222161E+01 +4.822234E+01 +1.222161E+01 +1.390311E+03 
 +5.998838E+02 -7.578086E-01 -2.560322E+01 -7.578086E-01 +6.137622E+02 -2.566989E-02 -2.560322E+01 -2.566989E-02 +1.379295E+03 
 +7.167542E+02 +8.652463E+00 -2.174615E+00 +8.652463E+00 +5.759053E+02 +3.778852E+00 -2.174615E+00 +3.778852E+00 +1.328856E+03 
 +5.625968E+02 -2.669029E+01 +7.042282E+00 -2.669029E+01 +5.669576E+02 -4.253615E+00 +7.042282E+00 -4.253615E+00 +1.363105E+03 
 +6.034816E+02 -9.497949E+00 +2.873234E+01 -9.497949E+00 +5.757105E+02 -2.444310E+01 +2.873234E+01 -2.444310E+01 +1.324501E+03 
 +5.721013E+02 +4.913622E+01 -8.056591E+00 +4.913622E+01 +6.092547E+02 +5.715640E+00 -8.056591E+00 +5.715640E+00 +1.272146E+03 
 +6.226666E+02 -2.754210E+01 -7.236092E+00 -2.754210E+01 +6.152288E+02 +1.386138E+01 -7.236092E+00 +1.386138E+01 +1.298052E+03 
 +6.121801E+02 +7.895465E+00 +2.677588E+00 +7.895465E+00 +6.220305E+02 -1.784130E+01 +2.677588E+00 -1.784130E+01 +1.364801E+03 
 +6.660753E+02 -1.537223E+00 -7.714467E+00 -1.537223E+00 +6.102351E+02 +1.687065E+00 -7.714467E+00 +1.687065E+00 +1.311658E+03 
 +5.700104E+02 +1.849451E+01 +3.579930E+00 +1.849451E+01 +6.573851E+02 -1.471514E+01 +3.579930E+00 -1.471514E+01 +1.314301E+03 
 +6.148937E+02 +2.750339E+01 +9.703034E-01 +2.750339E+01 +7.035921E+02 -1.859493E+01 +9.703034E-01 -1.859493E+01 +1.345435E+03 
 +6.374518E+02 -1.606182E+01 -3.901044E+01 -1.606182E+01 +6.227299E+02 +3.947125E+00 -3.901044E+01 +3.947125E+00 +1.350911E+03 
 +5.525294E+02 +1.724157E+01 +2.665314E+01 +1.724157E+01 +6.089259E+02 -7.844231E+00 +2.665314E+01 -7.844231E+00 +1.304353E+03 
 +5.673354E+02 +2.133827E+01 -2.487741E+00 +2.133827E+01 +5.894139E+02 -4.312030E+00 -2.487741E+00 -4.312030E+00 +1.376443E+03 
 +5.772810E+02 +2.992660E+00 +2.982794E+01 +2.992660E+00 +5.391083E+02 +1.142947E+01 +2.982794E+01 +1.142947E+01 +1.386941E+03 
 +5.517980E+02 +1.509960E+01 +1.296562E+01 +1.509960E+01 +5.930651E+02 +2.923181E+01 +1.296562E+01 +2.923181E+01 +1.329102E+03 
 +6.456489E+02 +2.978676E+01 -1.697238E+01 +2.978676E+01 +6.290579E+02 +1.300810E+01 -1.697238E+01 +1.300810E+01 +1.346448E+03 
 +5.530541E+02 -1.493121E+01 +2.929321E+01 -1.493121E+01 +6.631594E+02 -1.771886E+00 +2.929321E+01 -1.771886E+00 +1.336975E+03 
 +6.872280E+02 +3.584101E+01 -6.352416E+00 +3.584101E+01 +6.112355E+02 -4.390945E+00 -6.352416E+00 -4.390945E+00 +1.349522E+03 
 +5.456967E+02 -8.044080E+00 -1.197816E+01 -8.044080E+00 +5.864122E+02 -6.667721E+00 -1.197816E+01 -6.667721E+00 +1.310015E+03 
 +6.136933E+02 +1.847021E+01 -1.206940E+01 +1.847021E+01 +6.506588E+02 +1.846539E+01 -1.206940E+01 +1.846539E+01 +1.340418E+03 
 +6.557044E+02 +1.805740E+00 +2.282522E+01 +1.805740E+00 +6.581706E+02 -4.141300E+00 +2.282522E+01 -4.141300E+00 +1.365561E+03 
 +5.875536E+02 +3.737319E+00 -1.424750E+00 +3.737319E+00 +6.184604E+02 +2.101764E+01 -1.424750E+00 +2.101764E+01 +1.388449E+03 
 +6.131026E+02 -3.369611E+01 -1.242195E+01 -3.369611E+01 +6.742398E+02 +1.292857E+01 -1.242195E+01 +1.292857E+01 +1.313650E+03 
 +6.104053E+02 -2.878013E+01 +1.361034E+01 -2.878013E+01 +7.130151E+02 +3.367754E+00 +1.361034E+01 +3.367754E+00 +1.381500E+03 
 +6.625490E+02 -4.504293E+00 +1.345542E+01 -4.504293E+00 +6.864325E+02 +1.697178E+01 +1.345542E+01 +1.697178E+01 +1.322031E+03 
 +6.116860E+02 -2.831409E+00 +1.012760E+01 -2.831409E+00 +5.746351E+02 +2.454492E+01 +1.012760E+01 +2.454492E+01 +1.309749E+03 
 +6.033862E+02 +1.806593E+01 +5.746728E+00 +1.806593E+01 +5.958516E+02 -3.878283E+01 +5.746728E+00 -3.878283E+01 +1.366466E+03 
 +6.085779E+02 -3.817639E+01 -2.294867E+01 -3.817639E+01 +5.793306E+02 -1.630586E+01 -2.294867E+01 -1.630586E+01 +1.373381E+03 
 +5.128902E+02 -4.979987E+00 -2.006984E+00 -4.979987E+00 +5.875795E+02 -1.619497E+01 -2.006984E+00 -1.619497E+01 +1.312830E+03 
 +6.738264E+02 -1.274700E+00 +1.592856E-01 -1.274700E+00 +6.659100E+02 -9.232745E+00 +1.592856E-01 -9.232745E+00 +1.393997E+03 
 +6.126492E+02 +6.145456E+01 +1.485551E+01 +6.145456E+01 +6.417351E+02 -1.348171E+00 +1.485551E+01 -1.348171E+00 +1.297048E+03 
 +5.931814E+02 +7.140071E+00 +2.509183E+00 +7.140071E+00 +6.255786E+02 -3.168633E+00 +2.509183E+00 -3.168633E+00 +1.403013E+03 
 +6.103853E+02 -2.803912E+01 -4.872248E+00 -2.803912E+01 +5.752308E+02 +9.468700E+00 -4.872248E+00 +9.468700E+00 +1.285198E+03 
 +6.458976E+02 -4.250317E+01 +3.371081E+00 -4.250317E+01 +5.873129E+02 +1.566141E+01 +3.371081E+00 +1.566141E+01 +1.315223E+03 
 +5.898565E+02 -1.369490E+01 +1.971988E+01 -1.369490E+01 +6.652306E+02 -8.186944E-01 +1.971988E+01 -8.186944E-01 +1.364473E+03 
 +6.547745E+02 +1.361387E+01 -2.350411E+01 +1.361387E+01 +6.339579E+02 -1.128885E+01 -2.350411E+01 -1.128885E+01 +1.419536E+03 
 +6.366472E+02 -4.289515E+01 -4.419317E+00 -4.289515E+01 +6.331197E+02 -2.118879E+00 -4.419317E+00 -2.118879E+00 +1.281092E+03 
 +5.962892E+02 +6.404089E+00 -6.930548E+00 +6.404089E+00 +5.605294E+02 +5.866376E+00 -6.930548E+00 +5.866376E+00 +1.371003E+03 
 +6.163967E+02 +7.554579E-01 +5.728796E+00 +7.554579E-01 +6.030665E+02 +1.489949E+01 +5.728796E+00 +1.489949E+01 +1.424611E+03 
 +6.057746E+02 +3.661900E+01 +6.469990E+00 +3.661900E+01 +5.779713E+02 +4.665559E+01 +6.469990E+00 +4.665559E+01 +1.272064E+03 
 +5.819242E+02 -6.630920E+00 -4.838509E+01 -6.630920E+00 +5.706097E+02 +2.347592E+01 -4.838509E+01 +2.347592E+01 +1.389634E+03 
 +6.013722E+02 +3.794621E-02 +1.659509E+01 +3.794621E-02 +6.390421E+02 +4.359172E+00 +1.659509E+01 +4.359172E+00 +1.354846E+03 
 +6.215397E+02 -2.398516E+01 -1.430226E+01 -2.398516E+01 +5.996592E+02 -6.674999E+00 -1.430226E+01 -6.674999E+00 +1.309138E+03 
 +6.325570E+02 -1.046788E+01 +9.018591E+00 -1.046788E+01 +6.481512E+02 -1.445016E+01 +9.018591E+00 -1.445016E+01 +1.296522E+03 
 +6.247425E+02 -1.566096E+01 -3.991572E+00 -1.566096E+01 +6.016580E+02 -8.970038E+00 -3.991572E+00 -8.970038E+00 +1.418625E+03 
 +5.690639E+02 -1.778426E+01 +3.361945E+00 -1.778426E+01 +6.728083E+02 +4.763439E+00 +3.361945E+00 +4.763439E+00 +1.302072E+03 
 +6.378624E+02 +1.411257E+00 -1.043352E+01 +1.411257E+00 +6.581641E+02 +2.080247E+01 -1.043352E+01 +2.080247E+01 +1.356089E+03 
 +5.858912E+02 -1.871619E+01 +1.940952E+01 -1.871619E+01 +6.201474E+02 -2.707915E+00 +1.940952E+01 -2.707915E+00 +1.413257E+03 
 +5.947283E+02 +4.675265E+01 +2.388471E+00 +4.675265E+01 +6.733707E+02 -1.258340E+01 +2.388471E+00 -1.258340E+01 +1.338433E+03 
 +6.761113E+02 -2.771271E+01 -1.159302E+00 -2.771271E+01 +6.009656E+02 +1.028930E+01 -1.159302E+00 +1.028930E+01 +1.324357E+03 
 +6.849283E+02 -1.842540E+01 -2.174172E+01 -1.842540E+01 +6.484355E+02 +1.075274E+01 -2.174172E+01 +1.075274E+01 +1.367540E+03 
 +6.931583E+02 -1.169958E+01 +1.643839E+01 -1.169958E+01 +6.109993E+02 -6.144968E+00 +1.643839E+01 -6.144968E+00 +1.365607E+03 
 +6.051069E+02 +4.692038E-01 -1.355615E+01 +4.692038E-01 +6.051658E+02 +1.131686E+01 -1.355615E+01 +1.131686E+01 +1.382754E+03 
 +5.323356E+02 +2.269124E+00 +1.234003E+01 +2.269124E+00 +6.805309E+02 -4.174409E+00 +1.234003E+01 -4.174409E+00 +1.272507E+03 
 +6.104153E+02 -1.728690E+01 -3.039351E+01 -1.728690E+01 +6.788862E+02 -2.463402E+01 -3.039351E+01 -2.463402E+01 +1.295464E+03 
 +6.242381E+02 +8.073228E+01 -3.110910E+01 +8.073228E+01 +6.303188E+02 -6.713663E+00 -3.110910E+01 -6.713663E+00 +1.308364E+03 
 +5.983135E+02 +1.920401E+01 +2.788615E+01 +1.920401E+01 +6.300464E+02 +1.417295E+01 +2.788615E+01 +1.417295E+01 +1.399244E+03 
 +5.734564E+02 -1.513601E+01 -3.926153E+00 -1.513601E+01 +6.275334E+02 -6.502122E+00 -3.926153E+00 -6.502122E+00 +1.345692E+03 
 +6.008015E+02 +9.784069E+00 -1.929746E+01 +9.784069E+00 +6.323818E+02 -6.235283E+00 -1.929746E+01 -6.235283E+00 +1.449591E+03 
 +6.941326E+02 +1.585606E+01 +1.376211E+01 +1.585606E+01 +6.298325E+02 +1.777472E+01 +1.376211E+01 +1.777472E+01 +1.378174E+03 
 +5.656932E+02 +3.363539E+01 -1.339532E+01 +3.363539E+01 +5.880539E+02 +1.163797E+01 -1.339532E+01 +1.163797E+01 +1.319830E+03 
 +6.360966E+02 +4.236765E+01 -3.929436E+00 +4.236765E+01 +6.869161E+02 +5.064773E+00 -3.929436E+00 +5.064773E+00 +1.372463E+03 
 +6.627999E+02 +9.218755E+00 -9.074326E+00 +9.218755E+00 +6.502234E+02 +2.647747E+01 -9.074326E+00 +2.647747E+01 +1.402702E+03 
 +6.080491E+02 +1.209510E+01 +1.310139E+01 +1.209510E+01 +6.313414E+02 +2.640747E+00 +1.310139E+01 +2.640747E+00 +1.332165E+03 
 +6.076807E+02 +1.021147E+01 -1.067654E+01 +1.021147E+01 +6.879278E+02 -1.651366E+01 -1.067654E+01 -1.651366E+01 +1.286877E+03 
 +6.430759E+02 +6.007824E+00 +6.237051E+00 +6.007824E+00 +6.623634E+02 -2.803237E+01 +6.237051E+00 -2.803237E+01 +1.349027E+03 
 +5.530234E+02 +1.672832E+01 -1.358615E+01 +1.672832E+01 +5.789541E+02 -4.345852E+00 -1.358615E+01 -4.345852E+00 +1.280642E+03 
 +5.669355E+02 -2.748395E+01 +1.799338E+01 -2.748395E+01 +5.640719E+02 +1.459378E+01 +1.799338E+01 +1.459378E+01 +1.368803E+03 
 +5.367713E+02 -9.274406E+00 -1.404001E+01 -9.274406E+00 +5.621981E+02 +8.745406E+00 -1.404001E+01 +8.745406E+00 +1.368282E+03 
 +5.456686E+02 -1.584496E+01 +2.807709E+01 -1.584496E+01 +5.428556E+02 +1.727696E+01 +2.807709E+01 +1.727696E+01 +1.338700E+03 
 +5.804658E+02 +2.970287E+01 +1.179049E+01 +2.970287E+01 +6.268170E+02 +2.702417E+01 +1.179049E+01 +2.702417E+01 +1.345784E+03 
 +5.518044E+02 -7.687531E+00 -1.842342E+01 -7.687531E+00 +6.208891E+02 +3.186049E+01 -1.842342E+01 +3.186049E+01 +1.321492E+03 
 +5.666239E+02 -5.091615E+00 -1.324276E+01 -5.091615E+00 +5.793852E+02 +1.540142E+01 -1.324276E+01 +1.540142E+01 +1.397512E+03 
 +5.852983E+02 +4.948915E+01 +1.087483E+01 +4.948915E+01 +5.944699E+02 -1.452979E+01 +1.087483E+01 -1.452979E+01 +1.301074E+03 
 +6.752335E+02 -8.048100E+00 +4.551461E-01 -8.048100E+00 +5.552286E+02 +6.222857E+00 +4.551461E-01 +6.222857E+00 +1.320724E+03 
 +6.241859E+02 +2.465117E+01 -7.168540E+00 +2.465117E+01 +5.441505E+02 -1.435262E+01 -7.168540E+00 -1.435262E+01 +1.325544E+03 
 +6.599247E+02 -4.506897E+01 -2.029418E+01 -4.506897E+01 +6.270272E+02 -2.939955E+01 -2.029418E+01 -2.939955E+01 +1.296315E+03 
 +6.050197E+02 -4.613943E+00 +4.599185E+01 -4.613943E+00 +5.910551E+02 -5.362942E+00 +4.599185E+01 -5.362942E+00 +1.439724E+03 
 +5.594829E+02 +1.557242E+01 +3.263311E+01 +1.557242E+01 +5.660782E+02 +7.582698E+00 +3.263311E+01 +7.582698E+00 +1.415752E+03 
 +6.025474E+02 +1.198012E+01 -4.307587E+00 +1.198012E+01 +5.853999E+02 -2.846077E-01 -4.307587E+00 -2.846077E-01 +1.416221E+03 
 +5.915772E+02 +9.022310E+00 +2.856655E+00 +9.022310E+00 +6.485298E+02 -6.040519E-01 +2.856655E+00 -6.040519E-01 +1.355451E+03 
 +6.609457E+02 -1.693452E+01 -3.965970E+00 -1.693452E+01 +6.773216E+02 -9.311065E+00 -3.965970E+00 -9.311065E+00 +1.369133E+03 
 +5.715437E+02 -2.463220E+01 +5.595920E+00 -2.463220E+01 +5.345751E+02 +4.540847E-02 +5.595920E+00 +4.540847E-02 +1.364225E+03 
 +5.572321E+02 +9.799537E+00 +3.364051E+01 +9.799537E+00 +5.447391E+02 -2.772094E+00 +3.364051E+01 -2.772094E+00 +1.391812E+03 
 +5.912077E+02 +6.532336E+00 +6.657574E+00 +6.532336E+00 +5.767098E+02 -4.481020E+00 +6.657574E+00 -4.481020E+00 +1.396236E+03 
 +6.612002E+02 +1.382047E+01 +1.499556E+01 +1.382047E+01 +5.858484E+02 -4.467306E+00 +1.499556E+01 -4.467306E+00 +1.306764E+03 
 +5.804914E+02 +3.490428E+00 -2.311660E+01 +3.490428E+00 +5.801780E+02 -1.245911E+01 -2.311660E+01 -1.245911E+01 +1.330215E+03 
 +5.549941E+02 -6.368712E+00 +2.742044E+01 -6.368712E+00 +5.763411E+02 -6.399580E+00 +2.742044E+01 -6.399580E+00 +1.325102E+03 
 +6.641165E+02 +4.462475E+00 +5.517014E+00 +4.462475E+00 +6.185535E+02 +3.453676E-01 +5.517014E+00 +3.453676E-01 +1.388557E+03 
 +6.461884E+02 -6.445202E+00 +8.015815E+00 -6.445202E+00 +6.218007E+02 +1.481063E+01 +8.015815E+00 +1.481063E+01 +1.373255E+03 
 +6.947243E+02 +2.035433E+01 -9.390095E+00 +2.035433E+01 +6.485873E+02 -1.057487E+01 -9.390095E+00 -1.057487E+01 +1.369974E+03 
 +6.790544E+02 +2.213759E+01 -1.588840E+01 +2.213759E+01 +5.854018E+02 -7.350650E+00 -1.588840E+01 -7.350650E+00 +1.307626E+03 
 +6.133661E+02 -3.226109E+00 +1.190529E+01 -3.226109E+00 +5.851248E+02 +1.176910E+01 +1.190529E+01 +1.176910E+01 +1.296505E+03 
 +5.968695E+02 -5.286628E+01 +7.035325E+00 -5.286628E+01 +6.404688E+02 -1.536641E+00 +7.035325E+00 -1.536641E+00 +1.375555E+03 
 +6.180356E+02 -8.280578E+01 +6.942028E+00 -8.280578E+01 +6.204697E+02 +6.809208E+00 +6.942028E+00 +6.809208E+00 +1.327219E+03 
 +6.662670E+02 -5.836899E+01 -1.762207E+01 -5.836899E+01 +6.678698E+02 +5.662941E+00 -1.762207E+01 +5.662941E+00 +1.336005E+03 
 +5.703295E+02 -9.893816E+00 -4.663316E+00 -9.893816E+00 +6.739984E+02 -1.039560E+01 -4.663316E+00 -1.039560E+01 +1.347438E+03 
 +6.547435E+02 +3.296327E+01 +1.794362E+01 +3.296327E+01 +6.147115E+02 -5.862441E+00 +1.794362E+01 -5.862441E+00 +1.312005E+03 
 +6.249336E+02 +1.559798E-01 -7.987292E+00 +1.559798E-01 +6.039976E+02 -1.385437E+01 -7.987292E+00 -1.385437E+01 +1.389694E+03 
 +6.465372E+02 +2.298488E+01 +2.941759E+01 +2.298488E+01 +6.171484E+02 -2.533678E+01 +2.941759E+01 -2.533678E+01 +1.400679E+03 
 +6.144982E+02 -4.551730E+01 -2.254209E+00 -4.551730E+01 +6.916806E+02 -1.416168E+01 -2.254209E+00 -1.416168E+01 +1.352142E+03 
 +6.153754E+02 -4.508993E+00 +3.462123E+00 -4.508993E+00 +6.305425E+02 +7.145290E+00 +3.462123E+00 +7.145290E+00 +1.385677E+03 
 +5.848699E+02 +1.006166E+01 +1.582561E+00 +1.006166E+01 +6.299058E+02 -1.285283E+01 +1.582561E+00 -1.285283E+01 +1.374374E+03 
 +6.158996E+02 -1.824406E+01 -1.004543E+00 -1.824406E+01 +7.014022E+02 -5.052437E+00 -1.004543E+00 -5.052437E+00 +1.321524E+03 
 +5.938120E+02 -8.576245E+00 -3.609694E-01 -8.576245E+00 +5.701603E+02 +4.952478E+00 -3.609694E-01 +4.952478E+00 +1.461221E+03 
 +5.604745E+02 -4.342870E+00 +1.541504E+01 -4.342870E+00 +6.032380E+02 +2.131974E+01 +1.541504E+01 +2.131974E+01 +1.379249E+03 
 +6.090576E+02 -7.841572E-01 -4.111710E+00 -7.841572E-01 +6.359956E+02 +1.256933E+01 -4.111710E+00 +1.256933E+01 +1.337280E+03 
 +6.155008E+02 -4.898929E+01 +1.919245E+01 -4.898929E+01 +6.214146E+02 -1.907558E+01 +1.919245E+01 -1.907558E+01 +1.370407E+03 
 +6.546693E+02 -8.235991E+00 -2.385896E+01 -8.235991E+00 +5.645552E+02 -2.202685E+01 -2.385896E+01 -2.202685E+01 +1.326850E+03 
 +5.551954E+02 -6.182469E+00 -4.706070E+00 -6.182469E+00 +5.620132E+02 +5.443677E+00 -4.706070E+00 +5.443677E+00 +1.425621E+03 
 +6.509311E+02 -4.415527E+01 -7.944901E+00 -4.415527E+01 +6.010605E+02 +2.043991E-01 -7.944901E+00 +2.043991E-01 +1.291325E+03 
 +6.135961E+02 -2.341812E+01 +2.469015E-01 -2.341812E+01 +6.085950E+02 -9.591660E+00 +2.469015E-01 -9.591660E+00 +1.429336E+03 
 +6.177913E+02 -2.109346E+01 +2.486453E+01 -2.109346E+01 +6.264683E+02 +2.704538E+00 +2.486453E+01 +2.704538E+00 +1.301736E+03 
 +6.854440E+02 +1.526758E+01 -1.110057E+01 +1.526758E+01 +5.734649E+02 -2.591452E+00 -1.110057E+01 -2.591452E+00 +1.313523E+03 
 +5.403700E+02 +2.113018E+01 +2.685834E+01 +2.113018E+01 +5.566022E+02 +2.082942E+01 +2.685834E+01 +2.082942E+01 +1.416652E+03 
 +6.116420E+02 +1.917467E+01 +4.500957E+00 +1.917467E+01 +6.476536E+02 +3.042826E+01 +4.500957E+00 +3.042826E+01 +1.354365E+03 
 +5.815323E+02 +4.201051E+01 -1.079120E+01 +4.201051E+01 +6.493597E+02 +1.267752E+01 -1.079120E+01 +1.267752E+01 +1.258376E+03 
 +6.557228E+02 +3.789843E+01 +8.805371E-02 +3.789843E+01 +6.051368E+02 +2.851168E+00 +8.805371E-02 +2.851168E+00 +1.273352E+03 
 +5.916910E+02 +6.394193E+01 -2.366498E+01 +6.394193E+01 +6.432039E+02 -2.043619E+00 -2.366498E+01 -2.043619E+00 +1.331040E+03 
 +6.423456E+02 +5.283379E+01 +2.999822E+00 +5.283379E+01 +6.553152E+02 -2.800558E+01 +2.999822E+00 -2.800558E+01 +1.352997E+03 
 +5.706097E+02 -3.971541E+01 -8.550551E+00 -3.971541E+01 +6.782525E+02 -1.536227E+01 -8.550551E+00 -1.536227E+01 +1.309516E+03 
 +6.269940E+02 -2.430662E+00 -1.041601E+01 -2.430662E+00 +6.061890E+02 +1.314062E+00 -1.041601E+01 +1.314062E+00 +1.350962E+03 
 +6.316965E+02 +5.215000E+01 +2.201049E+00 +5.215000E+01 +6.330557E+02 +2.113437E+01 +2.201049E+00 +2.113437E+01 +1.262036E+03 
 +6.083342E+02 -6.167320E-01 -1.586198E+01 -6.167320E-01 +6.470628E+02 +2.261983E+01 -1.586198E+01 +2.261983E+01 +1.395500E+03 
 +6.669339E+02 -1.537276E+01 +1.815354E+01 -1.537276E+01 +5.819280E+02 -1.276473E+01 +1.815354E+01 -1.276473E+01 +1.307621E+03 
 +5.891704E+02 -7.293571E+00 +2.235242E+01 -7.293571E+00 +5.964779E+02 +2.751401E+01 +2.235242E+01 +2.751401E+01 +1.382885E+03 
 +6.688171E+02 -4.420335E+01 +1.145575E+01 -4.420335E+01 +6.310522E+02 +1.322075E+01 +1.145575E+01 +1.322075E+01 +1.387119E+03 
 +5.771354E+02 -1.368149E+01 -2.445768E+01 -1.368149E+01 +6.876283E+02 -5.664740E+00 -2.445768E+01 -5.664740E+00 +1.345628E+03 
 +6.032928E+02 +4.329741E+01 -9.641261E+00 +4.329741E+01 +6.376871E+02 -1.059858E+01 -9.641261E+00 -1.059858E+01 +1.333537E+03 
 +6.086992E+02 -6.622281E+00 -7.008040E+00 -6.622281E+00 +7.121878E+02 -6.435036E+00 -7.008040E+00 -6.435036E+00 +1.313837E+03 
 +6.287181E+02 +5.932643E+00 +5.063589E-01 +5.932643E+00 +7.271737E+02 +1.414948E+01 +5.063589E-01 +1.414948E+01 +1.405955E+03 
 +6.017134E+02 +3.949277E+01 -1.586510E+01 +3.949277E+01 +6.638825E+02 -1.776086E+01 -1.586510E+01 -1.776086E+01 +1.301732E+03 
 +6.120219E+02 +2.723354E+01 +6.668423E+00 +2.723354E+01 +6.669841E+02 +7.238788E+00 +6.668423E+00 +7.238788E+00 +1.381515E+03 
 +6.197665E+02 +4.609890E+01 -2.670772E+00 +4.609890E+01 +5.801564E+02 +2.477654E+01 -2.670772E+00 +2.477654E+01 +1.303605E+03 
 +5.972975E+02 +2.722408E+01 +8.849538E+00 +2.722408E+01 +5.451562E+02 +1.210995E+01 +8.849538E+00 +1.210995E+01 +1.268518E+03 
 +5.814435E+02 -8.697604E+00 +4.421541E-01 -8.697604E+00 +5.999441E+02 +1.945703E+01 +4.421541E-01 +1.945703E+01 +1.338596E+03 
 +6.540190E+02 +1.001301E+01 +2.228486E+00 +1.001301E+01 +6.308920E+02 +5.817365E+00 +2.228486E+00 +5.817365E+00 +1.318552E+03 
 +5.333953E+02 -1.286047E+01 -7.171113E+00 -1.286047E+01 +6.248607E+02 -7.796906E+00 -7.171113E+00 -7.796906E+00 +1.300438E+03 
 +5.763243E+02 -2.662870E+01 +7.977690E+00 -2.662870E+01 +6.398719E+02 -3.053247E+01 +7.977690E+00 -3.053247E+01 +1.308298E+03 
 +5.531042E+02 -4.879555E+00 +5.043896E-01 -4.879555E+00 +5.473848E+02 -3.292200E+01 +5.043896E-01 -3.292200E+01 +1.433289E+03 
 +6.278578E+02 +1.293583E+00 -8.303556E+00 +1.293583E+00 +5.741594E+02 -1.627542E+00 -8.303556E+00 -1.627542E+00 +1.341848E+03 
 +6.160168E+02 -9.348688E+00 +8.791099E+00 -9.348688E+00 +6.453075E+02 +1.838699E+00 +8.791099E+00 +1.838699E+00 +1.300552E+03 
 +5.757780E+02 +3.241695E+01 -4.745734E+00 +3.241695E+01 +6.199988E+02 +4.057214E+01 -4.745734E+00 +4.057214E+01 +1.378990E+03 
 +5.997976E+02 +6.189712E+00 -3.921721E+00 +6.189712E+00 +6.060820E+02 +4.812439E+00 -3.921721E+00 +4.812439E+00 +1.264556E+03 
 +5.810456E+02 +1.132929E+01 -1.733434E+01 +1.132929E+01 +5.357426E+02 -1.649354E+00 -1.733434E+01 -1.649354E+00 +1.387473E+03 
 +5.750233E+02 -4.408383E+01 +1.425925E+01 -4.408383E+01 +6.568135E+02 -1.508757E+01 +1.425925E+01 -1.508757E+01 +1.301688E+03 
 +5.777689E+02 -4.505132E+01 -1.837266E+00 -4.505132E+01 +6.069185E+02 -1.426088E+01 -1.837266E+00 -1.426088E+01 +1.279698E+03 
 +5.627972E+02 +7.257227E+00 -1.451009E+00 +7.257227E+00 +5.791883E+02 -1.053951E+01 -1.451009E+00 -1.053951E+01 +1.441470E+03 
 +5.869652E+02 +8.387108E+00 -2.488439E+01 +8.387108E+00 +5.570681E+02 +1.141205E+01 -2.488439E+01 +1.141205E+01 +1.316819E+03 
 +5.492212E+02 -8.232491E+00 -1.653352E+01 -8.232491E+00 +6.199493E+02 +1.582084E+01 -1.653352E+01 +1.582084E+01 +1.385342E+03 
 +6.348629E+02 +5.148335E+01 +9.316692E-01 +5.148335E+01 +6.206312E+02 -1.468051E+01 +9.316692E-01 -1.468051E+01 +1.279058E+03 
 +5.946951E+02 +2.171021E+01 -1.410548E+01 +2.171021E+01 +5.708107E+02 +1.766639E+01 -1.410548E+01 +1.766639E+01 +1.399368E+03 
 +5.647134E+02 -3.909257E+00 -9.361917E+00 -3.909257E+00 +6.310259E+02 +8.910690E+00 -9.361917E+00 +8.910690E+00 +1.308950E+03 
 +6.671570E+02 -3.262644E+01 +6.115691E+00 -3.262644E+01 +6.649853E+02 -5.146050E+00 +6.115691E+00 -5.146050E+00 +1.340022E+03 
 +6.268305E+02 +7.364593E+00 -8.173917E+00 +7.364593E+00 +6.892903E+02 +1.325427E+01 -8.173917E+00 +1.325427E+01 +1.317451E+03 
 +6.038193E+02 -2.047913E+01 +2.189283E+01 -2.047913E+01 +6.469857E+02 -2.556661E+00 +2.189283E+01 -2.556661E+00 +1.329833E+03 
 +6.669399E+02 +8.775426E-01 +2.679519E+00 +8.775426E-01 +5.872101E+02 -1.915106E+00 +2.679519E+00 -1.915106E+00 +1.276635E+03 
 +5.884567E+02 -1.152227E+01 -3.732672E+01 -1.152227E+01 +6.096539E+02 -1.745319E+01 -3.732672E+01 -1.745319E+01 +1.341984E+03 
 +5.969198E+02 +2.944137E-01 -9.338261E+00 +2.944137E-01 +6.778443E+02 -3.216024E+01 -9.338261E+00 -3.216024E+01 +1.363301E+03 
 +7.770432E+02 +3.640564E+00 +3.395266E+00 +3.640564E+00 +6.694062E+02 -2.133412E+01 +3.395266E+00 -2.133412E+01 +1.444455E+03 
 +6.507778E+02 +3.765426E-02 -1.537002E+01 +3.765426E-02 +6.347474E+02 +1.790611E+01 -1.537002E+01 +1.790611E+01 +1.408558E+03 
 +6.306183E+02 -1.694238E+01 +6.237229E+00 -1.694238E+01 +5.969792E+02 -4.545632E+00 +6.237229E+00 -4.545632E+00 +1.390098E+03 
 +5.627914E+02 +3.168423E+00 -9.852744E+00 +3.168423E+00 +6.114471E+02 +1.964211E+01 -9.852744E+00 +1.964211E+01 +1.255406E+03 
 +6.331065E+02 -3.051830E+01 -2.182067E+01 -3.051830E+01 +5.834816E+02 -2.382013E+01 -2.182067E+01 -2.382013E+01 +1.338917E+03 
 +6.431141E+02 +2.481330E+01 -2.858134E+00 +2.481330E+01 +6.890124E+02 -2.352584E+00 -2.858134E+00 -2.352584E+00 +1.357101E+03 
 +6.179739E+02 -3.146381E+01 +4.734303E+00 -3.146381E+01 +7.117375E+02 -1.136794E+01 +4.734303E+00 -1.136794E+01 +1.353070E+03 
 +6.828535E+02 +1.574026E+01 +5.116065E+00 +1.574026E+01 +5.953654E+02 +2.647403E+00 +5.116065E+00 +2.647403E+00 +1.338529E+03 
 +5.494703E+02 -1.267752E+01 -4.577401E+00 -1.267752E+01 +6.478068E+02 -1.633207E+01 -4.577401E+00 -1.633207E+01 +1.284641E+03 
 +6.485898E+02 +1.747860E+01 -7.095010E+00 +1.747860E+01 +6.010292E+02 +1.218987E+00 -7.095010E+00 +1.218987E+00 +1.440472E+03 
 +6.785155E+02 +5.174923E+01 -1.058991E+01 +5.174923E+01 +6.421021E+02 +5.675426E+00 -1.058991E+01 +5.675426E+00 +1.356488E+03 
 +5.996516E+02 -1.216042E+01 -6.849779E+00 -1.216042E+01 +6.425919E+02 +1.936483E+01 -6.849779E+00 +1.936483E+01 +1.461890E+03 
 +6.425643E+02 -1.637504E+01 -2.645965E+01 -1.637504E+01 +5.958994E+02 +3.077197E+01 -2.645965E+01 +3.077197E+01 +1.314954E+03 
 +6.060804E+02 +9.953892E+00 -1.116199E+01 +9.953892E+00 +6.070743E+02 -1.803227E+01 -1.116199E+01 -1.803227E+01 +1.373538E+03 
 +6.664837E+02 +1.110501E+01 +1.780428E+01 +1.110501E+01 +5.901752E+02 +3.039195E+01 +1.780428E+01 +3.039195E+01 +1.346563E+03 
 +5.237661E+02 +3.130940E+00 -1.338385E+01 +3.130940E+00 +5.163954E+02 -4.802844E+00 -1.338385E+01 -4.802844E+00 +1.364568E+03 
 +6.208193E+02 +1.118144E+01 +1.457031E+01 +1.118144E+01 +5.647455E+02 -1.467764E+01 +1.457031E+01 -1.467764E+01 +1.284678E+03 
 +5.531619E+02 +8.986750E+00 +1.069834E+00 +8.986750E+00 +5.656511E+02 -1.879861E+01 +1.069834E+00 -1.879861E+01 +1.398251E+03 
 +6.303447E+02 -5.501528E+01 -1.678454E+01 -5.501528E+01 +5.940225E+02 -2.765342E+01 -1.678454E+01 -2.765342E+01 +1.325595E+03 
 +6.587693E+02 -2.844301E+01 -1.113647E+01 -2.844301E+01 +6.288299E+02 -2.253067E+01 -1.113647E+01 -2.253067E+01 +1.352358E+03 
 +5.422087E+02 -5.983691E+00 +7.626015E+00 -5.983691E+00 +5.594564E+02 -2.115282E+01 +7.626015E+00 -2.115282E+01 +1.352404E+03 
 +5.585560E+02 -1.480495E+01 +4.908274E+00 -1.480495E+01 +5.901700E+02 +2.639722E+01 +4.908274E+00 +2.639722E+01 +1.378748E+03 
 +6.372803E+02 -2.122943E+01 -3.313132E+01 -2.122943E+01 +6.047101E+02 +2.661638E+00 -3.313132E+01 +2.661638E+00 +1.436447E+03 
 +6.616064E+02 -1.680634E+01 -9.236354E+00 -1.680634E+01 +5.832701E+02 +7.295558E+00 -9.236354E+00 +7.295558E+00 +1.346951E+03 
 +6.208833E+02 +3.784062E+00 -1.073936E+01 +3.784062E+00 +5.531655E+02 -9.427118E+00 -1.073936E+01 -9.427118E+00 +1.289878E+03 
 +6.667790E+02 -1.654525E+01 -3.611117E+00 -1.654525E+01 +5.509415E+02 +4.235167E+00 -3.611117E+00 +4.235167E+00 +1.334181E+03 
 +5.814442E+02 -2.040716E+01 -7.972982E+00 -2.040716E+01 +5.529958E+02 +1.361999E+01 -7.972982E+00 +1.361999E+01 +1.415330E+03 
 +5.964933E+02 -1.492359E+00 +1.214921E+01 -1.492359E+00 +5.783203E+02 +3.600842E+01 +1.214921E+01 +3.600842E+01 +1.375192E+03 
 +6.133110E+02 +1.336865E+01 +1.254332E+00 +1.336865E+01 +6.630930E+02 +4.713891E+00 +1.254332E+00 +4.713891E+00 +1.301721E+03 
 +6.173779E+02 -3.148512E+01 +7.747557E+00 -3.148512E+01 +5.930250E+02 +3.778987E+00 +7.747557E+00 +3.778987E+00 +1.324871E+03 
 +6.234531E+02 +7.881214E+00 -1.966617E+01 +7.881214E+00 +6.593842E+02 +1.146081E+01 -1.966617E+01 +1.146081E+01 +1.387291E+03 
 +5.910293E+02 -1.032347E+01 -3.519720E+00 -1.032347E+01 +5.995831E+02 -1.869046E+01 -3.519720E+00 -1.869046E+01 +1.440962E+03 
 +5.976044E+02 +2.264306E+01 -2.394671E+00 +2.264306E+01 +5.848742E+02 +4.004785E+00 -2.394671E+00 +4.004785E+00 +1.346166E+03 
 +5.993420E+02 +2.423696E+01 -2.658008E+00 +2.423696E+01 +6.494283E+02 +1.820174E+01 -2.658008E+00 +1.820174E+01 +1.354862E+03 
 +5.850222E+02 +4.823870E+01 -2.520323E+00 +4.823870E+01 +6.378602E+02 +9.795987E+00 -2.520323E+00 +9.795987E+00 +1.352893E+03 
 +6.621957E+02 +2.516117E+01 +1.324133E+01 +2.516117E+01 +6.453635E+02 +1.257526E+01 +1.324133E+01 +1.257526E+01 +1.429427E+03 
 +5.668611E+02 -1.257515E+01 +3.136781E+01 -1.257515E+01 +6.391212E+02 +1.659750E+01 +3.136781E+01 +1.659750E+01 +1.307317E+03 
 +7.367231E+02 +4.337169E+00 +9.476865E+00 +4.337169E+00 +6.925155E+02 -1.401532E+01 +9.476865E+00 -1.401532E+01 +1.408257E+03 
 +6.355835E+02 +4.013763E-01 -2.730446E+01 +4.013763E-01 +7.203881E+02 -1.183220E+01 -2.730446E+01 -1.183220E+01 +1.368393E+03 
 +6.013591E+02 +2.753810E+01 -1.761760E+01 +2.753810E+01 +6.563658E+02 -5.249660E+00 -1.761760E+01 -5.249660E+00 +1.323540E+03 
 +5.450173E+02 +1.141508E+01 -1.735774E+01 +1.141508E+01 +5.778124E+02 -1.805795E+01 -1.735774E+01 -1.805795E+01 +1.356335E+03 
 +6.616573E+02 -3.594555E+01 +3.466599E+01 -3.594555E+01 +5.955173E+02 +3.143457E+00 +3.466599E+01 +3.143457E+00 +1.316564E+03 
 +6.559069E+02 -4.037057E+00 +1.180669E+01 -4.037057E+00 +6.182510E+02 -3.512934E+00 +1.180669E+01 -3.512934E+00 +1.331127E+03 
 +5.652391E+02 +6.610373E+00 -1.414022E+01 +6.610373E+00 +6.059071E+02 +9.004344E+00 -1.414022E+01 +9.004344E+00 +1.387281E+03 
 +6.857847E+02 -4.350717E+01 -1.257348E+01 -4.350717E+01 +6.401206E+02 -2.372406E+01 -1.257348E+01 -2.372406E+01 +1.383718E+03 
 +5.716829E+02 -4.919907E+01 -5.313453E+00 -4.919907E+01 +5.807451E+02 +7.503678E+00 -5.313453E+00 +7.503678E+00 +1.342251E+03 
 +6.235334E+02 +8.611709E+00 +8.969536E+00 +8.611709E+00 +6.721786E+02 -1.869370E+01 +8.969536E+00 -1.869370E+01 +1.365896E+03 
 +5.966500E+02 +1.993946E+00 -5.887006E+00 +1.993946E+00 +6.890554E+02 +7.202253E+00 -5.887006E+00 +7.202253E+00 +1.344807E+03 
 +5.939791E+02 -8.806487E+00 -3.117675E+01 -8.806487E+00 +5.666656E+02 +3.127932E+01 -3.117675E+01 +3.127932E+01 +1.416083E+03 
 +6.507246E+02 +2.134159E+01 -1.214370E+01 +2.134159E+01 +5.506669E+02 -1.119276E+01 -1.214370E+01 -1.119276E+01 +1.301160E+03 
 +6.330739E+02 +2.554406E+01 +1.031661E+01 +2.554406E+01 +6.255080E+02 -1.427250E+01 +1.031661E+01 -1.427250E+01 +1.353364E+03 
 +5.835831E+02 -5.214847E+00 -4.006625E+01 -5.214847E+00 +5.843450E+02 -1.431153E+01 -4.006625E+01 -1.431153E+01 +1.429225E+03 
 +6.168561E+02 +2.581300E-01 +1.612502E+00 +2.581300E-01 +5.998755E+02 -1.621765E+01 +1.612502E+00 -1.621765E+01 +1.385422E+03 
 +5.623908E+02 -3.607909E+01 -9.036237E+00 -3.607909E+01 +6.606537E+02 -2.519413E+01 -9.036237E+00 -2.519413E+01 +1.310320E+03 
 +6.685316E+02 -3.488270E+01 +7.213851E+00 -3.488270E+01 +6.053054E+02 -2.441511E+01 +7.213851E+00 -2.441511E+01 +1.317009E+03 
 +5.397891E+02 -2.856049E+00 +1.400856E+01 -2.856049E+00 +6.311801E+02 -2.844075E+00 +1.400856E+01 -2.844075E+00 +1.405373E+03 
 +6.485228E+02 -2.152474E+01 +1.928749E+01 -2.152474E+01 +5.962310E+02 +8.052051E+00 +1.928749E+01 +8.052051E+00 +1.346869E+03 
 +5.398957E+02 -1.521828E+01 +7.854157E+00 -1.521828E+01 +6.345845E+02 +1.787837E+01 +7.854157E+00 +1.787837E+01 +1.291958E+03 
 +6.268225E+02 -9.307614E+00 +3.871938E+01 -9.307614E+00 +6.471254E+02 +3.840990E+01 +3.871938E+01 +3.840990E+01 +1.393668E+03 
 +6.442615E+02 +6.924316E+00 -5.399267E+01 +6.924316E+00 +5.932406E+02 +3.265704E+01 -5.399267E+01 +3.265704E+01 +1.350725E+03 
 +5.970627E+02 +1.647746E+01 +2.425805E+01 +1.647746E+01 +5.802936E+02 -3.328411E+00 +2.425805E+01 -3.328411E+00 +1.408804E+03 
 +6.505786E+02 -3.015359E+01 +1.674638E+01 -3.015359E+01 +5.477438E+02 +9.064358E+00 +1.674638E+01 +9.064358E+00 +1.333268E+03 
 +5.450129E+02 +1.572067E+01 +2.087757E+01 +1.572067E+01 +5.785526E+02 +6.775879E+00 +2.087757E+01 +6.775879E+00 +1.342449E+03 
 +6.007051E+02 +1.425247E+01 -4.084941E+00 +1.425247E+01 +5.909297E+02 +1.982879E+01 -4.084941E+00 +1.982879E+01 +1.282834E+03 
 +5.571507E+02 +1.780906E+00 -2.481829E+01 +1.780906E+00 +6.071801E+02 -1.147455E+01 -2.481829E+01 -1.147455E+01 +1.374749E+03 
 +5.411656E+02 +1.929206E+01 +1.638780E+01 +1.929206E+01 +5.644492E+02 +1.585069E+01 +1.638780E+01 +1.585069E+01 +1.378849E+03 
 +5.648148E+02 +1.132032E+01 -1.561155E+01 +1.132032E+01 +5.299207E+02 +3.868541E+01 -1.561155E+01 +3.868541E+01 +1.326135E+03 
 +5.639957E+02 +1.547532E+01 -2.004140E+01 +1.547532E+01 +5.916251E+02 -1.547066E+01 -2.004140E+01 -1.547066E+01 +1.388275E+03 
 +6.513816E+02 -2.309077E+00 -1.073584E+01 -2.309077E+00 +4.833409E+02 -1.532471E+01 -1.073584E+01 -1.532471E+01 +1.237041E+03 
 +6.031866E+02 +7.419296E+00 +4.156871E-02 +7.419296E+00 +5.504011E+02 +1.351026E+00 +4.156871E-02 +1.351026E+00 +1.451098E+03 
 +6.743817E+02 -3.411558E+01 -5.632334E+00 -3.411558E+01 +6.599879E+02 +1.213073E+01 -5.632334E+00 +1.213073E+01 +1.353918E+03 
 +6.310123E+02 -5.156338E+00 -1.307329E+01 -5.156338E+00 +6.333414E+02 -2.695746E+01 -1.307329E+01 -2.695746E+01 +1.323483E+03 
 +5.829869E+02 +5.344855E+00 -7.065148E+00 +5.344855E+00 +6.786704E+02 +1.391490E+01 -7.065148E+00 +1.391490E+01 +1.338941E+03 
 +5.492557E+02 -3.929056E+01 -3.988738E+00 -3.929056E+01 +6.814619E+02 -5.500625E+00 -3.988738E+00 -5.500625E+00 +1.317026E+03 
 +6.841516E+02 -5.115318E+01 -1.729622E+00 -5.115318E+01 +6.001260E+02 +4.710987E+00 -1.729622E+00 +4.710987E+00 +1.324374E+03 
 +6.146525E+02 +1.531115E+01 +4.831735E+00 +1.531115E+01 +6.583981E+02 +3.489160E+00 +4.831735E+00 +3.489160E+00 +1.341436E+03 
 +6.190947E+02 +1.540117E+00 +3.517412E+00 +1.540117E+00 +6.361111E+02 +1.235726E+01 +3.517412E+00 +1.235726E+01 +1.445044E+03 
 +5.933958E+02 +1.633485E+01 +4.862180E+00 +1.633485E+01 +5.745102E+02 +2.624230E+01 +4.862180E+00 +2.624230E+01 +1.318387E+03 
 +6.337089E+02 -1.398344E+01 -1.194791E+01 -1.398344E+01 +5.644083E+02 -3.609197E-01 -1.194791E+01 -3.609197E-01 +1.269197E+03 
 +6.213705E+02 +4.303394E+00 +6.364676E+00 +4.303394E+00 +5.644976E+02 +7.789362E+00 +6.364676E+00 +7.789362E+00 +1.321814E+03 
 +6.294318E+02 -2.376192E+00 +4.220029E+01 -2.376192E+00 +5.950966E+02 -9.878304E+00 +4.220029E+01 -9.878304E+00 +1.388094E+03 
 +6.224079E+02 +4.421721E+00 -3.948697E+00 +4.421721E+00 +5.805095E+02 -2.476899E+01 -3.948697E+00 -2.476899E+01 +1.413684E+03 
 +5.961393E+02 +6.883163E+00 +1.458883E+00 +6.883163E+00 +5.800518E+02 +2.497324E+00 +1.458883E+00 +2.497324E+00 +1.402738E+03 
 +5.946906E+02 -4.338367E+00 +4.125691E+00 -4.338367E+00 +5.835302E+02 +1.173687E+01 +4.125691E+00 +1.173687E+01 +1.348479E+03 
 +5.933813E+02 -1.730858E+01 +1.445429E+01 -1.730858E+01 +6.982635E+02 -2.312539E+00 +1.445429E+01 -2.312539E+00 +1.339481E+03 
 +6.175137E+02 -1.175744E+01 +1.233374E+01 -1.175744E+01 +6.265609E+02 -1.009761E+01 +1.233374E+01 -1.009761E+01 +1.480998E+03 
 +6.782217E+02 +2.091176E+01 +2.335823E+00 +2.091176E+01 +5.605844E+02 +1.568177E+01 +2.335823E+00 +1.568177E+01 +1.319615E+03 
 +6.826543E+02 +4.229672E+01 +1.008189E+01 +4.229672E+01 +6.175715E+02 -1.096470E+01 +1.008189E+01 -1.096470E+01 +1.354620E+03 
 +6.117376E+02 -2.660576E+01 +2.361853E+01 -2.660576E+01 +6.186438E+02 +2.577545E+01 +2.361853E+01 +2.577545E+01 +1.375141E+03 
 +6.044946E+02 -4.345515E+01 -1.280145E+01 -4.345515E+01 +7.080883E+02 +1.210195E+00 -1.280145E+01 +1.210195E+00 +1.338011E+03 
 +6.209612E+02 +4.698441E+00 +2.574598E+01 +4.698441E+00 +5.589795E+02 -3.200368E+01 +2.574598E+01 -3.200368E+01 +1.341855E+03 
 +5.454515E+02 +6.292007E-01 -4.461453E+00 +6.292007E-01 +5.598996E+02 +9.036271E+00 -4.461453E+00 +9.036271E+00 +1.367748E+03 
 +6.333350E+02 +4.413547E+01 -2.283328E+01 +4.413547E+01 +6.306343E+02 -7.529195E+00 -2.283328E+01 -7.529195E+00 +1.311697E+03 
 +6.697580E+02 +2.607538E+01 -2.600917E-01 +2.607538E+01 +5.632786E+02 -2.578825E+01 -2.600917E-01 -2.578825E+01 +1.349733E+03 
 +5.931184E+02 +4.768042E+01 -2.465330E+00 +4.768042E+01 +6.251091E+02 +1.416610E+01 -2.465330E+00 +1.416610E+01 +1.289804E+03 
 +5.879327E+02 -1.720858E+00 +3.416078E+01 -1.720858E+00 +5.895118E+02 +2.254616E+01 +3.416078E+01 +2.254616E+01 +1.408730E+03 
 +6.204435E+02 -3.089063E+01 -5.402211E+00 -3.089063E+01 +5.585695E+02 +1.664018E+01 -5.402211E+00 +1.664018E+01 +1.299608E+03 
 +6.265110E+02 +3.894373E+00 -2.947232E+01 +3.894373E+00 +5.822772E+02 +9.883815E+00 -2.947232E+01 +9.883815E+00 +1.393827E+03 
 +5.952106E+02 -1.716648E+01 -2.276681E+00 -1.716648E+01 +5.803609E+02 +1.856600E+01 -2.276681E+00 +1.856600E+01 +1.345930E+03 
 +5.783370E+02 +8.187717E+00 -1.503278E+01 +8.187717E+00 +6.298475E+02 +1.525262E+01 -1.503278E+01 +1.525262E+01 +1.345244E+03 
 +5.734966E+02 -3.827948E+00 +4.212570E-01 -3.827948E+00 +6.768525E+02 -2.645095E+00 +4.212570E-01 -2.645095E+00 +1.357094E+03 
 +5.926942E+02 +3.316312E+01 +2.235743E+01 +3.316312E+01 +6.949066E+02 -1.111436E+01 +2.235743E+01 -1.111436E+01 +1.316521E+03 
 +5.867147E+02 +2.960182E+00 -4.007621E+01 +2.960182E+00 +5.655737E+02 -2.082765E+01 -4.007621E+01 -2.082765E+01 +1.367889E+03 
 +5.666730E+02 -1.618702E+01 +8.839146E+00 -1.618702E+01 +5.365515E+02 +1.371989E+01 +8.839146E+00 +1.371989E+01 +1.362465E+03 
 +6.935275E+02 -1.677692E+01 -4.274698E+00 -1.677692E+01 +5.871627E+02 +4.971999E-01 -4.274698E+00 +4.971999E-01 +1.346662E+03 
 +5.296556E+02 +7.954938E+00 +1.597047E+01 +7.954938E+00 +5.393933E+02 -4.972671E+01 +1.597047E+01 -4.972671E+01 +1.378475E+03 
 +5.928856E+02 +3.796968E+00 +2.723762E+00 +3.796968E+00 +5.763801E+02 -1.236254E+00 +2.723762E+00 -1.236254E+00 +1.431944E+03 
 +6.703970E+02 -4.103403E+01 -6.268155E+00 -4.103403E+01 +6.312744E+02 +1.771497E+01 -6.268155E+00 +1.771497E+01 +1.378578E+03 
 +5.944213E+02 +2.283799E-01 +1.373796E+01 +2.283799E-01 +5.696703E+02 -2.935905E+01 +1.373796E+01 -2.935905E+01 +1.415360E+03 
 +6.042300E+02 -1.402380E+01 -3.886207E+00 -1.402380E+01 +5.701086E+02 -2.579379E+01 -3.886207E+00 -2.579379E+01 +1.427378E+03 
 +6.599365E+02 +2.212532E+01 -2.875656E+00 +2.212532E+01 +6.460119E+02 +2.633596E+01 -2.875656E+00 +2.633596E+01 +1.423227E+03 
 +6.202684E+02 +3.316332E+01 +4.496665E+00 +3.316332E+01 +6.880878E+02 +4.654692E+00 +4.496665E+00 +4.654692E+00 +1.361598E+03 
 +6.084200E+02 -5.341143E+01 -1.160079E+01 -5.341143E+01 +6.801793E+02 +6.166903E+00 -1.160079E+01 +6.166903E+00 +1.339145E+03 
 +6.246942E+02 -2.245467E+01 +1.616559E-01 -2.245467E+01 +6.001813E+02 -7.251145E+00 +1.616559E-01 -7.251145E+00 +1.463198E+03 
 +5.965466E+02 +1.722108E+00 -4.989889E+00 +1.722108E+00 +5.886342E+02 -2.987609E+01 -4.989889E+00 -2.987609E+01 +1.389277E+03 
 +5.460656E+02 -3.098342E+00 +4.353633E+00 -3.098342E+00 +5.449235E+02 +8.182894E+00 +4.353633E+00 +8.182894E+00 +1.366503E+03 
 +6.166775E+02 -1.121503E+01 +1.934159E+01 -1.121503E+01 +5.758350E+02 +1.861056E+01 +1.934159E+01 +1.861056E+01 +1.406611E+03 
 +6.250305E+02 +5.682362E+01 -8.597548E+00 +5.682362E+01 +6.310248E+02 -9.286938E+00 -8.597548E+00 -9.286938E+00 +1.326970E+03 
 +5.515836E+02 -9.948298E+00 -7.046203E+00 -9.948298E+00 +6.422394E+02 +6.246450E-01 -7.046203E+00 +6.246450E-01 +1.324985E+03 
 +7.192499E+02 -4.461254E+01 -1.707599E+01 -4.461254E+01 +5.690702E+02 +2.402189E+00 -1.707599E+01 +2.402189E+00 +1.354998E+03 
 +6.642538E+02 -4.206688E+01 +1.372545E+01 -4.206688E+01 +5.685201E+02 +5.807120E-01 +1.372545E+01 +5.807120E-01 +1.310782E+03 
 +5.682458E+02 -1.060834E+01 +3.434885E+00 -1.060834E+01 +5.676083E+02 +2.824607E+01 +3.434885E+00 +2.824607E+01 +1.405857E+03 
 +5.902484E+02 +2.718513E+01 -1.022751E+01 +2.718513E+01 +5.621240E+02 -2.824470E+00 -1.022751E+01 -2.824470E+00 +1.325210E+03 
 +6.823607E+02 +2.966882E+01 +7.373283E+00 +2.966882E+01 +6.106949E+02 +1.645787E+01 +7.373283E+00 +1.645787E+01 +1.337306E+03 
 +6.051559E+02 +1.581629E+01 +1.949138E+01 +1.581629E+01 +5.927653E+02 -7.425617E+00 +1.949138E+01 -7.425617E+00 +1.384769E+03 
 +6.047725E+02 -1.480998E+01 -2.756084E+01 -1.480998E+01 +6.237508E+02 -2.128601E+01 -2.756084E+01 -2.128601E+01 +1.399202E+03 
 +5.542137E+02 +1.623560E+01 -3.514947E+01 +1.623560E+01 +5.861260E+02 +2.353771E+01 -3.514947E+01 +2.353771E+01 +1.407974E+03 
 +6.557334E+02 +2.451865E+01 +8.650693E+00 +2.451865E+01 +5.259467E+02 +3.727630E+00 +8.650693E+00 +3.727630E+00 +1.320478E+03 
 +5.818904E+02 +5.935780E+00 +1.443758E+01 +5.935780E+00 +5.501586E+02 +1.971021E+01 +1.443758E+01 +1.971021E+01 +1.415446E+03 
 +5.842483E+02 -2.273806E+00 -1.166099E+01 -2.273806E+00 +5.524072E+02 -2.976477E+00 -1.166099E+01 -2.976477E+00 +1.465892E+03 
 +6.545435E+02 +2.646645E+01 -3.115481E+01 +2.646645E+01 +6.130988E+02 +1.601376E+01 -3.115481E+01 +1.601376E+01 +1.355563E+03 
 +6.095082E+02 +4.646755E+00 +4.625918E+00 +4.646755E+00 +6.164105E+02 +1.617751E+01 +4.625918E+00 +1.617751E+01 +1.422648E+03 
 +6.701134E+02 +5.388532E+00 -2.053377E+00 +5.388532E+00 +6.296069E+02 +2.093443E+01 -2.053377E+00 +2.093443E+01 +1.407556E+03 
 +6.144709E+02 -1.335232E+01 +1.925976E+01 -1.335232E+01 +5.721291E+02 +2.026147E+01 +1.925976E+01 +2.026147E+01 +1.396679E+03 
 +6.105745E+02 -1.335401E+01 +2.477728E+01 -1.335401E+01 +6.043455E+02 +2.199901E+01 +2.477728E+01 +2.199901E+01 +1.360176E+03 
 +6.154474E+02 -9.116698E+00 +5.725868E+00 -9.116698E+00 +6.063200E+02 +3.179803E+01 +5.725868E+00 +3.179803E+01 +1.390573E+03 
 +6.933926E+02 -3.837385E+01 +6.959105E-01 -3.837385E+01 +6.843129E+02 -9.334548E+00 +6.959105E-01 -9.334548E+00 +1.379611E+03 
 +6.329812E+02 +3.619299E+01 +1.243936E+01 +3.619299E+01 +6.951169E+02 -1.092858E+01 +1.243936E+01 -1.092858E+01 +1.319812E+03 
 +6.693374E+02 +1.060427E+00 +1.518348E+01 +1.060427E+00 +6.313198E+02 +2.880666E+01 +1.518348E+01 +2.880666E+01 +1.390877E+03 
 +6.491605E+02 +3.051463E+01 +1.170562E+01 +3.051463E+01 +6.914018E+02 +1.532674E+00 +1.170562E+01 +1.532674E+00 +1.351265E+03 
 +5.569640E+02 +2.648454E+01 -4.239481E-01 +2.648454E+01 +5.984714E+02 +9.935132E+00 -4.239481E-01 +9.935132E+00 +1.419106E+03 
 +4.962305E+02 -3.587104E+01 +1.113646E+00 -3.587104E+01 +5.778900E+02 -9.205955E+00 +1.113646E+00 -9.205955E+00 +1.264120E+03 
 +6.830159E+02 +2.275658E+00 -3.148935E+01 +2.275658E+00 +6.177345E+02 -1.418133E+01 -3.148935E+01 -1.418133E+01 +1.454264E+03 
 +5.883370E+02 +6.626509E+00 +1.412429E+01 +6.626509E+00 +6.021946E+02 +6.192956E+00 +1.412429E+01 +6.192956E+00 +1.346826E+03 
 +5.629141E+02 -1.090452E+01 +1.479148E+01 -1.090452E+01 +6.547328E+02 +1.754181E+01 +1.479148E+01 +1.754181E+01 +1.262837E+03 
 +5.683484E+02 -6.623143E+00 +2.088268E+01 -6.623143E+00 +5.891964E+02 +6.300152E+00 +2.088268E+01 +6.300152E+00 +1.396789E+03 
 +6.512161E+02 -1.143573E+01 +1.273060E+01 -1.143573E+01 +5.736245E+02 -1.183810E+01 +1.273060E+01 -1.183810E+01 +1.308857E+03 
 +5.786412E+02 +4.935532E+00 -1.825071E+01 +4.935532E+00 +5.850294E+02 +1.436961E+01 -1.825071E+01 +1.436961E+01 +1.393130E+03 
 +6.402590E+02 -4.055976E+01 +1.646444E+00 -4.055976E+01 +6.700032E+02 -4.772911E+00 +1.646444E+00 -4.772911E+00 +1.337330E+03 
 +6.233672E+02 -2.075438E+01 +2.563093E+01 -2.075438E+01 +7.028757E+02 -6.104991E+00 +2.563093E+01 -6.104991E+00 +1.375044E+03 
 +6.167354E+02 +6.459690E+00 -1.530413E+01 +6.459690E+00 +6.521646E+02 +1.516141E+00 -1.530413E+01 +1.516141E+00 +1.476223E+03 
 +5.859523E+02 -9.318532E+00 +1.702615E+01 -9.318532E+00 +6.385873E+02 +5.038057E+00 +1.702615E+01 +5.038057E+00 +1.286884E+03 
 +6.256319E+02 -1.890826E+01 -6.088872E+00 -1.890826E+01 +6.170408E+02 -1.415908E+01 -6.088872E+00 -1.415908E+01 +1.378663E+03 
 +5.715083E+02 +6.986531E+00 +2.447198E+00 +6.986531E+00 +5.539066E+02 -2.256995E+00 +2.447198E+00 -2.256995E+00 +1.396270E+03 
 +6.092175E+02 +1.170191E+01 +3.671758E+01 +1.170191E+01 +6.158291E+02 -2.981916E+01 +3.671758E+01 -2.981916E+01 +1.421756E+03 
 +5.980691E+02 +3.551450E+01 -8.054964E+00 +3.551450E+01 +6.371668E+02 +5.045638E+00 -8.054964E+00 +5.045638E+00 +1.294824E+03 
 +5.203319E+02 -7.348470E+00 +9.131305E+00 -7.348470E+00 +5.659655E+02 +2.238827E+00 +9.131305E+00 +2.238827E+00 +1.423930E+03 
 +5.834458E+02 +2.242762E+01 +1.351285E+01 +2.242762E+01 +5.696143E+02 -7.769410E+00 +1.351285E+01 -7.769410E+00 +1.428379E+03 
 +6.814841E+02 -1.581879E+00 +4.569905E+00 -1.581879E+00 +5.424480E+02 +6.185044E+00 +4.569905E+00 +6.185044E+00 +1.265632E+03 
 +5.888771E+02 -2.269665E+01 +3.471264E+00 -2.269665E+01 +6.229925E+02 +6.845744E-01 +3.471264E+00 +6.845744E-01 +1.363121E+03 
 +6.180671E+02 -2.443714E+01 -1.303150E+01 -2.443714E+01 +5.946438E+02 -1.470215E+00 -1.303150E+01 -1.470215E+00 +1.354899E+03 
 +6.706361E+02 -9.343872E+00 -1.374325E+00 -9.343872E+00 +5.851068E+02 +1.879827E+00 -1.374325E+00 +1.879827E+00 +1.390269E+03 
 +7.083804E+02 -5.547754E+00 -1.175715E+00 -5.547754E+00 +6.289880E+02 +1.156777E+01 -1.175715E+00 +1.156777E+01 +1.372585E+03 
 +6.365496E+02 -4.656197E+01 -1.205956E+01 -4.656197E+01 +6.650566E+02 -2.353045E+01 -1.205956E+01 -2.353045E+01 +1.362610E+03 
 +5.821646E+02 -2.296479E+01 -1.236025E+01 -2.296479E+01 +7.406326E+02 -6.898257E+00 -1.236025E+01 -6.898257E+00 +1.347610E+03 
 +6.553753E+02 -2.110044E+00 +2.724146E+01 -2.110044E+00 +6.870839E+02 +2.277881E+00 +2.724146E+01 +2.277881E+00 +1.308851E+03 
 +6.402131E+02 +6.937317E-01 +1.091566E+01 +6.937317E-01 +6.146013E+02 +2.393388E+01 +1.091566E+01 +2.393388E+01 +1.388140E+03 
 +6.561550E+02 +6.091203E-02 +1.965927E+01 +6.091203E-02 +6.677066E+02 +1.397706E+01 +1.965927E+01 +1.397706E+01 +1.337490E+03 
 +5.866351E+02 +2.505508E+01 -1.200363E+01 +2.505508E+01 +6.868161E+02 -2.561064E+01 -1.200363E+01 -2.561064E+01 +1.324869E+03 
 +6.129643E+02 +2.089484E+01 -6.122648E+00 +2.089484E+01 +5.540020E+02 -2.906413E+01 -6.122648E+00 -2.906413E+01 +1.399185E+03 
 +6.182934E+02 +2.839783E+00 -7.513566E+00 +2.839783E+00 +5.480265E+02 -1.814532E+01 -7.513566E+00 -1.814532E+01 +1.381356E+03 
 +5.711893E+02 +1.098805E+01 -1.226821E+01 +1.098805E+01 +5.876107E+02 +4.411593E+00 -1.226821E+01 +4.411593E+00 +1.405069E+03 
 +6.336097E+02 -2.464433E+01 +2.659471E+01 -2.464433E+01 +6.384054E+02 +6.801199E+00 +2.659471E+01 +6.801199E+00 +1.304854E+03 
 +6.110576E+02 -9.287441E+00 +2.722442E+00 -9.287441E+00 +6.415862E+02 +1.004289E+01 +2.722442E+00 +1.004289E+01 +1.410899E+03 
 +6.461300E+02 +2.393722E+01 -1.756700E+01 +2.393722E+01 +6.460333E+02 -3.855829E+01 -1.756700E+01 -3.855829E+01 +1.389754E+03 
 +5.943063E+02 -2.054258E+01 +8.553591E+00 -2.054258E+01 +5.667631E+02 +1.913129E+01 +8.553591E+00 +1.913129E+01 +1.394907E+03 
 +6.144725E+02 -3.820998E+00 -4.215333E+01 -3.820998E+00 +5.609570E+02 +1.195771E+01 -4.215333E+01 +1.195771E+01 +1.398580E+03 
 +6.542927E+02 -1.063273E+01 +2.330962E+01 -1.063273E+01 +5.863731E+02 -1.166038E+01 +2.330962E+01 -1.166038E+01 +1.386138E+03 
 +6.162944E+02 -1.162481E+01 +7.718428E+00 -1.162481E+01 +6.182595E+02 +2.334234E+01 +7.718428E+00 +2.334234E+01 +1.440801E+03 
 +5.733442E+02 +2.949966E+01 -1.035354E+01 +2.949966E+01 +6.211127E+02 -7.094940E+00 -1.035354E+01 -7.094940E+00 +1.280295E+03 
 +7.725554E+02 +2.479462E+01 +1.045494E+01 +2.479462E+01 +6.207759E+02 -1.931868E+01 +1.045494E+01 -1.931868E+01 +1.390214E+03 
 +6.055584E+02 -2.432784E+01 -5.230515E+00 -2.432784E+01 +7.089108E+02 -3.374860E+01 -5.230515E+00 -3.374860E+01 +1.337505E+03 
 +5.732283E+02 -5.509173E+00 -2.191931E+01 -5.509173E+00 +7.166117E+02 +4.556047E+00 -2.191931E+01 +4.556047E+00 +1.329001E+03 
 +5.880024E+02 -1.043672E+01 -1.093224E+01 -1.043672E+01 +6.291403E+02 -7.816357E-01 -1.093224E+01 -7.816357E-01 +1.404220E+03 
 +6.052379E+02 +2.047863E+01 -1.497979E+01 +2.047863E+01 +5.848309E+02 -6.413439E+00 -1.497979E+01 -6.413439E+00 +1.350139E+03 
 +6.840400E+02 -1.430381E+01 -9.992664E+00 -1.430381E+01 +5.145658E+02 +3.194526E+00 -9.992664E+00 +3.194526E+00 +1.314900E+03 
 +6.513777E+02 -2.094161E+01 -1.233210E+01 -2.094161E+01 +5.633044E+02 -1.656454E+01 -1.233210E+01 -1.656454E+01 +1.349432E+03 
 +5.461099E+02 -1.865079E+01 +7.324838E+00 -1.865079E+01 +7.081305E+02 +4.224331E+00 +7.324838E+00 +4.224331E+00 +1.301163E+03 
 +6.075652E+02 -2.197016E+00 +1.103924E+01 -2.197016E+00 +6.099680E+02 +1.402167E+01 +1.103924E+01 +1.402167E+01 +1.446921E+03 
 +5.296865E+02 +1.970868E+00 -1.268909E+00 +1.970868E+00 +5.018510E+02 -1.140218E+01 -1.268909E+00 -1.140218E+01 +1.377174E+03 
 +5.938621E+02 -9.752568E+00 +1.054917E+01 -9.752568E+00 +5.666885E+02 -1.382773E+01 +1.054917E+01 -1.382773E+01 +1.401020E+03 
 +5.793897E+02 -1.840867E+01 +4.880738E+00 -1.840867E+01 +5.814061E+02 +3.698166E+00 +4.880738E+00 +3.698166E+00 +1.374423E+03 
 +6.995449E+02 -1.855652E+01 +1.408637E+00 -1.855652E+01 +5.708831E+02 +1.257982E+01 +1.408637E+00 +1.257982E+01 +1.342789E+03 
 +6.610190E+02 +2.032962E+01 -7.014826E+00 +2.032962E+01 +5.839609E+02 +3.110907E+00 -7.014826E+00 +3.110907E+00 +1.270071E+03 
 +5.489912E+02 -4.855828E-01 -2.650605E+00 -4.855828E-01 +6.088168E+02 -1.841544E+01 -2.650605E+00 -1.841544E+01 +1.417671E+03 
 +5.764724E+02 -1.459214E+01 +4.738983E+00 -1.459214E+01 +5.897087E+02 +2.773704E+00 +4.738983E+00 +2.773704E+00 +1.371626E+03 
 +5.914835E+02 +9.470185E+00 +1.547626E+01 +9.470185E+00 +6.132936E+02 +1.278224E+01 +1.547626E+01 +1.278224E+01 +1.336478E+03 
 +5.979175E+02 +1.640834E+00 -3.118879E+01 +1.640834E+00 +5.949569E+02 +1.377106E+01 -3.118879E+01 +1.377106E+01 +1.428289E+03 
 +6.222952E+02 +1.202818E+01 +1.013192E+01 +1.202818E+01 +6.185027E+02 -1.404349E+01 +1.013192E+01 -1.404349E+01 +1.308644E+03 
 +5.768465E+02 -1.650916E+01 +2.962383E+01 -1.650916E+01 +6.504052E+02 -1.620514E-01 +2.962383E+01 -1.620514E-01 +1.380525E+03 
 +5.353474E+02 -1.303805E+01 -2.437440E+01 -1.303805E+01 +5.525270E+02 -7.744998E-01 -2.437440E+01 -7.744998E-01 +1.311041E+03 
 +5.404236E+02 -1.433750E+00 -7.489383E+00 -1.433750E+00 +5.423589E+02 +5.978869E+00 -7.489383E+00 +5.978869E+00 +1.341256E+03 
 +5.609656E+02 -5.874144E-01 -1.317139E+01 -5.874144E-01 +5.559222E+02 +9.879220E+00 -1.317139E+01 +9.879220E+00 +1.363993E+03 
 +6.238324E+02 +5.906377E+00 -9.234007E+00 +5.906377E+00 +5.831393E+02 -1.572535E+01 -9.234007E+00 -1.572535E+01 +1.324798E+03 
 +5.816235E+02 -2.703714E+00 -1.087319E+00 -2.703714E+00 +6.076970E+02 -1.286315E+01 -1.087319E+00 -1.286315E+01 +1.438057E+03 
 +5.940720E+02 -3.177542E+01 -2.569789E+01 -3.177542E+01 +5.869843E+02 -8.544845E+00 -2.569789E+01 -8.544845E+00 +1.308638E+03 
 +5.657438E+02 -4.212014E+01 -6.427915E+00 -4.212014E+01 +6.640779E+02 +2.206806E+00 -6.427915E+00 +2.206806E+00 +1.281161E+03 
 +6.554647E+02 +2.440143E+01 -9.237130E+00 +2.440143E+01 +6.055461E+02 +8.632384E+00 -9.237130E+00 +8.632384E+00 +1.298592E+03 
 +5.705653E+02 +4.141846E+01 -1.155194E+01 +4.141846E+01 +5.606013E+02 +4.878930E+00 -1.155194E+01 +4.878930E+00 +1.282049E+03 
 +7.293284E+02 -4.833456E+00 +2.466346E+00 -4.833456E+00 +6.635622E+02 +7.010462E+00 +2.466346E+00 +7.010462E+00 +1.398512E+03 
 +6.029603E+02 -6.510914E+00 +8.129053E+00 -6.510914E+00 +7.112578E+02 +1.363535E+01 +8.129053E+00 +1.363535E+01 +1.377051E+03 
 +7.198264E+02 +1.409463E+01 -5.703997E+00 +1.409463E+01 +6.186138E+02 +5.821708E+00 -5.703997E+00 +5.821708E+00 +1.369764E+03 
 +6.319305E+02 +1.592632E+01 +1.195469E+01 +1.592632E+01 +6.148759E+02 +5.092807E+00 +1.195469E+01 +5.092807E+00 +1.357337E+03 
 +5.350565E+02 +3.244724E+01 +3.071445E+01 +3.244724E+01 +6.639764E+02 -6.851367E+00 +3.071445E+01 -6.851367E+00 +1.259087E+03 
 +6.127573E+02 +1.878743E+01 -5.705251E-01 +1.878743E+01 +6.198508E+02 +2.751380E+01 -5.705251E-01 +2.751380E+01 +1.360650E+03 
 +6.001832E+02 +3.779263E+01 +1.548288E+01 +3.779263E+01 +6.692243E+02 +1.458739E+01 +1.548288E+01 +1.458739E+01 +1.352360E+03 
 +6.887255E+02 +1.896420E+01 -1.201614E+01 +1.896420E+01 +6.511722E+02 +1.584009E+01 -1.201614E+01 +1.584009E+01 +1.354187E+03 
 +6.294240E+02 +2.909616E+01 +6.226643E+00 +2.909616E+01 +6.513105E+02 -2.137130E+01 +6.226643E+00 -2.137130E+01 +1.392271E+03 
 +5.814899E+02 -9.040541E+00 +3.953304E+01 -9.040541E+00 +6.186393E+02 +3.936158E+00 +3.953304E+01 +3.936158E+00 +1.348549E+03 
 +6.182778E+02 +1.050574E+01 -9.628664E+00 +1.050574E+01 +6.030114E+02 -1.361013E+01 -9.628664E+00 -1.361013E+01 +1.371919E+03 
 +6.098628E+02 +1.076844E+01 +3.455459E+01 +1.076844E+01 +5.853502E+02 +2.008970E+01 +3.455459E+01 +2.008970E+01 +1.400050E+03 
 +5.670494E+02 -3.792806E+00 -1.906341E+01 -3.792806E+00 +5.681705E+02 -5.069548E+00 -1.906341E+01 -5.069548E+00 +1.413573E+03 
 +6.666796E+02 -8.111387E+00 -1.445853E+01 -8.111387E+00 +6.222446E+02 -1.685938E+01 -1.445853E+01 -1.685938E+01 +1.314353E+03 
 +6.150701E+02 -8.318890E+00 +1.121836E+00 -8.318890E+00 +6.363934E+02 +3.680696E+01 +1.121836E+00 +3.680696E+01 +1.377463E+03 
 +6.370573E+02 +3.660131E+01 -6.522744E+00 +3.660131E+01 +5.754825E+02 +1.843317E+01 -6.522744E+00 +1.843317E+01 +1.287278E+03 
 +6.247952E+02 -3.895943E+01 -2.639180E+00 -3.895943E+01 +6.307102E+02 +5.655756E+00 -2.639180E+00 +5.655756E+00 +1.361660E+03 
 +6.068293E+02 +1.888574E+01 -3.152852E+01 +1.888574E+01 +7.433220E+02 -1.199012E+01 -3.152852E+01 -1.199012E+01 +1.360786E+03 
 +6.589055E+02 -7.872978E+00 -1.086885E+00 -7.872978E+00 +6.288959E+02 +2.543251E+00 -1.086885E+00 +2.543251E+00 +1.303613E+03 
 +6.272640E+02 -7.735891E+00 -7.961259E+00 -7.735891E+00 +6.006338E+02 -3.733230E+01 -7.961259E+00 -3.733230E+01 +1.381375E+03 
 +6.429679E+02 +4.323800E+01 -6.284237E+00 +4.323800E+01 +5.858214E+02 +7.694516E-01 -6.284237E+00 +7.694516E-01 +1.319193E+03 
 +5.985043E+02 -8.810143E+00 +6.261986E+00 -8.810143E+00 +6.021578E+02 +1.294444E+00 +6.261986E+00 +1.294444E+00 +1.299764E+03 
 +6.734234E+02 -1.812798E+01 +1.251767E+01 -1.812798E+01 +5.930107E+02 +9.233037E-01 +1.251767E+01 +9.233037E-01 +1.344832E+03 
 +6.273153E+02 +3.289104E+00 -7.318656E+00 +3.289104E+00 +5.295576E+02 -3.559048E+00 -7.318656E+00 -3.559048E+00 +1.326714E+03 
 +5.854934E+02 -2.721648E+01 +2.408743E+01 -2.721648E+01 +5.354003E+02 -2.089644E+01 +2.408743E+01 -2.089644E+01 +1.396064E+03 
 +5.641415E+02 +1.564067E+01 +1.843454E+01 +1.564067E+01 +5.568036E+02 +3.274301E+01 +1.843454E+01 +3.274301E+01 +1.405167E+03 
 +6.553892E+02 -2.367809E+01 -6.256030E+00 -2.367809E+01 +5.924219E+02 -1.751118E+01 -6.256030E+00 -1.751118E+01 +1.277765E+03 
 +5.489642E+02 +2.218617E+00 +5.445490E+00 +2.218617E+00 +5.896095E+02 +8.716431E+00 +5.445490E+00 +8.716431E+00 +1.352625E+03 
 +5.909914E+02 -1.579624E+01 +1.507752E+01 -1.579624E+01 +5.717657E+02 -2.562261E+01 +1.507752E+01 -2.562261E+01 +1.343992E+03 
 +5.400443E+02 -7.078437E+00 +1.671823E+01 -7.078437E+00 +5.246729E+02 -1.859104E+00 +1.671823E+01 -1.859104E+00 +1.393077E+03 
 +6.480710E+02 +1.620359E+01 -1.007010E+01 +1.620359E+01 +5.536364E+02 +2.111344E+00 -1.007010E+01 +2.111344E+00 +1.336017E+03 
 +6.180184E+02 -5.257330E+01 +1.090813E+01 -5.257330E+01 +6.086101E+02 +8.849018E+00 +1.090813E+01 +8.849018E+00 +1.344483E+03 
 +6.452193E+02 +3.456050E+01 +1.276592E+01 +3.456050E+01 +6.797440E+02 -1.001367E+01 +1.276592E+01 -1.001367E+01 +1.360607E+03 
 +6.630192E+02 +4.078312E+01 +2.916380E+00 +4.078312E+01 +7.435145E+02 -2.874981E+00 +2.916380E+00 -2.874981E+00 +1.379092E+03 
 +6.070344E+02 +1.601477E+00 -1.476529E+01 +1.601477E+00 +6.950171E+02 -8.323680E+00 -1.476529E+01 -8.323680E+00 +1.279053E+03 
 +6.064666E+02 -1.462379E+01 -3.182130E+00 -1.462379E+01 +5.805595E+02 -1.305034E+01 -3.182130E+00 -1.305034E+01 +1.304257E+03 
 +5.950425E+02 +1.068741E+01 +1.469201E+01 +1.068741E+01 +5.883131E+02 +2.513910E+01 +1.469201E+01 +2.513910E+01 +1.346166E+03 
 +5.736244E+02 +2.716885E+01 -1.066959E+01 +2.716885E+01 +6.120980E+02 -3.492590E+01 -1.066959E+01 -3.492590E+01 +1.388893E+03 
 +5.389764E+02 -1.597866E+01 +4.380473E+01 -1.597866E+01 +5.462590E+02 +1.179852E+01 +4.380473E+01 +1.179852E+01 +1.317168E+03 
 +6.210096E+02 -1.954962E+01 -3.023129E+01 -1.954962E+01 +5.950211E+02 +3.712550E+00 -3.023129E+01 +3.712550E+00 +1.338587E+03 
 +6.565338E+02 -8.759675E+00 +2.887474E+00 -8.759675E+00 +5.421044E+02 -1.023072E+01 +2.887474E+00 -1.023072E+01 +1.299829E+03 
 +4.865653E+02 -2.675866E+01 +1.127626E+01 -2.675866E+01 +5.069598E+02 -4.331198E+00 +1.127626E+01 -4.331198E+00 +1.384288E+03 
 +6.393715E+02 -2.299817E+01 -9.772919E+00 -2.299817E+01 +6.193217E+02 -6.690215E-01 -9.772919E+00 -6.690215E-01 +1.268189E+03 
 +6.141368E+02 +9.414484E+00 -3.719183E+01 +9.414484E+00 +6.062527E+02 +1.206698E+01 -3.719183E+01 +1.206698E+01 +1.359192E+03 
 +5.822175E+02 -3.320738E+01 +4.254079E+00 -3.320738E+01 +5.815525E+02 +1.862761E+01 +4.254079E+00 +1.862761E+01 +1.325340E+03 
 +5.987817E+02 -7.438804E+00 -1.026255E+01 -7.438804E+00 +5.824313E+02 +4.112374E+01 -1.026255E+01 +4.112374E+01 +1.320793E+03 
 +5.820450E+02 -7.180521E+00 -2.744655E+01 -7.180521E+00 +5.934491E+02 -1.078312E+01 -2.744655E+01 -1.078312E+01 +1.387480E+03 
 +6.262750E+02 +3.182789E+01 -5.703312E-01 +3.182789E+01 +6.193286E+02 -7.778419E+00 -5.703312E-01 -7.778419E+00 +1.266875E+03 
 +5.604872E+02 +1.608751E+01 +2.890339E+01 +1.608751E+01 +6.413845E+02 -1.337334E+01 +2.890339E+01 -1.337334E+01 +1.300911E+03 
 +6.153964E+02 +1.182689E+01 +7.954245E+00 +1.182689E+01 +6.341901E+02 -2.220710E+00 +7.954245E+00 -2.220710E+00 +1.423234E+03 
 +6.346376E+02 +4.991403E+01 -6.935610E+00 +4.991403E+01 +6.254405E+02 +5.904171E+00 -6.935610E+00 +5.904171E+00 +1.323156E+03 
 +6.803048E+02 -4.030397E+01 -9.269530E+00 -4.030397E+01 +6.056233E+02 +8.348926E+00 -9.269530E+00 +8.348926E+00 +1.337900E+03 
 +5.676086E+02 +2.380170E+01 -2.077665E+01 +2.380170E+01 +5.942556E+02 -1.264903E+01 -2.077665E+01 -1.264903E+01 +1.401917E+03 
 +5.522484E+02 +1.962564E+01 -1.606381E+01 +1.962564E+01 +5.793962E+02 +1.382117E+01 -1.606381E+01 +1.382117E+01 +1.330786E+03 
 +5.811633E+02 -1.234669E+01 +2.354712E+01 -1.234669E+01 +5.717347E+02 +1.657358E+01 +2.354712E+01 +1.657358E+01 +1.342684E+03 
 +6.011402E+02 +3.712029E+00 -2.383535E+01 +3.712029E+00 +6.566802E+02 +5.421638E+00 -2.383535E+01 +5.421638E+00 +1.343247E+03 
 +6.126027E+02 -4.295122E+01 +1.970094E+01 -4.295122E+01 +6.152699E+02 +5.466859E+00 +1.970094E+01 +5.466859E+00 +1.308371E+03 
 +5.881732E+02 -9.240296E-01 -1.337020E+01 -9.240296E-01 +5.927543E+02 -2.517133E+01 -1.337020E+01 -2.517133E+01 +1.351542E+03 
 +6.152559E+02 +1.584391E+01 +8.798678E+00 +1.584391E+01 +6.012362E+02 +1.038951E+01 +8.798678E+00 +1.038951E+01 +1.414309E+03 
 +7.254620E+02 +2.494181E+01 +2.180186E+01 +2.494181E+01 +6.464553E+02 -9.120680E+00 +2.180186E+01 -9.120680E+00 +1.363116E+03 
 +5.424723E+02 +5.464391E+00 +1.008755E+01 +5.464391E+00 +5.796312E+02 +5.914273E+00 +1.008755E+01 +5.914273E+00 +1.356071E+03 
 +6.493693E+02 -2.741392E+00 -2.419395E+01 -2.741392E+00 +6.103884E+02 +3.082237E+00 -2.419395E+01 +3.082237E+00 +1.375090E+03 
 +6.729071E+02 +2.906091E+01 +1.645759E+01 +2.906091E+01 +6.431247E+02 +7.859624E+00 +1.645759E+01 +7.859624E+00 +1.403350E+03 
 +6.541533E+02 +4.578896E+01 +7.772531E+00 +4.578896E+01 +6.261887E+02 +6.412914E+00 +7.772531E+00 +6.412914E+00 +1.321376E+03 
 +5.820760E+02 +3.838350E+00 +3.692119E+01 +3.838350E+00 +6.095592E+02 +1.133125E+01 +3.692119E+01 +1.133125E+01 +1.304405E+03 
 +5.735887E+02 -1.796748E+01 -1.312377E+01 -1.796748E+01 +6.119324E+02 +1.170739E-01 -1.312377E+01 +1.170739E-01 +1.392978E+03 
 +5.626873E+02 +1.801333E+01 -1.555240E+01 +1.801333E+01 +6.828472E+02 -1.067384E+01 -1.555240E+01 -1.067384E+01 +1.317754E+03 
 +6.060503E+02 -2.359331E+01 +1.025952E+01 -2.359331E+01 +6.757222E+02 -9.376174E-01 +1.025952E+01 -9.376174E-01 +1.364079E+03 
 +6.039863E+02 +9.929381E+00 -2.448121E+01 +9.929381E+00 +6.157368E+02 +1.718466E+01 -2.448121E+01 +1.718466E+01 +1.307374E+03 
 +6.588482E+02 -1.863802E+01 -6.179624E+00 -1.863802E+01 +5.221633E+02 +1.448070E+01 -6.179624E+00 +1.448070E+01 +1.291311E+03 
 +6.085563E+02 +1.383904E+00 +4.729390E+00 +1.383904E+00 +5.959955E+02 -1.243489E+01 +4.729390E+00 -1.243489E+01 +1.472059E+03 
 +6.309237E+02 -2.282888E+01 +9.520472E-01 -2.282888E+01 +5.928820E+02 +7.126969E+00 +9.520472E-01 +7.126969E+00 +1.287635E+03 
 +5.836069E+02 +2.202432E+00 -2.268080E-01 +2.202432E+00 +6.306179E+02 +3.695903E+00 -2.268080E-01 +3.695903E+00 +1.407227E+03 
 +6.583763E+02 -4.635762E+01 -2.704613E+01 -4.635762E+01 +6.552343E+02 +1.038324E+01 -2.704613E+01 +1.038324E+01 +1.329007E+03 
 +6.525353E+02 -3.069772E+01 +5.367479E+00 -3.069772E+01 +6.582839E+02 -1.948475E+00 +5.367479E+00 -1.948475E+00 +1.339001E+03 
 +6.374619E+02 +3.918562E+01 +1.652112E+01 +3.918562E+01 +6.344625E+02 -2.487801E+01 +1.652112E+01 -2.487801E+01 +1.340932E+03 
 +5.685149E+02 -3.361561E+00 -4.033533E+00 -3.361561E+00 +5.550197E+02 +5.658661E+00 -4.033533E+00 +5.658661E+00 +1.427368E+03 
 +5.978199E+02 +1.359669E+01 +1.987213E+01 +1.359669E+01 +5.637538E+02 -2.211064E+01 +1.987213E+01 -2.211064E+01 +1.363084E+03 
 +5.978517E+02 +3.275209E+01 -3.132747E+01 +3.275209E+01 +5.869406E+02 +8.895054E+00 -3.132747E+01 +8.895054E+00 +1.372458E+03 
 +5.972529E+02 +1.654666E+01 +9.528991E+00 +1.654666E+01 +5.984139E+02 +4.260111E+00 +9.528991E+00 +4.260111E+00 +1.380654E+03 
 +5.780811E+02 -2.472900E+01 -5.670686E+00 -2.472900E+01 +5.451936E+02 +5.619073E+00 -5.670686E+00 +5.619073E+00 +1.366368E+03 
 +5.298866E+02 -1.266420E+00 -5.881162E+00 -1.266420E+00 +5.734722E+02 -7.528839E+00 -5.881162E+00 -7.528839E+00 +1.300404E+03 
 +5.730529E+02 +5.457683E+00 +3.794868E+01 +5.457683E+00 +5.796197E+02 +8.207501E+00 +3.794868E+01 +8.207501E+00 +1.397136E+03 
 +5.800495E+02 +2.487206E+01 -3.862949E+01 +2.487206E+01 +6.071896E+02 -1.179014E+01 -3.862949E+01 -1.179014E+01 +1.346454E+03 
 +5.816965E+02 -1.682282E+01 -5.319294E-01 -1.682282E+01 +7.141306E+02 +7.106548E+00 -5.319294E-01 +7.106548E+00 +1.321800E+03 
 +5.820025E+02 -2.865162E+00 +2.642429E+01 -2.865162E+00 +6.988192E+02 +1.063773E+01 +2.642429E+01 +1.063773E+01 +1.316423E+03 
 +6.418041E+02 +1.316668E+01 +1.385289E+01 +1.316668E+01 +6.400213E+02 -1.407480E+01 +1.385289E+01 -1.407480E+01 +1.391238E+03 
 +5.994519E+02 -1.910975E+01 -5.356417E+01 -1.910975E+01 +5.817682E+02 -2.672649E+01 -5.356417E+01 -2.672649E+01 +1.351546E+03 
 +6.715352E+02 +2.045447E+01 +8.381658E+00 +2.045447E+01 +6.416611E+02 -1.113005E+01 +8.381658E+00 -1.113005E+01 +1.361737E+03 
 +5.108398E+02 +2.066256E+01 +4.393541E+00 +2.066256E+01 +5.229543E+02 +1.180511E+01 +4.393541E+00 +1.180511E+01 +1.425066E+03 
 +6.459780E+02 -1.913784E+01 -2.015522E+01 -1.913784E+01 +6.531537E+02 -2.510470E+01 -2.015522E+01 -2.510470E+01 +1.322511E+03 
 +6.094508E+02 -3.722259E+01 -1.997513E+01 -3.722259E+01 +6.795006E+02 +1.675087E+01 -1.997513E+01 +1.675087E+01 +1.361971E+03 
 +6.397532E+02 -2.780406E+01 +8.473855E+00 -2.780406E+01 +6.696245E+02 +8.104639E+00 +8.473855E+00 +8.104639E+00 +1.301800E+03 
 +5.931733E+02 -4.665925E+00 +3.176288E+01 -4.665925E+00 +6.201876E+02 -7.913561E+00 +3.176288E+01 -7.913561E+00 +1.443282E+03 
 +5.754747E+02 +2.903258E+01 +9.506752E+00 +2.903258E+01 +7.127184E+02 +9.831249E+00 +9.506752E+00 +9.831249E+00 +1.301210E+03 
 +6.654677E+02 -8.493119E+00 -2.881925E+01 -8.493119E+00 +7.048199E+02 -1.306249E+01 -2.881925E+01 -1.306249E+01 +1.412016E+03 
 +5.885178E+02 -4.245896E+01 +1.123816E+01 -4.245896E+01 +6.388835E+02 -8.376454E+00 +1.123816E+01 -8.376454E+00 +1.299641E+03 
 +6.114329E+02 -1.033662E+01 +1.039038E+01 -1.033662E+01 +6.391077E+02 -1.501020E+01 +1.039038E+01 -1.501020E+01 +1.461390E+03 
 +5.686101E+02 +2.117832E+01 -2.091123E+00 +2.117832E+01 +6.618600E+02 -9.577388E-01 -2.091123E+00 -9.577388E-01 +1.296107E+03 
 +6.480896E+02 +1.216180E+00 +1.249382E+01 +1.216180E+00 +6.016545E+02 +3.798186E+00 +1.249382E+01 +3.798186E+00 +1.350863E+03 
 +5.961777E+02 +1.554713E+01 +7.879533E+00 +1.554713E+01 +5.647143E+02 -1.168023E+01 +7.879533E+00 -1.168023E+01 +1.337237E+03 
 +6.796958E+02 -2.961843E+00 -1.304103E+00 -2.961843E+00 +6.147725E+02 +2.647900E+00 -1.304103E+00 +2.647900E+00 +1.321478E+03 
 +6.047485E+02 -2.252804E+01 -1.047137E+01 -2.252804E+01 +5.400914E+02 -4.137892E+00 -1.047137E+01 -4.137892E+00 +1.308298E+03 
 +6.554317E+02 +3.407543E+01 +1.344666E+01 +3.407543E+01 +6.014783E+02 -1.600096E+01 +1.344666E+01 -1.600096E+01 +1.335634E+03 
 +6.521397E+02 +3.389328E+01 +7.932527E+00 +3.389328E+01 +6.421030E+02 +4.433060E+00 +7.932527E+00 +4.433060E+00 +1.338331E+03 
 +6.394152E+02 -4.469925E+01 +2.368834E+00 -4.469925E+01 +5.648661E+02 -6.722640E+00 +2.368834E+00 -6.722640E+00 +1.306925E+03 
 +5.895585E+02 +1.491120E+00 -1.322595E+01 +1.491120E+00 +6.184890E+02 -1.132915E+01 -1.322595E+01 -1.132915E+01 +1.411907E+03 
 +5.567905E+02 +2.783161E+01 +9.712258E+00 +2.783161E+01 +5.653499E+02 +8.031149E+00 +9.712258E+00 +8.031149E+00 +1.391894E+03 
 +5.962479E+02 +9.791199E+00 -4.894408E+00 +9.791199E+00 +5.981342E+02 -4.441488E+00 -4.894408E+00 -4.441488E+00 +1.380279E+03 
 +6.434510E+02 -1.112856E+01 -2.029035E+01 -1.112856E+01 +5.410084E+02 -4.419140E+00 -2.029035E+01 -4.419140E+00 +1.336909E+03 
 +6.506057E+02 -5.299231E+01 -3.934098E+01 -5.299231E+01 +7.089207E+02 -2.889792E+01 -3.934098E+01 -2.889792E+01 +1.403869E+03 
 +5.862466E+02 +4.545143E+01 +1.069298E+01 +4.545143E+01 +6.051307E+02 +4.584580E+00 +1.069298E+01 +4.584580E+00 +1.303937E+03 
 +5.996350E+02 +1.109530E+01 -1.847994E+01 +1.109530E+01 +6.038789E+02 +5.512942E+00 -1.847994E+01 +5.512942E+00 +1.307319E+03 
 +5.625617E+02 -5.908571E+00 -9.515726E+00 -5.908571E+00 +6.256616E+02 -1.225749E+01 -9.515726E+00 -1.225749E+01 +1.349363E+03 
 +7.239679E+02 +1.289235E+01 -8.132240E+00 +1.289235E+01 +6.408227E+02 -3.701101E+00 -8.132240E+00 -3.701101E+00 +1.360261E+03 
 +6.417795E+02 -1.248084E+01 +1.268109E+01 -1.248084E+01 +6.197684E+02 -1.164342E+01 +1.268109E+01 -1.164342E+01 +1.425835E+03 
 +5.642278E+02 -1.267119E+01 +2.427509E+01 -1.267119E+01 +5.275377E+02 +2.041339E+00 +2.427509E+01 +2.041339E+00 +1.371738E+03 
 +6.229872E+02 -7.449043E+00 +2.319491E+01 -7.449043E+00 +6.244998E+02 -2.073094E+01 +2.319491E+01 -2.073094E+01 +1.321749E+03 
 +6.001948E+02 +9.312343E-01 +4.154363E+00 +9.312343E-01 +5.697800E+02 +1.642235E+01 +4.154363E+00 +1.642235E+01 +1.345793E+03 
 +6.804657E+02 -1.819118E+00 +1.131718E+01 -1.819118E+00 +6.279554E+02 -1.991855E+00 +1.131718E+01 -1.991855E+00 +1.354194E+03 
 +5.760765E+02 -3.879168E+00 -1.507674E+01 -3.879168E+00 +6.738523E+02 -1.762578E+01 -1.507674E+01 -1.762578E+01 +1.314807E+03 
 +5.564080E+02 -8.952197E+00 +4.170459E+00 -8.952197E+00 +6.243913E+02 +2.435288E+01 +4.170459E+00 +2.435288E+01 +1.317593E+03 
 +6.296282E+02 -5.656143E+01 +1.058178E+01 -5.656143E+01 +6.006420E+02 +2.382953E+00 +1.058178E+01 +2.382953E+00 +1.307212E+03 
 +6.183857E+02 -3.475641E+01 +2.634828E+00 -3.475641E+01 +5.658515E+02 -7.227269E+00 +2.634828E+00 -7.227269E+00 +1.323378E+03 
 +6.583247E+02 -8.264293E+00 -1.189046E+01 -8.264293E+00 +5.965604E+02 +5.563966E+00 -1.189046E+01 +5.563966E+00 +1.302059E+03 
 +6.076473E+02 +2.182986E+00 +9.234612E+00 +2.182986E+00 +5.410082E+02 +1.262885E+01 +9.234612E+00 +1.262885E+01 +1.283731E+03 
 +5.694335E+02 -1.738496E+01 +7.309935E+00 -1.738496E+01 +5.932498E+02 -5.566538E+00 +7.309935E+00 -5.566538E+00 +1.392139E+03 
 +5.864151E+02 -5.790802E+00 -1.291228E+01 -5.790802E+00 +5.715217E+02 -1.551992E+01 -1.291228E+01 -1.551992E+01 +1.384062E+03 
 +6.480169E+02 +2.949904E+01 -2.369432E+00 +2.949904E+01 +6.170145E+02 -9.694022E+00 -2.369432E+00 -9.694022E+00 +1.454777E+03 
 +6.915237E+02 +2.444285E+01 +3.090184E+01 +2.444285E+01 +6.264536E+02 -1.314618E+01 +3.090184E+01 -1.314618E+01 +1.350971E+03 
 +5.736652E+02 -6.082765E+00 -4.439502E-01 -6.082765E+00 +6.396358E+02 -3.651371E+00 -4.439502E-01 -3.651371E+00 +1.319500E+03 
 +5.213326E+02 +1.025996E+01 -2.160943E+01 +1.025996E+01 +5.434486E+02 +4.010767E+00 -2.160943E+01 +4.010767E+00 +1.354548E+03 
 +6.474274E+02 +9.207032E+00 +4.298519E+00 +9.207032E+00 +5.968728E+02 +1.729759E+01 +4.298519E+00 +1.729759E+01 +1.278671E+03 
 +6.147552E+02 +3.596460E+01 -5.822168E+00 +3.596460E+01 +6.736611E+02 -5.494689E-01 -5.822168E+00 -5.494689E-01 +1.347330E+03 
 +6.217744E+02 +1.996764E+01 +6.906442E+00 +1.996764E+01 +6.476611E+02 +5.556099E+00 +6.906442E+00 +5.556099E+00 +1.285555E+03 
 +5.727789E+02 -6.384262E+00 -5.319611E+00 -6.384262E+00 +6.208615E+02 -1.511666E+01 -5.319611E+00 -1.511666E+01 +1.378065E+03 
 +6.360777E+02 -3.282938E+01 +1.021341E+00 -3.282938E+01 +6.962144E+02 +8.069940E+00 +1.021341E+00 +8.069940E+00 +1.366156E+03 
 +6.376418E+02 -1.977620E+01 -6.588582E+00 -1.977620E+01 +7.163381E+02 +8.678108E+00 -6.588582E+00 +8.678108E+00 +1.393022E+03 
 +6.698898E+02 +5.524215E+01 +1.025645E+01 +5.524215E+01 +6.386127E+02 +1.921630E+01 +1.025645E+01 +1.921630E+01 +1.346938E+03 
 +5.419017E+02 +1.835391E+01 -4.814754E+00 +1.835391E+01 +6.353611E+02 +1.605611E+00 -4.814754E+00 +1.605611E+00 +1.307198E+03 
 +5.469450E+02 +1.279770E+01 +2.462894E+00 +1.279770E+01 +6.056790E+02 -3.291957E+01 +2.462894E+00 -3.291957E+01 +1.405039E+03 
 +5.436949E+02 +1.333832E+00 -6.193106E+00 +1.333832E+00 +5.733908E+02 -2.467609E+01 -6.193106E+00 -2.467609E+01 +1.360747E+03 
 +5.686526E+02 -2.422349E+01 -1.386005E+01 -2.422349E+01 +6.044347E+02 +1.096657E+01 -1.386005E+01 +1.096657E+01 +1.303224E+03 
 +6.352368E+02 +5.194422E+01 +2.702475E-01 +5.194422E+01 +6.469708E+02 +1.081684E+01 +2.702475E-01 +1.081684E+01 +1.330506E+03 
 +6.664045E+02 +1.787251E+00 -7.700322E+00 +1.787251E+00 +6.070411E+02 -3.082637E+00 -7.700322E+00 -3.082637E+00 +1.299335E+03 
 +5.240559E+02 +3.846040E+00 +2.694333E+01 +3.846040E+00 +5.869526E+02 +2.092567E+01 +2.694333E+01 +2.092567E+01 +1.292333E+03 
 +6.059114E+02 -5.092575E+01 +7.518707E+00 -5.092575E+01 +7.048160E+02 +1.541676E+01 +7.518707E+00 +1.541676E+01 +1.322203E+03 
 +6.356731E+02 +2.211597E+00 -9.552414E-01 +2.211597E+00 +7.223802E+02 +5.034818E+00 -9.552414E-01 +5.034818E+00 +1.400753E+03 
 +5.976815E+02 +1.365677E+01 -2.592042E+00 +1.365677E+01 +7.030607E+02 +1.336698E+01 -2.592042E+00 +1.336698E+01 +1.322202E+03 
 +6.266170E+02 +3.173291E+00 -3.972022E+01 +3.173291E+00 +5.924416E+02 +1.223162E+01 -3.972022E+01 +1.223162E+01 +1.458766E+03 
 +5.422385E+02 +3.506234E+01 +1.750544E+01 +3.506234E+01 +5.895096E+02 -9.065832E+00 +1.750544E+01 -9.065832E+00 +1.315555E+03 
 +5.519775E+02 +3.129930E+00 +1.076810E+01 +3.129930E+00 +5.746882E+02 -1.264886E+01 +1.076810E+01 -1.264886E+01 +1.288336E+03 
 +6.610125E+02 -1.111246E+01 +8.786660E-01 -1.111246E+01 +6.858242E+02 -1.153465E+00 +8.786660E-01 -1.153465E+00 +1.366286E+03 
 +6.341191E+02 -1.067905E+01 -6.687397E-01 -1.067905E+01 +6.428218E+02 +9.620208E+00 -6.687397E-01 +9.620208E+00 +1.286453E+03 
 +5.770359E+02 +1.530678E+01 -1.128425E+01 +1.530678E+01 +5.995274E+02 +2.401909E+01 -1.128425E+01 +2.401909E+01 +1.336232E+03 
 +5.875836E+02 +4.105818E+01 +1.837587E+01 +4.105818E+01 +6.071093E+02 -9.924161E+00 +1.837587E+01 -9.924161E+00 +1.260055E+03 
 +6.128978E+02 +1.639618E+01 +1.403571E+01 +1.639618E+01 +6.305568E+02 +2.675966E+01 +1.403571E+01 +2.675966E+01 +1.374505E+03 
 +5.949560E+02 +3.313272E+00 -1.509071E+01 +3.313272E+00 +5.742741E+02 +2.476943E+01 -1.509071E+01 +2.476943E+01 +1.367339E+03 
 +5.756193E+02 +5.633359E+00 -4.266763E+00 +5.633359E+00 +5.354697E+02 +2.751605E+01 -4.266763E+00 +2.751605E+01 +1.378448E+03 
 +5.923195E+02 -1.389338E+01 -1.613413E+01 -1.389338E+01 +5.731367E+02 +4.626936E+01 -1.613413E+01 +4.626936E+01 +1.352906E+03 
 +6.007350E+02 -3.476102E+01 -5.196475E+00 -3.476102E+01 +6.276058E+02 +2.578921E+00 -5.196475E+00 +2.578921E+00 +1.325609E+03 
 +6.473185E+02 -2.001410E+00 -1.928568E+01 -2.001410E+00 +6.307021E+02 -3.382752E+01 -1.928568E+01 -3.382752E+01 +1.432456E+03 
 +6.731528E+02 +1.844018E+01 -4.490155E+00 +1.844018E+01 +5.792078E+02 +3.831245E-01 -4.490155E+00 +3.831245E-01 +1.296469E+03 
 +6.656361E+02 -1.904791E+00 +1.076443E+00 -1.904791E+00 +5.285220E+02 +1.621267E+01 +1.076443E+00 +1.621267E+01 +1.332539E+03 
 +5.880739E+02 -2.611131E+00 -2.928821E+01 -2.611131E+00 +5.630056E+02 -1.619211E+00 -2.928821E+01 -1.619211E+00 +1.372729E+03 
 +6.609127E+02 +3.395289E+00 -1.014480E+00 +3.395289E+00 +6.479108E+02 +1.446733E+01 -1.014480E+00 +1.446733E+01 +1.325372E+03 
 +5.526753E+02 -5.351809E+01 -1.000921E+01 -5.351809E+01 +6.651931E+02 +2.246141E+00 -1.000921E+01 +2.246141E+00 +1.313594E+03 
 +6.985701E+02 -2.291422E+01 +1.086468E+01 -2.291422E+01 +6.238495E+02 -1.025263E+01 +1.086468E+01 -1.025263E+01 +1.308743E+03 
 +5.927861E+02 -1.140673E+01 -5.662847E+00 -1.140673E+01 +5.780174E+02 +7.764874E+00 -5.662847E+00 +7.764874E+00 +1.334313E+03 
 +5.873179E+02 +8.936577E+00 +3.174244E+01 +8.936577E+00 +5.553720E+02 -1.549064E-01 +3.174244E+01 -1.549064E-01 +1.336915E+03 
 +6.534995E+02 +1.140044E+00 -2.438552E+01 +1.140044E+00 +6.299073E+02 -1.890997E+01 -2.438552E+01 -1.890997E+01 +1.456419E+03 
 +6.556749E+02 -5.034760E+00 +4.413723E+01 -5.034760E+00 +6.261635E+02 +1.055448E+01 +4.413723E+01 +1.055448E+01 +1.367516E+03 
 +6.898507E+02 +2.218237E+01 +4.940743E+00 +2.218237E+01 +6.369955E+02 +1.254673E+00 +4.940743E+00 +1.254673E+00 +1.338589E+03 
 +5.301521E+02 +1.819873E+01 -1.357925E+01 +1.819873E+01 +5.662209E+02 +2.750717E+00 -1.357925E+01 +2.750717E+00 +1.358854E+03 
 +6.096162E+02 -1.932918E+00 -1.142836E+01 -1.932918E+00 +5.824738E+02 +1.944961E+01 -1.142836E+01 +1.944961E+01 +1.307730E+03 
 +6.389441E+02 -2.187638E+01 -1.034088E+01 -2.187638E+01 +6.138015E+02 +8.920497E+00 -1.034088E+01 +8.920497E+00 +1.345165E+03 
 +6.197019E+02 +5.598324E+00 +1.422787E+01 +5.598324E+00 +5.995687E+02 -6.905647E-01 +1.422787E+01 -6.905647E-01 +1.310120E+03 
 +5.444507E+02 +1.367586E+01 +4.540907E+00 +1.367586E+01 +6.185440E+02 -2.268612E+01 +4.540907E+00 -2.268612E+01 +1.262004E+03 
 +5.974975E+02 -1.598220E+01 +1.684073E+01 -1.598220E+01 +6.358063E+02 +6.548186E+00 +1.684073E+01 +6.548186E+00 +1.424339E+03 
 +6.258370E+02 -2.727498E+01 -1.005043E-01 -2.727498E+01 +6.751500E+02 +7.191620E+00 -1.005043E-01 +7.191620E+00 +1.345175E+03 
 +6.582286E+02 +4.690614E+01 -2.501926E+01 +4.690614E+01 +6.518538E+02 +2.310039E+01 -2.501926E+01 +2.310039E+01 +1.375478E+03 
 +5.942834E+02 +1.543757E+01 -5.759768E+00 +1.543757E+01 +6.069897E+02 +1.698577E+01 -5.759768E+00 +1.698577E+01 +1.357723E+03 
 +5.934725E+02 -9.424676E+00 +1.728198E+01 -9.424676E+00 +5.670127E+02 -2.394595E+01 +1.728198E+01 -2.394595E+01 +1.425407E+03 
 +6.360345E+02 -2.662139E+01 -6.657688E+00 -2.662139E+01 +5.629343E+02 -1.930701E+01 -6.657688E+00 -1.930701E+01 +1.317545E+03 
 +6.086517E+02 -1.417441E+01 -6.103620E+00 -1.417441E+01 +5.980393E+02 +6.311442E-01 -6.103620E+00 +6.311442E-01 +1.340814E+03 
 +6.147601E+02 +2.192841E+01 +9.335228E+00 +2.192841E+01 +6.142090E+02 -6.272051E+00 +9.335228E+00 -6.272051E+00 +1.341251E+03 
 +6.563714E+02 +3.346318E+00 +2.266439E+01 +3.346318E+00 +5.774655E+02 +1.030457E+01 +2.266439E+01 +1.030457E+01 +1.307498E+03 
 +6.554142E+02 -4.299814E+00 -7.133412E+00 -4.299814E+00 +5.586580E+02 -2.288988E+00 -7.133412E+00 -2.288988E+00 +1.311318E+03 
 +4.960965E+02 -5.914000E+01 +1.287161E+01 -5.914000E+01 +5.307195E+02 -1.099664E+01 +1.287161E+01 -1.099664E+01 +1.292156E+03 
 +5.706705E+02 -4.041530E+00 -1.306918E+00 -4.041530E+00 +5.578176E+02 -2.650525E+01 -1.306918E+00 -2.650525E+01 +1.380822E+03 
 +6.232124E+02 +3.197294E+01 +5.645039E+00 +3.197294E+01 +6.105895E+02 +3.197490E+00 +5.645039E+00 +3.197490E+00 +1.382732E+03 
 +6.088053E+02 +1.411437E+01 +1.531455E+00 +1.411437E+01 +5.807299E+02 +3.504754E+00 +1.531455E+00 +3.504754E+00 +1.463727E+03 
 +6.707723E+02 +3.519036E+01 -9.998316E-01 +3.519036E+01 +6.849379E+02 +3.170887E+00 -9.998316E-01 +3.170887E+00 +1.347520E+03 
 +6.114105E+02 -5.567626E+00 +1.944754E+01 -5.567626E+00 +6.564149E+02 -1.517998E+01 +1.944754E+01 -1.517998E+01 +1.460999E+03 
 +6.523848E+02 -6.433702E+00 -1.136694E+01 -6.433702E+00 +6.053529E+02 -1.185187E+01 -1.136694E+01 -1.185187E+01 +1.323690E+03 
 +5.801572E+02 +1.399713E+00 +2.518555E+01 +1.399713E+00 +6.089008E+02 -4.496489E+00 +2.518555E+01 -4.496489E+00 +1.403707E+03 
 +6.123207E+02 +1.394281E+01 +1.767806E+01 +1.394281E+01 +6.433875E+02 -2.976203E+01 +1.767806E+01 -2.976203E+01 +1.374147E+03 
 +6.230579E+02 +1.187336E+01 -1.876764E+01 +1.187336E+01 +6.402299E+02 -6.267771E+00 -1.876764E+01 -6.267771E+00 +1.286078E+03 
 +6.386332E+02 -2.018822E+01 +4.332080E+01 -2.018822E+01 +6.567573E+02 -1.595474E+01 +4.332080E+01 -1.595474E+01 +1.356096E+03 
 +6.699493E+02 -4.288846E+01 +4.912498E+00 -4.288846E+01 +5.718775E+02 -1.699194E+01 +4.912498E+00 -1.699194E+01 +1.347653E+03 
 +5.086059E+02 -2.889291E+00 -1.613992E+01 -2.889291E+00 +5.228389E+02 +3.179568E+00 -1.613992E+01 +3.179568E+00 +1.401839E+03 
 +6.215708E+02 -2.302744E+01 -2.795446E+01 -2.302744E+01 +6.088781E+02 +2.051357E+01 -2.795446E+01 +2.051357E+01 +1.403104E+03 
 +6.071988E+02 -1.592280E+01 +3.907045E+01 -1.592280E+01 +5.799349E+02 +1.030324E+01 +3.907045E+01 +1.030324E+01 +1.395965E+03 
 +5.953436E+02 +3.372077E+00 -7.241828E-01 +3.372077E+00 +5.920145E+02 -3.252921E+01 -7.241828E-01 -3.252921E+01 +1.365619E+03 
 +6.162913E+02 +2.251898E+01 +1.014248E+01 +2.251898E+01 +6.079489E+02 +1.857093E+01 +1.014248E+01 +1.857093E+01 +1.316792E+03 
 +6.028983E+02 +2.940959E+00 -3.517276E+00 +2.940959E+00 +5.602855E+02 -2.522225E+01 -3.517276E+00 -2.522225E+01 +1.377196E+03 
 +6.167029E+02 +3.288311E+00 -7.151842E+00 +3.288311E+00 +6.106256E+02 +7.336046E+00 -7.151842E+00 +7.336046E+00 +1.336902E+03 
 +6.269660E+02 +6.360350E+01 -7.421785E+00 +6.360350E+01 +6.521224E+02 +1.606969E+01 -7.421785E+00 +1.606969E+01 +1.342162E+03 
 +5.880098E+02 -5.926872E+00 +1.200414E+01 -5.926872E+00 +6.153011E+02 -9.546023E+00 +1.200414E+01 -9.546023E+00 +1.418757E+03 
 +6.737622E+02 +5.273826E+01 -2.585347E+01 +5.273826E+01 +6.175946E+02 -1.058758E+01 -2.585347E+01 -1.058758E+01 +1.353577E+03 
 +6.474052E+02 +4.058200E+01 -1.625343E+01 +4.058200E+01 +6.311008E+02 +3.658460E+00 -1.625343E+01 +3.658460E+00 +1.363051E+03 
 +5.629706E+02 +1.474803E+01 -3.583812E+01 +1.474803E+01 +5.973531E+02 -5.797691E+00 -3.583812E+01 -5.797691E+00 +1.374971E+03 
 +5.745876E+02 +1.992918E+01 -2.072397E+01 +1.992918E+01 +7.411290E+02 +4.314248E+00 -2.072397E+01 +4.314248E+00 +1.363496E+03 
 +6.426636E+02 -6.301343E+01 -7.198282E+00 -6.301343E+01 +7.039884E+02 +9.246758E+00 -7.198282E+00 +9.246758E+00 +1.345799E+03 
 +5.998925E+02 +2.976872E+00 +2.807599E+01 +2.976872E+00 +6.141667E+02 -6.716923E+00 +2.807599E+01 -6.716923E+00 +1.458148E+03 
 +5.424581E+02 +2.085842E+01 +4.351814E-01 +2.085842E+01 +5.414782E+02 -5.416347E-01 +4.351814E-01 -5.416347E-01 +1.360612E+03 
 +6.767166E+02 -1.477853E+01 -2.141494E+00 -1.477853E+01 +5.989655E+02 -1.738734E+01 -2.141494E+00 -1.738734E+01 +1.332683E+03 
 +6.420071E+02 -2.865315E+01 +9.754169E+00 -2.865315E+01 +7.495609E+02 -1.226573E+01 +9.754169E+00 -1.226573E+01 +1.392565E+03 
 +6.127862E+02 -1.316354E+01 -6.532800E+00 -1.316354E+01 +6.707663E+02 -6.766054E+00 -6.532800E+00 -6.766054E+00 +1.299066E+03 
 +6.029883E+02 +2.675650E+00 -1.758438E+00 +2.675650E+00 +6.190104E+02 +6.270296E+00 -1.758438E+00 +6.270296E+00 +1.443808E+03 
 +5.642437E+02 +2.982753E+01 -9.443290E+00 +2.982753E+01 +6.813152E+02 -1.156255E+01 -9.443290E+00 -1.156255E+01 +1.333748E+03 
 +6.236060E+02 +2.360781E+01 -2.198515E+01 +2.360781E+01 +6.629436E+02 -1.309426E+01 -2.198515E+01 -1.309426E+01 +1.373333E+03 
 +5.690172E+02 +1.771662E+01 -3.605420E+01 +1.771662E+01 +5.687945E+02 +4.140421E+00 -3.605420E+01 +4.140421E+00 +1.401023E+03 
 +6.250029E+02 +7.323951E+00 +9.747287E+00 +7.323951E+00 +6.332374E+02 -2.550630E+00 +9.747287E+00 -2.550630E+00 +1.402492E+03 
 +6.352958E+02 +6.199794E+01 -1.083014E+01 +6.199794E+01 +6.434174E+02 +1.209120E+01 -1.083014E+01 +1.209120E+01 +1.321809E+03 
 +6.246096E+02 -3.707461E+01 +1.707169E+01 -3.707461E+01 +5.941403E+02 -1.108002E+01 +1.707169E+01 -1.108002E+01 +1.320273E+03 
 +6.107679E+02 -4.047396E+00 -4.007920E+00 -4.047396E+00 +6.264373E+02 +1.384390E+01 -4.007920E+00 +1.384390E+01 +1.383215E+03 
 +5.804339E+02 +3.652789E+01 +1.495213E+01 +3.652789E+01 +6.116295E+02 +2.726007E+01 +1.495213E+01 +2.726007E+01 +1.271669E+03 
 +6.372306E+02 -1.432403E+01 -1.294784E+01 -1.432403E+01 +6.256896E+02 +1.599241E+01 -1.294784E+01 +1.599241E+01 +1.406174E+03 
 +6.360655E+02 +1.132799E+01 +2.400956E+01 +1.132799E+01 +6.438817E+02 -5.352491E+00 +2.400956E+01 -5.352491E+00 +1.407986E+03 
 +5.777845E+02 -2.110652E+01 -1.923420E+01 -2.110652E+01 +5.716519E+02 -3.602667E+00 -1.923420E+01 -3.602667E+00 +1.406143E+03 
 +5.406353E+02 -4.422150E+01 -3.293773E-01 -4.422150E+01 +5.196873E+02 -1.492570E+01 -3.293773E-01 -1.492570E+01 +1.264403E+03 
 +7.089780E+02 -2.804431E+01 -5.046295E+00 -2.804431E+01 +5.701428E+02 -1.150908E+01 -5.046295E+00 -1.150908E+01 +1.346569E+03 
 +6.749441E+02 -3.553139E+01 -6.604967E+00 -3.553139E+01 +5.318910E+02 -2.504165E+01 -6.604967E+00 -2.504165E+01 +1.310920E+03 
 +5.865500E+02 +2.081945E+01 +4.172680E-01 +2.081945E+01 +5.993265E+02 +6.297649E+00 +4.172680E-01 +6.297649E+00 +1.349692E+03 
 +5.812191E+02 +2.559812E+00 -7.724324E+00 +2.559812E+00 +5.919244E+02 +1.233100E+01 -7.724324E+00 +1.233100E+01 +1.413171E+03 
 +6.465228E+02 -1.519337E+01 +1.887971E+01 -1.519337E+01 +7.194814E+02 -9.723458E-03 +1.887971E+01 -9.723458E-03 +1.337736E+03 
 +6.023171E+02 +6.084436E+00 -3.524664E+01 +6.084436E+00 +6.559800E+02 +9.269553E+00 -3.524664E+01 +9.269553E+00 +1.307113E+03 
 +5.995663E+02 +1.286262E+01 +1.721775E+00 +1.286262E+01 +5.823849E+02 -1.740214E+01 +1.721775E+00 -1.740214E+01 +1.404259E+03 
 +5.890414E+02 +1.784346E+01 -9.229817E+00 +1.784346E+01 +6.376300E+02 -2.486628E+01 -9.229817E+00 -2.486628E+01 +1.295736E+03 
 +6.258190E+02 +1.545157E+01 -2.054856E+01 +1.545157E+01 +5.931763E+02 -3.544918E+00 -2.054856E+01 -3.544918E+00 +1.439574E+03 
 +5.008564E+02 -2.623099E+01 -4.731465E+00 -2.623099E+01 +5.309818E+02 +2.316632E+00 -4.731465E+00 +2.316632E+00 +1.347089E+03 
 +6.908610E+02 +1.291256E+01 -1.026054E+01 +1.291256E+01 +5.607813E+02 -1.901971E+01 -1.026054E+01 -1.901971E+01 +1.320216E+03 
 +6.240148E+02 -3.434870E+01 -3.103207E+01 -3.434870E+01 +6.366644E+02 -1.270859E+01 -3.103207E+01 -1.270859E+01 +1.336194E+03 
 +5.466224E+02 -9.633554E+00 +1.528525E+01 -9.633554E+00 +5.776636E+02 +2.850291E+01 +1.528525E+01 +2.850291E+01 +1.336680E+03 
 +6.385645E+02 -3.038167E+00 -2.305083E+01 -3.038167E+00 +5.757225E+02 +1.450395E+01 -2.305083E+01 +1.450395E+01 +1.350831E+03 
 +6.423536E+02 +2.281120E+01 -8.205845E+00 +2.281120E+01 +6.108295E+02 -3.160908E+01 -8.205845E+00 -3.160908E+01 +1.317009E+03 
 +5.801249E+02 +7.376720E+00 -5.345713E-01 +7.376720E+00 +6.232547E+02 -3.193280E+00 -5.345713E-01 -3.193280E+00 +1.315954E+03 
 +5.932439E+02 -1.511166E+01 +1.564212E+01 -1.511166E+01 +6.002291E+02 +3.403243E+00 +1.564212E+01 +3.403243E+00 +1.293319E+03 
 +6.355515E+02 +3.880703E+00 +5.129497E+00 +3.880703E+00 +6.932647E+02 +1.379336E+01 +5.129497E+00 +1.379336E+01 +1.373114E+03 
 +6.489124E+02 -3.346971E+01 -4.980956E+00 -3.346971E+01 +7.151666E+02 -5.500241E+00 -4.980956E+00 -5.500241E+00 +1.374639E+03 
 +6.120355E+02 +5.486021E+01 +2.064395E-01 +5.486021E+01 +6.564580E+02 -3.104783E+00 +2.064395E-01 -3.104783E+00 +1.326585E+03 
 +6.473367E+02 -1.517957E+01 +6.125410E+00 -1.517957E+01 +6.572803E+02 +9.693614E+00 +6.125410E+00 +9.693614E+00 +1.316155E+03 
 +5.920292E+02 -6.643478E+01 -9.046697E-02 -6.643478E+01 +5.962232E+02 +2.273175E+01 -9.046697E-02 +2.273175E+01 +1.296764E+03 
 +6.124675E+02 -3.272504E+01 +2.039218E+01 -3.272504E+01 +6.635646E+02 +3.403477E+01 +2.039218E+01 +3.403477E+01 +1.342243E+03 
 +6.781043E+02 -1.273079E+01 -2.543722E+01 -1.273079E+01 +6.260421E+02 -1.557754E+01 -2.543722E+01 -1.557754E+01 +1.326026E+03 
 +6.439512E+02 +9.815476E+00 -2.224501E+01 +9.815476E+00 +6.310856E+02 +1.895506E+01 -2.224501E+01 +1.895506E+01 +1.429490E+03 
 +5.961476E+02 -6.927831E+01 +2.054491E+00 -6.927831E+01 +6.018585E+02 +3.251834E+01 +2.054491E+00 +3.251834E+01 +1.312359E+03 
 +5.984625E+02 -4.520921E+01 -4.681368E+01 -4.520921E+01 +5.825469E+02 -1.877463E+01 -4.681368E+01 -1.877463E+01 +1.316883E+03 
 +6.243079E+02 +1.855364E+00 +3.556229E+00 +1.855364E+00 +6.020937E+02 -4.865940E+01 +3.556229E+00 -4.865940E+01 +1.442169E+03 
 +6.782776E+02 -4.415523E+01 -1.485726E+01 -4.415523E+01 +5.663713E+02 -2.771439E+01 -1.485726E+01 -2.771439E+01 +1.318579E+03 
 +5.793887E+02 +1.076968E+00 -1.606572E+00 +1.076968E+00 +5.867055E+02 +1.171724E+01 -1.606572E+00 +1.171724E+01 +1.429815E+03 
 +6.980409E+02 +1.742184E+00 -1.616921E+01 +1.742184E+00 +5.657580E+02 +1.992836E+01 -1.616921E+01 +1.992836E+01 +1.348554E+03 
 +5.737112E+02 +2.689076E+01 +1.014975E+01 +2.689076E+01 +6.030662E+02 -1.991756E+01 +1.014975E+01 -1.991756E+01 +1.354070E+03 
 +5.701103E+02 +3.998222E+01 +1.099190E+01 +3.998222E+01 +5.816371E+02 -5.401209E+00 +1.099190E+01 -5.401209E+00 +1.275998E+03 
 +6.217520E+02 +3.689915E+01 +2.874524E+00 +3.689915E+01 +6.660580E+02 -2.888515E+00 +2.874524E+00 -2.888515E+00 +1.361939E+03 
 +5.610326E+02 +2.477523E+01 -1.786058E+01 +2.477523E+01 +7.023773E+02 +1.201268E+01 -1.786058E+01 +1.201268E+01 +1.343906E+03 
 +6.616624E+02 +2.063936E+01 -5.937042E+00 +2.063936E+01 +6.656382E+02 +1.194256E+00 -5.937042E+00 +1.194256E+00 +1.340343E+03 
 +5.726536E+02 -8.850754E+00 +1.363237E+01 -8.850754E+00 +6.521810E+02 +2.662714E+01 +1.363237E+01 +2.662714E+01 +1.297476E+03 
 +6.807407E+02 -4.053662E+01 +8.448810E+00 -4.053662E+01 +5.774592E+02 +1.093614E+01 +8.448810E+00 +1.093614E+01 +1.294127E+03 
 +6.529754E+02 -2.126493E+01 -1.539807E-01 -2.126493E+01 +5.609314E+02 -9.948608E+00 -1.539807E-01 -9.948608E+00 +1.264406E+03 
 +5.829987E+02 +5.659813E+00 -2.599478E+01 +5.659813E+00 +5.736010E+02 +1.832973E+01 -2.599478E+01 +1.832973E+01 +1.466833E+03 
 +6.050071E+02 -5.425886E+01 -1.828451E+01 -5.425886E+01 +6.090303E+02 -2.617956E+00 -1.828451E+01 -2.617956E+00 +1.244286E+03 
 +5.551168E+02 +7.937648E+00 +2.453569E+01 +7.937648E+00 +5.743152E+02 +1.522971E+01 +2.453569E+01 +1.522971E+01 +1.376733E+03 
 +5.948135E+02 +2.398757E+01 -1.554601E+01 +2.398757E+01 +5.819072E+02 +1.285753E+01 -1.554601E+01 +1.285753E+01 +1.316506E+03 
 +6.067767E+02 -4.976906E+00 +1.716966E+01 -4.976906E+00 +6.262449E+02 +1.524782E-01 +1.716966E+01 +1.524782E-01 +1.372483E+03 
 +6.336722E+02 +1.599688E+01 -1.808524E+01 +1.599688E+01 +6.377204E+02 +1.472583E+01 -1.808524E+01 +1.472583E+01 +1.311654E+03 
 +5.953316E+02 -6.857777E+01 +4.685392E+00 -6.857777E+01 +6.846533E+02 -1.033830E+01 +4.685392E+00 -1.033830E+01 +1.352802E+03 
 +5.942902E+02 +3.387345E+01 +7.013251E+00 +3.387345E+01 +5.995087E+02 -2.101839E+01 +7.013251E+00 -2.101839E+01 +1.361283E+03 
 +5.750623E+02 +6.768497E+01 -3.190064E+00 +6.768497E+01 +6.629331E+02 -5.555748E+00 -3.190064E+00 -5.555748E+00 +1.339596E+03 
 +6.179120E+02 -7.717846E+00 -2.331250E+01 -7.717846E+00 +6.046143E+02 +3.551355E+01 -2.331250E+01 +3.551355E+01 +1.429514E+03 
 +5.999227E+02 +3.339111E+00 -5.914836E+00 +3.339111E+00 +5.490135E+02 +1.187819E+01 -5.914836E+00 +1.187819E+01 +1.380604E+03 
 +6.375733E+02 +1.660540E+01 -2.213186E+00 +1.660540E+01 +5.499412E+02 +2.245332E+01 -2.213186E+00 +2.245332E+01 +1.325052E+03 
 +5.305658E+02 +1.049493E+01 +1.147632E+01 +1.049493E+01 +5.826649E+02 -1.584656E+01 +1.147632E+01 -1.584656E+01 +1.369962E+03 
 +6.473863E+02 -6.056526E+01 +1.623018E+01 -6.056526E+01 +6.257920E+02 +8.981845E+00 +1.623018E+01 +8.981845E+00 +1.314610E+03 
 +5.728059E+02 -6.827476E+01 +6.236533E+00 -6.827476E+01 +6.472643E+02 -1.326819E+01 +6.236533E+00 -1.326819E+01 +1.339556E+03 
 +6.131266E+02 +2.050628E-01 -1.093235E+01 +2.050628E-01 +5.767485E+02 +1.595155E+01 -1.093235E+01 +1.595155E+01 +1.307178E+03 
 +5.468878E+02 -2.407200E+01 -6.780550E+00 -2.407200E+01 +5.748970E+02 +3.833912E+00 -6.780550E+00 +3.833912E+00 +1.417810E+03 
 +6.586524E+02 +6.793395E+00 -1.030447E+01 +6.793395E+00 +6.585764E+02 +2.263833E+01 -1.030447E+01 +2.263833E+01 +1.356934E+03 
 +5.897769E+02 +5.452788E+00 +2.975588E+01 +5.452788E+00 +5.903051E+02 +1.230008E+01 +2.975588E+01 +1.230008E+01 +1.396433E+03 
 +6.222908E+02 -1.071327E+01 +2.033425E+01 -1.071327E+01 +5.930354E+02 -2.379689E+00 +2.033425E+01 -2.379689E+00 +1.283566E+03 
 +6.066443E+02 +3.357471E+01 -9.803175E+00 +3.357471E+01 +5.674769E+02 +1.243810E+01 -9.803175E+00 +1.243810E+01 +1.265270E+03 
 +5.951633E+02 +1.226285E+01 -3.149936E+01 +1.226285E+01 +6.171091E+02 -1.062462E+01 -3.149936E+01 -1.062462E+01 +1.417357E+03 
 +6.342344E+02 +2.779674E+01 -9.771516E+00 +2.779674E+01 +7.141944E+02 +3.784138E+00 -9.771516E+00 +3.784138E+00 +1.331660E+03 
 +6.085457E+02 -3.661682E+01 -1.981018E+00 -3.661682E+01 +6.913834E+02 +2.454369E+00 -1.981018E+00 +2.454369E+00 +1.317250E+03 
 +6.234174E+02 +1.060992E+01 +3.259246E+01 +1.060992E+01 +6.167468E+02 +1.810268E+01 +3.259246E+01 +1.810268E+01 +1.400738E+03 
 +5.968956E+02 +9.086930E-01 -1.484196E+01 +9.086930E-01 +5.346610E+02 +7.770786E+00 -1.484196E+01 +7.770786E+00 +1.344601E+03 
 +5.282750E+02 -7.276479E+00 +4.626610E+00 -7.276479E+00 +5.489021E+02 -4.036631E+01 +4.626610E+00 -4.036631E+01 +1.370671E+03 
 +6.278679E+02 +4.252099E+01 -8.955044E+00 +4.252099E+01 +5.522214E+02 -2.899179E+01 -8.955044E+00 -2.899179E+01 +1.277171E+03 
 +6.865179E+02 -2.349454E+01 -2.270377E+01 -2.349454E+01 +6.017087E+02 -2.632870E+01 -2.270377E+01 -2.632870E+01 +1.335510E+03 
 +5.749805E+02 +5.836534E+00 +2.024513E+01 +5.836534E+00 +5.676213E+02 +2.063551E+01 +2.024513E+01 +2.063551E+01 +1.330740E+03 
 +6.432330E+02 +3.037209E+01 +1.242243E+01 +3.037209E+01 +6.235172E+02 +2.075066E+01 +1.242243E+01 +2.075066E+01 +1.376404E+03 
 +6.522828E+02 -5.161385E+01 +7.158337E+00 -5.161385E+01 +6.197478E+02 +1.268105E+01 +7.158337E+00 +1.268105E+01 +1.367521E+03 
 +5.871002E+02 -8.256472E+00 +2.755670E+01 -8.256472E+00 +6.486274E+02 -2.082709E+01 +2.755670E+01 -2.082709E+01 +1.332230E+03 
 +6.814448E+02 -8.911806E+00 -3.609618E+00 -8.911806E+00 +6.561558E+02 -2.049093E+01 -3.609618E+00 -2.049093E+01 +1.400885E+03 
 +6.138356E+02 -2.459475E+01 -5.884815E+00 -2.459475E+01 +6.314323E+02 -1.576857E+01 -5.884815E+00 -1.576857E+01 +1.359535E+03 
 +6.449729E+02 +1.733593E+01 -2.349447E+01 +1.733593E+01 +6.023333E+02 +1.146242E+01 -2.349447E+01 +1.146242E+01 +1.338468E+03 
 +6.433344E+02 -5.361626E+01 +2.103810E+00 -5.361626E+01 +6.046436E+02 -4.831252E+00 +2.103810E+00 -4.831252E+00 +1.285417E+03 
 +5.849630E+02 +1.314291E+01 -1.040884E+01 +1.314291E+01 +6.132863E+02 +1.182075E+01 -1.040884E+01 +1.182075E+01 +1.396715E+03 
 +5.908500E+02 -5.293210E-01 +1.772560E+01 -5.293210E-01 +6.032993E+02 +6.360395E+00 +1.772560E+01 +6.360395E+00 +1.386417E+03 
 +6.417792E+02 -1.086301E+01 +8.687230E+00 -1.086301E+01 +6.333254E+02 +5.995719E+00 +8.687230E+00 +5.995719E+00 +1.417214E+03 
 +6.047549E+02 +4.226010E+01 -9.199737E+00 +4.226010E+01 +6.039585E+02 +5.920888E+00 -9.199737E+00 +5.920888E+00 +1.332879E+03 
 +5.867656E+02 +3.996910E+01 +5.055892E+00 +3.996910E+01 +6.462620E+02 -2.164116E+01 +5.055892E+00 -2.164116E+01 +1.311818E+03 
 +6.130814E+02 -6.900352E-02 +2.573294E+01 -6.900352E-02 +6.551751E+02 -2.008247E+00 +2.573294E+01 -2.008247E+00 +1.402058E+03 
 +6.377615E+02 -1.461100E+01 +5.293019E+00 -1.461100E+01 +5.774273E+02 +9.636429E+00 +5.293019E+00 +9.636429E+00 +1.257159E+03 
 +5.436722E+02 +1.095230E+01 -1.884272E+01 +1.095230E+01 +5.609905E+02 +5.743649E+00 -1.884272E+01 +5.743649E+00 +1.376493E+03 
 +5.627108E+02 +1.081273E+01 +8.900208E+00 +1.081273E+01 +5.352037E+02 +1.705615E+01 +8.900208E+00 +1.705615E+01 +1.267584E+03 
 +6.000871E+02 -1.175689E+00 -2.787455E+01 -1.175689E+00 +6.561650E+02 +1.490540E+01 -2.787455E+01 +1.490540E+01 +1.362715E+03 
 +6.105145E+02 -4.387883E+00 +8.149838E+00 -4.387883E+00 +7.213024E+02 +1.642992E+01 +8.149838E+00 +1.642992E+01 +1.337836E+03 
 +6.187239E+02 -1.885276E+00 -7.486345E+00 -1.885276E+00 +7.217850E+02 +5.096917E+00 -7.486345E+00 +5.096917E+00 +1.357720E+03 
 +6.099783E+02 +8.769567E+00 -2.228410E+01 +8.769567E+00 +6.242555E+02 +5.555471E+01 -2.228410E+01 +5.555471E+01 +1.341758E+03 
 +5.831630E+02 -6.857788E+00 -2.033489E+01 -6.857788E+00 +5.555634E+02 -4.070430E+01 -2.033489E+01 -4.070430E+01 +1.335671E+03 
 +6.303498E+02 -2.494293E+01 +1.357403E+01 -2.494293E+01 +6.371851E+02 +5.161319E+00 +1.357403E+01 +5.161319E+00 +1.323491E+03 
 +5.876300E+02 +4.853364E+00 +1.509018E+01 +4.853364E+00 +5.966279E+02 +1.511091E+01 +1.509018E+01 +1.511091E+01 +1.429757E+03 
 +6.059211E+02 -1.201197E+01 -2.384973E+01 -1.201197E+01 +5.794700E+02 -2.482544E+01 -2.384973E+01 -2.482544E+01 +1.328317E+03 
 +6.137653E+02 +6.648650E+01 +5.914431E+00 +6.648650E+01 +6.602537E+02 -2.260893E+01 +5.914431E+00 -2.260893E+01 +1.326370E+03 
 +5.699819E+02 +1.878200E+01 -2.757043E+01 +1.878200E+01 +5.960846E+02 +1.785725E+01 -2.757043E+01 +1.785725E+01 +1.406037E+03 
 +6.155547E+02 -3.030003E+01 -1.457145E+00 -3.030003E+01 +6.447271E+02 +1.193486E+01 -1.457145E+00 +1.193486E+01 +1.278026E+03 
 +5.731679E+02 -2.705182E+00 -1.069415E+01 -2.705182E+00 +5.686237E+02 +1.469437E+01 -1.069415E+01 +1.469437E+01 +1.394357E+03 
 +6.510101E+02 -4.748193E-01 -1.591687E+01 -4.748193E-01 +5.635619E+02 +7.862144E+00 -1.591687E+01 +7.862144E+00 +1.373126E+03 
 +6.935106E+02 -9.000789E+00 +7.943007E+00 -9.000789E+00 +6.430563E+02 +1.614435E+01 +7.943007E+00 +1.614435E+01 +1.382276E+03 
 +5.596829E+02 -1.911772E+01 -3.145404E+01 -1.911772E+01 +5.839083E+02 +3.841997E+00 -3.145404E+01 +3.841997E+00 +1.336394E+03 
 +5.956386E+02 -2.395724E+01 -9.241989E+00 -2.395724E+01 +5.985807E+02 -2.185071E+01 -9.241989E+00 -2.185071E+01 +1.356770E+03 
 +5.833801E+02 -1.127129E+01 +4.110825E+01 -1.127129E+01 +5.272703E+02 -1.573512E+01 +4.110825E+01 -1.573512E+01 +1.418960E+03 
 +6.974862E+02 +3.356789E+01 +9.128068E+00 +3.356789E+01 +5.994963E+02 +2.558807E+01 +9.128068E+00 +2.558807E+01 +1.312399E+03 
 +5.331154E+02 +2.626898E+00 +6.797726E+00 +2.626898E+00 +6.529683E+02 -3.965336E+00 +6.797726E+00 -3.965336E+00 +1.310787E+03 
 +7.549440E+02 -2.869945E+01 -1.874652E+01 -2.869945E+01 +6.364597E+02 +1.193612E+00 -1.874652E+01 +1.193612E+00 +1.405674E+03 
 +5.224422E+02 +7.937779E+00 -9.351450E+00 +7.937779E+00 +6.479692E+02 -8.446677E+00 -9.351450E+00 -8.446677E+00 +1.334049E+03 
 +6.657882E+02 -1.343914E+00 +4.710492E+00 -1.343914E+00 +6.103956E+02 -3.856045E+00 +4.710492E+00 -3.856045E+00 +1.333059E+03 
 +6.890333E+02 -1.032722E+01 +1.185785E+01 -1.032722E+01 +5.836215E+02 -1.154913E+01 +1.185785E+01 -1.154913E+01 +1.330722E+03 
 +5.947259E+02 +3.924954E+01 -8.854395E+00 +3.924954E+01 +6.257254E+02 +1.113214E+01 -8.854395E+00 +1.113214E+01 +1.328281E+03 
 +6.803534E+02 +2.029060E+00 -3.224551E+00 +2.029060E+00 +5.863703E+02 -4.408717E+01 -3.224551E+00 -4.408717E+01 +1.343250E+03 
 +6.288537E+02 -3.814668E+01 -1.174690E+01 -3.814668E+01 +5.595424E+02 -8.806231E+00 -1.174690E+01 -8.806231E+00 +1.293940E+03 
 +6.599490E+02 -3.122876E+01 -2.817699E+01 -3.122876E+01 +5.992293E+02 +1.712593E+01 -2.817699E+01 +1.712593E+01 +1.303870E+03 
 +6.371141E+02 -5.229894E+00 -7.097879E+00 -5.229894E+00 +6.165289E+02 +4.208913E+01 -7.097879E+00 +4.208913E+01 +1.404070E+03 
 +5.405443E+02 -4.540441E+01 +9.430314E+00 -4.540441E+01 +5.920309E+02 +3.133916E+01 +9.430314E+00 +3.133916E+01 +1.271644E+03 
 +6.181432E+02 +1.439031E-01 -3.181437E+01 +1.439031E-01 +5.446157E+02 +4.449962E+00 -3.181437E+01 +4.449962E+00 +1.273632E+03 
 +6.422944E+02 +1.660734E+01 -6.466328E+00 +1.660734E+01 +5.622246E+02 +9.709345E-01 -6.466328E+00 +9.709345E-01 +1.281684E+03 
 +5.724877E+02 +1.255112E+01 +3.618012E+01 +1.255112E+01 +5.534263E+02 +1.442103E+01 +3.618012E+01 +1.442103E+01 +1.356601E+03 
 +6.026713E+02 +1.159091E+01 -3.800545E+00 +1.159091E+01 +6.402937E+02 +2.571664E+01 -3.800545E+00 +2.571664E+01 +1.329561E+03 
 +6.088181E+02 +1.713423E+01 -3.275378E+01 +1.713423E+01 +6.159186E+02 +2.259135E+01 -3.275378E+01 +2.259135E+01 +1.495026E+03 
 +6.433010E+02 +1.356875E+00 -3.524611E+00 +1.356875E+00 +5.967499E+02 -3.245400E+01 -3.524611E+00 -3.245400E+01 +1.351691E+03 
 +6.181804E+02 +8.788217E+00 -1.855811E+01 +8.788217E+00 +6.202549E+02 -7.092612E+00 -1.855811E+01 -7.092612E+00 +1.402960E+03 
 +5.381733E+02 +7.136857E+00 +5.408886E+00 +7.136857E+00 +5.248973E+02 -1.248940E+01 +5.408886E+00 -1.248940E+01 +1.358879E+03 
 +6.102021E+02 -5.403864E+00 -2.677395E+01 -5.403864E+00 +6.000827E+02 -1.419127E+00 -2.677395E+01 -1.419127E+00 +1.387442E+03 
 +5.919485E+02 +9.997074E+00 +2.239841E+00 +9.997074E+00 +6.500271E+02 -8.475237E+00 +2.239841E+00 -8.475237E+00 +1.278248E+03 
 +6.609270E+02 -3.584710E+00 -1.030448E+01 -3.584710E+00 +6.592656E+02 -9.384632E+00 -1.030448E+01 -9.384632E+00 +1.353886E+03 
 +5.414661E+02 +2.902130E+01 +1.972947E+01 +2.902130E+01 +6.043561E+02 +2.238170E+00 +1.972947E+01 +2.238170E+00 +1.294542E+03 
 +5.928889E+02 -2.141229E+01 -4.422378E+01 -2.141229E+01 +6.226960E+02 +3.806403E+00 -4.422378E+01 +3.806403E+00 +1.383013E+03 
 +6.013637E+02 -1.777623E+01 +3.200463E+01 -1.777623E+01 +6.680067E+02 +1.026240E+01 +3.200463E+01 +1.026240E+01 +1.331016E+03 
 +5.488671E+02 +4.113686E+00 +7.292247E+00 +4.113686E+00 +6.014068E+02 -4.984512E+00 +7.292247E+00 -4.984512E+00 +1.362881E+03 
 +5.705302E+02 -4.061566E+01 -7.774113E+00 -4.061566E+01 +5.684360E+02 -3.368137E+00 -7.774113E+00 -3.368137E+00 +1.254323E+03 
 +6.001668E+02 -3.526413E+01 +8.435234E+00 -3.526413E+01 +5.898259E+02 -2.208070E+01 +8.435234E+00 -2.208070E+01 +1.303210E+03 
 +5.855519E+02 +7.766032E+00 +1.697251E+01 +7.766032E+00 +5.847608E+02 -1.008654E+01 +1.697251E+01 -1.008654E+01 +1.259306E+03 
 +6.113372E+02 +1.364716E+01 -3.933851E+00 +1.364716E+01 +6.111538E+02 +2.602698E+00 -3.933851E+00 +2.602698E+00 +1.308066E+03 
 +6.110922E+02 +2.647728E+01 +5.392478E+00 +2.647728E+01 +6.567484E+02 -2.478415E+00 +5.392478E+00 -2.478415E+00 +1.318321E+03 
 +6.028993E+02 +3.932792E+01 +6.898684E+00 +3.932792E+01 +6.405870E+02 +2.740870E+00 +6.898684E+00 +2.740870E+00 +1.441764E+03 
 +6.308090E+02 -2.956166E+01 -1.297119E+01 -2.956166E+01 +6.429194E+02 -7.863055E+00 -1.297119E+01 -7.863055E+00 +1.314055E+03 
 +5.442817E+02 -2.825683E+01 -2.753841E+00 -2.825683E+01 +5.733591E+02 -2.202728E+01 -2.753841E+00 -2.202728E+01 +1.307120E+03 
 +6.842612E+02 +1.225867E+00 -3.139224E+00 +1.225867E+00 +6.072092E+02 +5.869599E+00 -3.139224E+00 +5.869599E+00 +1.370121E+03 
 +6.472149E+02 +9.066068E+00 +1.193169E+01 +9.066068E+00 +6.144046E+02 -1.125678E+01 +1.193169E+01 -1.125678E+01 +1.324975E+03 
 +5.691954E+02 +1.252981E+01 +3.029017E+00 +1.252981E+01 +5.966686E+02 +1.389431E+01 +3.029017E+00 +1.389431E+01 +1.442536E+03 
 +6.795757E+02 -7.626705E+00 -2.471765E+01 -7.626705E+00 +7.102645E+02 +1.824596E+01 -2.471765E+01 +1.824596E+01 +1.401022E+03 
 +5.594583E+02 -1.788906E+01 -6.322562E+00 -1.788906E+01 +5.682367E+02 +2.810211E+00 -6.322562E+00 +2.810211E+00 +1.398655E+03 
 +6.671229E+02 -1.032606E+01 -1.730912E+00 -1.032606E+01 +5.675421E+02 +1.120024E+01 -1.730912E+00 +1.120024E+01 +1.341094E+03 
 +5.998191E+02 -3.081586E+01 -2.622874E+00 -3.081586E+01 +6.131511E+02 -2.781896E+01 -2.622874E+00 -2.781896E+01 +1.377023E+03 
 +5.382750E+02 -1.935140E+00 -3.778441E-01 -1.935140E+00 +5.622100E+02 -1.270598E+01 -3.778441E-01 -1.270598E+01 +1.354259E+03 
 +6.185270E+02 +1.860466E+00 +1.005105E+01 +1.860466E+00 +6.269291E+02 +1.467179E+01 +1.005105E+01 +1.467179E+01 +1.414177E+03 
 +5.857924E+02 -2.007288E+01 +7.767568E+00 -2.007288E+01 +5.726390E+02 +1.759929E+01 +7.767568E+00 +1.759929E+01 +1.333746E+03 
 +5.947817E+02 -1.227124E+01 -1.844934E+01 -1.227124E+01 +6.001053E+02 -8.209394E+00 -1.844934E+01 -8.209394E+00 +1.362278E+03 
 +6.622119E+02 -9.128907E+00 +4.040900E+00 -9.128907E+00 +6.415394E+02 -1.046892E+01 +4.040900E+00 -1.046892E+01 +1.374122E+03 
 +6.321390E+02 +5.184012E+01 +2.152241E+00 +5.184012E+01 +6.311438E+02 +1.135412E+01 +2.152241E+00 +1.135412E+01 +1.320452E+03 
 +6.512305E+02 +5.741743E+01 +1.128674E+01 +5.741743E+01 +6.286323E+02 +3.782529E+00 +1.128674E+01 +3.782529E+00 +1.355524E+03 
 +5.887598E+02 -8.763358E+00 +1.323755E+01 -8.763358E+00 +6.036928E+02 +3.710993E+01 +1.323755E+01 +3.710993E+01 +1.356861E+03 
 +6.067954E+02 +3.273940E+01 +9.704532E+00 +3.273940E+01 +6.110329E+02 -5.095864E+00 +9.704532E+00 -5.095864E+00 +1.301617E+03 
 +6.288980E+02 +4.763972E+01 +6.914524E+00 +4.763972E+01 +6.087137E+02 -2.656788E+01 +6.914524E+00 -2.656788E+01 +1.276800E+03 
 +6.175499E+02 +1.493722E+01 +2.198771E-01 +1.493722E+01 +5.691080E+02 -2.798546E+00 +2.198771E-01 -2.798546E+00 +1.397740E+03 
 +5.879604E+02 +8.537889E+00 +8.270577E+00 +8.537889E+00 +5.347836E+02 -4.946369E+00 +8.270577E+00 -4.946369E+00 +1.412840E+03 
 +6.178569E+02 +2.284512E+01 +1.321706E+01 +2.284512E+01 +5.886209E+02 +1.947391E+01 +1.321706E+01 +1.947391E+01 +1.362426E+03 
 +6.222772E+02 -3.288388E+01 +2.351878E+00 -3.288388E+01 +5.851027E+02 +4.206710E+00 +2.351878E+00 +4.206710E+00 +1.292998E+03 
 +6.597525E+02 -2.104851E+01 -1.797419E+01 -2.104851E+01 +6.337198E+02 -5.014245E+00 -1.797419E+01 -5.014245E+00 +1.404250E+03 
 +6.383478E+02 +7.366346E+00 +1.197502E+01 +7.366346E+00 +6.371154E+02 -3.229755E+00 +1.197502E+01 -3.229755E+00 +1.394067E+03 
 +6.399109E+02 +2.617586E+01 +2.270636E+01 +2.617586E+01 +6.125549E+02 -1.440476E+01 +2.270636E+01 -1.440476E+01 +1.377283E+03 
 +6.272776E+02 +3.349373E+00 -3.782409E+00 +3.349373E+00 +6.182493E+02 +2.857013E+01 -3.782409E+00 +2.857013E+01 +1.425911E+03 
 +6.305931E+02 -6.588828E+00 -1.067684E+01 -6.588828E+00 +7.042012E+02 +1.634135E+01 -1.067684E+01 +1.634135E+01 +1.376846E+03 
 +6.475485E+02 -2.140893E+01 +1.377894E+01 -2.140893E+01 +5.979088E+02 -5.120351E+00 +1.377894E+01 -5.120351E+00 +1.363278E+03 
 +5.505055E+02 -6.100879E+00 -5.584528E+00 -6.100879E+00 +5.144827E+02 -7.603118E+00 -5.584528E+00 -7.603118E+00 +1.401346E+03 
 +6.881960E+02 -2.857768E+00 -1.070000E+01 -2.857768E+00 +5.717865E+02 +6.280181E+00 -1.070000E+01 +6.280181E+00 +1.297282E+03 
 +5.928788E+02 -2.065305E+01 +2.178735E+01 -2.065305E+01 +6.105573E+02 +2.749964E+01 +2.178735E+01 +2.749964E+01 +1.428775E+03 
 +6.626375E+02 +3.409744E+01 +1.793067E+01 +3.409744E+01 +5.777392E+02 +5.063208E+00 +1.793067E+01 +5.063208E+00 +1.352050E+03 
 +5.581129E+02 +7.785810E+00 +1.084805E+01 +7.785810E+00 +5.384070E+02 +8.302632E+00 +1.084805E+01 +8.302632E+00 +1.404645E+03 
 +5.988926E+02 +4.104392E-01 +3.024345E+01 +4.104392E-01 +6.179480E+02 -1.106182E+01 +3.024345E+01 -1.106182E+01 +1.319997E+03 
 +6.208948E+02 -6.820104E-01 -5.953635E+01 -6.820104E-01 +6.103503E+02 -3.372221E+01 -5.953635E+01 -3.372221E+01 +1.339599E+03 
 +6.002518E+02 -3.344415E+01 +1.597141E+01 -3.344415E+01 +5.873950E+02 +1.644657E+01 +1.597141E+01 +1.644657E+01 +1.347037E+03 
 +6.818459E+02 -2.525153E+01 +1.110456E+01 -2.525153E+01 +5.647152E+02 -2.335230E+01 +1.110456E+01 -2.335230E+01 +1.317197E+03 
 +5.406539E+02 -1.053694E+01 -3.055545E+01 -1.053694E+01 +5.479126E+02 +1.388063E+01 -3.055545E+01 +1.388063E+01 +1.349472E+03 
 +6.796171E+02 -2.238754E+01 -2.883217E+00 -2.238754E+01 +5.512090E+02 -2.155093E+01 -2.883217E+00 -2.155093E+01 +1.296890E+03 
 +6.148691E+02 -3.126921E+01 +1.983203E+01 -3.126921E+01 +6.016553E+02 -9.804158E-01 +1.983203E+01 -9.804158E-01 +1.341878E+03 
 +6.194462E+02 -3.129363E+01 -6.852335E+00 -3.129363E+01 +6.136238E+02 +1.359442E+01 -6.852335E+00 +1.359442E+01 +1.322476E+03 
 +5.905265E+02 +2.212126E+01 +2.461122E+00 +2.212126E+01 +6.047820E+02 -8.050515E-01 +2.461122E+00 -8.050515E-01 +1.377081E+03 
 +5.370812E+02 +2.199738E+01 +3.434206E+01 +2.199738E+01 +5.427180E+02 +1.095625E+00 +3.434206E+01 +1.095625E+00 +1.292534E+03 
 +5.909125E+02 +4.536299E+00 +8.630205E+00 +4.536299E+00 +5.797915E+02 -1.908883E+01 +8.630205E+00 -1.908883E+01 +1.417532E+03 
 +7.371600E+02 -3.188967E+01 +5.418806E+00 -3.188967E+01 +6.257557E+02 -9.243959E+00 +5.418806E+00 -9.243959E+00 +1.340478E+03 
 +5.804512E+02 +2.045325E+00 +4.669210E+00 +2.045325E+00 +5.828351E+02 -7.428007E+00 +4.669210E+00 -7.428007E+00 +1.400048E+03 
 +6.651781E+02 -3.001409E+01 -1.726950E+00 -3.001409E+01 +5.879075E+02 -2.108617E+01 -1.726950E+00 -2.108617E+01 +1.354333E+03 
 +5.772805E+02 +1.271769E+01 +2.511558E+01 +1.271769E+01 +6.030629E+02 +3.732481E+00 +2.511558E+01 +3.732481E+00 +1.410986E+03 
 +6.608361E+02 +5.296166E+01 -4.860333E+00 +5.296166E+01 +6.558286E+02 -1.064004E+01 -4.860333E+00 -1.064004E+01 +1.327752E+03 
 +7.152496E+02 -5.576015E+00 +7.676390E-01 -5.576015E+00 +6.322623E+02 -1.005309E+01 +7.676390E-01 -1.005309E+01 +1.398207E+03 
 +6.421945E+02 -3.475869E+01 +9.014437E+00 -3.475869E+01 +5.755468E+02 +5.669727E+00 +9.014437E+00 +5.669727E+00 +1.274897E+03 
 +5.913220E+02 +1.104338E+01 -8.979450E+00 +1.104338E+01 +5.411744E+02 -4.599292E-01 -8.979450E+00 -4.599292E-01 +1.456930E+03 
 +5.790721E+02 +2.113602E+01 +5.829439E+00 +2.113602E+01 +5.903614E+02 +1.404459E+01 +5.829439E+00 +1.404459E+01 +1.327608E+03 
 +6.290482E+02 -1.173504E+01 +6.764392E+00 -1.173504E+01 +6.715604E+02 +5.406617E+00 +6.764392E+00 +5.406617E+00 +1.312823E+03 
 +5.911708E+02 -2.932885E+01 -9.047465E+00 -2.932885E+01 +6.787530E+02 +1.589394E+01 -9.047465E+00 +1.589394E+01 +1.319328E+03 
 +5.526524E+02 -2.027526E+01 +1.533679E+01 -2.027526E+01 +5.799621E+02 +3.664161E+01 +1.533679E+01 +3.664161E+01 +1.345633E+03 
 +6.200345E+02 -1.482120E+01 +6.706330E+00 -1.482120E+01 +5.656667E+02 -2.621879E+01 +6.706330E+00 -2.621879E+01 +1.396612E+03 
 +6.307117E+02 +1.380102E+00 +9.348205E+00 +1.380102E+00 +6.091937E+02 +1.781109E+01 +9.348205E+00 +1.781109E+01 +1.311199E+03 
 +5.649152E+02 +2.154080E+01 +1.846419E+01 +2.154080E+01 +5.924753E+02 +8.897935E-01 +1.846419E+01 +8.897935E-01 +1.391297E+03 
 +5.740913E+02 -1.050745E+01 -2.407623E+01 -1.050745E+01 +6.047040E+02 +6.228193E+00 -2.407623E+01 +6.228193E+00 +1.356929E+03 
 +5.447520E+02 +2.907823E+01 -8.361890E-01 +2.907823E+01 +5.856487E+02 -1.070877E+01 -8.361890E-01 -1.070877E+01 +1.303779E+03 
 +6.281224E+02 +1.998278E+01 -1.461034E+01 +1.998278E+01 +6.552542E+02 -3.105298E+01 -1.461034E+01 -3.105298E+01 +1.354963E+03 
 +6.123107E+02 -2.733191E+01 +4.413650E+01 -2.733191E+01 +6.745014E+02 -3.107569E-01 +4.413650E+01 -3.107569E-01 +1.354338E+03 
 +6.880320E+02 +3.002346E+01 +2.158667E+00 +3.002346E+01 +6.357898E+02 -1.391153E+01 +2.158667E+00 -1.391153E+01 +1.400741E+03 
 +5.261684E+02 -1.592540E+01 +8.358794E+00 -1.592540E+01 +6.464785E+02 +7.017580E+00 +8.358794E+00 +7.017580E+00 +1.315402E+03 
 +6.109113E+02 -1.072592E+01 +2.289516E+01 -1.072592E+01 +6.409766E+02 -5.657677E+00 +2.289516E+01 -5.657677E+00 +1.392417E+03 
 +5.925423E+02 -2.467125E+01 +2.662343E+00 -2.467125E+01 +5.937487E+02 -2.447571E+01 +2.662343E+00 -2.447571E+01 +1.349428E+03 
 +5.295743E+02 -2.285856E+00 -2.513553E+01 -2.285856E+00 +5.619330E+02 -5.271729E+00 -2.513553E+01 -5.271729E+00 +1.324890E+03 
 +5.858938E+02 +2.002175E+00 +6.213603E+00 +2.002175E+00 +6.106028E+02 +2.025840E+01 +6.213603E+00 +2.025840E+01 +1.319316E+03 
 +5.436091E+02 -4.046220E+01 +1.668597E+01 -4.046220E+01 +5.678868E+02 -1.277201E+01 +1.668597E+01 -1.277201E+01 +1.379478E+03 
 +5.579357E+02 -6.859368E+00 +3.004373E+01 -6.859368E+00 +5.373380E+02 -2.518454E+01 +3.004373E+01 -2.518454E+01 +1.320138E+03 
 +5.724321E+02 +1.403988E+01 -1.333402E+01 +1.403988E+01 +6.038069E+02 -1.968261E+01 -1.333402E+01 -1.968261E+01 +1.359627E+03 
 +6.116115E+02 -3.846028E+00 -9.347734E+00 -3.846028E+00 +6.047644E+02 -3.067015E+01 -9.347734E+00 -3.067015E+01 +1.444318E+03 
 +7.304050E+02 -2.564784E+01 +8.652223E+00 -2.564784E+01 +6.061002E+02 +9.058346E+00 +8.652223E+00 +9.058346E+00 +1.349314E+03 
 +5.303562E+02 +8.145237E+00 +1.385690E+00 +8.145237E+00 +5.621344E+02 +9.309565E+00 +1.385690E+00 +9.309565E+00 +1.362723E+03 
 +7.031072E+02 +2.582938E+00 +5.780972E+00 +2.582938E+00 +5.633568E+02 +1.663060E+01 +5.780972E+00 +1.663060E+01 +1.309879E+03 
 +6.071618E+02 +7.079497E+01 +1.442298E+01 +7.079497E+01 +6.532250E+02 -6.822000E+00 +1.442298E+01 -6.822000E+00 +1.378750E+03 
 +6.165933E+02 +1.953798E+01 +4.398989E+01 +1.953798E+01 +6.170175E+02 +4.950743E+00 +4.398989E+01 +4.950743E+00 +1.484650E+03 
TENSORS Strain float 
 -1.740319E-04 -1.323749E-04 -4.083556E-04 -1.323749E-04 +5.061994E-04 +6.804188E-04 -4.083556E-04 +6.804188E-04 +7.516548E-03 
 -1.744454E-04 -1.262498E-04 +2.859192E-04 -1.262498E-04 -3.570757E-04 +6.881106E-04 +2.859192E-04 +6.881106E-04 +7.743473E-03 
 -2.637770E-04 -1.529734E-04 -1.206879E-04 -1.529734E-04 +2.258332E-04 -3.761062E-04 -1.206879E-04 -3.761062E-04 +7.441622E-03 
 -2.929156E-04 -1.444139E-04 +1.288606E-04 -1.444139E-04 -2.235205E-04 -4.277501E-04 +1.288606E-04 -4.277501E-04 +7.800761E-03 
 -5.749046E-04 +4.466546E-04 +2.246495E-04 +4.466546E-04 +2.491295E-04 -5.451127E-05 +2.246495E-04 -5.451127E-05 +8.261862E-03 
 +7.823549E-06 -1.038616E-04 -4.748474E-04 -1.038616E-04 -9.792331E-05 +1.170637E-04 -4.748474E-04 +1.170637E-04 +7.344852E-03 
 +2.606336E-04 -8.301500E-04 +1.721209E-04 -8.301500E-04 -5.072516E-04 -2.070643E-04 +1.721209E-04 -2.070643E-04 +7.471391E-03 
 +2.484267E-05 +7.652970E-05 +2.948325E-04 +7.652970E-05 +3.262558E-04 -4.188738E-05 +2.948325E-04 -4.188738E-05 +7.323951E-03 
 +9.260591E-05 +3.141322E-04 +3.664638E-04 +3.141322E-04 +2.074786E-04 -2.868079E-05 +3.664638E-04 -2.868079E-05 +7.600142E-03 
 +1.469861E-04 -8.545659E-04 +2.745155E-04 -8.545659E-04 -4.509391E-04 -3.680587E-04 +2.745155E-04 -3.680587E-04 +7.435184E-03 
 +3.465723E-04 -3.874049E-04 -2.596919E-04 -3.874049E-04 +2.931472E-04 +7.451529E-04 -2.596919E-04 +7.451529E-04 +7.262859E-03 
 -1.008125E-04 +7.181236E-04 +4.698480E-04 +7.181236E-04 +1.529736E-05 -2.336495E-04 +4.698480E-04 -2.336495E-04 +7.484572E-03 
 +2.500569E-04 -4.964049E-04 -2.439956E-05 -4.964049E-04 -8.232231E-05 -2.582393E-04 -2.439956E-05 -2.582393E-04 +7.072577E-03 
 +3.210623E-05 -5.730912E-05 -1.372151E-04 -5.730912E-05 +3.386982E-06 -1.957469E-06 -1.372151E-04 -1.957469E-06 +7.655554E-03 
 -2.372170E-04 -3.672341E-04 -1.618447E-04 -3.672341E-04 -1.065963E-04 +4.500109E-04 -1.618447E-04 +4.500109E-04 +7.632852E-03 
 +3.070374E-04 -7.131603E-05 -2.666078E-04 -7.131603E-05 +3.056382E-04 +2.686706E-04 -2.666078E-04 +2.686706E-04 +7.171717E-03 
 -9.314914E-05 +2.817640E-04 +4.633705E-04 +2.817640E-04 +1.184921E-04 -1.797972E-04 +4.633705E-04 -1.797972E-04 +7.751995E-03 
 +3.322812E-05 +1.738943E-05 +5.451445E-04 +1.738943E-05 -1.196707E-04 +1.092075E-04 +5.451445E-04 +1.092075E-04 +7.776911E-03 
 -5.205609E-06 +1.056227E-03 +1.280501E-04 +1.056227E-03 -1.358315E-04 -1.886636E-04 +1.280501E-04 -1.886636E-04 +7.629054E-03 
 -2.145967E-04 +1.953367E-04 -1.580029E-05 +1.953367E-04 -1.485888E-04 -4.048918E-04 -1.580029E-05 -4.048918E-04 +7.369513E-03 
 +2.661125E-04 +3.755547E-04 -7.282569E-04 +3.755547E-04 -2.181628E-05 +2.135953E-05 -7.282569E-04 +2.135953E-05 +7.268160E-03 
 -2.104418E-04 -6.007676E-04 -8.117207E-05 -6.007676E-04 +4.931316E-04 -2.501216E-04 -8.117207E-05 -2.501216E-04 +7.125277E-03 
 -6.571462E-07 -5.210067E-05 +3.841833E-04 -5.210067E-05 -1.713728E-04 +3.334699E-04 +3.841833E-04 +3.334699E-04 +7.510047E-03 
 +3.278203E-04 +2.661242E-04 -1.511213E-04 +2.661242E-04 -5.473032E-04 -2.085660E-04 -1.511213E-04 -2.085660E-04 +8.141614E-03 
 -2.752030E-04 -1.579396E-04 -5.097442E-04 -1.579396E-04 +3.105447E-04 +6.847729E-04 -5.097442E-04 +6.847729E-04 +7.276640E-03 
 +3.601504E-04 -8.977596E-04 +1.474310E-04 -8.977596E-04 +3.580169E-04 +4.536675E-04 +1.474310E-04 +4.536675E-04 +7.226476E-03 
 +1.592391E-04 +2.679092E-04 -7.034883E-05 +2.679092E-04 -5.917681E-04 -3.880349E-04 -7.034883E-05 -3.880349E-04 +8.098315E-03 
 +1.279829E-04 -3.433143E-04 -1.996595E-04 -3.433143E-04 +1.515643E-04 +1.984135E-04 -1.996595E-04 +1.984135E-04 +7.209740E-03 
 +3.652341E-04 -5.535482E-05 +1.827571E-05 -5.535482E-05 +2.541284E-05 +4.687160E-04 +1.827571E-05 +4.687160E-04 +7.447686E-03 
 +3.535829E-05 +1.262835E-04 -2.424415E-04 +1.262835E-04 +3.473355E-04 -6.934178E-05 -2.424415E-04 -6.934178E-05 +7.052463E-03 
 +2.417536E-04 -2.508515E-04 -6.123726E-04 -2.508515E-04 -5.883615E-04 +1.261913E-04 -6.123726E-04 +1.261913E-04 +7.509141E-03 
 +1.656884E-05 +2.026722E-04 +4.671264E-06 +2.026722E-04 +2.759273E-04 +4.751628E-04 +4.671264E-06 +4.751628E-04 +7.269416E-03 
 -1.221669E-05 +6.736124E-04 +1.445661E-04 +6.736124E-04 +5.581519E-04 +1.465743E-04 +1.445661E-04 +1.465743E-04 +6.851394E-03 
 -1.342641E-04 -1.304783E-03 -1.887694E-04 -1.304783E-03 -7.634350E-04 -2.150682E-04 -1.887694E-04 -2.150682E-04 +8.241447E-03 
 -1.408230E-04 +5.003831E-04 -7.038130E-04 +5.003831E-04 -1.357147E-04 -8.814269E-05 -7.038130E-04 -8.814269E-05 +7.831014E-03 
 +9.945512E-05 +1.240759E-04 -7.973954E-04 +1.240759E-04 +1.156549E-04 -3.176469E-04 -7.973954E-04 -3.176469E-04 +7.645896E-03 
 -3.066329E-04 +1.073126E-04 +1.475420E-04 +1.073126E-04 +2.529322E-05 -6.245731E-05 +1.475420E-04 -6.245731E-05 +7.715682E-03 
 +8.144043E-05 +1.984587E-04 -1.162081E-05 +1.984587E-04 +6.101604E-06 -5.152251E-04 -1.162081E-05 -5.152251E-04 +7.245441E-03 
 +1.912092E-04 -3.510013E-04 -1.128941E-04 -3.510013E-04 +6.768410E-06 -4.244806E-04 -1.128941E-04 -4.244806E-04 +7.605660E-03 
 -1.544876E-04 +8.762127E-04 +6.385268E-05 +8.762127E-04 -9.455757E-05 +2.632154E-04 +6.385268E-05 +2.632154E-04 +7.814428E-03 
 -8.988904E-05 -1.645346E-04 -5.572530E-04 -1.645346E-04 +6.060464E-05 -3.724383E-04 -5.572530E-04 -3.724383E-04 +7.487614E-03 
 +3.249317E-04 -1.942919E-04 -4.454916E-04 -1.942919E-04 +1.570818E-04 -2.041550E-04 -4.454916E-04 -2.041550E-04 +7.219718E-03 
 -3.148799E-05 -1.791434E-04 +2.388951E-04 -1.791434E-04 -3.423480E-05 -6.694538E-04 +2.388951E-04 -6.694538E-04 +7.841344E-03 
 +2.468998E-04 -9.182257E-05 -2.260247E-04 -9.182257E-05 +3.335811E-04 -1.707169E-04 -2.260247E-04 -1.707169E-04 +7.074261E-03 
 -1.366983E-04 +5.679355E-04 -2.956617E-04 +5.679355E-04 +2.680321E-04 +5.197908E-04 -2.956617E-04 +5.197908E-04 +6.874485E-03 
 +1.704116E-04 -3.273607E-04 -8.196468E-05 -3.273607E-04 -3.580163E-04 -3.466525E-05 -8.196468E-05 -3.466525E-05 +7.968088E-03 
 +8.126113E-04 -1.611363E-04 -7.386999E-05 -1.611363E-04 -1.765574E-04 -3.215217E-04 -7.386999E-05 -3.215217E-04 +7.629555E-03 
 -1.003560E-04 +5.265681E-05 +1.785688E-04 +5.265681E-05 +4.613237E-04 -3.092988E-04 +1.785688E-04 -3.092988E-04 +6.950460E-03 
 +1.717094E-04 -2.812557E-05 +1.675326E-04 -2.812557E-05 -4.019186E-04 -2.873191E-04 +1.675326E-04 -2.873191E-04 +7.697385E-03 
 +1.762493E-04 +1.148803E-04 +2.218132E-04 +1.148803E-04 +1.912619E-04 -1.853075E-04 +2.218132E-04 -1.853075E-04 +7.157798E-03 
 -4.431055E-04 -6.828866E-04 -6.811952E-04 -6.828866E-04 +1.138646E-04 -2.761110E-04 -6.811952E-04 -2.761110E-04 +7.945702E-03 
 +4.148035E-06 +1.039488E-03 -4.746003E-04 +1.039488E-03 -4.729795E-04 -1.158058E-04 -4.746003E-04 -1.158058E-04 +7.892932E-03 
 -2.674008E-05 -4.474167E-04 -1.712639E-04 -4.474167E-04 +1.210447E-04 -1.056955E-03 -1.712639E-04 -1.056955E-03 +7.689225E-03 
 -5.286101E-04 +8.541583E-04 -5.011362E-05 +8.541583E-04 +1.074805E-04 -5.879765E-04 -5.011362E-05 -5.879765E-04 +7.855922E-03 
 -8.095480E-05 -8.751772E-04 +4.542738E-05 -8.751772E-04 +1.973058E-04 -5.767489E-05 +4.542738E-05 -5.767489E-05 +7.527089E-03 
 +5.715794E-05 -2.251519E-04 +8.274036E-05 -2.251519E-04 -8.053466E-04 -2.504965E-04 +8.274036E-05 -2.504965E-04 +8.153303E-03 
 -7.102285E-04 -3.622241E-04 -3.170468E-04 -3.622241E-04 +3.560557E-04 +2.292887E-04 -3.170468E-04 +2.292887E-04 +7.916172E-03 
 -4.995210E-04 +5.823805E-04 -1.479801E-04 +5.823805E-04 +1.852510E-04 +1.998510E-04 -1.479801E-04 +1.998510E-04 +7.839877E-03 
 -1.128425E-04 -1.165410E-04 +2.583313E-04 -1.165410E-04 -3.812855E-04 +1.665238E-04 +2.583313E-04 +1.665238E-04 +7.743276E-03 
 +1.244976E-04 +3.947671E-04 -2.250769E-05 +3.947671E-04 +2.159634E-04 +6.202899E-04 -2.250769E-05 +6.202899E-04 +7.145952E-03 
 -2.772166E-05 +1.026461E-04 +1.442855E-04 +1.026461E-04 +1.777111E-04 +1.406714E-04 +1.442855E-04 +1.406714E-04 +6.885394E-03 
 +2.318731E-04 +5.350325E-04 +5.754896E-04 +5.350325E-04 +8.745379E-05 -3.272618E-04 +5.754896E-04 -3.272618E-04 +7.011866E-03 
 +3.134815E-04 +9.109818E-04 +6.363491E-04 +9.109818E-04 -1.868175E-04 +4.497801E-04 +6.363491E-04 +4.497801E-04 +7.617890E-03 
 +4.918652E-04 +3.065089E-04 -2.608610E-04 +3.065089E-04 +9.122828E-05 +5.532045E-04 -2.608610E-04 +5.532045E-04 +7.317630E-03 
 +5.550659E-04 -2.910956E-04 +2.894566E-04 -2.910956E-04 -8.065555E-06 +4.983125E-04 +2.894566E-04 +4.983125E-04 +7.394781E-03 
 -1.963653E-04 +5.453108E-04 +2.487985E-04 +5.453108E-04 +1.230753E-04 +1.217999E-04 +2.487985E-04 +1.217999E-04 +7.616790E-03 
 +2.099118E-04 -6.820702E-05 +1.071162E-04 -6.820702E-05 -1.020594E-04 -4.452005E-04 +1.071162E-04 -4.452005E-04 +7.298541E-03 
 +2.504218E-04 -2.924642E-04 +3.048525E-04 -2.924642E-04 +6.001265E-05 +3.583466E-04 +3.048525E-04 +3.583466E-04 +6.942945E-03 
 -2.037032E-04 -3.582272E-04 -2.113091E-04 -3.582272E-04 +1.030640E-04 +5.789897E-04 -2.113091E-04 +5.789897E-04 +7.387446E-03 
 +8.858269E-05 -3.043761E-04 +3.305342E-05 -3.043761E-04 -6.367012E-06 -3.031695E-04 +3.305342E-05 -3.031695E-04 +7.438692E-03 
 -1.191968E-04 -4.149795E-04 +1.621513E-04 -4.149795E-04 -1.838599E-04 +1.448776E-04 +1.621513E-04 +1.448776E-04 +7.699008E-03 
 -3.082594E-04 +4.321249E-04 +1.879931E-04 +4.321249E-04 +3.606938E-04 +9.733684E-04 +1.879931E-04 +9.733684E-04 +7.133456E-03 
 -8.062282E-05 +4.204421E-04 -6.508918E-04 +4.204421E-04 -4.208171E-04 +6.874597E-05 -6.508918E-04 +6.874597E-05 +7.309348E-03 
 +1.546942E-04 +1.211667E-04 +3.232564E-04 +1.211667E-04 -1.136457E-04 +5.697072E-04 +3.232564E-04 +5.697072E-04 +7.260003E-03 
 +1.234055E-04 +3.296672E-04 +5.341657E-04 +3.296672E-04 +1.647798E-05 +7.221912E-04 +5.341657E-04 +7.221912E-04 +7.146642E-03 
 +2.749591E-04 +7.714829E-05 -2.792251E-04 +7.714829E-05 -1.230811E-04 +3.185969E-04 -2.792251E-04 +3.185969E-04 +7.296376E-03 
 +8.631556E-05 -6.218826E-04 +3.773463E-04 -6.218826E-04 +1.231403E-04 -6.313709E-04 +3.773463E-04 -6.313709E-04 +6.819534E-03 
 -1.894182E-04 -1.803776E-04 +2.514925E-04 -1.803776E-04 +9.613764E-05 +7.521694E-04 +2.514925E-04 +7.521694E-04 +6.967118E-03 
 -2.085367E-05 -6.549424E-04 +6.898629E-05 -6.549424E-04 +1.223565E-04 +5.748392E-04 +6.898629E-05 +5.748392E-04 +7.346283E-03 
 -4.850764E-04 -9.152922E-04 -2.572580E-04 -9.152922E-04 -2.447462E-05 -1.009603E-04 -2.572580E-04 -1.009603E-04 +7.853962E-03 
 -4.300137E-04 -1.465106E-04 +3.142375E-04 -1.465106E-04 +4.107298E-05 +6.877428E-04 +3.142375E-04 +6.877428E-04 +8.127205E-03 
 -7.953760E-05 -1.381453E-04 +2.795367E-04 -1.381453E-04 -2.911569E-06 +7.955038E-05 +2.795367E-04 +7.955038E-05 +7.758071E-03 
 +1.942297E-05 +6.404175E-04 +8.158576E-05 +6.404175E-04 +4.006114E-05 -3.209811E-04 +8.158576E-05 -3.209811E-04 +7.454284E-03 
 +8.899297E-05 -1.420768E-04 -1.884459E-04 -1.420768E-04 -1.905951E-04 +5.617132E-04 -1.884459E-04 +5.617132E-04 +7.343658E-03 
 -1.956631E-05 -4.167600E-04 +2.000638E-04 -4.167600E-04 +2.792600E-04 -5.529640E-05 +2.000638E-04 -5.529640E-05 +7.219625E-03 
 +1.511665E-04 -5.910060E-04 +2.213392E-05 -5.910060E-04 -5.706084E-04 -2.504869E-04 +2.213392E-05 -2.504869E-04 +7.693308E-03 
 +4.500011E-04 -9.581382E-04 -1.820298E-04 -9.581382E-04 -6.442705E-05 +6.251789E-04 -1.820298E-04 +6.251789E-04 +7.221385E-03 
 +1.483214E-04 -2.853469E-04 +4.581358E-05 -2.853469E-04 +4.863174E-04 +1.835468E-04 +4.581358E-05 +1.835468E-04 +6.807409E-03 
 +1.721280E-05 -8.863067E-04 +4.154574E-05 -8.863067E-04 -1.608187E-05 -1.786804E-04 +4.154574E-05 -1.786804E-04 +7.627475E-03 
 +2.099788E-04 +1.559842E-04 -2.992837E-04 +1.559842E-04 -1.740610E-04 +3.793342E-05 -2.992837E-04 +3.793342E-05 +7.525577E-03 
 +1.746514E-04 +4.853120E-04 -5.144835E-04 +4.853120E-04 +2.768715E-04 +3.249301E-04 -5.144835E-04 +3.249301E-04 +7.515222E-03 
 -2.433437E-04 +3.368880E-04 +3.108132E-04 +3.368880E-04 +7.759581E-05 -9.993988E-05 +3.108132E-04 -9.993988E-05 +7.616790E-03 
 +2.271242E-05 +1.189462E-04 +5.716899E-05 +1.189462E-04 -2.906665E-04 +1.342717E-04 +5.716899E-05 +1.342717E-04 +7.578168E-03 
 +4.453860E-04 -1.041745E-04 +1.215510E-04 -1.041745E-04 -6.232647E-06 -3.442634E-04 +1.215510E-04 -3.442634E-04 +7.383796E-03 
 +1.056354E-04 +9.606152E-04 +2.359887E-04 +9.606152E-04 -2.567351E-04 -1.151581E-03 +2.359887E-04 -1.151581E-03 +7.364523E-03 
 +3.650346E-04 -3.118100E-04 +9.893284E-05 -3.118100E-04 +2.052531E-04 +4.219845E-04 +9.893284E-05 +4.219845E-04 +7.516373E-03 
 +2.867221E-04 +2.381952E-04 -6.917253E-06 +2.381952E-04 -3.108688E-04 +3.857878E-04 -6.917253E-06 +3.857878E-04 +7.390657E-03 
 -2.503492E-04 -3.145965E-05 +1.107864E-04 -3.145965E-05 +2.210316E-04 +5.223884E-04 +1.107864E-04 +5.223884E-04 +7.611655E-03 
 -1.275847E-04 +8.773798E-04 +3.167927E-04 +8.773798E-04 -2.554161E-04 -2.106993E-04 +3.167927E-04 -2.106993E-04 +8.184832E-03 
 +2.430153E-04 -9.600841E-04 +7.483998E-05 -9.600841E-04 +1.908587E-04 -1.610873E-04 +7.483998E-05 -1.610873E-04 +7.882130E-03 
 -1.304210E-04 -3.441526E-04 -5.217369E-05 -3.441526E-04 +2.204741E-04 -3.577941E-04 -5.217369E-05 -3.577941E-04 +7.197833E-03 
 -1.522623E-04 +3.599691E-04 +2.502015E-05 +3.599691E-04 +1.604477E-05 +1.695393E-04 +2.502015E-05 +1.695393E-04 +7.334102E-03 
 -2.773136E-04 -9.865251E-04 +2.494557E-04 -9.865251E-04 +1.984630E-04 -7.558649E-04 +2.494557E-04 -7.558649E-04 +7.475813E-03 
 +3.626425E-05 -3.709538E-04 -6.732011E-05 -3.709538E-04 -2.203040E-04 +4.402703E-04 -6.732011E-05 +4.402703E-04 +7.615691E-03 
 +1.217667E-04 -4.854900E-04 -1.926245E-04 -4.854900E-04 -6.389768E-06 +3.076291E-04 -1.926245E-04 +3.076291E-04 +7.500497E-03 
 -3.718202E-04 -7.461130E-04 -2.148650E-05 -7.461130E-04 +5.302841E-05 -5.982086E-04 -2.148650E-05 -5.982086E-04 +8.037534E-03 
 -2.323349E-04 +5.649832E-04 +1.568523E-04 +5.649832E-04 -2.466914E-04 +4.278165E-04 +1.568523E-04 +4.278165E-04 +7.608210E-03 
 -1.256248E-04 -8.773051E-04 +4.449742E-05 -8.773051E-04 -6.995601E-06 -7.177321E-04 +4.449742E-05 -7.177321E-04 +7.633117E-03 
 -2.219396E-04 -6.918450E-05 -2.178888E-04 -6.918450E-05 +2.705175E-05 -3.255284E-04 -2.178888E-04 -3.255284E-04 +7.943455E-03 
 +1.331705E-05 +6.836584E-04 -3.796702E-04 +6.836584E-04 +1.865080E-04 -2.963060E-04 -3.796702E-04 -2.963060E-04 +7.581112E-03 
 +1.496138E-04 +4.848807E-04 -3.297577E-04 +4.848807E-04 -4.235100E-05 -3.133650E-04 -3.297577E-04 -3.133650E-04 +7.332976E-03 
 +6.446371E-05 +2.322018E-04 -5.902713E-04 +2.322018E-04 +5.657339E-05 -3.130145E-04 -5.902713E-04 -3.130145E-04 +7.347935E-03 
 -2.215955E-04 +7.190427E-04 -6.629219E-04 +7.190427E-04 +1.518995E-04 -9.177115E-04 -6.629219E-04 -9.177115E-04 +7.545609E-03 
 -2.414856E-05 -9.155202E-04 -1.739015E-04 -9.155202E-04 -1.778962E-04 -5.300981E-04 -1.739015E-04 -5.300981E-04 +7.468967E-03 
 +4.266883E-04 -2.507102E-04 -2.873379E-04 -2.507102E-04 -1.664518E-05 +7.177360E-05 -2.873379E-04 +7.177360E-05 +7.111230E-03 
 +2.836720E-05 -1.113186E-04 -2.254256E-04 -1.113186E-04 -1.367001E-04 +1.938802E-04 -2.254256E-04 +1.938802E-04 +7.577840E-03 
 -1.452718E-04 -2.166708E-04 +2.407976E-04 -2.166708E-04 +1.994472E-04 +3.798929E-04 +2.407976E-04 +3.798929E-04 +7.517116E-03 
 -1.785691E-04 +2.738726E-04 +2.405710E-04 +2.738726E-04 +8.991166E-05 +1.082845E-04 +2.405710E-04 +1.082845E-04 +7.451578E-03 
 +1.159406E-04 +5.662470E-04 +2.418111E-05 +5.662470E-04 -5.881148E-04 -2.409292E-04 +2.418111E-05 -2.409292E-04 +7.976633E-03 
 -2.010686E-06 +8.344612E-05 +2.218817E-04 +8.344612E-05 +1.683621E-04 +1.730896E-04 +2.218817E-04 +1.730896E-04 +7.253443E-03 
 +1.641502E-04 +2.709424E-04 +8.996266E-05 +2.709424E-04 +3.243702E-04 +6.969498E-04 +8.996266E-05 +6.969498E-04 +7.072606E-03 
 +2.703365E-05 +6.770655E-04 -2.832596E-05 +6.770655E-04 -1.381121E-04 -1.838373E-04 -2.832596E-05 -1.838373E-04 +7.721208E-03 
 -2.429184E-04 +6.444226E-05 +5.778404E-05 +6.444226E-05 +1.520747E-04 +1.699969E-04 +5.778404E-05 +1.699969E-04 +7.304573E-03 
 -3.841829E-04 -1.768396E-04 +1.380323E-04 -1.768396E-04 +4.116503E-04 -5.041203E-04 +1.380323E-04 -5.041203E-04 +7.290220E-03 
 +9.992581E-05 -6.508139E-04 +2.034937E-04 -6.508139E-04 -2.455772E-04 -8.660880E-05 +2.034937E-04 -8.660880E-05 +7.546036E-03 
 -1.041687E-04 +1.080196E-03 -2.455540E-05 +1.080196E-03 -2.220248E-04 -1.852283E-04 -2.455540E-05 -1.852283E-04 +7.872876E-03 
 +1.779736E-05 -4.577462E-05 +2.650375E-04 -4.577462E-05 -1.670836E-04 +6.096056E-05 +2.650375E-04 +6.096056E-05 +7.225803E-03 
 +8.993127E-05 +1.782270E-04 +4.298081E-04 +1.782270E-04 -1.041361E-04 +3.544431E-04 +4.298081E-04 +3.544431E-04 +7.582150E-03 
 +1.057043E-04 +4.883077E-04 -4.542896E-04 +4.883077E-04 -3.285163E-04 -2.856043E-04 -4.542896E-04 -2.856043E-04 +7.684700E-03 
 +2.225859E-05 -5.091437E-05 +1.675022E-05 -5.091437E-05 +9.831825E-05 +3.914351E-04 +1.675022E-05 +3.914351E-04 +7.169979E-03 
 +1.669118E-04 +2.952448E-04 -1.770323E-04 +2.952448E-04 +4.475603E-04 +7.036074E-05 -1.770323E-04 +7.036074E-05 +7.185641E-03 
 +2.038953E-04 -4.627429E-05 +6.914500E-04 -4.627429E-05 -1.516710E-04 +3.121034E-04 +6.914500E-04 +3.121034E-04 +7.554533E-03 
 +4.418358E-04 -6.931148E-04 +5.684835E-04 -6.931148E-04 -5.574280E-05 +4.437570E-04 +5.684835E-04 +4.437570E-04 +7.490864E-03 
 +6.622329E-05 -1.298700E-04 -3.854968E-04 -1.298700E-04 +1.191071E-04 +5.428996E-04 -3.854968E-04 +5.428996E-04 +7.450766E-03 
 -3.045525E-04 +6.750310E-04 +5.183740E-04 +6.750310E-04 +2.094226E-04 +6.299647E-05 +5.183740E-04 +6.299647E-05 +7.742924E-03 
 -4.550643E-04 -6.855230E-04 +1.872469E-04 -6.855230E-04 -3.526627E-04 -3.984740E-04 +1.872469E-04 -3.984740E-04 +7.941259E-03 
 -3.844635E-04 +4.119231E-04 -6.219903E-04 +4.119231E-04 +3.018361E-04 -3.498087E-05 -6.219903E-04 -3.498087E-05 +7.560782E-03 
 -1.294232E-04 -6.586049E-04 +5.452909E-04 -6.586049E-04 -1.936937E-04 -1.535549E-04 +5.452909E-04 -1.535549E-04 +7.616844E-03 
 +6.788178E-05 +8.047830E-04 -1.232327E-04 +8.047830E-04 -2.124108E-04 +2.255945E-04 -1.232327E-04 +2.255945E-04 +7.842338E-03 
 +4.658448E-04 +1.739410E-04 +1.276952E-04 +1.739410E-04 +7.957420E-05 +4.005888E-04 +1.276952E-04 +4.005888E-04 +7.309614E-03 
 +5.043406E-05 -8.457677E-04 -6.672823E-05 -8.457677E-04 +1.888922E-04 +9.880149E-05 -6.672823E-05 +9.880149E-05 +7.543947E-03 
 -1.391144E-04 -4.936802E-04 -5.613394E-04 -4.936802E-04 +7.930858E-05 +5.286993E-05 -5.613394E-04 +5.286993E-05 +7.611759E-03 
 +6.711094E-04 -2.680883E-05 -4.128706E-04 -2.680883E-05 -2.631695E-04 -3.959272E-04 -4.128706E-04 -3.959272E-04 +6.982667E-03 
 +2.508904E-04 +3.579563E-05 -2.832015E-04 +3.579563E-05 +1.205210E-04 -2.082095E-04 -2.832015E-04 -2.082095E-04 +7.151293E-03 
 -2.478582E-04 -8.322987E-04 -6.821992E-05 -8.322987E-04 +2.134646E-05 -7.029814E-04 -6.821992E-05 -7.029814E-04 +7.304995E-03 
 -4.565439E-05 -2.599952E-04 +3.109106E-04 -2.599952E-04 -4.551266E-05 -4.545301E-04 +3.109106E-04 -4.545301E-04 +7.552474E-03 
 +1.454931E-04 +5.492479E-05 -1.255207E-04 +5.492479E-05 +2.090502E-04 +3.397908E-04 -1.255207E-04 +3.397908E-04 +7.399862E-03 
 +2.564437E-04 -6.953148E-05 -3.579028E-05 -6.953148E-05 -8.648256E-05 -5.739059E-04 -3.579028E-05 -5.739059E-04 +7.820201E-03 
 +1.148444E-04 -9.334080E-04 -2.419394E-04 -9.334080E-04 -1.425350E-04 +6.412341E-05 -2.419394E-04 +6.412341E-05 +7.384808E-03 
 +1.951503E-04 +7.184177E-04 -2.586129E-04 +7.184177E-04 +1.829674E-04 +1.769326E-04 -2.586129E-04 +1.769326E-04 +7.101452E-03 
 +2.438705E-04 -6.647562E-04 -4.275463E-05 -6.647562E-04 -2.616591E-04 +6.388751E-05 -4.275463E-05 +6.388751E-05 +7.466017E-03 
 +8.222516E-05 +2.501601E-04 -3.055114E-04 +2.501601E-04 +3.904686E-04 +2.509445E-04 -3.055114E-04 +2.509445E-04 +7.443315E-03 
 -1.441317E-06 +4.050834E-05 -4.077012E-04 +4.050834E-05 -3.409134E-05 +2.687352E-06 -4.077012E-04 +2.687352E-06 +7.366145E-03 
 +1.406865E-04 -9.987711E-05 -2.751899E-05 -9.987711E-05 -7.543829E-05 -3.915666E-05 -2.751899E-05 -3.915666E-05 +7.389585E-03 
 +3.616895E-04 -4.751006E-04 +1.928236E-04 -4.751006E-04 +2.535465E-04 +2.393155E-05 +1.928236E-04 +2.393155E-05 +7.229015E-03 
 -2.152130E-04 -5.906768E-05 -6.274451E-04 -5.906768E-05 +7.462371E-05 +2.417613E-04 -6.274451E-04 +2.417613E-04 +7.269293E-03 
 -4.667103E-04 +4.071225E-04 +2.990866E-05 +4.071225E-04 -1.951622E-04 +4.488525E-04 +2.990866E-05 +4.488525E-04 +7.596691E-03 
 +2.738064E-04 -3.353824E-04 +4.789030E-04 -3.353824E-04 -2.897745E-04 -2.795895E-04 +4.789030E-04 -2.795895E-04 +7.578255E-03 
 -2.579663E-04 -1.186929E-03 -2.689767E-04 -1.186929E-03 +1.200024E-04 +2.383547E-04 -2.689767E-04 +2.383547E-04 +7.555524E-03 
 -1.975334E-04 +9.598439E-05 +3.723258E-04 +9.598439E-05 +6.897844E-05 +6.769919E-04 +3.723258E-04 +6.769919E-04 +7.274384E-03 
 +2.714610E-04 -3.019469E-04 -1.615180E-04 -3.019469E-04 -4.939354E-05 +1.323108E-04 -1.615180E-04 +1.323108E-04 +7.355367E-03 
 +1.276476E-04 +1.071684E-04 +1.117669E-04 +1.071684E-04 +1.720213E-05 -1.915323E-04 +1.117669E-04 -1.915323E-04 +7.420854E-03 
 +5.283728E-04 -2.538013E-04 -2.113559E-04 -2.538013E-04 -3.477619E-05 -1.528302E-04 -2.113559E-04 -1.528302E-04 +7.104299E-03 
 +4.460526E-04 +2.828957E-04 -4.519881E-04 +2.828957E-04 -9.692834E-05 -3.085386E-04 -4.519881E-04 -3.085386E-04 +7.230562E-03 
 +3.424709E-04 -2.543098E-04 -4.351684E-04 -2.543098E-04 -1.959579E-05 +1.857803E-04 -4.351684E-04 +1.857803E-04 +7.087359E-03 
 -4.790171E-05 -1.204892E-03 -4.107782E-04 -1.204892E-03 -2.879519E-04 +5.352601E-04 -4.107782E-04 +5.352601E-04 +7.579525E-03 
 -3.234874E-04 +2.570536E-04 +5.388620E-04 +2.570536E-04 +1.933055E-04 -9.578866E-05 +5.388620E-04 -9.578866E-05 +7.496917E-03 
 +2.817608E-04 -3.049961E-04 +2.028675E-04 -3.049961E-04 +2.729070E-04 -1.546352E-04 +2.028675E-04 -1.546352E-04 +7.341221E-03 
 -6.283152E-06 +4.618880E-05 -1.404068E-04 +4.618880E-05 +6.495048E-04 +1.594659E-04 -1.404068E-04 +1.594659E-04 +6.811067E-03 
 -6.029200E-05 -1.444144E-03 +1.475343E-04 -1.444144E-03 -3.400673E-04 +3.802011E-04 +1.475343E-04 +3.802011E-04 +7.539256E-03 
 -3.292290E-04 +1.750315E-04 +1.439830E-05 +1.750315E-04 +3.176501E-04 -9.116625E-04 +1.439830E-05 -9.116625E-04 +7.530467E-03 
 -1.810666E-04 -1.960066E-04 +8.017269E-05 -1.960066E-04 +6.029049E-05 +7.063209E-04 +8.017269E-05 +7.063209E-04 +7.362604E-03 
 +1.455678E-04 +6.349923E-04 -3.728102E-05 +6.349923E-04 -2.240885E-04 -4.122431E-05 -3.728102E-05 -4.122431E-05 +7.524958E-03 
 +7.406046E-05 +3.291212E-04 +1.099836E-04 +3.291212E-04 +9.772199E-05 +1.313029E-04 +1.099836E-04 +1.313029E-04 +7.365481E-03 
 +2.948904E-05 -2.344401E-04 +2.445818E-05 -2.344401E-04 -3.415099E-06 -3.828316E-05 +2.445818E-05 -3.828316E-05 +7.506021E-03 
 +3.544361E-04 -3.581669E-04 -3.624654E-04 -3.581669E-04 +7.418772E-05 -1.717281E-04 -3.624654E-04 -1.717281E-04 +7.573964E-03 
 -2.232229E-04 -4.611158E-04 -4.701804E-04 -4.611158E-04 +1.730702E-04 -1.063233E-04 -4.701804E-04 -1.063233E-04 +7.523642E-03 
 -2.914536E-04 +1.166261E-03 +1.541284E-04 +1.166261E-03 +2.966676E-04 -6.464888E-05 +1.541284E-04 -6.464888E-05 +7.554532E-03 
 +3.444465E-04 -4.435426E-04 -9.474067E-05 -4.435426E-04 -8.414708E-04 -1.578473E-04 -9.474067E-05 -1.578473E-04 +7.959086E-03 
 -2.797247E-04 -9.197529E-05 +6.500656E-05 -9.197529E-05 +2.138720E-04 +5.369099E-05 +6.500656E-05 +5.369099E-05 +7.614302E-03 
 -7.472035E-04 +9.817046E-04 +1.620406E-04 +9.817046E-04 +2.544046E-04 -1.607269E-04 +1.620406E-04 -1.607269E-04 +7.848800E-03 
 +3.925340E-04 -7.826319E-04 -1.425644E-04 -7.826319E-04 -3.089992E-04 -2.074495E-04 -1.425644E-04 -2.074495E-04 +7.844810E-03 
 +6.164497E-04 +8.150003E-04 -5.445383E-04 +8.150003E-04 +1.079588E-04 -3.492699E-04 -5.445383E-04 -3.492699E-04 +7.138014E-03 
 +3.836559E-04 +1.698568E-04 -2.513868E-04 +1.698568E-04 -1.791880E-04 -4.439352E-04 -2.513868E-04 -4.439352E-04 +7.108478E-03 
 -3.244609E-04 -3.281707E-04 -6.121565E-04 -3.281707E-04 -2.160069E-05 -1.720635E-04 -6.121565E-04 -1.720635E-04 +7.450921E-03 
 -6.069196E-04 -1.052249E-03 -3.730714E-04 -1.052249E-03 -1.011528E-04 -9.558391E-05 -3.730714E-04 -9.558391E-05 +8.299421E-03 
 -2.046240E-04 +2.290643E-04 +4.282777E-04 +2.290643E-04 -1.595542E-04 -2.696641E-04 +4.282777E-04 -2.696641E-04 +7.639328E-03 
 +2.130576E-05 -6.451125E-05 +2.886635E-04 -6.451125E-05 +2.818592E-05 -2.027038E-04 +2.886635E-04 -2.027038E-04 +7.645372E-03 
 +1.372992E-05 +3.765853E-04 -3.436114E-04 +3.765853E-04 -9.413722E-05 -6.009226E-04 -3.436114E-04 -6.009226E-04 +7.624441E-03 
 -6.012582E-04 +3.961939E-04 -1.541156E-04 +3.961939E-04 +1.906734E-04 +1.222484E-04 -1.541156E-04 +1.222484E-04 +7.724261E-03 
 -6.165376E-04 -1.055990E-03 +1.866904E-04 -1.055990E-03 +3.786472E-04 +1.147569E-04 +1.866904E-04 +1.147569E-04 +7.279199E-03 
 +1.328397E-04 +1.544873E-05 +2.951618E-04 +1.544873E-05 -1.529002E-04 +1.316055E-04 +2.951618E-04 +1.316055E-04 +7.383408E-03 
 +6.725990E-05 +2.479195E-04 +1.075228E-04 +2.479195E-04 +1.261612E-04 +5.158797E-05 +1.075228E-04 +5.158797E-05 +7.646380E-03 
 +2.445830E-04 -3.089655E-04 -4.698334E-04 -3.089655E-04 -2.397331E-04 -5.030403E-04 -4.698334E-04 -5.030403E-04 +7.447488E-03 
 +3.422752E-04 +7.344724E-04 +2.590327E-04 +7.344724E-04 +2.440422E-05 +1.025846E-04 +2.590327E-04 +1.025846E-04 +7.320860E-03 
 +2.001915E-04 +1.190110E-04 +6.643917E-04 +1.190110E-04 +9.590110E-05 +4.882515E-05 +6.643917E-04 +4.882515E-05 +7.118647E-03 
 +2.566569E-04 +2.093805E-04 -5.991306E-04 +2.093805E-04 +4.188783E-05 +1.410484E-04 -5.991306E-04 +1.410484E-04 +7.264583E-03 
 +2.611039E-04 +3.053182E-04 +3.844810E-04 +3.053182E-04 +4.094956E-05 +1.235315E-04 +3.844810E-04 +1.235315E-04 +7.149542E-03 
 +1.992269E-04 -1.584318E-04 +1.225011E-05 -1.584318E-04 +2.301212E-04 +2.741234E-05 +1.225011E-05 +2.741234E-05 +6.919099E-03 
 +2.663814E-04 +1.049517E-04 -3.109844E-04 +1.049517E-04 -4.711801E-05 +3.748528E-04 -3.109844E-04 +3.748528E-04 +7.063342E-03 
 +5.320273E-05 +1.063592E-04 +2.668009E-04 +1.063592E-04 -7.510355E-04 +4.823855E-06 +2.668009E-04 +4.823855E-06 +7.824746E-03 
 -2.510415E-04 +8.241796E-04 +2.686153E-04 +8.241796E-04 +4.767850E-05 -1.173347E-04 +2.686153E-04 -1.173347E-04 +7.399670E-03 
 +1.341254E-04 +1.250899E-04 +3.513226E-04 +1.250899E-04 +4.515464E-04 -1.014685E-03 +3.513226E-04 -1.014685E-03 +6.998321E-03 
 +2.070585E-04 -2.923809E-04 -3.409160E-04 -2.923809E-04 +5.942994E-05 +1.301033E-04 -3.409160E-04 +1.301033E-04 +7.627575E-03 
 +1.886199E-04 +1.482233E-04 -3.028596E-04 +1.482233E-04 -5.019665E-04 -1.685554E-05 -3.028596E-04 -1.685554E-05 +8.002874E-03 
 -7.613313E-05 -6.626438E-04 +5.471969E-04 -6.626438E-04 -3.139163E-04 -9.793584E-05 +5.471969E-04 -9.793584E-05 +7.944399E-03 
 -1.784861E-04 +1.680210E-04 +7.936374E-04 +1.680210E-04 +3.622303E-04 -1.514494E-05 +7.936374E-04 -1.514494E-05 +7.174859E-03 
 +1.357737E-04 -5.589438E-04 +4.496725E-04 -5.589438E-04 -2.527665E-04 -1.818983E-04 +4.496725E-04 -1.818983E-04 +7.358415E-03 
 +2.227411E-04 +1.395669E-04 -4.662633E-05 +1.395669E-04 +3.266317E-05 +4.532488E-04 -4.662633E-05 +4.532488E-04 +7.260588E-03 
 -3.243636E-05 -2.598050E-04 +1.446201E-04 -2.598050E-04 +1.770929E-04 -3.356793E-04 +1.446201E-04 -3.356793E-04 +7.069372E-03 
 -3.075019E-04 +4.499393E-04 +3.309449E-04 +4.499393E-04 -3.440119E-04 +2.596385E-04 +3.309449E-04 +2.596385E-04 +7.725832E-03 
 -2.753101E-04 -1.188435E-04 +4.034155E-04 -1.188435E-04 +7.032027E-04 -6.340825E-04 +4.034155E-04 -6.340825E-04 +7.433264E-03 
 +1.357693E-04 -1.201668E-04 +1.731078E-04 -1.201668E-04 -1.956567E-04 -7.000693E-04 +1.731078E-04 -7.000693E-04 +7.328243E-03 
 +1.438240E-04 -2.843569E-04 -4.831056E-04 -2.843569E-04 -2.750714E-04 -2.948107E-04 -4.831056E-04 -2.948107E-04 +7.082418E-03 
 +3.822852E-04 +7.328403E-05 -6.212672E-07 +7.328403E-05 +3.932001E-04 -5.747957E-05 -6.212672E-07 -5.747957E-05 +7.059096E-03 
 -3.479743E-05 +9.122162E-05 +1.454725E-04 +9.122162E-05 +4.733554E-05 +4.328576E-04 +1.454725E-04 +4.328576E-04 +7.589314E-03 
 -1.713174E-04 +4.985716E-05 -9.226036E-05 +4.985716E-05 -3.603953E-04 -1.494671E-04 -9.226036E-05 -1.494671E-04 +7.592268E-03 
 +2.653926E-04 +2.506155E-04 +1.302773E-04 +2.506155E-04 +2.875853E-04 -3.578070E-04 +1.302773E-04 -3.578070E-04 +7.219899E-03 
 +3.896985E-04 -2.690362E-04 +3.715160E-05 -2.690362E-04 +6.612716E-05 -2.123006E-04 +3.715160E-05 -2.123006E-04 +7.336094E-03 
 +3.901155E-04 -4.417905E-04 +9.418763E-04 -4.417905E-04 -1.164965E-04 -1.221495E-04 +9.418763E-04 -1.221495E-04 +7.416986E-03 
 +2.882801E-04 -9.365614E-04 +4.174289E-04 -9.365614E-04 -7.376967E-05 -3.652899E-04 +4.174289E-04 -3.652899E-04 +7.498592E-03 
 -4.415505E-07 -6.451291E-04 -3.045893E-04 -6.451291E-04 -1.254871E-04 +3.158697E-05 -3.045893E-04 +3.158697E-05 +7.462324E-03 
 -1.704939E-04 +6.741751E-04 +5.695692E-04 +6.741751E-04 -1.215656E-04 +3.956166E-04 +5.695692E-04 +3.956166E-04 +7.586925E-03 
 -2.170052E-04 -3.183540E-04 +1.172670E-05 -3.183540E-04 +1.412812E-04 -6.380538E-05 +1.172670E-05 -6.380538E-05 +7.472898E-03 
 -3.261605E-05 -3.336568E-04 -2.581815E-04 -3.336568E-04 +4.248359E-04 -4.470868E-04 -2.581815E-04 -4.470868E-04 +7.038227E-03 
 -8.155693E-06 -8.888529E-04 +8.917592E-05 -8.888529E-04 -5.380184E-04 +9.807306E-04 +8.917592E-05 +9.807306E-04 +7.668437E-03 
 -7.797321E-05 +3.110638E-04 -1.043242E-05 +3.110638E-04 +3.585121E-05 +7.169652E-04 -1.043242E-05 +7.169652E-04 +8.151926E-03 
 -5.914501E-05 +4.403573E-04 +1.095138E-04 +4.403573E-04 -5.908976E-05 +2.898709E-04 +1.095138E-04 +2.898709E-04 +7.826767E-03 
 +5.288774E-05 +8.270169E-04 +2.037832E-05 +8.270169E-04 -1.193688E-04 +9.467197E-05 +2.037832E-05 +9.467197E-05 +7.481839E-03 
 -1.783134E-04 +6.258908E-05 -3.009046E-04 +6.258908E-05 +1.834623E-04 +2.904233E-04 -3.009046E-04 +2.904233E-04 +7.426634E-03 
 -9.841751E-06 -3.599058E-04 -2.767944E-04 -3.599058E-04 +4.697252E-05 +1.518319E-04 -2.767944E-04 +1.518319E-04 +7.856544E-03 
 -3.386673E-04 +1.625215E-04 +7.324865E-05 +1.625215E-04 +2.882956E-04 -8.706991E-05 +7.324865E-05 -8.706991E-05 +7.644106E-03 
 -2.076593E-04 +3.224827E-04 +2.756792E-04 +3.224827E-04 +2.373971E-05 +4.786534E-04 +2.756792E-04 +4.786534E-04 +7.639037E-03 
 -1.574140E-04 -4.356476E-04 +1.713309E-04 -4.356476E-04 +1.723241E-04 +5.032159E-04 +1.713309E-04 +5.032159E-04 +7.721415E-03 
 +2.297801E-04 -4.619839E-04 -4.897531E-04 -4.619839E-04 -5.820064E-04 +7.321698E-05 -4.897531E-04 +7.321698E-05 +7.672096E-03 
 +1.003774E-04 +1.173966E-03 -6.900153E-04 +1.173966E-03 +2.090573E-04 -5.719772E-04 -6.900153E-04 -5.719772E-04 +7.416763E-03 
 -1.428540E-04 +2.675328E-04 -5.300550E-04 +2.675328E-04 +4.239532E-04 +1.870661E-04 -5.300550E-04 +1.870661E-04 +7.230321E-03 
 +1.149200E-04 +1.847049E-04 +9.871733E-05 +1.847049E-04 -3.727718E-04 -1.637800E-04 +9.871733E-05 -1.637800E-04 +7.698230E-03 
 +3.383636E-06 +1.276539E-04 +1.492609E-04 +1.276539E-04 +1.065491E-04 +1.516524E-04 +1.492609E-04 +1.516524E-04 +7.679004E-03 
 -4.364254E-05 -3.196617E-04 +4.109663E-04 -3.196617E-04 -7.310558E-05 -6.319943E-05 +4.109663E-04 -6.319943E-05 +7.545113E-03 
 +9.236650E-05 +4.308797E-04 +1.068509E-04 +4.308797E-04 -2.847741E-04 -2.255632E-04 +1.068509E-04 -2.255632E-04 +7.910433E-03 
 -1.156303E-04 -1.218954E-03 -5.789143E-05 -1.218954E-03 +1.172949E-05 +3.134664E-04 -5.789143E-05 +3.134664E-04 +7.719724E-03 
 -5.013035E-05 +3.791521E-04 +9.714020E-05 +3.791521E-04 +3.594440E-04 -9.122026E-05 +9.714020E-05 -9.122026E-05 +7.038914E-03 
 +2.571595E-04 +4.589426E-04 -2.239738E-04 +4.589426E-04 +3.377157E-04 -2.256320E-05 -2.239738E-04 -2.256320E-05 +6.918077E-03 
 -1.178636E-05 -5.114453E-04 +3.260429E-05 -5.114453E-04 -8.087272E-05 +5.251414E-04 +3.260429E-05 +5.251414E-04 +7.681214E-03 
 -5.129881E-04 +1.976412E-04 +1.845507E-05 +1.976412E-04 -1.883559E-04 +1.631019E-04 +1.845507E-05 +1.631019E-04 +8.166593E-03 
 +3.924342E-05 -7.049246E-04 -1.088554E-04 -7.049246E-04 -1.125462E-04 +6.975320E-04 -1.088554E-04 +6.975320E-04 +7.359266E-03 
 +5.493967E-04 +4.526317E-05 -3.271531E-05 +4.526317E-05 +4.457728E-04 -3.285005E-04 -3.271531E-05 -3.285005E-04 +7.010823E-03 
 +2.801276E-04 +1.974560E-04 +1.764707E-05 +1.974560E-04 -5.576132E-04 +7.543741E-05 +1.764707E-05 +7.543741E-05 +7.862131E-03 
 -5.791362E-04 +1.232217E-03 -3.315512E-04 +1.232217E-03 -6.050969E-05 -2.461787E-04 -3.315512E-04 -2.461787E-04 +8.133095E-03 
 -2.862152E-04 -3.931751E-04 -5.180343E-04 -3.931751E-04 +2.394428E-04 -1.438234E-04 -5.180343E-04 -1.438234E-04 +7.738793E-03 
 +7.357332E-05 -5.026505E-05 +4.519419E-04 -5.026505E-05 -3.055726E-04 +3.192078E-04 +4.519419E-04 +3.192078E-04 +7.673691E-03 
 +2.642951E-04 +2.571410E-05 +6.816821E-04 +2.571410E-05 +3.475067E-05 +1.404817E-04 +6.816821E-04 +1.404817E-04 +7.000781E-03 
 +1.099716E-04 +5.293248E-04 -2.904447E-04 +5.293248E-04 -5.283654E-05 -5.381779E-04 -2.904447E-04 -5.381779E-04 +7.071852E-03 
 +4.750791E-05 +4.892849E-04 -5.577046E-04 +4.892849E-04 +1.791765E-04 -3.576515E-04 -5.577046E-04 -3.576515E-04 +7.282568E-03 
 -6.228773E-05 +7.237000E-04 -7.323896E-05 +7.237000E-04 -3.024800E-04 -6.005459E-05 -7.323896E-05 -6.005459E-05 +7.569531E-03 
 -1.752180E-04 +6.210441E-04 -1.355413E-04 +6.210441E-04 -4.019226E-04 +4.984133E-04 -1.355413E-04 +4.984133E-04 +7.876597E-03 
 -3.660926E-06 +1.956199E-04 +1.610070E-04 +1.956199E-04 +8.704600E-05 -6.433222E-05 +1.610070E-04 -6.433222E-05 +7.742005E-03 
 -5.961060E-05 -3.742648E-05 -2.480064E-05 -3.742648E-05 +3.940621E-04 -4.678220E-04 -2.480064E-05 -4.678220E-04 +7.025894E-03 
 +1.987831E-05 -1.413046E-04 -1.334286E-04 -1.413046E-04 -2.278764E-04 -2.036816E-04 -1.334286E-04 -2.036816E-04 +7.618213E-03 
 -1.287461E-04 +1.284005E-04 +4.695311E-04 +1.284005E-04 -2.834172E-04 -1.357513E-04 +4.695311E-04 -1.357513E-04 +7.945146E-03 
 +2.045949E-04 +4.555939E-04 -4.555810E-04 +4.555939E-04 -1.914758E-05 -1.960561E-05 -4.555810E-04 -1.960561E-05 +7.118016E-03 
 +1.735771E-05 -5.417543E-05 +7.475196E-05 -5.417543E-05 +3.738374E-04 +5.373135E-04 +7.475196E-05 +5.373135E-04 +7.156633E-03 
 -4.029749E-04 -2.615172E-04 +1.248949E-04 -2.615172E-04 +2.797190E-04 -1.696870E-04 +1.248949E-04 -1.696870E-04 +7.569427E-03 
 +5.995625E-04 -1.006269E-03 -1.386338E-05 -1.006269E-03 -1.491278E-04 -3.616759E-05 -1.386338E-05 -3.616759E-05 +7.167423E-03 
 +3.690535E-04 -2.149977E-04 +5.076235E-04 -2.149977E-04 +2.491617E-04 -4.443547E-04 +5.076235E-04 -4.443547E-04 +6.961652E-03 
 -1.727847E-04 +4.419155E-04 -2.320411E-04 +4.419155E-04 -3.677262E-07 -2.152183E-05 -2.320411E-04 -2.152183E-05 +7.530191E-03 
 +2.355371E-04 -4.614982E-04 +2.463625E-04 -4.614982E-04 -3.200699E-04 -8.097569E-05 +2.463625E-04 -8.097569E-05 +7.418332E-03 
 +1.176356E-04 +2.207515E-04 -1.463138E-04 +2.207515E-04 +1.109433E-04 +4.958277E-04 -1.463138E-04 +4.958277E-04 +7.096142E-03 
 +3.940126E-04 +2.235160E-04 -6.274987E-04 +2.235160E-04 +3.738592E-05 -7.561715E-05 -6.274987E-04 -7.561715E-05 +6.910220E-03 
 +2.904769E-04 +2.017840E-04 +3.024075E-04 +2.017840E-04 +9.116688E-06 +3.548943E-04 +3.024075E-04 +3.548943E-04 +6.934391E-03 
 +2.738336E-04 +9.853165E-06 +8.901287E-04 +9.853165E-06 -2.572583E-04 +1.574914E-04 +8.901287E-04 +1.574914E-04 +7.670435E-03 
 +3.088700E-04 +8.960175E-05 +7.524402E-04 +8.960175E-05 +2.610578E-04 +2.557580E-04 +7.524402E-04 +2.557580E-04 +7.283471E-03 
 -1.565547E-05 +1.584389E-04 -5.688397E-04 +1.584389E-04 -3.834857E-05 -1.101449E-04 -5.688397E-04 -1.101449E-04 +7.542149E-03 
 -2.210497E-04 +4.255819E-04 -7.072538E-04 +4.255819E-04 -2.366409E-04 -1.858472E-04 -7.072538E-04 -1.858472E-04 +7.920725E-03 
 -3.652825E-04 +5.058128E-04 +2.139713E-04 +5.058128E-04 +1.904152E-04 -2.855543E-05 +2.139713E-04 -2.855543E-05 +7.452774E-03 
 -2.953842E-04 -3.924287E-04 +1.052876E-04 -3.924287E-04 +1.948957E-04 +2.489311E-05 +1.052876E-04 +2.489311E-05 +7.459843E-03 
 +3.377157E-04 -1.141652E-04 +2.553201E-04 -1.141652E-04 -6.926861E-04 -4.196832E-04 +2.553201E-04 -4.196832E-04 +7.554007E-03 
 +2.341090E-04 -3.434642E-04 +2.645661E-04 -3.434642E-04 +2.950282E-04 +4.385801E-04 +2.645661E-04 +4.385801E-04 +7.358159E-03 
 +1.130825E-05 -1.250535E-03 -5.411908E-04 -1.250535E-03 -3.464293E-04 -1.374721E-04 -5.411908E-04 -1.374721E-04 +7.640341E-03 
 +2.055725E-04 -1.739152E-04 -4.236628E-04 -1.739152E-04 +2.574770E-04 +1.497875E-04 -4.236628E-04 +1.497875E-04 +7.189857E-03 
 +2.346964E-04 +2.141948E-04 -2.055369E-05 +2.141948E-04 +1.890982E-04 +3.410810E-04 -2.055369E-05 +3.410810E-04 +6.948290E-03 
 +1.313441E-04 +9.063217E-04 +3.343500E-04 +9.063217E-04 -2.231865E-04 +3.052119E-04 +3.343500E-04 +3.052119E-04 +7.333999E-03 
 -1.776122E-04 +2.215585E-04 +5.610215E-04 +2.215585E-04 +2.520304E-04 +5.886502E-04 +5.610215E-04 +5.886502E-04 +7.155391E-03 
 -5.049079E-04 -9.688516E-04 +5.624107E-05 -9.688516E-04 +5.149276E-04 +1.086760E-04 +5.624107E-05 +1.086760E-04 +7.509704E-03 
 -2.858369E-04 -8.593827E-04 +7.307543E-05 -8.593827E-04 -6.341148E-04 -1.623341E-04 +7.307543E-05 -1.623341E-04 +8.370244E-03 
 +9.544621E-06 -6.466427E-04 -2.398980E-04 -6.466427E-04 -1.801042E-04 -5.272514E-06 -2.398980E-04 -5.272514E-06 +7.664226E-03 
 -7.290997E-05 +2.899150E-04 +7.181749E-06 +2.899150E-04 +5.476790E-04 -3.423155E-05 +7.181749E-06 -3.423155E-05 +6.785697E-03 
 -2.212065E-04 -8.767637E-04 +1.793816E-05 -8.767637E-04 -9.771996E-05 -5.334483E-04 +1.793816E-05 -5.334483E-04 +7.469162E-03 
 -2.167026E-04 +8.115727E-04 +1.598134E-05 +8.115727E-04 -3.823602E-05 +4.815980E-04 +1.598134E-05 +4.815980E-04 +7.714916E-03 
 -2.692358E-04 +4.293805E-04 +4.611058E-04 +4.293805E-04 +3.862727E-04 +3.822732E-04 +4.611058E-04 +3.822732E-04 +7.470495E-03 
 +2.275976E-04 -1.826636E-04 +4.021814E-04 -1.826636E-04 -3.205680E-04 -6.761351E-05 +4.021814E-04 -6.761351E-05 +7.460367E-03 
 +3.200199E-04 +4.755284E-04 +3.381648E-04 +4.755284E-04 -2.147309E-05 +6.798450E-05 +3.381648E-04 +6.798450E-05 +6.907973E-03 
 +3.200804E-04 +8.695501E-05 +3.104750E-04 +8.695501E-05 +2.308735E-06 -4.379205E-04 +3.104750E-04 -4.379205E-04 +7.096321E-03 
 -4.350959E-04 +5.671002E-05 -8.185102E-05 +5.671002E-05 +1.386828E-04 +2.861009E-04 -8.185102E-05 +2.861009E-04 +7.774718E-03 
 -1.340829E-04 +3.676238E-04 -5.770636E-04 +3.676238E-04 +2.792400E-05 +3.537347E-04 -5.770636E-04 +3.537347E-04 +7.190365E-03 
 +7.835594E-05 -1.298514E-03 -2.785984E-04 -1.298514E-03 -3.192426E-05 +2.808848E-04 -2.785984E-04 +2.808848E-04 +7.738693E-03 
 +1.446381E-04 -1.275107E-03 +3.290928E-04 -1.275107E-03 -3.756347E-04 +2.910633E-04 +3.290928E-04 +2.910633E-04 +7.808776E-03 
 -7.903363E-05 -5.048909E-04 +4.012118E-04 -5.048909E-04 -2.246029E-04 -5.549294E-04 +4.012118E-04 -5.549294E-04 +7.604163E-03 
 -2.143660E-05 +7.565040E-04 -6.189169E-05 +7.565040E-04 +2.504463E-04 -1.776265E-04 -6.189169E-05 -1.776265E-04 +7.760946E-03 
 +1.597950E-04 -4.487471E-04 +4.103559E-05 -4.487471E-04 -2.984603E-04 -1.421544E-04 +4.103559E-05 -1.421544E-04 +7.879288E-03 
 -3.151261E-04 +8.404474E-05 -4.987760E-05 +8.404474E-05 +2.079342E-04 -1.094453E-04 -4.987760E-05 -1.094453E-04 +7.572860E-03 
 -5.471225E-05 +3.519551E-04 -1.099617E-05 +3.519551E-04 +3.998446E-04 -3.491517E-05 -1.099617E-05 -3.491517E-05 +7.429933E-03 
 -3.765701E-04 +8.454619E-04 +1.995322E-04 +8.454619E-04 -1.511384E-04 -3.046426E-04 +1.995322E-04 -3.046426E-04 +7.588635E-03 
 -5.382466E-04 -2.687090E-05 -1.612397E-04 -2.687090E-05 +8.153111E-05 +4.918715E-04 -1.612397E-04 +4.918715E-04 +7.621395E-03 
 -1.685690E-04 -2.271486E-04 -2.364093E-04 -2.271486E-04 -4.101826E-05 +2.243782E-04 -2.364093E-04 +2.243782E-04 +7.505132E-03 
 +2.166184E-04 +4.583397E-04 -2.712380E-04 +4.583397E-04 +1.476664E-04 -4.223782E-04 -2.712380E-04 -4.223782E-04 +7.213163E-03 
 +7.832214E-05 +4.688421E-04 -3.030757E-05 +4.688421E-04 -4.885860E-04 -3.484175E-04 -3.030757E-05 -3.484175E-04 +7.699886E-03 
 -4.046163E-04 +8.242943E-04 +2.536521E-04 +8.242943E-04 +2.473510E-04 +2.602315E-04 +2.536521E-04 +2.602315E-04 +7.766132E-03 
 -2.963438E-05 +1.204071E-04 +1.117768E-04 +1.204071E-04 +2.613232E-04 +5.754276E-04 +1.117768E-04 +5.754276E-04 +7.389283E-03 
 +4.569212E-04 +4.223523E-04 +1.899208E-04 +4.223523E-04 +2.745087E-07 -6.517717E-04 +1.899208E-04 -6.517717E-04 +7.056460E-03 
 +2.005437E-04 -2.973532E-05 +2.654729E-04 -2.973532E-05 +3.890254E-06 -3.009359E-05 +2.654729E-04 -3.009359E-05 +7.176579E-03 
 -2.765039E-04 -3.059761E-04 +8.967809E-05 -3.059761E-04 -7.987948E-05 -2.977773E-04 +8.967809E-05 -2.977773E-04 +7.817357E-03 
 -5.821852E-04 +3.480622E-04 +5.303531E-05 +3.480622E-04 -2.115713E-06 -5.820307E-04 +5.303531E-05 -5.820307E-04 +7.852425E-03 
 -3.552955E-04 +9.941765E-04 +1.190135E-04 +9.941765E-04 -7.309403E-05 +2.758475E-04 +1.190135E-04 +2.758475E-04 +7.881072E-03 
 -6.235235E-05 +8.947285E-04 -7.540597E-05 +8.947285E-04 +1.710537E-04 +2.971165E-04 -7.540597E-05 +2.971165E-04 +7.348080E-03 
 +6.259034E-04 -2.970494E-04 -1.263728E-04 -2.970494E-04 -2.840864E-04 -7.527121E-05 -1.263728E-04 -7.527121E-05 +7.735327E-03 
 -3.166849E-05 +2.693220E-04 +5.146821E-04 +2.693220E-04 -1.673386E-04 +1.663933E-04 +5.146821E-04 +1.663933E-04 +7.701241E-03 
 -1.895068E-04 -1.076039E-03 +3.136384E-04 -1.076039E-03 -1.930588E-04 +1.290440E-04 +3.136384E-04 +1.290440E-04 +7.791988E-03 
 +1.340051E-05 -5.195743E-04 +1.400749E-04 -5.195743E-04 -2.363626E-04 +2.152091E-04 +1.400749E-04 +2.152091E-04 +7.669846E-03 
 -6.370005E-05 +3.929854E-05 +5.751048E-04 +3.929854E-05 -1.102036E-04 +1.992040E-04 +5.751048E-04 +1.992040E-04 +7.294642E-03 
 +1.097971E-04 +6.953779E-04 -2.067415E-04 +6.953779E-04 +4.220409E-04 +5.430824E-04 -2.067415E-04 +5.430824E-04 +7.005007E-03 
 -3.111165E-04 -1.081637E-03 +2.836860E-04 -1.081637E-03 -2.826202E-04 +1.347736E-04 +2.836860E-04 +1.347736E-04 +7.935792E-03 
 -4.463954E-04 +2.532123E-04 +8.282534E-05 +2.532123E-04 +3.271693E-04 +3.801668E-05 +8.282534E-05 +3.801668E-05 +7.837670E-03 
 +9.261981E-05 +1.055452E-03 -7.147181E-05 +1.055452E-03 -3.190778E-04 +8.466138E-05 -7.147181E-05 +8.466138E-05 +7.551333E-03 
 -2.500118E-04 -1.819043E-04 -1.212883E-04 -1.819043E-04 +1.929690E-04 -4.479306E-04 -1.212883E-04 -4.479306E-04 +7.830504E-03 
 +6.202775E-05 +2.997696E-04 -4.764525E-05 +2.997696E-04 +2.217759E-05 +2.280555E-04 -4.764525E-05 +2.280555E-04 +7.272284E-03 
 +4.071558E-04 +6.384313E-04 +1.110197E-04 +6.384313E-04 -5.624210E-06 -1.505916E-04 +1.110197E-04 -1.505916E-04 +7.022170E-03 
 -4.740811E-04 +9.003666E-04 +4.425688E-04 +9.003666E-04 +1.778088E-04 +4.150504E-04 +4.425688E-04 +4.150504E-04 +7.359735E-03 
 -3.116072E-04 +1.718202E-04 +7.495921E-05 +1.718202E-04 -2.594745E-04 +1.085037E-04 +7.495921E-05 +1.085037E-04 +8.031065E-03 
 -8.854194E-05 +3.877269E-04 -2.391509E-04 +3.877269E-04 +3.678505E-04 -3.654986E-04 -2.391509E-04 -3.654986E-04 +7.465747E-03 
 +3.075749E-04 -5.779060E-04 +1.579715E-04 -5.779060E-04 -2.723532E-04 -1.612942E-04 +1.579715E-04 -1.612942E-04 +7.486478E-03 
 +1.262577E-04 -2.106166E-04 -2.695111E-05 -2.106166E-04 -3.423437E-04 +3.471438E-04 -2.695111E-05 +3.471438E-04 +7.728455E-03 
 -4.952517E-05 +2.619310E-04 +4.947097E-04 +2.619310E-04 +4.420983E-04 -1.183775E-04 +4.947097E-04 -1.183775E-04 +7.242958E-03 
 -4.882193E-04 -2.115295E-04 -3.234568E-05 -2.115295E-04 -4.986000E-06 +3.749906E-05 -3.234568E-05 +3.749906E-05 +7.938741E-03 
 -9.756587E-04 +7.463817E-04 -6.844965E-04 +7.463817E-04 +3.545766E-04 +1.815238E-04 -6.844965E-04 +1.815238E-04 +7.837665E-03 
 -3.099481E-04 +8.247952E-04 -1.468809E-04 +8.247952E-04 +2.529676E-04 -1.356176E-04 -1.468809E-04 -1.356176E-04 +7.691486E-03 
 +3.345007E-04 -2.305032E-04 +3.615124E-05 -2.305032E-04 -4.519117E-04 +2.363715E-04 +3.615124E-05 +2.363715E-04 +7.996268E-03 
 -1.137907E-04 +1.104075E-03 -2.246058E-05 +1.104075E-03 -1.007680E-04 +7.051355E-05 -2.246058E-05 +7.051355E-05 +7.682122E-03 
 +1.023119E-04 -9.353553E-04 +1.056103E-04 -9.353553E-04 +2.508792E-04 +3.635740E-04 +1.056103E-04 +3.635740E-04 +6.976999E-03 
 +6.236160E-04 -7.703906E-05 -4.034905E-06 -7.703906E-05 -2.921663E-04 +1.529236E-04 -4.034905E-06 +1.529236E-04 +7.210400E-03 
 +1.141696E-04 -7.214243E-04 -1.347926E-04 -7.214243E-04 -1.056293E-04 +2.051165E-04 -1.347926E-04 +2.051165E-04 +7.359799E-03 
 +2.397230E-04 +1.074652E-03 +3.026660E-04 +1.074652E-03 -3.477194E-04 +3.319533E-05 +3.026660E-04 +3.319533E-05 +7.646619E-03 
 +3.579103E-05 -5.449871E-04 +4.584248E-04 -5.449871E-04 +2.492400E-04 -3.859305E-04 +4.584248E-04 -3.859305E-04 +6.851809E-03 
 -2.047796E-04 -8.174238E-04 +1.569812E-04 -8.174238E-04 +1.192920E-04 -5.942088E-05 +1.569812E-04 -5.942088E-05 +7.333012E-03 
 +1.621578E-04 +8.710825E-04 -3.913068E-05 +8.710825E-04 -6.083967E-04 -8.122324E-05 -3.913068E-05 -8.122324E-05 +7.758243E-03 
 -2.869402E-04 -1.850218E-04 +5.902795E-05 -1.850218E-04 +4.129620E-04 +3.261857E-04 +5.902795E-05 +3.261857E-04 +7.305664E-03 
 -1.096744E-04 +4.467884E-04 -6.262552E-04 +4.467884E-04 +1.350268E-04 -6.838226E-04 -6.262552E-04 -6.838226E-04 +7.398318E-03 
 -1.883304E-04 +4.622856E-04 -2.028147E-04 +4.622856E-04 -1.038463E-04 +1.531869E-04 -2.028147E-04 +1.531869E-04 +7.527794E-03 
 -4.542833E-04 +4.125471E-04 -9.391333E-07 +4.125471E-04 +1.000178E-04 -1.331848E-04 -9.391333E-07 -1.331848E-04 +7.410794E-03 
 +5.160261E-04 -4.524870E-04 -7.083307E-05 -4.524870E-04 +1.996638E-04 +1.578131E-04 -7.083307E-05 +1.578131E-04 +6.834228E-03 
 +2.769741E-04 -3.250804E-04 +4.621255E-04 -3.250804E-04 -6.086869E-06 -1.922279E-04 +4.621255E-04 -1.922279E-04 +7.484781E-03 
 +1.866991E-04 -6.643094E-04 +7.661355E-05 -6.643094E-04 -3.787559E-04 +1.453913E-04 +7.661355E-05 +1.453913E-04 +7.645772E-03 
 +7.639301E-05 +2.521738E-04 +3.765732E-05 +2.521738E-04 -6.059503E-05 +1.083403E-04 +3.765732E-05 +1.083403E-04 +7.337654E-03 
 -1.394825E-04 +2.988804E-04 +4.485292E-04 +2.988804E-04 +7.801239E-05 +4.835102E-04 +4.485292E-04 +4.835102E-04 +7.411957E-03 
 +3.078931E-04 -1.155566E-04 +4.419450E-04 -1.155566E-04 +5.196510E-04 +1.325292E-04 +4.419450E-04 +1.325292E-04 +6.922086E-03 
 -1.403283E-04 -3.333288E-04 +1.927205E-04 -3.333288E-04 +1.365015E-04 -3.902517E-04 +1.927205E-04 -3.902517E-04 +7.061747E-03 
 +2.367005E-04 +2.399173E-04 -4.006377E-04 +2.399173E-04 -6.361359E-05 -7.759433E-04 -4.006377E-04 -7.759433E-04 +7.446988E-03 
 +2.845440E-05 -4.493206E-04 +5.084578E-04 -4.493206E-04 +5.773017E-05 -3.601430E-04 +5.084578E-04 -3.601430E-04 +6.980503E-03 
 +3.780413E-04 +2.912729E-04 +2.192466E-04 +2.912729E-04 +1.200308E-04 -9.772520E-04 +2.192466E-04 -9.772520E-04 +6.992903E-03 
 -1.854072E-04 -3.263653E-04 +1.665966E-04 -3.263653E-04 +1.325686E-04 +5.375617E-05 +1.665966E-04 +5.375617E-05 +7.449234E-03 
 -8.460570E-05 -7.336012E-04 -1.876825E-04 -7.336012E-04 +3.170843E-04 +5.883694E-05 -1.876825E-04 +5.883694E-05 +7.535638E-03 
 +7.617228E-05 -7.075975E-04 -2.818740E-05 -7.075975E-04 -6.292810E-04 +1.435874E-04 -2.818740E-05 +1.435874E-04 +7.822243E-03 
 +1.576434E-04 +6.498713E-04 +3.660017E-04 +6.498713E-04 -3.657361E-04 +4.521440E-04 +3.660017E-04 +4.521440E-04 +7.453259E-03 
 -2.029244E-04 +1.051346E-03 -3.679715E-04 +1.051346E-03 +1.784822E-04 +9.271689E-05 -3.679715E-04 +9.271689E-05 +7.668443E-03 
 +7.850232E-05 -6.677958E-05 -3.870135E-04 -6.677958E-05 +3.980334E-05 +5.673524E-04 -3.870135E-04 +5.673524E-04 +7.307138E-03 
 +1.564088E-04 +3.132268E-04 -1.010307E-04 +3.132268E-04 -2.277596E-04 +4.308258E-04 -1.010307E-04 +4.308258E-04 +7.310614E-03 
 -2.179459E-04 -3.737934E-04 -6.759441E-04 -3.737934E-04 +1.740680E-04 +9.477307E-05 -6.759441E-04 +9.477307E-05 +7.510135E-03 
 +2.774907E-04 +4.268095E-04 -6.152292E-04 +4.268095E-04 -3.032940E-04 -4.135059E-04 -6.152292E-04 -4.135059E-04 +7.269855E-03 
 +6.745437E-05 +8.704512E-04 -3.604236E-04 +8.704512E-04 +1.900161E-04 +4.808613E-05 -3.604236E-04 +4.808613E-05 +7.473687E-03 
 -1.890392E-04 +8.197060E-05 -1.589828E-04 +8.197060E-05 -3.851396E-05 -2.965631E-04 -1.589828E-04 -2.965631E-04 +7.341079E-03 
 -4.948889E-05 +2.720463E-04 -1.332487E-04 +2.720463E-04 +3.939335E-04 -1.329901E-04 -1.332487E-04 -1.329901E-04 +7.349057E-03 
 -7.605071E-05 +1.149007E-05 +6.526487E-05 +1.149007E-05 +5.368031E-05 +3.626092E-05 +6.526487E-05 +3.626092E-05 +7.411094E-03 
 +1.468744E-04 -2.689073E-04 -1.770046E-04 -2.689073E-04 -4.051017E-04 +4.165082E-05 -1.770046E-04 +4.165082E-05 +7.627428E-03 
 -3.883722E-05 +8.792563E-04 -4.740566E-04 +8.792563E-04 +1.247558E-05 -1.185303E-04 -4.740566E-04 -1.185303E-04 +7.306984E-03 
 +2.019033E-04 -1.044883E-04 +5.652332E-05 -1.044883E-04 +1.251092E-04 +3.330273E-04 +5.652332E-05 +3.330273E-04 +7.123298E-03 
 +1.660287E-04 +3.477731E-04 +4.567821E-04 +3.477731E-04 +3.627384E-04 -7.412767E-05 +4.567821E-04 -7.412767E-05 +7.308962E-03 
 +3.058320E-04 -4.389480E-04 -3.103596E-04 -4.389480E-04 -1.246130E-04 +1.747575E-04 -3.103596E-04 +1.747575E-04 +7.571007E-03 
 +2.629781E-04 +1.976424E-04 -6.837656E-04 +1.976424E-04 -3.389573E-04 +4.113540E-05 -6.837656E-04 +4.113540E-05 +7.417190E-03 
 -7.954574E-06 -8.667126E-05 -8.596002E-04 -8.667126E-05 +3.133604E-05 -4.572038E-04 -8.596002E-04 -4.572038E-04 +7.456367E-03 
 +1.853194E-04 +2.519308E-04 -6.738355E-04 +2.519308E-04 +2.469923E-04 -8.534731E-04 -6.738355E-04 -8.534731E-04 +7.180121E-03 
 -7.432376E-04 +4.388702E-04 -2.119081E-04 +4.388702E-04 +3.940623E-04 +1.823659E-04 -2.119081E-04 +1.823659E-04 +7.261846E-03 
 -3.080641E-04 -5.666453E-05 +4.573337E-04 -5.666453E-05 +7.781637E-05 -6.357494E-04 +4.573337E-04 -6.357494E-04 +7.462325E-03 
 +1.107125E-04 +3.907297E-04 +4.979541E-04 +3.907297E-04 -9.633881E-05 -2.501754E-04 +4.979541E-04 -2.501754E-04 +7.333442E-03 
 +6.513071E-05 -6.330575E-05 +4.490184E-04 -6.330575E-05 -3.969923E-04 -1.690732E-04 +4.490184E-04 -1.690732E-04 +7.712886E-03 
 -7.489553E-04 +1.097913E-04 -4.803586E-04 +1.097913E-04 +1.899356E-04 -4.988872E-05 -4.803586E-04 -4.988872E-05 +7.683574E-03 
 -2.186020E-04 +1.052829E-03 -3.894241E-04 +1.052829E-03 -5.748232E-06 +1.142981E-04 -3.894241E-04 +1.142981E-04 +7.722808E-03 
 +2.874837E-04 -5.701627E-04 +1.583588E-04 -5.701627E-04 -4.182679E-04 +1.966437E-04 +1.583588E-04 +1.966437E-04 +7.451093E-03 
 -1.581849E-04 -6.735158E-04 +1.566385E-04 -6.735158E-04 +2.372022E-04 -4.649677E-04 +1.566385E-04 -4.649677E-04 +7.505140E-03 
 +2.330400E-04 +6.826464E-05 +3.801464E-05 +6.826464E-05 -5.737688E-04 -3.422230E-04 +3.801464E-05 -3.422230E-04 +7.756393E-03 
 +2.012265E-04 +1.380841E-03 -2.086947E-04 +1.380841E-03 +1.276368E-04 -8.836964E-05 -2.086947E-04 -8.836964E-05 +7.349865E-03 
 -1.579274E-04 -9.207107E-04 -1.969160E-05 -9.207107E-04 +2.594198E-04 -1.425741E-04 -1.969160E-05 -1.425741E-04 +7.617456E-03 
 -1.966021E-04 +1.657534E-04 +8.507961E-05 +1.657534E-04 +3.240958E-05 -6.146696E-04 +8.507961E-05 -6.146696E-04 +7.570991E-03 
 -1.248860E-04 +1.531325E-04 +1.136400E-04 +1.531325E-04 +3.853062E-04 +3.715670E-04 +1.136400E-04 +3.715670E-04 +7.165204E-03 
 +3.568979E-04 +7.894261E-05 +2.493960E-04 +7.894261E-05 -7.237573E-05 +4.850254E-05 +2.493960E-04 +4.850254E-05 +7.269322E-03 
 +1.496106E-04 +1.018547E-03 +1.372679E-04 +1.018547E-03 -3.270122E-04 -7.470746E-05 +1.372679E-04 -7.470746E-05 +7.592166E-03 
 -5.544855E-05 -2.961759E-04 +2.045192E-05 -2.961759E-04 +2.744679E-04 +1.593765E-05 +2.045192E-05 +1.593765E-05 +7.252534E-03 
 -3.534138E-04 +1.584387E-04 -1.549189E-04 +1.584387E-04 +1.425698E-04 +5.381278E-04 -1.549189E-04 +5.381278E-04 +7.598529E-03 
 +1.446120E-04 -1.184937E-04 -3.276995E-04 -1.184937E-04 -1.710918E-04 -1.439390E-04 -3.276995E-04 -1.439390E-04 +7.685455E-03 
 +2.892241E-04 +6.684092E-06 +1.560696E-04 +6.684092E-06 -2.300863E-04 -2.826846E-05 +1.560696E-04 -2.826846E-05 +7.658734E-03 
 +3.538970E-05 +4.141854E-04 +5.835638E-04 +4.141854E-04 +9.059880E-06 +3.988812E-06 +5.835638E-04 +3.988812E-06 +7.497304E-03 
 -3.631250E-04 +1.509878E-04 +3.626122E-04 +1.509878E-04 -3.138486E-05 +4.667000E-05 +3.626122E-04 +4.667000E-05 +7.778183E-03 
 -3.128278E-04 +5.405681E-04 -1.707487E-04 +5.405681E-04 +2.580803E-04 -8.595452E-05 -1.707487E-04 -8.595452E-05 +7.600352E-03 
 +1.669207E-04 -1.282715E-04 +2.119143E-04 -1.282715E-04 +2.279732E-04 +6.748498E-05 +2.119143E-04 +6.748498E-05 +7.350902E-03 
 -3.515776E-04 -3.052276E-04 +4.053469E-04 -3.052276E-04 -2.586565E-04 -1.702231E-04 +4.053469E-04 -1.702231E-04 +7.701081E-03 
 -4.920729E-04 -9.437993E-04 -5.900534E-06 -9.437993E-04 -9.237057E-05 -1.672684E-04 -5.900534E-06 -1.672684E-04 +7.727841E-03 
 -5.314169E-04 -1.156338E-03 +1.984150E-04 -1.156338E-03 +1.796962E-04 -3.083541E-04 +1.984150E-04 -3.083541E-04 +7.945322E-03 
 -3.820132E-04 -5.132994E-05 -2.971419E-05 -5.132994E-05 +1.388166E-05 -6.124090E-04 -2.971419E-05 -6.124090E-04 +7.683974E-03 
 -1.183335E-04 -1.372813E-03 +2.634062E-04 -1.372813E-03 -3.208788E-04 +6.488658E-04 +2.634062E-04 +6.488658E-04 +7.901378E-03 
 -1.258800E-04 -8.584022E-04 +2.926406E-04 -8.584022E-04 +2.326152E-05 -3.794777E-04 +2.926406E-04 -3.794777E-04 +7.611907E-03 
 -5.380836E-05 -6.861553E-05 +4.514140E-04 -6.861553E-05 -1.598374E-04 +1.049583E-04 +4.514140E-04 +1.049583E-04 +7.250021E-03 
 -1.930666E-04 +4.376419E-05 +3.552387E-04 +4.376419E-05 -1.945304E-04 +2.000916E-04 +3.552387E-04 +2.000916E-04 +7.556774E-03 
 +2.529355E-04 -9.795497E-05 -3.634898E-04 -9.795497E-05 +4.832936E-04 +5.157642E-04 -3.634898E-04 +5.157642E-04 +7.056483E-03 
 +5.644663E-04 -1.662396E-04 -2.235611E-04 -1.662396E-04 -1.553885E-04 +1.127171E-04 -2.235611E-04 +1.127171E-04 +7.373357E-03 
 -2.820807E-04 +4.166217E-05 -6.855081E-04 +4.166217E-05 +2.029150E-04 -2.932429E-04 -6.855081E-04 -2.932429E-04 +7.453855E-03 
 +1.774796E-04 -2.556633E-06 -3.779203E-04 -2.556633E-06 +1.483057E-05 +1.349593E-04 -3.779203E-04 +1.349593E-04 +7.308306E-03 
 +2.842653E-04 -2.316804E-04 +1.714950E-04 -2.316804E-04 +1.612707E-04 -4.405265E-04 +1.714950E-04 -4.405265E-04 +7.446773E-03 
 -3.432262E-04 -2.023277E-04 -1.644144E-04 -2.023277E-04 -1.548418E-04 +3.755260E-04 -1.644144E-04 +3.755260E-04 +7.891847E-03 
 -2.642961E-05 +1.415352E-04 -5.272601E-04 +1.415352E-04 -3.182112E-04 -1.835028E-04 -5.272601E-04 -1.835028E-04 +7.380312E-03 
 +7.723050E-05 -2.958876E-04 -1.599114E-04 -2.958876E-04 +3.423207E-04 -4.190137E-04 -1.599114E-04 -4.190137E-04 +7.174235E-03 
 +1.126683E-04 -8.059191E-05 -1.542990E-04 -8.059191E-05 +2.574973E-05 -1.775704E-04 -1.542990E-04 -1.775704E-04 +7.022948E-03 
 -2.278065E-04 -7.058249E-05 -3.772957E-04 -7.058249E-05 +5.186120E-05 -7.013109E-04 -3.772957E-04 -7.013109E-04 +7.181969E-03 
 -6.623221E-04 -5.937834E-04 -7.283372E-05 -5.937834E-04 +3.628705E-04 +5.305810E-04 -7.283372E-05 +5.305810E-04 +7.424316E-03 
 +3.129868E-05 -6.339080E-05 +5.369731E-04 -6.339080E-05 -2.938780E-04 +2.054112E-04 +5.369731E-04 +2.054112E-04 +7.498865E-03 
 -3.973409E-05 -1.670297E-04 -5.085901E-05 -1.670297E-04 +1.892165E-04 +1.045279E-04 -5.085901E-05 +1.045279E-04 +7.302139E-03 
 +1.141813E-05 -8.603198E-04 -8.238627E-04 -8.603198E-04 -1.033182E-04 +5.354868E-04 -8.238627E-04 +5.354868E-04 +7.473656E-03 
 +4.583194E-04 -1.489806E-03 -2.175269E-04 -1.489806E-03 -3.810644E-04 -1.381608E-05 -2.175269E-04 -1.381608E-05 +7.345139E-03 
 +1.476152E-04 +1.426134E-04 -1.681814E-04 +1.426134E-04 +3.293840E-04 +2.116587E-05 -1.681814E-04 +2.116587E-05 +7.237713E-03 
 -2.611383E-05 -2.330963E-04 +1.982888E-04 -2.330963E-04 -7.275541E-05 -7.712969E-04 +1.982888E-04 -7.712969E-04 +7.358413E-03 
 +9.469580E-05 -3.467177E-04 -3.038738E-04 -3.467177E-04 +5.199287E-06 +5.305037E-04 -3.038738E-04 +5.305037E-04 +6.918561E-03 
 -9.044498E-05 -2.606332E-04 -3.812830E-04 -2.606332E-04 -3.419414E-05 -5.981214E-04 -3.812830E-04 -5.981214E-04 +7.412077E-03 
 -4.425278E-04 +4.818665E-04 +4.445890E-04 +4.818665E-04 -2.655302E-04 +5.695046E-05 +4.445890E-04 +5.695046E-05 +7.897062E-03 
 -1.469976E-04 -2.690291E-04 +5.776960E-04 -2.690291E-04 +2.481115E-04 -6.597666E-04 +5.776960E-04 -6.597666E-04 +7.381245E-03 
 +3.144974E-04 -6.038407E-05 -4.051913E-04 -6.038407E-05 +7.122703E-05 -8.267049E-05 -4.051913E-04 -8.267049E-05 +7.089859E-03 
 -5.244251E-05 -1.266102E-04 -7.048363E-04 -1.266102E-04 -1.286625E-04 +1.793617E-04 -7.048363E-04 +1.793617E-04 +7.135979E-03 
 -2.983533E-04 -1.450089E-04 -2.527326E-04 -1.450089E-04 +1.342567E-04 +9.685935E-05 -2.527326E-04 +9.685935E-05 +7.771533E-03 
 -2.946449E-04 +2.610204E-04 -2.696126E-04 +2.610204E-04 +5.229894E-05 +3.071701E-04 -2.696126E-04 +3.071701E-04 +7.421946E-03 
 -9.170218E-05 +3.381136E-04 -2.177586E-04 +3.381136E-04 +2.139845E-04 +1.913246E-04 -2.177586E-04 +1.913246E-04 +7.246322E-03 
 +8.721653E-05 +1.142083E-04 -2.413950E-04 +1.142083E-04 +3.120280E-05 +2.773184E-04 -2.413950E-04 +2.773184E-04 +7.427309E-03 
 +1.868710E-04 +2.589271E-04 +3.478766E-04 +2.589271E-04 -8.101810E-04 +4.595735E-04 +3.478766E-04 +4.595735E-04 +7.726662E-03 
 -7.251024E-05 +6.488835E-04 +3.462765E-04 +6.488835E-04 +3.735551E-04 +4.898319E-05 +3.462765E-04 +4.898319E-05 +7.533527E-03 
 -8.855772E-05 +2.660335E-04 +1.430558E-04 +2.660335E-04 +2.840411E-04 +9.857169E-04 +1.430558E-04 +9.857169E-04 +7.710691E-03 
 -4.632933E-05 -7.353399E-04 +4.233710E-05 -7.353399E-04 -7.337308E-04 -2.099612E-04 +4.233710E-05 -2.099612E-04 +8.195362E-03 
 -1.809838E-04 -4.254671E-04 +6.691677E-04 -4.254671E-04 +2.419632E-04 -1.099562E-04 +6.691677E-04 -1.099562E-04 +7.442912E-03 
 +5.509008E-05 +1.336432E-04 +4.614346E-04 +1.336432E-04 +3.267078E-04 -4.002582E-05 +4.614346E-04 -4.002582E-05 +7.218869E-03 
 +2.751849E-04 -1.037107E-03 -1.880253E-04 -1.037107E-03 -5.074508E-04 +3.191540E-05 -1.880253E-04 +3.191540E-05 +7.787450E-03 
 -5.367089E-04 -2.610996E-04 -1.522085E-04 -2.610996E-04 +5.816732E-05 +4.969987E-05 -1.522085E-04 +4.969987E-05 +7.672600E-03 
 -1.173742E-04 -1.072577E-04 -3.867141E-04 -1.072577E-04 -1.526613E-04 +8.712641E-05 -3.867141E-04 +8.712641E-05 +7.492837E-03 
 +5.682607E-04 +4.517797E-04 +2.890487E-04 +4.517797E-04 -3.955075E-05 -8.203697E-05 +2.890487E-04 -8.203697E-05 +7.249443E-03 
 -8.794012E-05 -6.638602E-04 +3.791471E-05 -6.638602E-04 +4.168848E-04 -2.329030E-04 +3.791471E-05 -2.329030E-04 +7.438296E-03 
 +1.233104E-05 +3.320902E-04 +1.496157E-04 +3.320902E-04 -1.597970E-05 -3.878599E-04 +1.496157E-04 -3.878599E-04 +7.810355E-03 
 +5.449031E-04 +1.479933E-04 +2.589124E-04 +1.479933E-04 -5.153965E-05 +6.489328E-04 +2.589124E-04 +6.489328E-04 +7.078286E-03 
 +4.704002E-04 +3.204694E-04 -3.378700E-05 +3.204694E-04 -6.736291E-05 -5.798655E-05 -3.378700E-05 -5.798655E-05 +7.163016E-03 
 -5.765682E-04 -3.188300E-04 +2.070698E-04 -3.188300E-04 +1.335238E-04 -1.939182E-04 +2.070698E-04 -1.939182E-04 +7.829835E-03 
 -5.825529E-04 +6.789225E-04 +2.277346E-04 +6.789225E-04 -2.372664E-04 -3.520911E-04 +2.277346E-04 -3.520911E-04 +8.105363E-03 
 -2.681956E-04 -3.390798E-04 +3.449191E-04 -3.390798E-04 +2.331709E-04 +2.182415E-04 +3.449191E-04 +2.182415E-04 +7.657689E-03 
 -1.297651E-04 +2.791204E-05 -5.528543E-05 +2.791204E-05 +7.989754E-05 +4.493157E-04 -5.528543E-05 +4.493157E-04 +7.418473E-03 
 +2.681752E-04 -5.136278E-04 +1.034546E-04 -5.136278E-04 -1.880918E-04 -3.554043E-04 +1.034546E-04 -3.554043E-04 +7.625312E-03 
 +1.604406E-04 -2.207565E-04 -7.512098E-04 -2.207565E-04 -1.376975E-04 +5.505055E-04 -7.512098E-04 +5.505055E-04 +7.542118E-03 
 -2.165740E-04 -1.183043E-03 -6.377622E-04 -1.183043E-03 -5.385124E-06 +1.373636E-04 -6.377622E-04 +1.373636E-04 +7.486315E-03 
 -1.336865E-04 +7.255741E-05 -1.751391E-04 +7.255741E-05 +1.167434E-04 -7.696792E-05 -1.751391E-04 -7.696792E-05 +7.386846E-03 
 -1.416811E-04 -2.973067E-05 -1.369721E-05 -2.973067E-05 +2.453700E-04 -4.068767E-04 -1.369721E-05 -4.068767E-04 +7.382496E-03 
 -3.448755E-05 -9.824317E-05 +1.596353E-04 -9.824317E-05 +1.991713E-04 +3.459023E-04 +1.596353E-04 +3.459023E-04 +7.386606E-03 
 -1.120195E-05 +2.198635E-04 -1.737244E-05 +2.198635E-04 +5.631330E-06 +4.636467E-04 -1.737244E-05 +4.636467E-04 +7.313026E-03 
 -3.379696E-04 -1.013129E-03 -2.506184E-04 -1.013129E-03 -5.608841E-04 +3.420470E-04 -2.506184E-04 +3.420470E-04 +8.274958E-03 
 +1.526699E-04 +5.237387E-04 +5.164880E-05 +5.237387E-04 +2.143949E-04 +4.119559E-04 +5.164880E-05 +4.119559E-04 +7.481159E-03 
 +1.252863E-04 -2.389127E-04 +2.082472E-04 -2.389127E-04 +8.520112E-05 +1.579690E-04 +2.082472E-04 +1.579690E-04 +7.132955E-03 
 -2.541774E-05 -9.359777E-04 +8.614794E-05 -9.359777E-04 -4.897931E-04 -2.603172E-04 +8.614794E-05 -2.603172E-04 +7.643977E-03 
 -2.228508E-04 +5.212005E-04 +5.348929E-04 +5.212005E-04 +2.319429E-04 -2.761471E-05 +5.348929E-04 -2.761471E-05 +7.394906E-03 
 -3.801318E-04 -5.651871E-05 -9.775862E-05 -5.651871E-05 +1.541449E-04 +3.450582E-04 -9.775862E-05 +3.450582E-04 +7.459876E-03 
 -9.444343E-05 -7.004089E-04 -5.831808E-04 -7.004089E-04 -1.457555E-04 +2.585358E-04 -5.831808E-04 +2.585358E-04 +7.484024E-03 
 +1.825335E-04 -2.968428E-04 +9.304844E-05 -2.968428E-04 +1.710232E-04 -5.529706E-04 +9.304844E-05 -5.529706E-04 +7.272914E-03 
 +4.567300E-04 -4.256087E-04 +2.888639E-04 -4.256087E-04 -1.566463E-04 +2.356928E-04 +2.888639E-04 +2.356928E-04 +7.469231E-03 
 +1.479691E-05 -2.261290E-04 -1.627560E-04 -2.261290E-04 +5.052047E-04 -6.735786E-05 -1.627560E-04 -6.735786E-05 +7.406977E-03 
 +6.981159E-05 -5.571084E-04 -8.664941E-05 -5.571084E-04 -3.948121E-04 +5.632304E-05 -8.664941E-05 +5.632304E-05 +7.461865E-03 
 -2.360055E-04 +8.742260E-04 +4.218516E-05 +8.742260E-04 -2.524012E-04 -1.697636E-04 +4.218516E-05 -1.697636E-04 +7.753840E-03 
 -8.683768E-04 -7.129530E-04 -1.446675E-04 -7.129530E-04 +3.172896E-04 -1.006859E-04 -1.446675E-04 -1.006859E-04 +8.015077E-03 
 +9.553763E-05 -1.737637E-05 -2.294406E-04 -1.737637E-05 -1.259108E-04 +3.330169E-04 -2.294406E-04 +3.330169E-04 +7.669434E-03 
 -2.815153E-04 +1.073861E-03 +2.383969E-05 +1.073861E-03 +1.167409E-04 -2.548255E-04 +2.383969E-05 -2.548255E-04 +7.554844E-03 
 -2.876605E-04 +2.572810E-04 +7.399672E-04 +2.572810E-04 +1.217195E-04 +6.803867E-04 +7.399672E-04 +6.803867E-04 +7.808350E-03 
 -3.650591E-05 -2.003486E-04 -5.366837E-05 -2.003486E-04 -5.708857E-04 +1.167874E-04 -5.366837E-05 +1.167874E-04 +7.947052E-03 
 -7.048538E-04 +1.265763E-04 -5.189632E-04 +1.265763E-04 +5.296451E-04 -3.366681E-04 -5.189632E-04 -3.366681E-04 +7.633576E-03 
 -6.877134E-04 +1.405729E-03 -1.741247E-04 +1.405729E-03 +4.341092E-05 -1.441497E-04 -1.741247E-04 -1.441497E-04 +7.650863E-03 
 -2.109678E-04 +3.086044E-04 -6.362628E-04 +3.086044E-04 +5.063156E-05 -5.568357E-04 -6.362628E-04 -5.568357E-04 +7.541192E-03 
 +3.275158E-04 +6.429672E-04 -8.769410E-04 +6.429672E-04 +2.117650E-04 +3.239197E-04 -8.769410E-04 +3.239197E-04 +6.875159E-03 
 +4.129622E-04 -2.573647E-04 +1.253291E-04 -2.573647E-04 -7.189560E-05 -5.948202E-05 +1.253291E-04 -5.948202E-05 +6.806422E-03 
 +8.078639E-06 +8.867439E-05 +2.970457E-04 +8.867439E-05 -5.775534E-04 -1.333514E-04 +2.970457E-04 -1.333514E-04 +7.724537E-03 
 -1.321838E-05 -2.502370E-04 -3.246006E-04 -2.502370E-04 +2.662834E-04 +4.348128E-04 -3.246006E-04 +4.348128E-04 +7.790660E-03 
 +2.641170E-04 -8.423530E-04 -4.971422E-05 -8.423530E-04 -1.024401E-04 -1.741310E-05 -4.971422E-05 -1.741310E-05 +7.415328E-03 
 -3.082308E-04 +6.134274E-04 -3.119406E-04 +6.134274E-04 +3.484143E-05 +5.743805E-05 -3.119406E-04 +5.743805E-05 +7.315401E-03 
 -5.347257E-04 -6.181542E-04 -2.364678E-04 -6.181542E-04 +4.814350E-04 +7.117447E-04 -2.364678E-04 +7.117447E-04 +7.605915E-03 
 +5.448271E-04 +5.008273E-04 +1.909531E-04 +5.008273E-04 -3.828403E-04 -5.272575E-05 +1.909531E-04 -5.272575E-05 +7.744638E-03 
 +4.925284E-06 -2.445041E-05 +5.734342E-05 -2.445041E-05 -3.680575E-04 -1.684999E-05 +5.734342E-05 -1.684999E-05 +7.687451E-03 
 -5.584614E-04 -2.988269E-04 +1.032401E-04 -2.988269E-04 +2.889311E-04 +7.388053E-06 +1.032401E-04 +7.388053E-06 +7.673066E-03 
 -4.984242E-05 +2.388577E-04 +4.241588E-05 +2.388577E-04 +8.188991E-05 -3.028391E-04 +4.241588E-05 -3.028391E-04 +7.363101E-03 
 -6.908859E-05 -3.069907E-04 +1.397674E-04 -3.069907E-04 +1.407684E-04 -5.708727E-05 +1.397674E-04 -5.708727E-05 +7.392433E-03 
 +2.117449E-04 +3.342539E-04 +5.293708E-05 +3.342539E-04 -6.789340E-04 +2.838991E-04 +5.293708E-05 +2.838991E-04 +7.499079E-03 
 +1.072760E-05 +2.021125E-05 -5.250977E-04 +2.021125E-05 +3.232284E-04 -4.527238E-04 -5.250977E-04 -4.527238E-04 +7.420463E-03 
 -2.536455E-04 +7.246847E-04 -2.991882E-04 +7.246847E-04 +1.128421E-04 -8.505022E-06 -2.991882E-04 -8.505022E-06 +7.377606E-03 
 -4.643208E-04 +4.039298E-04 -5.432011E-05 +4.039298E-04 -1.801776E-05 +5.112665E-04 -5.432011E-05 +5.112665E-04 +7.593198E-03 
 -3.296607E-04 +6.005464E-04 -4.382280E-04 +6.005464E-04 +8.712605E-05 -2.869940E-04 -4.382280E-04 -2.869940E-04 +7.712562E-03 
 +5.629520E-05 -3.152486E-05 -2.879153E-04 -3.152486E-05 -7.618021E-05 +2.342690E-04 -2.879153E-04 +2.342690E-04 +7.233982E-03 
 -2.341451E-04 +1.355292E-04 +2.785196E-04 +1.355292E-04 -6.565759E-05 -4.153861E-04 +2.785196E-04 -4.153861E-04 +7.386080E-03 
 -5.155506E-04 -6.157665E-04 +1.507349E-04 -6.157665E-04 +2.610875E-04 +2.036387E-04 +1.507349E-04 +2.036387E-04 +7.833564E-03 
 -4.214899E-04 -4.230465E-04 +1.711444E-04 -4.230465E-04 +3.039458E-04 +4.739320E-05 +1.711444E-04 +4.739320E-05 +7.588476E-03 
 -3.809943E-04 +9.488771E-04 +1.119494E-04 +9.488771E-04 -1.775789E-04 +6.209827E-06 +1.119494E-04 +6.209827E-06 +7.835781E-03 
 +5.200343E-04 +2.385841E-04 -2.802619E-04 +2.385841E-04 -2.722382E-04 +2.579333E-04 -2.802619E-04 +2.579333E-04 +7.546721E-03 
 +1.425538E-04 -1.801270E-04 -2.888730E-04 -1.801270E-04 -7.039645E-05 -3.059311E-04 -2.888730E-04 -3.059311E-04 +7.453762E-03 
 +4.988907E-04 -9.364125E-04 -1.053373E-04 -9.364125E-04 +8.930990E-05 +4.832511E-05 -1.053373E-04 +4.832511E-05 +7.043401E-03 
 +5.261552E-04 +6.037154E-04 +1.191927E-04 +6.037154E-04 +1.574435E-04 -1.634181E-04 +1.191927E-04 -1.634181E-04 +7.016503E-03 
 -3.167382E-04 +5.569206E-04 +5.954917E-05 +5.569206E-04 -4.824775E-05 -3.207178E-04 +5.954917E-05 -3.207178E-04 +7.514701E-03 
 -1.831791E-04 -2.741466E-04 +6.634236E-05 -2.741466E-04 +2.764317E-04 +3.351006E-05 +6.634236E-05 +3.351006E-05 +6.940617E-03 
 +3.417302E-04 +4.885280E-05 +4.218188E-04 +4.885280E-05 +6.713061E-05 -1.484445E-04 +4.218188E-04 -1.484445E-04 +6.862717E-03 
 +6.030052E-05 -2.543147E-05 -2.406934E-04 -2.543147E-05 -6.528295E-04 +3.330230E-04 -2.406934E-04 +3.330230E-04 +7.513834E-03 
 +7.827031E-06 -1.202462E-04 -4.885725E-04 -1.202462E-04 +1.455245E-04 +2.691893E-04 -4.885725E-04 +2.691893E-04 +7.504395E-03 
 -2.644779E-04 +3.067525E-04 -5.046476E-04 +3.067525E-04 +8.587661E-05 -3.028090E-04 -5.046476E-04 -3.028090E-04 +7.721306E-03 
 -6.543120E-04 +5.718718E-04 -6.123895E-04 +5.718718E-04 +3.592414E-04 +6.562911E-04 -6.123895E-04 +6.562911E-04 +7.760817E-03 
 +8.213323E-05 +5.397878E-04 -4.494136E-04 +5.397878E-04 -3.111339E-04 +5.484008E-04 -4.494136E-04 +5.484008E-04 +7.775285E-03 
 -1.554506E-04 +4.521080E-04 +8.408977E-04 +4.521080E-04 -1.664485E-04 +7.818241E-04 +8.408977E-04 +7.818241E-04 +7.698579E-03 
 -7.057294E-04 +9.200520E-04 -2.729924E-04 +9.200520E-04 +4.803259E-05 +2.153253E-04 -2.729924E-04 +2.153253E-04 +7.823544E-03 
 +6.229062E-05 +1.979556E-04 -5.415562E-04 +1.979556E-04 -5.267628E-05 +2.280920E-04 -5.415562E-04 +2.280920E-04 +7.802787E-03 
 -5.898589E-05 +2.319603E-04 +1.035881E-04 +2.319603E-04 +2.515620E-05 +4.684282E-05 +1.035881E-04 +4.684282E-05 +7.220397E-03 
 +4.450416E-05 +2.704488E-04 +1.601074E-04 +2.704488E-04 +7.367206E-05 -2.888866E-04 +1.601074E-04 -2.888866E-04 +7.358942E-03 
 -7.648213E-06 -4.049208E-04 +1.455083E-04 -4.049208E-04 -1.672327E-04 -3.687690E-04 +1.455083E-04 -3.687690E-04 +7.513533E-03 
 +8.987403E-05 -8.119107E-05 -1.328529E-04 -8.119107E-05 +2.877725E-04 +2.169353E-04 -1.328529E-04 +2.169353E-04 +7.060688E-03 
 +3.039185E-05 +2.921896E-04 -4.146367E-04 +2.921896E-04 +3.131842E-04 -2.142085E-04 -4.146367E-04 -2.142085E-04 +7.146380E-03 
 -1.153782E-04 +4.323152E-04 +6.380595E-04 +4.323152E-04 -3.973032E-04 -6.153720E-04 +6.380595E-04 -6.153720E-04 +7.745729E-03 
 -2.793085E-04 +9.723740E-04 +2.405032E-04 +9.723740E-04 -2.617755E-04 -4.107647E-04 +2.405032E-04 -4.107647E-04 +7.823269E-03 
 -1.915435E-04 -1.957264E-04 -4.378760E-04 -1.957264E-04 +4.109283E-04 +3.040887E-04 -4.378760E-04 +3.040887E-04 +7.329988E-03 
 +1.654720E-04 -1.289021E-04 -3.121596E-05 -1.289021E-04 -1.388309E-05 -4.556714E-04 -3.121596E-05 -4.556714E-04 +7.551474E-03 
 +3.110095E-04 -1.096995E-04 +2.511045E-04 -1.096995E-04 +1.323154E-04 +5.125649E-05 +2.511045E-04 +5.125649E-05 +7.241073E-03 
 -4.651278E-04 -2.546487E-04 -1.672199E-04 -2.546487E-04 +2.165639E-04 +8.074876E-04 -1.672199E-04 +8.074876E-04 +7.394610E-03 
 -3.524739E-04 -8.178698E-04 +5.911933E-05 -8.178698E-04 +1.100189E-05 -1.130329E-04 +5.911933E-05 -1.130329E-04 +8.056600E-03 
 -1.165887E-04 -7.505164E-04 -1.128512E-04 -7.505164E-04 -2.593911E-04 +8.624151E-05 -1.128512E-04 +8.624151E-05 +7.817050E-03 
 +1.323452E-04 -6.490738E-04 -3.937177E-04 -6.490738E-04 -4.475734E-05 -4.181140E-04 -3.937177E-04 -4.181140E-04 +7.461885E-03 
 +4.057193E-04 +8.254004E-05 +5.781701E-05 +8.254004E-05 -8.566275E-05 +7.953657E-05 +5.781701E-05 +7.953657E-05 +7.395896E-03 
 -1.587970E-04 -4.901442E-04 +9.488599E-05 -4.901442E-04 +1.034384E-04 +4.213343E-04 +9.488599E-05 +4.213343E-04 +7.568534E-03 
 -9.329577E-05 +6.654205E-04 -1.211220E-04 +6.654205E-04 +1.039625E-04 -5.694729E-04 -1.211220E-04 -5.694729E-04 +7.704944E-03 
 +1.510537E-04 -1.385357E-04 +7.887913E-06 -1.385357E-04 +2.704994E-04 -3.696442E-04 +7.887913E-06 -3.696442E-04 +7.156095E-03 
 +3.055561E-05 +9.764198E-04 -2.184669E-04 +9.764198E-04 -1.871247E-04 +3.589318E-04 -2.184669E-04 +3.589318E-04 +7.873132E-03 
 -3.060036E-04 +2.829111E-04 +3.163742E-06 +2.829111E-04 -4.903048E-04 -3.835156E-05 +3.163742E-06 -3.835156E-05 +8.095180E-03 
 +1.667676E-04 +1.492250E-04 +3.632714E-05 +1.492250E-04 +2.426939E-04 -6.256126E-05 +3.632714E-05 -6.256126E-05 +7.109912E-03 
 +1.678052E-04 +1.278270E-04 +1.740520E-05 +1.278270E-04 -5.296564E-06 +1.668963E-04 +1.740520E-05 +1.668963E-04 +7.610793E-03 
 -8.553223E-05 -2.086167E-04 -3.560688E-04 -2.086167E-04 -4.989486E-05 +1.127707E-04 -3.560688E-04 +1.127707E-04 +7.600442E-03 
 +1.037116E-04 +4.372599E-04 +1.520411E-04 +4.372599E-04 +7.837957E-05 +2.218423E-04 +1.520411E-04 +2.218423E-04 +7.279064E-03 
 +1.574262E-04 -4.603591E-04 -1.527963E-04 -4.603591E-04 -8.671319E-05 -1.532611E-04 -1.527963E-04 -1.532611E-04 +7.620553E-03 
 +2.963202E-04 -2.148921E-04 +6.152161E-04 -2.148921E-04 -1.137077E-04 -3.675961E-04 +6.152161E-04 -3.675961E-04 +7.748767E-03 
 +6.026741E-04 -8.741675E-04 -3.663575E-04 -8.741675E-04 -9.250786E-05 +5.288002E-04 -3.663575E-04 +5.288002E-04 +6.995753E-03 
 +8.666211E-05 +5.979443E-04 +2.381131E-04 +5.979443E-04 +3.041167E-04 +2.053870E-04 +2.381131E-04 +2.053870E-04 +7.015821E-03 
 +1.055710E-04 -5.818640E-04 -1.453805E-04 -5.818640E-04 -1.788289E-05 +3.803467E-04 -1.453805E-04 +3.803467E-04 +7.418703E-03 
 -4.339334E-05 +3.601852E-04 -5.218536E-04 +3.601852E-04 +2.498573E-04 -2.617899E-04 -5.218536E-04 -2.617899E-04 +7.350393E-03 
 +1.070197E-05 -5.266934E-04 -6.474252E-04 -5.266934E-04 -1.553297E-04 -1.149373E-04 -6.474252E-04 -1.149373E-04 +7.762471E-03 
 -1.141251E-04 +9.490385E-05 +1.998958E-04 +9.490385E-05 +1.045639E-04 -3.262637E-04 +1.998958E-04 -3.262637E-04 +7.561959E-03 
 -1.623553E-04 -4.874608E-04 +3.424039E-04 -4.874608E-04 +2.641649E-04 -3.734359E-04 +3.424039E-04 -3.734359E-04 +7.459092E-03 
 -1.987570E-04 -2.533025E-04 -1.244062E-05 -2.533025E-04 -3.223001E-04 -2.113105E-04 -1.244062E-05 -2.113105E-04 +7.681169E-03 
 -4.317811E-05 +5.479846E-04 +5.110824E-04 +5.479846E-04 -8.936049E-05 +4.091561E-04 +5.110824E-04 +4.091561E-04 +7.494356E-03 
 -1.709822E-04 +1.815106E-04 +2.461449E-04 +1.815106E-04 +1.204118E-04 -4.774434E-04 +2.461449E-04 -4.774434E-04 +7.309061E-03 
 +8.306238E-05 +2.454761E-04 -8.684217E-05 +2.454761E-04 +1.213351E-05 +6.427522E-04 -8.684217E-05 +6.427522E-04 +7.176502E-03 
 +5.803760E-04 +3.474777E-05 +2.784758E-04 +3.474777E-05 +7.754393E-05 +2.311619E-04 +2.784758E-04 +2.311619E-04 +7.166101E-03 
 -1.215701E-04 -3.065728E-04 +1.967096E-04 -3.065728E-04 -2.101371E-04 -1.538881E-06 +1.967096E-04 -1.538881E-06 +7.770653E-03 
 -1.038256E-06 +3.089787E-04 +3.285275E-04 +3.089787E-04 +1.345913E-05 +8.841866E-06 +3.285275E-04 +8.841866E-06 +7.262239E-03 
 +2.836854E-04 -1.007016E-04 -1.730004E-05 -1.007016E-04 +1.871243E-04 -4.539003E-04 -1.730004E-05 -4.539003E-04 +6.829445E-03 
 -1.610282E-05 -1.625747E-04 +2.959454E-04 -1.625747E-04 -2.278599E-04 -1.384115E-04 +2.959454E-04 -1.384115E-04 +7.476036E-03 
 +1.607482E-04 +7.654004E-05 -2.120064E-04 +7.654004E-05 +3.169665E-04 +8.879618E-04 -2.120064E-04 +8.879618E-04 +7.185517E-03 
 +1.470525E-04 -5.182818E-05 +7.048994E-05 -5.182818E-05 +8.037416E-05 -3.538352E-04 +7.048994E-05 -3.538352E-04 +7.304792E-03 
 +1.156734E-05 +3.171878E-04 -5.489002E-05 +3.171878E-04 -7.019871E-05 +6.132108E-04 -5.489002E-05 +6.132108E-04 +7.703165E-03 
 -1.428217E-04 -8.816721E-04 +5.160212E-04 -8.816721E-04 -4.318510E-04 -2.155021E-05 +5.160212E-04 -2.155021E-05 +7.713498E-03 
 +2.562715E-05 -6.661419E-04 -1.311774E-04 -6.661419E-04 -4.301748E-05 -2.789618E-04 -1.311774E-04 -2.789618E-04 +7.537379E-03 
 -2.859221E-04 -6.622514E-04 -2.480210E-04 -6.622514E-04 +2.285032E-04 +3.300155E-04 -2.480210E-04 +3.300155E-04 +7.551775E-03 
 +4.477106E-05 +8.307033E-05 +5.293894E-05 +8.307033E-05 -4.030324E-05 -5.626447E-06 +5.293894E-05 -5.626447E-06 +7.392507E-03 
 +4.441325E-04 -3.680703E-04 +4.665791E-04 -3.680703E-04 +3.867974E-05 -7.922878E-05 +4.665791E-04 -7.922878E-05 +7.029734E-03 
 +3.059656E-05 +6.407234E-04 +3.242732E-04 +6.407234E-04 -6.901680E-07 -4.569051E-05 +3.242732E-04 -4.569051E-05 +7.353333E-03 
 -1.582762E-04 +7.640418E-04 +3.007038E-04 +7.640418E-04 +1.553071E-04 +2.282775E-04 +3.007038E-04 +2.282775E-04 +7.753153E-03 
 -1.167621E-04 +7.362214E-04 +1.283615E-04 +7.362214E-04 -3.147529E-04 +1.183075E-04 +1.283615E-04 +1.183075E-04 +7.440372E-03 
 +9.444192E-05 -4.601408E-04 +1.663984E-04 -4.601408E-04 +3.794504E-04 +4.664623E-04 +1.663984E-04 +4.664623E-04 +6.979610E-03 
 +5.608304E-05 -5.241179E-04 +3.631038E-04 -5.241179E-04 +1.491546E-04 +3.157463E-05 +3.631038E-04 +3.157463E-05 +7.453572E-03 
 +3.518164E-04 +2.083784E-04 +1.929518E-04 +2.083784E-04 -2.563391E-04 -6.698166E-04 +1.929518E-04 -6.698166E-04 +7.221616E-03 
 +3.669625E-04 +3.775210E-04 +7.967069E-04 +3.775210E-04 -2.338863E-04 +4.651084E-04 +7.967069E-04 +4.651084E-04 +7.408446E-03 
 -2.224600E-04 -3.717556E-04 +4.801126E-04 -3.717556E-04 +3.536158E-04 -3.821005E-05 +4.801126E-04 -3.821005E-05 +7.854170E-03 
 -4.308259E-04 +4.459391E-04 +2.870217E-05 +4.459391E-04 +7.251267E-06 -2.131347E-04 +2.870217E-05 -2.131347E-04 +7.800811E-03 
 -2.696704E-04 +4.744712E-04 -1.430349E-04 +4.744712E-04 -3.339344E-04 +4.428243E-04 -1.430349E-04 +4.428243E-04 +7.772965E-03 
 +2.903705E-04 -3.138343E-04 -3.306210E-04 -3.138343E-04 +4.111105E-06 -1.540878E-04 -3.306210E-04 -1.540878E-04 +7.374774E-03 
 +6.193723E-04 +8.353231E-04 -4.002673E-05 +8.353231E-04 +9.154791E-05 -3.307405E-04 -4.002673E-05 -3.307405E-04 +7.050178E-03 
 -9.817522E-05 +4.449442E-04 -2.528479E-04 +4.449442E-04 +8.108245E-05 -9.704877E-05 -2.528479E-04 -9.704877E-05 +7.230443E-03 
 -2.102913E-05 +3.773583E-04 +7.222363E-04 +3.773583E-04 +8.002000E-05 -3.848350E-04 +7.222363E-04 -3.848350E-04 +7.312926E-03 
 +2.164164E-04 +1.884790E-04 +4.209323E-06 +1.884790E-04 -5.285372E-05 -4.542921E-04 +4.209323E-06 -4.542921E-04 +7.159456E-03 
 -1.889888E-04 +6.858158E-04 -3.754684E-05 +6.858158E-04 +1.622301E-05 -2.943368E-04 -3.754684E-05 -2.943368E-04 +7.645902E-03 
 -6.104824E-05 +4.001357E-04 +5.107567E-04 +4.001357E-04 -3.087182E-04 -4.762871E-04 +5.107567E-04 -4.762871E-04 +7.816864E-03 
 -3.994779E-04 +9.733753E-04 +1.141788E-04 +9.733753E-04 +9.538484E-05 -3.153688E-04 +1.141788E-04 -3.153688E-04 +7.543744E-03 
 -4.429597E-04 -2.983646E-04 -6.832619E-05 -2.983646E-04 -4.427123E-05 -2.062181E-04 -6.832619E-05 -2.062181E-04 +7.754909E-03 
 -1.401637E-06 -1.196727E-04 +2.005054E-04 -1.196727E-04 +1.794941E-05 -3.123556E-04 +2.005054E-04 -3.123556E-04 +7.686276E-03 
 -9.330674E-06 -7.171978E-04 -4.645101E-04 -7.171978E-04 -7.092224E-05 -5.603124E-04 -4.645101E-04 -5.603124E-04 +7.390114E-03 
 +3.023779E-05 +3.853613E-04 +1.355788E-04 +3.853613E-04 +2.760339E-04 +8.134501E-04 +1.355788E-04 +8.134501E-04 +7.188078E-03 
 +1.380089E-04 +4.153794E-04 -3.097978E-04 +4.153794E-04 +1.814397E-04 +2.404763E-04 -3.097978E-04 +2.404763E-04 +7.043850E-03 
 +1.358875E-07 +1.040326E-03 -4.620283E-04 +1.040326E-03 -6.355641E-05 +1.381340E-05 -4.620283E-04 +1.381340E-05 +7.574306E-03 
 -3.395313E-04 -6.690597E-04 +3.384701E-07 -6.690597E-04 -1.787224E-04 -1.033857E-04 +3.384701E-07 -1.033857E-04 +7.833757E-03 
 +7.202270E-05 -3.437137E-04 -3.060770E-04 -3.437137E-04 +5.288849E-04 +4.605869E-04 -3.060770E-04 +4.605869E-04 +6.998455E-03 
 +3.167228E-04 -1.350199E-04 +8.520063E-05 -1.350199E-04 -5.196923E-04 -3.831112E-04 +8.520063E-05 -3.831112E-04 +7.875650E-03 
 -3.041973E-04 +3.964128E-04 +3.081215E-04 +3.964128E-04 -1.900765E-04 +1.187273E-04 +3.081215E-04 +1.187273E-04 +7.723508E-03 
 -1.625456E-04 +9.908964E-05 +5.082637E-04 +9.908964E-05 +2.503187E-04 +5.275817E-04 +5.082637E-04 +5.275817E-04 +7.424591E-03 
 -4.353486E-04 +1.960239E-04 +8.971000E-05 +1.960239E-04 -3.995446E-05 -1.203233E-05 +8.971000E-05 -1.203233E-05 +7.630283E-03 
 +1.126463E-04 +3.222964E-04 -2.777438E-04 +3.222964E-04 +5.303676E-05 +2.304193E-05 -2.777438E-04 +2.304193E-05 +7.198883E-03 
 +5.334649E-04 -9.650375E-05 -8.009658E-05 -9.650375E-05 +7.937433E-05 -3.841264E-04 -8.009658E-05 -3.841264E-04 +7.343905E-03 
 +6.871074E-05 +3.826496E-04 -3.670049E-04 +3.826496E-04 -3.296820E-04 +2.517276E-04 -3.670049E-04 +2.517276E-04 +7.592161E-03 
 -9.460231E-05 -6.295137E-04 -1.218385E-04 -6.295137E-04 -8.922091E-05 +2.276810E-04 -1.218385E-04 +2.276810E-04 +7.557581E-03 
 -2.990419E-04 +8.864201E-04 -1.820658E-04 +8.864201E-04 +1.970622E-04 -3.739226E-04 -1.820658E-04 -3.739226E-04 +7.616850E-03 
 +3.641820E-05 +4.403657E-04 +5.030758E-04 +4.403657E-04 -1.398387E-04 +4.229167E-04 +5.030758E-04 +4.229167E-04 +7.873216E-03 
 +2.506186E-04 +4.027293E-04 +3.724691E-04 +4.027293E-04 -2.998708E-04 +2.345992E-04 +3.724691E-04 +2.345992E-04 +7.407564E-03 
 +3.861108E-05 -3.908935E-04 +2.720202E-04 -3.908935E-04 +2.861742E-04 -3.641987E-04 +2.720202E-04 -3.641987E-04 +7.127243E-03 
 +5.149224E-05 +2.913725E-04 +1.639824E-05 +2.913725E-04 +2.347157E-04 -2.110170E-04 +1.639824E-05 -2.110170E-04 +7.494056E-03 
 -1.475087E-04 +4.542531E-04 -5.288046E-04 +4.542531E-04 -4.585509E-05 -2.246713E-04 -5.288046E-04 -2.246713E-04 +7.409228E-03 
 +9.117569E-06 +1.932844E-04 -2.130834E-04 +1.932844E-04 +3.212458E-04 +1.364312E-04 -2.130834E-04 +1.364312E-04 +7.344162E-03 
 -2.264744E-04 -7.364806E-04 +1.629658E-04 -7.364806E-04 -2.267585E-04 -8.660907E-05 +1.629658E-04 -8.660907E-05 +7.769620E-03 
 -3.026021E-05 -5.434420E-04 -1.326188E-05 -5.434420E-04 +4.831507E-04 +3.892519E-04 -1.326188E-05 +3.892519E-04 +7.531653E-03 
 +2.262487E-04 -3.697760E-04 -7.470161E-05 -3.697760E-04 -2.986637E-04 +2.400910E-05 -7.470161E-05 +2.400910E-05 +7.596849E-03 
 +8.637735E-05 +1.000331E-03 -3.912357E-04 +1.000331E-03 -1.852563E-04 -3.732015E-04 -3.912357E-04 -3.732015E-04 +7.555929E-03 
 -4.581018E-04 -5.344794E-05 -4.846498E-05 -5.344794E-05 +4.770649E-04 -6.571012E-04 -4.846498E-05 -6.571012E-04 +7.324139E-03 
 -3.900373E-05 -7.702626E-04 +1.363704E-04 -7.702626E-04 -1.221827E-04 -1.865522E-04 +1.363704E-04 -1.865522E-04 +7.596384E-03 
 +4.499081E-04 +3.580558E-04 -5.863358E-04 +3.580558E-04 -3.063862E-05 +2.992107E-04 -5.863358E-04 +2.992107E-04 +7.338431E-03 
 -3.873901E-04 -1.031996E-03 +8.201364E-05 -1.031996E-03 -2.925438E-04 -1.823622E-04 +8.201364E-05 -1.823622E-04 +7.961554E-03 
 -2.811109E-04 -4.683922E-04 +2.503389E-04 -4.683922E-04 +3.186247E-04 +4.512961E-04 +2.503389E-04 +4.512961E-04 +7.508622E-03 
 +4.281510E-04 -7.500649E-04 +5.432157E-04 -7.500649E-04 -3.562321E-04 +5.276073E-05 +5.432157E-04 +5.276073E-05 +7.528732E-03 
 +3.150686E-05 -5.151078E-04 +4.341852E-04 -5.151078E-04 +1.248179E-04 -8.875843E-04 +4.341852E-04 -8.875843E-04 +7.659405E-03 
 +1.843893E-04 +3.227942E-04 -2.279343E-05 +3.227942E-04 +2.293090E-04 -4.523953E-04 -2.279343E-05 -4.523953E-04 +7.267881E-03 
 +4.791185E-05 -8.684156E-04 +4.865789E-04 -8.684156E-04 -3.432421E-04 -3.870643E-04 +4.865789E-04 -3.870643E-04 +7.627375E-03 
 +1.220460E-04 -4.265363E-04 +3.378393E-04 -4.265363E-04 -3.404844E-04 -1.762235E-04 +3.378393E-04 -1.762235E-04 +7.457905E-03 
 +1.361861E-04 +6.997467E-04 -5.710552E-04 +6.997467E-04 +1.485959E-04 -1.021612E-04 -5.710552E-04 -1.021612E-04 +7.456394E-03 
 -1.093666E-04 +1.054451E-03 -5.676145E-04 +1.054451E-03 -1.145334E-04 -5.789444E-04 -5.676145E-04 -5.789444E-04 +7.550946E-03 
 -3.605018E-04 -4.923900E-04 +2.551713E-04 -4.923900E-04 +1.111774E-04 -6.937044E-05 +2.551713E-04 -6.937044E-05 +7.605579E-03 
 +6.549351E-05 +2.660719E-05 +4.915124E-04 +2.660719E-05 -9.253870E-05 -1.242497E-04 +4.915124E-04 -1.242497E-04 +7.490204E-03 
 +9.119432E-05 -2.771947E-04 +8.280609E-05 -2.771947E-04 +2.552151E-04 +2.542294E-04 +8.280609E-05 +2.542294E-04 +6.950771E-03 
 +4.131543E-04 +6.575410E-04 -3.438364E-04 +6.575410E-04 +7.756602E-05 -4.456658E-05 -3.438364E-04 -4.456658E-05 +7.280323E-03 
 +1.212927E-04 -3.162537E-04 +2.159961E-04 -3.162537E-04 +4.716168E-05 -5.400691E-04 +2.159961E-04 -5.400691E-04 +7.498333E-03 
 -4.316991E-04 -2.018007E-04 +1.952261E-04 -2.018007E-04 +4.958749E-04 -1.448283E-05 +1.952261E-04 -1.448283E-05 +7.498318E-03 
 -6.755166E-05 -3.757899E-04 +5.534520E-05 -3.757899E-04 -2.193054E-04 -4.464522E-05 +5.534520E-05 -4.464522E-05 +7.829885E-03 
 -4.532317E-05 -5.875230E-04 -3.749075E-05 -5.875230E-04 -4.253489E-04 +3.336663E-04 -3.749075E-05 +3.336663E-04 +7.630946E-03 
 -3.638485E-04 -3.578499E-04 +1.845333E-04 -3.578499E-04 +3.346113E-04 +2.563208E-04 +1.845333E-04 +2.563208E-04 +7.630852E-03 
 -2.214710E-04 +1.473632E-04 +6.646682E-04 +1.473632E-04 +1.198891E-05 -1.729300E-04 +6.646682E-04 -1.729300E-04 +7.605321E-03 
 -1.350441E-04 -1.057933E-03 +4.084594E-04 -1.057933E-03 -1.851809E-05 -1.945231E-04 +4.084594E-04 -1.945231E-04 +7.614238E-03 
 +2.690127E-04 -3.957335E-04 +4.041136E-05 -3.957335E-04 -3.282608E-04 -3.174374E-04 +4.041136E-05 -3.174374E-04 +7.505378E-03 
 +1.138047E-04 -9.298434E-04 -1.280537E-04 -9.298434E-04 +3.370138E-04 -1.842058E-04 -1.280537E-04 -1.842058E-04 +7.101121E-03 
 -3.545717E-04 -1.447935E-03 +2.629320E-04 -1.447935E-03 -1.507075E-04 -4.320366E-04 +2.629320E-04 -4.320366E-04 +7.832889E-03 
 +2.718593E-04 +1.209092E-05 -3.787830E-04 +1.209092E-05 -4.627629E-05 +2.691258E-04 -3.787830E-04 +2.691258E-04 +7.416354E-03 
 -1.213903E-04 -2.210769E-04 -5.693716E-05 -2.210769E-04 +1.800932E-04 -4.686203E-04 -5.693716E-05 -4.686203E-04 +7.184792E-03 
 -3.307805E-05 +3.627528E-05 +1.039030E-03 +3.627528E-05 +4.224743E-05 +3.217631E-04 +1.039030E-03 +3.217631E-04 +7.590257E-03 
 +7.560313E-05 -5.360560E-04 +5.408027E-04 -5.360560E-04 -2.464242E-04 +3.557871E-04 +5.408027E-04 +3.557871E-04 +7.566649E-03 
 +6.135389E-05 +8.903693E-05 -6.894841E-05 +8.903693E-05 -2.095217E-04 +5.497472E-05 -6.894841E-05 +5.497472E-05 +7.739407E-03 
 +1.437909E-05 +8.020045E-04 +3.079977E-04 +8.020045E-04 -1.393035E-04 +6.612848E-04 +3.079977E-04 +6.612848E-04 +7.778680E-03 
 -1.685431E-04 +1.176802E-03 +7.452827E-04 +1.176802E-03 +3.756530E-05 +3.987739E-04 +7.452827E-04 +3.987739E-04 +7.547668E-03 
 -1.599659E-04 +2.829509E-04 +6.763149E-04 +2.829509E-04 +1.803075E-04 +1.604643E-04 +6.763149E-04 +1.604643E-04 +7.336792E-03 
 +1.974541E-05 -3.380264E-04 +5.891935E-04 -3.380264E-04 -2.164540E-04 -6.564397E-04 +5.891935E-04 -6.564397E-04 +7.314789E-03 
 -5.701980E-04 +7.702195E-04 +2.205356E-04 +7.702195E-04 -6.528333E-05 +1.829720E-04 +2.205356E-04 +1.829720E-04 +8.139192E-03 
 +1.536781E-04 +2.241128E-05 -4.312262E-04 +2.241128E-05 +3.817352E-05 +2.544133E-04 -4.312262E-04 +2.544133E-04 +7.329052E-03 
 +2.603368E-04 +4.503874E-04 -4.492559E-04 +4.503874E-04 -2.836927E-05 +4.891432E-04 -4.492559E-04 +4.891432E-04 +7.147926E-03 
 -1.476543E-04 -1.867205E-04 -2.324708E-05 -1.867205E-04 +2.160727E-04 -1.552441E-04 -2.324708E-05 -1.552441E-04 +7.133673E-03 
 -2.991711E-04 +2.175965E-04 +4.095980E-04 +2.175965E-04 +1.035497E-04 +9.397653E-05 +4.095980E-04 +9.397653E-05 +7.253146E-03 
 +1.041906E-04 -6.117534E-04 +4.824870E-04 -6.117534E-04 -2.405710E-04 +4.081315E-04 +4.824870E-04 +4.081315E-04 +7.223978E-03 
 +2.492851E-04 -1.289926E-04 -2.868335E-04 -1.289926E-04 +7.855798E-05 +2.618434E-04 -2.868335E-04 +2.618434E-04 +6.960556E-03 
 -9.026861E-05 +2.451876E-04 -2.112663E-05 +2.451876E-04 -5.377100E-04 -1.025465E-03 -2.112663E-05 -1.025465E-03 +7.512362E-03 
 -1.460767E-04 -3.683530E-04 -4.177912E-05 -3.683530E-04 +5.314345E-04 -5.212830E-05 -4.177912E-05 -5.212830E-05 +7.488627E-03 
 -1.993175E-04 -3.846998E-04 +6.395206E-05 -3.846998E-04 -5.510324E-04 +6.730801E-05 +6.395206E-05 +6.730801E-05 +7.483476E-03 
 -4.702399E-04 -4.532008E-04 -2.770941E-04 -4.532008E-04 +7.196159E-05 +1.593183E-04 -2.770941E-04 +1.593183E-04 +7.692219E-03 
 +1.523154E-04 -1.499140E-04 -5.546536E-04 -1.499140E-04 +3.467826E-04 -1.388325E-04 -5.546536E-04 -1.388325E-04 +7.092346E-03 
 +5.788435E-05 -8.533501E-05 -2.535171E-04 -8.533501E-05 +2.933975E-04 +2.534951E-04 -2.535171E-04 +2.534951E-04 +7.107260E-03 
 -6.448099E-05 +9.136479E-04 -4.270977E-05 +9.136479E-04 -1.305078E-04 -6.143603E-05 -4.270977E-05 -6.143603E-05 +7.397434E-03 
 -9.155621E-05 +1.202908E-05 -5.051268E-05 +1.202908E-05 -2.646137E-05 -3.589435E-04 -5.051268E-05 -3.589435E-04 +7.412642E-03 
 +2.595779E-04 -1.750144E-04 -5.451695E-04 -1.750144E-04 -2.547269E-04 +1.073409E-04 -5.451695E-04 +1.073409E-04 +7.437766E-03 
 +3.323850E-04 -5.810873E-05 -2.457513E-04 -5.810873E-05 +2.330918E-05 +7.012037E-06 -2.457513E-04 +7.012037E-06 +7.678493E-03 
 +2.298226E-04 +1.300795E-04 +1.363955E-04 +1.300795E-04 -1.313075E-04 -3.286653E-05 +1.363955E-04 -3.286653E-05 +7.198898E-03 
 +2.501464E-04 -5.553738E-04 -1.320148E-04 -5.553738E-04 +1.583238E-04 +1.986336E-04 -1.320148E-04 +1.986336E-04 +7.096944E-03 
 -2.791220E-05 -9.023653E-05 +6.233870E-05 -9.023653E-05 -2.629419E-04 +1.794966E-04 +6.233870E-05 +1.794966E-04 +7.454558E-03 
 -5.243091E-04 -4.594235E-05 +1.996469E-05 -4.594235E-05 +3.669595E-04 +4.225750E-04 +1.996469E-05 +4.225750E-04 +7.722507E-03 
 -7.881186E-05 +6.885975E-04 -4.477016E-04 +6.885975E-04 +1.301486E-04 -8.975113E-04 -4.477016E-04 -8.975113E-04 +7.594927E-03 
 -4.641394E-04 -4.905655E-05 -3.140069E-04 -4.905655E-05 +1.043214E-04 -4.080064E-04 -3.140069E-04 -4.080064E-04 +7.928209E-03 
 -2.614972E-04 +8.459135E-04 +1.217990E-04 +8.459135E-04 +1.831072E-04 +1.033782E-04 +1.217990E-04 +1.033782E-04 +7.893770E-03 
 +1.016443E-04 -3.566222E-04 +2.439441E-04 -3.566222E-04 -4.748140E-04 -1.010596E-04 +2.439441E-04 -1.010596E-04 +7.752957E-03 
 -2.818957E-04 -3.897797E-04 +3.047407E-04 -3.897797E-04 +3.421848E-04 +1.928244E-04 +3.047407E-04 +1.928244E-04 +7.226653E-03 
 -3.608482E-05 -9.428816E-04 -9.705451E-05 -9.428816E-04 -2.831885E-05 -2.196885E-04 -9.705451E-05 -2.196885E-04 +7.612970E-03 
 +3.093545E-04 -1.109256E-04 +2.087804E-04 -1.109256E-04 -4.083333E-04 -1.295586E-04 +2.087804E-04 -1.295586E-04 +7.904412E-03 
 +1.744832E-05 +2.584245E-05 +2.241889E-04 +2.584245E-05 +1.911680E-04 +7.944304E-04 +2.241889E-04 +7.944304E-04 +7.268913E-03 
 +6.318956E-05 +4.452223E-04 -4.025659E-04 +4.452223E-04 -1.200042E-04 +2.452090E-04 -4.025659E-04 +2.452090E-04 +7.452495E-03 
 -3.008714E-04 +8.621104E-05 -2.692598E-04 +8.621104E-05 -6.298599E-05 +2.770860E-04 -2.692598E-04 +2.770860E-04 +7.758216E-03 
 -5.127970E-04 -4.180516E-04 -3.891987E-04 -4.180516E-04 -1.827734E-04 +1.957873E-04 -3.891987E-04 +1.957873E-04 +7.642694E-03 
 +1.213225E-04 +6.934642E-04 -5.307768E-04 +6.934642E-04 +4.448529E-04 -4.153705E-04 -5.307768E-04 -4.153705E-04 +7.098662E-03 
 +9.354541E-05 -3.632579E-04 -6.210113E-05 -3.632579E-04 +5.369569E-04 +4.205753E-04 -6.210113E-05 +4.205753E-04 +7.129152E-03 
 +2.406173E-04 -3.582024E-04 -1.674087E-04 -3.582024E-04 -3.231180E-04 +2.651136E-04 -1.674087E-04 +2.651136E-04 +7.612524E-03 
 +4.424258E-04 -3.189094E-05 +2.094891E-04 -3.189094E-05 -3.271647E-04 -9.723803E-06 +2.094891E-04 -9.723803E-06 +7.617624E-03 
 +1.623026E-04 -5.861034E-04 +7.286785E-05 -5.861034E-04 -6.986230E-05 +4.086235E-04 +7.286785E-05 +4.086235E-04 +7.503768E-03 
 -3.360825E-04 +1.177120E-04 -1.652799E-04 +1.177120E-04 +1.113944E-04 +3.424532E-04 -1.652799E-04 +3.424532E-04 +7.371282E-03 
 -9.688632E-05 -3.150274E-04 -1.672161E-04 -3.150274E-04 +6.221551E-05 -1.765246E-04 -1.672161E-04 -1.765246E-04 +7.832146E-03 
 +2.603124E-04 -1.869189E-03 +3.931997E-05 -1.869189E-03 -3.742516E-04 +3.182198E-04 +3.931997E-05 +3.182198E-04 +7.865948E-03 
 -4.829937E-04 -2.146507E-04 +4.348864E-04 -2.146507E-04 +2.138991E-04 -2.713369E-04 +4.348864E-04 -2.713369E-04 +7.568243E-03 
 -5.199452E-04 +4.386647E-04 +6.654094E-06 +4.386647E-04 +5.041203E-05 +2.748138E-05 +6.654094E-06 +2.748138E-05 +7.737613E-03 
 -9.944954E-05 -1.476487E-04 +2.858122E-04 -1.476487E-04 +3.190252E-04 +1.468688E-04 +2.858122E-04 +1.468688E-04 +7.099458E-03 
 +1.509613E-05 +3.343291E-04 +2.493047E-04 +3.343291E-04 +2.650675E-04 +3.361657E-04 +2.493047E-04 +3.361657E-04 +7.024526E-03 
 +2.602289E-05 -4.185234E-04 -1.241307E-05 -4.185234E-04 +8.360049E-05 +6.977430E-04 -1.241307E-05 +6.977430E-04 +7.429675E-03 
 +1.266804E-04 -1.159232E-03 -7.648148E-05 -1.159232E-03 -4.410326E-04 -5.349814E-05 -7.648148E-05 -5.349814E-05 +7.704883E-03 
 -1.558430E-04 -7.918366E-04 +6.617226E-05 -7.918366E-04 -3.996005E-04 -3.899476E-04 +6.617226E-05 -3.899476E-04 +7.766998E-03 
 -5.262172E-05 -1.961342E-04 +4.313782E-04 -1.961342E-04 +7.884025E-05 +2.370037E-04 +4.313782E-04 +2.370037E-04 +7.220024E-03 
 +3.230729E-04 +5.487098E-04 +4.728965E-04 +5.487098E-04 +7.557900E-05 -6.995400E-04 +4.728965E-04 -6.995400E-04 +6.837906E-03 
 -7.600373E-06 +1.375745E-04 +3.783931E-04 +1.375745E-04 +4.536264E-04 -9.427490E-05 +3.783931E-04 -9.427490E-05 +7.226069E-03 
 +4.628727E-05 +4.154008E-04 -5.466343E-04 +4.154008E-04 -5.680494E-04 +1.758914E-04 -5.466343E-04 +1.758914E-04 +7.498411E-03 
 +3.677142E-04 +1.705433E-04 +6.792223E-05 +1.705433E-04 +1.393495E-04 +2.848447E-04 +6.792223E-05 +2.848447E-04 +7.138836E-03 
 +1.323840E-04 -1.653131E-04 +3.745010E-04 -1.653131E-04 -1.680889E-04 -1.120387E-04 +3.745010E-04 -1.120387E-04 +7.006479E-03 
 -2.491616E-04 +1.285978E-04 -3.028170E-04 +1.285978E-04 +1.422429E-04 -8.497297E-04 -3.028170E-04 -8.497297E-04 +7.759549E-03 
 -3.372215E-04 +8.180642E-04 -2.146813E-04 +8.180642E-04 +1.377992E-04 -2.469257E-04 -2.146813E-04 -2.469257E-04 +7.695537E-03 
 +1.304237E-04 -9.849573E-04 +5.893455E-05 -9.849573E-04 +2.586597E-04 -8.073768E-04 +5.893455E-05 -8.073768E-04 +7.327435E-03 
 +3.445866E-04 -3.837627E-04 +3.493501E-04 -3.837627E-04 -3.532683E-04 -7.366986E-05 +3.493501E-04 -7.366986E-05 +7.798213E-03 
 -1.888429E-04 -8.699155E-04 +2.905028E-04 -8.699155E-04 +1.982802E-04 +1.363873E-04 +2.905028E-04 +1.363873E-04 +7.865602E-03 
 -1.055399E-04 +2.257538E-04 +4.698757E-04 +2.257538E-04 -1.871087E-04 +2.262980E-04 +4.698757E-04 +2.262980E-04 +7.634305E-03 
 -3.004809E-05 +2.855970E-04 +6.944638E-04 +2.855970E-04 +2.129593E-04 -1.864420E-04 +6.944638E-04 -1.864420E-04 +7.486401E-03 
 -2.031026E-04 -1.373966E-03 +5.050541E-04 -1.373966E-03 -2.495132E-04 +2.239063E-04 +5.050541E-04 +2.239063E-04 +7.434597E-03 
 -2.544369E-04 -9.978877E-04 +2.200716E-04 -9.978877E-04 -1.610816E-04 +4.207169E-04 +2.200716E-04 +4.207169E-04 +7.562339E-03 
 -3.457345E-04 -8.980949E-05 +2.104749E-05 -8.980949E-05 +1.625582E-04 +2.152389E-04 +2.104749E-05 +2.152389E-04 +7.230773E-03 
 +1.165895E-04 +3.020527E-04 +2.311828E-05 +3.020527E-04 +6.583949E-04 +1.597280E-04 +2.311828E-05 +1.597280E-04 +7.102918E-03 
 +5.048871E-04 +1.045786E-03 -2.523112E-04 +1.045786E-03 -3.982493E-04 -1.863225E-04 -2.523112E-04 -1.863225E-04 +7.255408E-03 
 +5.754691E-04 +4.501593E-04 +2.328410E-04 +4.501593E-04 +4.269523E-05 -6.089138E-06 +2.328410E-04 -6.089138E-06 +7.086048E-03 
 +1.904915E-04 -7.714613E-04 +3.626040E-04 -7.714613E-04 -4.306317E-04 -3.520824E-04 +3.626040E-04 -3.520824E-04 +7.541904E-03 
 -3.920554E-04 +2.832758E-04 +5.175894E-05 +2.832758E-04 -4.176273E-04 +5.995139E-05 +5.175894E-05 +5.995139E-05 +8.050590E-03 
 -3.419884E-04 +1.252727E-04 +1.792750E-04 +1.252727E-04 -2.169114E-05 -3.665099E-04 +1.792750E-04 -3.665099E-04 +7.751879E-03 
 -7.020580E-05 +1.067190E-03 +1.844100E-04 +1.067190E-03 +6.802013E-05 -2.485635E-04 +1.844100E-04 -2.485635E-04 +7.414690E-03 
 -1.481920E-04 +9.996328E-04 +9.777023E-05 +9.996328E-04 +3.410982E-04 +3.803622E-04 +9.777023E-05 +3.803622E-04 +7.765146E-03 
 -2.833596E-04 -7.553702E-04 +5.020843E-04 -7.553702E-04 -4.519414E-05 -8.917472E-05 +5.020843E-04 -8.917472E-05 +7.584550E-03 
 +1.598094E-04 -4.905564E-04 +5.932811E-04 -4.905564E-04 -1.205102E-04 -7.487598E-05 +5.932811E-04 -7.487598E-05 +7.504641E-03 
 +3.080464E-04 +8.113615E-05 -2.364388E-04 +8.113615E-05 -3.128122E-05 +5.222309E-06 -2.364388E-04 +5.222309E-06 +7.365999E-03 
 +7.168830E-05 -3.735503E-04 -4.176364E-06 -3.735503E-04 -8.224941E-05 +5.844727E-04 -4.176364E-06 +5.844727E-04 +7.376605E-03 
 -3.039405E-05 +3.672012E-04 +1.365575E-04 +3.672012E-04 +1.173970E-04 +2.557512E-04 +1.365575E-04 +2.557512E-04 +7.814396E-03 
 +2.166184E-04 -4.427286E-04 -2.792504E-04 -4.427286E-04 +1.211174E-04 +3.136643E-04 -2.792504E-04 +3.136643E-04 +7.337912E-03 
 +2.541052E-04 +5.130141E-04 -5.523487E-04 +5.130141E-04 +4.779385E-05 +4.372739E-04 -5.523487E-04 +4.372739E-04 +6.906288E-03 
 +1.369864E-04 -2.489201E-04 -8.729666E-05 -2.489201E-04 +1.215143E-04 -1.210353E-04 -8.729666E-05 -1.210353E-04 +7.031262E-03 
 +2.757959E-04 -2.375638E-04 +5.310436E-04 -2.375638E-04 +5.011155E-06 +4.848714E-04 +5.310436E-04 +4.848714E-04 +7.240446E-03 
 +5.207480E-04 +2.941539E-04 -5.751854E-05 +2.941539E-04 +1.108214E-04 +1.753237E-04 -5.751854E-05 +1.753237E-04 +7.188596E-03 
 -2.046558E-04 -1.407527E-03 -4.642459E-04 -1.407527E-03 -3.210354E-04 +4.112227E-04 -4.642459E-04 +4.112227E-04 +7.533775E-03 
 -2.671002E-04 -8.235684E-04 +8.386967E-05 -8.235684E-04 +2.324995E-04 +1.950676E-05 +8.386967E-05 +1.950676E-05 +7.667440E-03 
 -1.178947E-04 +4.127032E-05 +6.576072E-04 +4.127032E-05 +2.442933E-06 +1.708417E-04 +6.576072E-04 +1.708417E-04 +7.233318E-03 
 -5.598874E-05 +1.312434E-05 +6.435865E-05 +1.312434E-05 +9.514443E-05 -7.016283E-04 +6.435865E-05 -7.016283E-04 +7.679285E-03 
 -3.029570E-04 +8.457639E-04 +3.800428E-04 +8.457639E-04 -3.046232E-04 -3.156959E-04 +3.800428E-04 -3.156959E-04 +7.757373E-03 
 -2.325202E-04 +3.563447E-04 -3.391427E-04 +3.563447E-04 -3.457894E-04 +1.324044E-04 -3.391427E-04 +1.324044E-04 +8.019553E-03 
 -7.484836E-05 +6.706626E-04 +3.407920E-04 +6.706626E-04 -3.707462E-04 -2.418192E-04 +3.407920E-04 -2.418192E-04 +7.513048E-03 
 +3.063164E-04 -2.638248E-04 +7.765795E-04 -2.638248E-04 +2.895107E-04 -4.164256E-04 +7.765795E-04 -4.164256E-04 +7.175923E-03 
 +1.072658E-04 +7.660773E-05 +2.757931E-04 +7.660773E-05 -2.425321E-04 -8.397612E-05 +2.757931E-04 -8.397612E-05 +7.552463E-03 
 -5.662580E-04 -3.045304E-05 +3.997530E-04 -3.045304E-05 +1.370562E-04 +1.179471E-05 +3.997530E-04 +1.179471E-05 +8.015948E-03 
 -2.087785E-04 +1.164530E-04 +3.444402E-04 +1.164530E-04 +1.315675E-04 +4.948737E-04 +3.444402E-04 +4.948737E-04 +7.308524E-03 
 -2.452192E-04 -6.525582E-04 +9.627295E-05 -6.525582E-04 +1.401110E-04 -3.466670E-05 +9.627295E-05 -3.466670E-05 +7.311560E-03 
 -1.195723E-04 -6.241167E-04 -1.848112E-04 -6.241167E-04 +6.046989E-06 -5.810737E-05 -1.848112E-04 -5.810737E-05 +7.199449E-03 
 +1.963542E-04 -1.024623E-04 -3.482134E-04 -1.024623E-04 -1.213988E-04 +1.403853E-04 -3.482134E-04 +1.403853E-04 +7.230636E-03 
 +1.976409E-04 -2.400851E-04 -6.960529E-04 -2.400851E-04 -2.349011E-04 +2.138193E-04 -6.960529E-04 +2.138193E-04 +7.481396E-03 
 -9.148200E-05 -4.045933E-04 -3.968483E-04 -4.045933E-04 +9.186593E-04 +1.777021E-04 -3.968483E-04 +1.777021E-04 +7.129493E-03 
 +2.755886E-04 -7.426391E-04 +4.912483E-04 -7.426391E-04 -4.240692E-04 +2.486702E-04 +4.912483E-04 +2.486702E-04 +7.594258E-03 
 +1.427059E-04 -1.327691E-04 +6.144892E-05 -1.327691E-04 -1.544430E-04 +1.839560E-04 +6.144892E-05 +1.839560E-04 +7.559722E-03 
 -1.080208E-04 -3.151990E-04 -3.444392E-05 -3.151990E-04 -8.588051E-05 +1.589739E-04 -3.444392E-05 +1.589739E-04 +7.527867E-03 
 -3.392634E-04 -4.262477E-04 +5.313988E-04 -4.262477E-04 +1.321106E-04 -6.649342E-04 +5.313988E-04 -6.649342E-04 +7.407052E-03 
 -3.197480E-04 +1.155012E-04 -2.577735E-04 +1.155012E-04 +1.821661E-04 -2.472399E-04 -2.577735E-04 -2.472399E-04 +7.728940E-03 
 +1.362111E-04 -1.375538E-03 -5.376496E-04 -1.375538E-03 -3.760741E-04 +6.362954E-05 -5.376496E-04 +6.362954E-05 +7.593742E-03 
 +9.601803E-05 +2.710611E-05 -5.264350E-05 +2.710611E-05 +6.379218E-04 +3.072464E-05 -5.264350E-05 +3.072464E-05 +7.155356E-03 
 -1.209025E-04 +4.896463E-04 -1.865383E-04 +4.896463E-04 -9.822948E-06 -3.115019E-04 -1.865383E-04 -3.115019E-04 +7.753805E-03 
 -2.643538E-04 -7.346865E-05 -3.743690E-04 -7.346865E-05 -7.415656E-05 -7.755672E-07 -3.743690E-04 -7.755672E-07 +7.958421E-03 
 -6.252788E-04 -6.410757E-04 +3.261957E-05 -6.410757E-04 -3.328146E-04 +5.878808E-04 +3.261957E-05 +5.878808E-04 +8.053855E-03 
 -4.188870E-04 -5.843751E-04 +8.079286E-05 -5.843751E-04 -3.449871E-04 +2.481229E-04 +8.079286E-05 +2.481229E-04 +7.981424E-03 
 -8.563503E-05 +3.663633E-04 -4.355412E-04 +3.663633E-04 -2.011118E-04 -1.704547E-06 -4.355412E-04 -1.704547E-06 +7.629786E-03 
 +2.746134E-04 -9.525400E-05 -3.242743E-04 -9.525400E-05 +2.349840E-04 +4.936396E-04 -3.242743E-04 +4.936396E-04 +7.216395E-03 
 +3.167747E-04 -4.336562E-04 -3.573735E-04 -4.336562E-04 -3.332749E-04 -1.003839E-04 -3.573735E-04 -1.003839E-04 +7.383340E-03 
 -7.077106E-05 +3.759289E-04 +1.548866E-04 +3.759289E-04 +1.926887E-04 -4.051139E-04 +1.548866E-04 -4.051139E-04 +7.339164E-03 
 -2.173403E-04 -7.543126E-04 +5.805420E-04 -7.543126E-04 +1.733601E-04 -1.090934E-04 +5.805420E-04 -1.090934E-04 +7.839608E-03 
 -1.250859E-04 -1.646542E-04 +3.988743E-04 -1.646542E-04 +1.750861E-04 +5.655282E-05 +3.988743E-04 +5.655282E-05 +7.412252E-03 
 -2.567190E-04 +1.583553E-04 +6.103280E-04 +1.583553E-04 +1.177768E-04 -1.977966E-04 +6.103280E-04 -1.977966E-04 +7.544148E-03 
 +9.799186E-05 -4.609748E-04 +5.737868E-05 -4.609748E-04 -5.410818E-04 -1.444238E-05 +5.737868E-05 -1.444238E-05 +7.791328E-03 
 -1.508501E-04 +3.106732E-04 +1.541235E-04 +3.106732E-04 +3.764684E-04 +5.245635E-04 +1.541235E-04 +5.245635E-04 +7.422850E-03 
 -3.483089E-04 -6.198308E-04 +8.340627E-05 -6.198308E-04 +3.676692E-04 -2.057473E-04 +8.340627E-05 -2.057473E-04 +7.543924E-03 
 +1.713463E-04 -2.294746E-04 -3.044915E-04 -2.294746E-04 -4.414156E-05 -1.128259E-04 -3.044915E-04 -1.128259E-04 +7.595375E-03 
 -7.784764E-05 -1.000835E-03 -3.382956E-04 -1.000835E-03 -1.417162E-04 -3.067431E-04 -3.382956E-04 -3.067431E-04 +7.606351E-03 
 +1.653524E-04 +3.523502E-04 -3.161338E-04 +3.523502E-04 -3.143711E-04 +9.851239E-04 -3.161338E-04 +9.851239E-04 +7.253289E-03 
 +1.766638E-04 +1.855165E-04 +1.922036E-05 +1.855165E-04 -2.094311E-04 -2.998393E-04 +1.922036E-05 -2.998393E-04 +7.246034E-03 
 +2.552436E-04 -4.772282E-04 -7.672187E-05 -4.772282E-04 +2.188517E-04 +6.582790E-04 -7.672187E-05 +6.582790E-04 +6.983569E-03 
 +3.193071E-04 -2.430810E-04 -2.385849E-04 -2.430810E-04 +1.783935E-04 -3.625659E-04 -2.385849E-04 -3.625659E-04 +7.176386E-03 
 +1.354630E-04 -3.664388E-04 -1.555653E-04 -3.664388E-04 +2.370787E-04 -1.050887E-04 -1.555653E-04 -1.050887E-04 +7.203289E-03 
 +2.207654E-04 +3.516645E-04 -4.581683E-04 +3.516645E-04 +2.639559E-04 +1.111197E-04 -4.581683E-04 +1.111197E-04 +7.156930E-03 
 +6.258608E-04 -5.323706E-04 -2.253840E-04 -5.323706E-04 +2.714462E-04 +2.530706E-04 -2.253840E-04 +2.530706E-04 +6.986915E-03 
 +3.529832E-04 -6.939978E-04 -5.310726E-04 -6.939978E-04 -7.638959E-04 -1.080070E-04 -5.310726E-04 -1.080070E-04 +7.648882E-03 
 +2.231245E-04 -4.190587E-04 +3.632749E-04 -4.190587E-04 +7.168919E-05 +1.701120E-05 +3.632749E-04 +1.701120E-05 +7.268377E-03 
 -4.632926E-05 -2.051573E-04 +4.729621E-04 -2.051573E-04 +9.348871E-05 -1.740547E-04 +4.729621E-04 -1.740547E-04 +7.521769E-03 
 +9.217902E-05 -3.723873E-04 +1.269570E-04 -3.723873E-04 -2.437800E-04 -4.537055E-05 +1.269570E-04 -4.537055E-05 +7.973891E-03 
 +5.892301E-05 -1.228472E-03 +3.797492E-04 -1.228472E-03 -8.447545E-05 +4.992737E-04 +3.797492E-04 +4.992737E-04 +7.451496E-03 
 -1.457429E-04 +5.292055E-04 -4.257944E-04 +5.292055E-04 -1.537665E-04 +5.127857E-04 -4.257944E-04 +5.127857E-04 +7.541124E-03 
 -2.050546E-04 +2.322109E-04 -2.829192E-04 +2.322109E-04 +4.178603E-04 +2.329259E-04 -2.829192E-04 +2.329259E-04 +7.129821E-03 
 -1.077200E-04 -3.140280E-04 +4.724987E-04 -3.140280E-04 +1.335729E-04 +9.228637E-05 +4.724987E-04 +9.228637E-05 +7.563100E-03 
 -2.155540E-04 +7.707822E-04 -6.335805E-04 +7.707822E-04 -4.019917E-04 -1.651117E-05 -6.335805E-04 -1.651117E-05 +7.877390E-03 
 +3.755154E-04 +9.433916E-05 -1.529608E-04 +9.433916E-05 +4.343285E-05 -3.493318E-04 -1.529608E-04 -3.493318E-04 +7.538053E-03 
 +1.640717E-04 -3.858786E-04 +9.813606E-05 -3.858786E-04 +1.525717E-04 -1.402587E-04 +9.813606E-05 -1.402587E-04 +7.274409E-03 
 -3.844977E-05 -4.713147E-04 -2.201713E-04 -4.713147E-04 +4.286820E-05 -7.069560E-05 -2.201713E-04 -7.069560E-05 +7.317222E-03 
 -4.565532E-05 +3.249536E-04 +1.800584E-04 +3.249536E-04 +2.554661E-04 +1.433619E-04 +1.800584E-04 +1.433619E-04 +7.394801E-03 
 -4.620492E-04 -4.570037E-05 +3.769270E-04 -4.570037E-05 +1.266413E-04 -2.113321E-04 +3.769270E-04 -2.113321E-04 +7.584524E-03 
 -5.969363E-05 +3.096729E-04 +4.635934E-04 +3.096729E-04 -6.233510E-04 -2.487882E-04 +4.635934E-04 -2.487882E-04 +7.846780E-03 
 -3.630103E-05 +6.295718E-04 +6.893851E-05 +6.295718E-04 +1.962715E-04 -1.659440E-06 +6.893851E-05 -1.659440E-06 +7.725375E-03 
 +1.204525E-04 -4.093636E-04 +1.082921E-04 -4.093636E-04 -2.678868E-04 +2.136455E-04 +1.082921E-04 +2.136455E-04 +7.650497E-03 
 +1.367753E-04 +5.855424E-04 -7.650436E-05 +5.855424E-04 +4.497873E-04 +2.106300E-05 -7.650436E-05 +2.106300E-05 +6.999358E-03 
 -5.156397E-04 -5.745642E-04 +7.460235E-05 -5.745642E-04 +1.333172E-04 +1.962774E-04 +7.460235E-05 +1.962774E-04 +7.480121E-03 
 +1.174376E-04 +6.032284E-05 +6.709502E-04 +6.032284E-05 +1.503176E-04 -1.302711E-04 +6.709502E-04 -1.302711E-04 +7.368936E-03 
 -1.440642E-04 -1.264316E-03 +3.343726E-04 -1.264316E-03 -3.674557E-04 -5.076995E-05 +3.343726E-04 -5.076995E-05 +7.758806E-03 
 +3.380267E-04 +2.627868E-04 -2.171370E-04 +2.627868E-04 +1.557212E-04 -3.881194E-04 -2.171370E-04 -3.881194E-04 +7.067588E-03 
 +4.512609E-04 +1.699391E-07 -2.995449E-04 +1.699391E-07 -9.049128E-05 -2.716799E-04 -2.995449E-04 -2.716799E-04 +7.021124E-03 
 +4.724398E-04 -2.096482E-04 -2.770626E-04 -2.096482E-04 +3.029497E-04 +3.933449E-05 -2.770626E-04 +3.933449E-05 +6.895287E-03 
 +5.796085E-04 -4.783679E-04 +1.405333E-04 -4.783679E-04 -1.394073E-04 +2.167973E-04 +1.405333E-04 +2.167973E-04 +6.841844E-03 
 +8.352649E-05 -2.410122E-04 +8.435110E-04 -2.410122E-04 -9.956271E-05 -6.994741E-05 +8.435110E-04 -6.994741E-05 +7.329494E-03 
 -9.447492E-05 -4.237019E-04 +4.642575E-04 -4.237019E-04 -1.294402E-04 +3.193370E-04 +4.642575E-04 +3.193370E-04 +7.379652E-03 
 -7.154571E-05 -4.394355E-04 -1.510825E-04 -4.394355E-04 +1.735460E-04 -2.269643E-04 -1.510825E-04 -2.269643E-04 +7.750904E-03 
 -1.763511E-04 -2.877811E-04 +6.562129E-04 -2.877811E-04 +4.755266E-05 +2.771200E-04 +6.562129E-04 +2.771200E-04 +7.508757E-03 
 +7.929027E-05 -3.388587E-04 +5.929229E-04 -3.388587E-04 -2.805245E-04 +4.460500E-05 +5.929229E-04 +4.460500E-05 +7.240912E-03 
 +4.885009E-04 +7.047377E-04 -5.961983E-04 +7.047377E-04 -1.309056E-04 -3.751208E-05 -5.961983E-04 -3.751208E-05 +7.443576E-03 
 +2.398977E-04 -1.144018E-03 +2.177085E-04 -1.144018E-03 -5.442154E-05 -3.366564E-04 +2.177085E-04 -3.366564E-04 +7.865103E-03 
 +2.516844E-04 +3.147603E-04 +5.263723E-04 +3.147603E-04 +2.497091E-04 -1.983200E-04 +5.263723E-04 -1.983200E-04 +7.407065E-03 
 +2.379318E-04 -3.561986E-04 -2.247393E-04 -3.561986E-04 +1.345194E-04 -1.841161E-04 -2.247393E-04 -1.841161E-04 +7.077751E-03 
 -2.724398E-06 -3.789352E-04 -3.721462E-04 -3.789352E-04 -5.914664E-05 -3.415943E-04 -3.721462E-04 -3.415943E-04 +7.286249E-03 
 +1.994037E-04 +1.568248E-05 -1.942044E-04 +1.568248E-05 +6.139168E-05 +1.816750E-04 -1.942044E-04 +1.816750E-04 +7.316907E-03 
 +5.292400E-05 -3.573493E-04 -2.252852E-04 -3.573493E-04 +4.940466E-05 +4.113779E-05 -2.252852E-04 +4.113779E-05 +7.165490E-03 
 +2.977583E-05 +8.119036E-04 +2.568822E-04 +8.119036E-04 -6.078487E-05 +3.333518E-04 +2.568822E-04 +3.333518E-04 +7.071856E-03 
 -2.747155E-04 +6.545740E-04 +4.066078E-05 +6.545740E-04 +1.503122E-05 +7.493002E-05 +4.066078E-05 +7.493002E-05 +7.643316E-03 
 -5.265697E-04 -7.627934E-04 -4.990464E-04 -7.627934E-04 +2.497951E-04 +3.444617E-04 -4.990464E-04 +3.444617E-04 +7.390024E-03 
 -2.111073E-04 +1.047507E-04 +6.246174E-05 +1.047507E-04 -2.753433E-05 -6.448451E-04 +6.246174E-05 -6.448451E-04 +7.529519E-03 
 -1.238169E-04 -1.226765E-03 +4.087795E-04 -1.226765E-03 -3.498576E-04 +3.394779E-05 +4.087795E-04 +3.394779E-05 +7.738523E-03 
 -7.633572E-05 +2.862422E-04 +1.206810E-04 +2.862422E-04 +2.863780E-04 -3.715297E-04 +1.206810E-04 -3.715297E-04 +7.237159E-03 
 -1.843701E-04 +2.106648E-04 -3.326200E-05 +2.106648E-04 +1.056998E-04 +1.029628E-04 -3.326200E-05 +1.029628E-04 +7.356546E-03 
 +3.445217E-04 +3.263866E-04 -2.402173E-04 +3.263866E-04 +8.837555E-06 -6.183380E-04 -2.402173E-04 -6.183380E-04 +7.395699E-03 
 -3.024578E-05 -1.213619E-03 -7.163180E-04 -1.213619E-03 +1.671657E-04 +1.360619E-04 -7.163180E-04 +1.360619E-04 +7.634381E-03 
 -7.599554E-05 +2.189834E-04 -4.478500E-04 +2.189834E-04 +2.980509E-05 +7.202589E-05 -4.478500E-04 +7.202589E-05 +7.737675E-03 
 -4.693192E-05 -1.331970E-03 -1.832898E-04 -1.331970E-03 -4.540267E-04 +4.063250E-04 -1.832898E-04 +4.063250E-04 +7.672891E-03 
 +2.749468E-04 -9.909638E-04 +2.761472E-04 -9.909638E-04 +1.998012E-04 -5.701675E-04 +2.761472E-04 -5.701675E-04 +7.373838E-03 
 +1.965695E-05 -5.498097E-05 +2.294526E-04 -5.498097E-05 +6.524944E-05 +1.247683E-04 +2.294526E-04 +1.247683E-04 +7.299567E-03 
 -1.832027E-04 -5.629573E-04 -1.885637E-04 -5.629573E-04 -7.560993E-05 -4.803058E-05 -1.885637E-04 -4.803058E-05 +7.603501E-03 
 +3.458759E-04 +6.466387E-04 +1.075844E-04 +6.466387E-04 -6.138274E-04 -1.078667E-04 +1.075844E-04 -1.078667E-04 +7.868278E-03 
 +3.599237E-04 -1.625230E-04 +2.389278E-04 -1.625230E-04 +4.237886E-04 -3.194799E-04 +2.389278E-04 -3.194799E-04 +7.321233E-03 
 -7.015897E-05 +3.375149E-04 +5.508826E-05 +3.375149E-04 -1.087290E-04 +4.531345E-05 +5.508826E-05 +4.531345E-05 +7.604939E-03 
 -9.234664E-05 +6.173237E-05 -1.538210E-04 +6.173237E-05 -2.765863E-05 -2.592776E-04 -1.538210E-04 -2.592776E-04 +7.859414E-03 
 +2.801925E-04 -1.645766E-04 +7.008532E-04 -1.645766E-04 +1.572574E-05 -2.475325E-04 +7.008532E-04 -2.475325E-04 +7.161404E-03 
 +1.671943E-04 -1.627477E-04 +3.820246E-04 -1.627477E-04 +3.402340E-04 -3.579039E-04 +3.820246E-04 -3.579039E-04 +6.964400E-03 
 +3.080226E-04 -2.374093E-04 +4.331549E-05 -2.374093E-04 +1.257527E-04 -5.637796E-04 +4.331549E-05 -5.637796E-04 +7.315971E-03 
 +3.003002E-04 -3.711734E-04 +3.289320E-04 -3.711734E-04 -3.771118E-04 -3.542920E-04 +3.289320E-04 -3.542920E-04 +7.529381E-03 
 -2.108566E-04 -9.390014E-05 -5.794491E-04 -9.390014E-05 +4.593490E-05 -6.586279E-04 -5.794491E-04 -6.586279E-04 +7.229685E-03 
 -2.247973E-04 -7.695472E-04 -2.985558E-04 -7.695472E-04 +1.441460E-04 -7.730968E-05 -2.985558E-04 -7.730968E-05 +7.557008E-03 
 -1.266435E-04 -5.594568E-04 +2.551106E-04 -5.594568E-04 +4.828794E-05 -1.806858E-04 +2.551106E-04 -1.806858E-04 +8.044447E-03 
 +2.990322E-04 -6.663591E-04 +2.657348E-04 -6.663591E-04 +2.650676E-04 -6.770203E-04 +2.657348E-04 -6.770203E-04 +6.905382E-03 
 +6.337142E-05 -2.297667E-04 -5.135709E-05 -2.297667E-04 -1.276122E-04 +1.846630E-04 -5.135709E-05 +1.846630E-04 +7.357602E-03 
 -1.342985E-04 -3.999881E-04 +4.120038E-04 -3.999881E-04 +1.018030E-04 +1.378881E-04 +4.120038E-04 +1.378881E-04 +7.652308E-03 
 -3.706772E-04 +1.254203E-03 -3.707643E-05 +1.254203E-03 +7.407280E-05 -3.470155E-04 -3.707643E-05 -3.470155E-04 +7.812406E-03 
 -2.545460E-04 -2.274351E-04 -2.118960E-04 -2.274351E-04 -6.661331E-05 +4.340308E-04 -2.118960E-04 +4.340308E-04 +7.329362E-03 
 +6.598057E-04 +1.621694E-04 -3.309907E-04 +1.621694E-04 -1.134520E-04 -8.827017E-04 -3.309907E-04 -8.827017E-04 +7.143057E-03 
 +4.947792E-05 -7.302221E-04 -6.285873E-04 -7.302221E-04 -2.094461E-04 -9.972999E-05 -6.285873E-04 -9.972999E-05 +7.611414E-03 
 -2.484507E-04 +4.715525E-04 -1.567476E-04 +4.715525E-04 +1.807949E-04 -6.512132E-04 -1.567476E-04 -6.512132E-04 +7.797452E-03 
 -1.163042E-04 +2.580609E-04 -1.879799E-04 +2.580609E-04 -1.935120E-05 -2.524407E-04 -1.879799E-04 -2.524407E-04 +7.660071E-03 
 -1.117494E-04 +7.409579E-04 -1.639889E-04 +7.409579E-04 +1.007638E-04 +1.114040E-04 -1.639889E-04 +1.114040E-04 +7.560703E-03 
 +3.153055E-04 +9.001956E-04 -1.079123E-04 +9.001956E-04 -1.237821E-04 +2.194376E-04 -1.079123E-04 +2.194376E-04 +7.043637E-03 
 -2.302698E-05 +7.586140E-04 +1.716810E-04 +7.586140E-04 +3.819713E-05 +4.598339E-04 +1.716810E-04 +4.598339E-04 +7.609186E-03 
 +5.967627E-05 +6.231338E-04 +8.761769E-05 +6.231338E-04 -1.819633E-04 -2.105330E-04 +8.761769E-05 -2.105330E-04 +7.593289E-03 
 +4.221850E-04 +5.143126E-04 +3.764514E-04 +5.143126E-04 +1.835645E-04 +5.344603E-05 +3.764514E-04 +5.344603E-05 +6.868877E-03 
 +1.882035E-04 -2.699879E-04 -2.370369E-04 -2.699879E-04 -1.628488E-04 +2.557484E-04 -2.370369E-04 +2.557484E-04 +7.343114E-03 
 +5.136882E-06 -6.070188E-04 -3.458020E-04 -6.070188E-04 +1.274099E-04 +2.929315E-04 -3.458020E-04 +2.929315E-04 +7.492653E-03 
 -6.948125E-05 +9.070982E-04 -2.442777E-04 +9.070982E-04 -3.186950E-05 +2.335234E-04 -2.442777E-04 +2.335234E-04 +7.793214E-03 
 -2.935232E-04 -9.713952E-04 -6.406669E-04 -9.713952E-04 -1.414927E-04 -4.320596E-04 -6.406669E-04 -4.320596E-04 +7.841563E-03 
 -2.331995E-04 -9.391835E-04 -1.439022E-04 -9.391835E-04 +5.556061E-05 +5.383190E-04 -1.439022E-04 +5.383190E-04 +7.672109E-03 
 -3.751698E-04 -2.291695E-04 +1.105299E-04 -2.291695E-04 +2.194500E-05 +5.784041E-04 +1.105299E-04 +5.784041E-04 +7.580329E-03 
 +1.077406E-04 -1.048432E-04 +1.301745E-04 -1.048432E-04 +2.924955E-05 +1.677186E-05 +1.301745E-04 +1.677186E-05 +7.120437E-03 
 +2.517691E-04 +4.223670E-04 -6.454597E-05 +4.223670E-04 +2.991509E-04 +3.595397E-04 -6.454597E-05 +3.595397E-04 +7.300240E-03 
 +3.083643E-04 -5.094770E-04 -4.646590E-05 -5.094770E-04 -3.968280E-04 -4.916521E-04 -4.646590E-05 -4.916521E-04 +7.295009E-03 
 +3.879596E-05 -1.791730E-04 +1.511692E-04 -1.791730E-04 +2.712312E-04 +5.516126E-04 +1.511692E-04 +5.516126E-04 +7.223541E-03 
 -5.959888E-04 +9.412926E-04 +2.767141E-04 +9.412926E-04 +3.570143E-04 +1.647580E-04 +2.767141E-04 +1.647580E-04 +7.695970E-03 
 -1.921686E-04 +5.480871E-04 -3.268445E-04 +5.480871E-04 -8.325438E-04 -7.107342E-04 -3.268445E-04 -7.107342E-04 +7.883927E-03 
 -2.508025E-04 -4.470097E-04 -1.634628E-04 -4.470097E-04 +5.692615E-05 +4.369211E-04 -1.634628E-04 +4.369211E-04 +7.729332E-03 
 -2.542119E-04 -1.097154E-04 +2.362024E-04 -1.097154E-04 -2.155061E-05 +5.247876E-04 +2.362024E-04 +5.247876E-04 +7.358105E-03 
 -6.471195E-05 -3.160865E-05 +3.024366E-04 -3.160865E-05 +1.135111E-04 -4.123115E-04 +3.024366E-04 -4.123115E-04 +7.425096E-03 
 -2.127398E-04 -1.053711E-04 +2.763036E-04 -1.053711E-04 +4.215947E-05 -2.340715E-04 +2.763036E-04 -2.340715E-04 +7.442802E-03 
 +1.521562E-04 +6.352421E-05 +7.060704E-05 +6.352421E-05 +3.176321E-04 +2.073704E-04 +7.060704E-05 +2.073704E-04 +6.819807E-03 
 +2.942971E-04 +1.262770E-04 +8.656926E-05 +1.262770E-04 +1.991906E-05 +8.084860E-06 +8.656926E-05 +8.084860E-06 +7.664604E-03 
 +2.191792E-04 +5.303313E-04 -2.116291E-04 +5.303313E-04 -4.639095E-04 -3.947662E-04 -2.116291E-04 -3.947662E-04 +7.591744E-03 
 -2.094446E-05 +2.976766E-04 -3.793749E-04 +2.976766E-04 +3.322607E-04 -8.016690E-04 -3.793749E-04 -8.016690E-04 +6.878345E-03 
 +4.273332E-04 +2.475533E-04 -1.858758E-04 +2.475533E-04 -9.228098E-05 -4.036165E-04 -1.858758E-04 -4.036165E-04 +6.969345E-03 
 +4.967966E-04 -2.991315E-04 -1.958233E-04 -2.991315E-04 +1.450876E-04 +5.223511E-04 -1.958233E-04 +5.223511E-04 +7.131648E-03 
 +2.792943E-05 +5.267888E-05 +1.452805E-04 +5.267888E-05 -6.172209E-05 +1.866897E-04 +1.452805E-04 +1.866897E-04 +7.621959E-03 
 +3.114131E-04 -1.341334E-04 -4.810515E-04 -1.341334E-04 -2.394975E-04 +6.142320E-04 -4.810515E-04 +6.142320E-04 +7.187208E-03 
 +2.914880E-04 -3.585346E-04 -2.491131E-04 -3.585346E-04 +3.823366E-06 -2.168925E-04 -2.491131E-04 -2.168925E-04 +7.155312E-03 
 -2.183678E-04 -1.485862E-03 +2.775189E-04 -1.485862E-03 +1.586890E-04 -8.819753E-05 +2.775189E-04 -8.819753E-05 +7.603055E-03 
 +9.243660E-05 +5.848957E-05 +1.360814E-04 +5.848957E-05 -1.597560E-04 +2.241448E-04 +1.360814E-04 +2.241448E-04 +7.396656E-03 
 +5.554306E-04 -3.425306E-04 +1.056937E-04 -3.425306E-04 +1.498579E-04 -2.589020E-04 +1.056937E-04 -2.589020E-04 +7.003059E-03 
 -2.718823E-04 -1.285938E-03 +2.529218E-04 -1.285938E-03 -3.294745E-04 +3.923088E-04 +2.529218E-04 +3.923088E-04 +7.490833E-03 
 -2.351245E-04 +4.836211E-04 -5.615617E-04 +4.836211E-04 -3.125523E-05 +8.665830E-06 -5.615617E-04 +8.665830E-06 +7.631503E-03 
 +1.621036E-04 -8.792413E-05 +2.830654E-04 -8.792413E-05 -2.075316E-04 -5.777072E-04 +2.830654E-04 -5.777072E-04 +7.524324E-03 
 -3.557530E-04 -2.720636E-04 -6.460754E-04 -2.720636E-04 +1.047074E-04 +2.748683E-05 -6.460754E-04 +2.748683E-05 +7.599944E-03 
 -1.723981E-04 +3.644658E-04 -8.485463E-05 +3.644658E-04 +1.830045E-04 +5.676802E-04 -8.485463E-05 +5.676802E-04 +7.281948E-03 
 +6.804236E-04 +6.101043E-04 +3.081275E-05 +6.101043E-04 -5.356654E-04 +5.660988E-05 +3.081275E-05 +5.660988E-05 +7.432623E-03 
 -5.608717E-05 -2.949276E-04 -7.581775E-04 -2.949276E-04 +3.289520E-04 -2.244561E-04 -7.581775E-04 -2.244561E-04 +7.484918E-03 
 -6.525870E-04 +9.142534E-04 -4.325095E-04 +9.142534E-04 +2.812229E-05 +1.105483E-04 -4.325095E-04 +1.105483E-04 +7.695927E-03 
 -4.030796E-05 +2.446989E-04 -2.205852E-04 +2.446989E-04 +2.002625E-04 -1.733421E-04 -2.205852E-04 -1.733421E-04 +7.415830E-03 
 -2.375290E-04 -3.159725E-04 -1.254957E-04 -3.159725E-04 -1.514071E-04 +4.755519E-04 -1.254957E-04 +4.755519E-04 +7.552176E-03 
 +1.001662E-04 +4.319509E-05 +1.182492E-04 +4.319509E-05 +1.269713E-04 -5.403040E-04 +1.182492E-04 -5.403040E-04 +7.512320E-03 
 -7.928048E-05 -6.283639E-04 -2.099423E-04 -6.283639E-04 -1.337427E-04 -1.009093E-04 -2.099423E-04 -1.009093E-04 +7.323659E-03 
 +1.294238E-04 -3.282741E-04 -3.684137E-04 -3.282741E-04 +2.893010E-04 +1.053332E-04 -3.684137E-04 +1.053332E-04 +7.601101E-03 
 +4.744144E-04 +1.143751E-04 +2.263409E-04 +1.143751E-04 -5.050608E-04 +2.576806E-04 +2.263409E-04 +2.576806E-04 +7.623300E-03 
 +1.262326E-04 -9.052525E-04 +2.365282E-04 -9.052525E-04 +8.588466E-05 -5.777535E-04 +2.365282E-04 -5.777535E-04 +6.950242E-03 
 -1.487170E-04 -5.201411E-05 +1.771929E-04 -5.201411E-05 +1.670263E-04 +5.685742E-04 +1.771929E-04 +5.685742E-04 +7.142302E-03 
 -4.270934E-04 -1.714983E-04 +3.737943E-04 -1.714983E-04 -1.200911E-04 -1.654822E-05 +3.737943E-04 -1.654822E-05 +7.967653E-03 
 -1.649484E-05 +1.387502E-03 +3.557690E-04 +1.387502E-03 -7.156351E-05 +5.081116E-04 +3.557690E-04 +5.081116E-04 +7.392005E-03 
 +9.071986E-05 -1.751904E-04 -1.035485E-04 -1.751904E-04 -1.916639E-04 +2.234119E-04 -1.035485E-04 +2.234119E-04 +7.657351E-03 
 -5.425126E-04 +7.275730E-04 -5.465181E-04 +7.275730E-04 +8.457545E-05 +5.214918E-04 -5.465181E-04 +5.214918E-04 +8.137564E-03 
 -1.434349E-04 -5.848422E-05 +6.000547E-04 -5.848422E-05 +6.776929E-04 +3.301065E-04 +6.000547E-04 +3.301065E-04 +7.360868E-03 
 +1.327394E-04 -6.670264E-04 +6.504339E-05 -6.670264E-04 +1.495283E-04 -2.181382E-04 +6.504339E-05 -2.181382E-04 +7.589873E-03 
 +5.175805E-05 -2.447065E-04 +3.759523E-04 -2.447065E-04 -2.999445E-04 +4.844758E-05 +3.759523E-04 +4.844758E-05 +7.469323E-03 
 +2.836537E-04 -5.285139E-04 -3.569296E-04 -5.285139E-04 -3.152485E-04 +7.051482E-04 -3.569296E-04 +7.051482E-04 +7.564227E-03 
 -1.547806E-04 -6.496116E-05 +1.574111E-04 -6.496116E-05 +3.361791E-04 +4.057687E-04 +1.574111E-04 +4.057687E-04 +7.618704E-03 
 -8.322151E-05 -1.619232E-04 +5.420508E-04 -1.619232E-04 -6.463407E-05 +7.708897E-05 +5.420508E-04 +7.708897E-05 +7.731623E-03 
 +2.538577E-04 +2.738793E-04 +6.592377E-06 +2.738793E-04 -1.217376E-04 -3.086403E-04 +6.592377E-06 -3.086403E-04 +7.627783E-03 
 +4.611693E-05 +1.386582E-04 +3.052264E-05 +1.386582E-04 -1.274150E-04 +3.873571E-04 +3.052264E-05 +3.873571E-04 +7.983575E-03 
 +8.017464E-06 -2.012940E-04 -3.477703E-04 -2.012940E-04 +2.258288E-04 -1.679562E-04 -3.477703E-04 -1.679562E-04 +7.344022E-03 
 -4.574870E-04 +5.067447E-04 -4.338308E-04 +5.067447E-04 -7.687853E-05 -5.570716E-04 -4.338308E-04 -5.570716E-04 +7.630540E-03 
 -5.761709E-04 +8.591760E-04 +3.380035E-04 +8.591760E-04 +2.531993E-04 -5.317573E-05 +3.380035E-04 -5.317573E-05 +7.938065E-03 
 +2.670245E-05 +1.337048E-04 -1.115554E-04 +1.337048E-04 -5.307104E-04 +1.615015E-04 -1.115554E-04 +1.615015E-04 +7.810719E-03 
 -2.601418E-04 -7.563448E-04 -1.558192E-04 -7.563448E-04 +5.978587E-04 -1.123637E-04 -1.558192E-04 -1.123637E-04 +7.910527E-03 
 -3.160646E-04 +1.069581E-04 +9.198014E-04 +1.069581E-04 -2.919421E-05 +1.144066E-04 +9.198014E-04 +1.144066E-04 +7.638634E-03 
 +3.375365E-04 -2.140501E-04 +7.577044E-04 -2.140501E-04 +1.014883E-04 +3.413915E-04 +7.577044E-04 +3.413915E-04 +7.381145E-03 
 +6.181138E-04 +4.898509E-04 -1.857229E-04 +4.898509E-04 -6.858769E-04 -1.644434E-04 -1.857229E-04 -1.644434E-04 +7.728923E-03 
 -3.120168E-04 -5.026318E-04 -4.735112E-04 -5.026318E-04 +4.341164E-04 +6.327564E-04 -4.735112E-04 +6.327564E-04 +7.821751E-03 
 -2.871249E-04 -4.177133E-05 -6.107084E-05 -4.177133E-05 +3.362016E-04 +1.866654E-04 -6.107084E-05 +1.866654E-04 +7.393033E-03 
 +3.248428E-04 +2.893280E-05 -1.663648E-04 +2.893280E-05 -7.494888E-04 -8.303083E-05 -1.663648E-04 -8.303083E-05 +7.949833E-03 
 -2.341107E-04 -1.194502E-03 -1.099967E-04 -1.194502E-03 +9.847744E-05 +6.687602E-06 -1.099967E-04 +6.687602E-06 +7.560578E-03 
 +7.476957E-05 +2.915248E-04 +2.213051E-04 +2.915248E-04 +3.293050E-04 -6.070103E-05 +2.213051E-04 -6.070103E-05 +6.663018E-03 
 +5.198239E-04 -3.927874E-04 -1.936994E-04 -3.927874E-04 +1.383759E-04 -3.308829E-04 -1.936994E-04 -3.308829E-04 +7.207292E-03 
 -3.700404E-05 +9.705751E-05 -5.583073E-04 +9.705751E-05 +3.299483E-04 +5.202951E-04 -5.583073E-04 +5.202951E-04 +7.132087E-03 
 +8.062732E-05 -1.185284E-04 -5.524103E-05 -1.185284E-04 -3.566360E-04 +2.844873E-04 -5.524103E-05 +2.844873E-04 +7.580038E-03 
 +6.258211E-05 -1.388845E-03 -4.259248E-05 -1.388845E-03 -2.422156E-04 -2.068782E-04 -4.259248E-05 -2.068782E-04 +7.779673E-03 
 +2.834689E-04 +1.779190E-04 +8.836546E-05 +1.779190E-04 -1.066186E-04 -2.593641E-04 +8.836546E-05 -2.593641E-04 +7.417136E-03 
 +7.654555E-05 -5.320723E-04 -1.421234E-04 -5.320723E-04 +6.964064E-05 +4.848947E-05 -1.421234E-04 +4.848947E-05 +7.228483E-03 
 -1.724612E-05 -2.499343E-04 -1.411376E-04 -2.499343E-04 -3.911043E-05 -3.240665E-05 -1.411376E-04 -3.240665E-05 +7.444254E-03 
 +2.783258E-04 -8.112883E-05 +1.472367E-04 -8.112883E-05 +3.000769E-04 -2.602071E-04 +1.472367E-04 -2.602071E-04 +6.718056E-03 
 +1.491221E-04 -8.188956E-04 -2.907497E-04 -8.188956E-04 -1.433478E-04 +5.342189E-04 -2.907497E-04 +5.342189E-04 +7.466794E-03 
 -3.798071E-04 -2.645277E-04 -3.319224E-04 -2.645277E-04 +6.755155E-06 +5.944376E-04 -3.319224E-04 +5.944376E-04 +7.545956E-03 
 +1.787451E-04 +1.879263E-04 -1.964613E-04 +1.879263E-04 +4.794588E-05 +2.022465E-04 -1.964613E-04 +2.022465E-04 +6.925473E-03 
 +6.599566E-04 +2.543542E-04 -5.230502E-04 +2.543542E-04 -1.670698E-04 -7.987193E-05 -5.230502E-04 -7.987193E-05 +6.884871E-03 
 +1.793558E-05 +2.688267E-05 +4.084212E-04 +2.688267E-05 +4.706632E-04 +6.545076E-04 +4.084212E-04 +6.545076E-04 +6.994173E-03 
 +1.808260E-04 +7.124299E-04 +4.691904E-04 +7.124299E-04 +6.723127E-05 +1.892579E-04 +4.691904E-04 +1.892579E-04 +7.287501E-03 
 +1.189451E-04 +1.777210E-05 -1.319486E-04 +1.777210E-05 +7.008917E-05 -1.635963E-04 -1.319486E-04 -1.635963E-04 +7.297350E-03 
 +1.215563E-04 -3.958750E-04 -4.437410E-04 -3.958750E-04 -7.536333E-04 +1.807615E-04 -4.437410E-04 +1.807615E-04 +7.622383E-03 
 +6.411943E-05 +3.327976E-04 +3.039691E-04 +3.327976E-04 +2.203886E-04 +8.265848E-05 +3.039691E-04 +8.265848E-05 +7.238389E-03 
 +6.923005E-05 -8.966463E-04 +2.855049E-04 -8.966463E-04 -6.385546E-05 -1.842186E-04 +2.855049E-04 -1.842186E-04 +7.452187E-03 
 -1.641437E-05 +2.499119E-06 -8.491852E-04 +2.499119E-06 +4.761626E-06 -5.909284E-05 -8.491852E-04 -5.909284E-05 +7.775269E-03 
 -3.257837E-04 -7.369138E-04 -4.999961E-04 -7.369138E-04 +3.547834E-05 +1.182876E-04 -4.999961E-04 +1.182876E-04 +7.559096E-03 
 -2.210433E-04 +4.313368E-04 -7.856261E-05 +4.313368E-04 -1.792625E-04 -4.496117E-04 -7.856261E-05 -4.496117E-04 +7.769126E-03 
 -1.090612E-04 +8.487768E-05 -3.989723E-04 +8.487768E-05 +4.296663E-04 +3.409119E-04 -3.989723E-04 +3.409119E-04 +7.498900E-03 
 -2.220337E-04 -1.412926E-03 -5.539775E-05 -1.412926E-03 +2.182822E-05 -5.475040E-05 -5.539775E-05 -5.475040E-05 +7.933645E-03 
 -2.794541E-06 +4.632109E-04 -8.036477E-05 +4.632109E-04 -3.573734E-05 +7.456801E-05 -8.036477E-05 +7.456801E-05 +7.902916E-03 
 +8.967041E-05 -2.296166E-04 +6.515190E-04 -2.296166E-04 -6.293874E-04 +3.996177E-06 +6.515190E-04 +3.996177E-06 +7.481392E-03 
 -3.061927E-04 -6.025293E-04 -1.614800E-04 -6.025293E-04 +1.725989E-04 +1.315780E-04 -1.614800E-04 +1.315780E-04 +7.743632E-03 
 -7.774871E-04 +5.575105E-04 -3.559215E-04 +5.575105E-04 +2.546247E-04 +3.820165E-04 -3.559215E-04 +3.820165E-04 +7.570460E-03 
 +2.777492E-05 -1.609581E-04 +2.428402E-04 -1.609581E-04 +3.380424E-04 +7.680226E-04 +2.428402E-04 +7.680226E-04 +7.038700E-03 
 +9.938559E-05 -1.039896E-03 -1.836504E-05 -1.039896E-03 -3.352370E-04 +5.710659E-05 -1.836504E-05 +5.710659E-05 +7.719000E-03 
 +8.277427E-05 +2.644856E-04 +1.612862E-04 +2.644856E-04 +2.187856E-04 +5.157992E-04 +1.612862E-04 +5.157992E-04 +7.152262E-03 
 +2.074316E-04 -5.969675E-04 -3.053019E-04 -5.969675E-04 -1.826445E-04 -6.282118E-04 -3.053019E-04 -6.282118E-04 +7.130982E-03 
 +1.914081E-04 +8.363910E-05 -1.107969E-04 +8.363910E-05 -1.325218E-04 -3.210760E-06 -1.107969E-04 -3.210760E-06 +7.640550E-03 
 -2.249942E-04 +9.293001E-05 +6.654169E-04 +9.293001E-05 -2.100400E-04 -2.237649E-04 +6.654169E-04 -2.237649E-04 +7.740734E-03 
 -3.242963E-04 -6.605880E-04 +1.364082E-04 -6.605880E-04 +3.696081E-04 -3.828130E-04 +1.364082E-04 -3.828130E-04 +7.755130E-03 
 +1.639399E-04 +1.024113E-04 -4.604017E-05 +1.024113E-04 +5.459090E-04 -5.781359E-04 -4.604017E-05 -5.781359E-04 +7.437162E-03 
 -3.249700E-04 -7.092303E-04 +1.915314E-05 -7.092303E-04 -3.996528E-04 +6.040263E-04 +1.915314E-05 +6.040263E-04 +7.850973E-03 
 -2.373003E-04 -6.845043E-04 +2.738123E-04 -6.845043E-04 +1.014999E-04 +2.637468E-04 +2.738123E-04 +2.637468E-04 +7.721876E-03 
 +3.606919E-04 +4.808849E-04 +3.197947E-04 +4.808849E-04 -5.432680E-04 +4.273092E-04 +3.197947E-04 +4.273092E-04 +7.940252E-03 
 +1.993050E-04 -8.863800E-04 +1.662445E-04 -8.863800E-04 -2.892119E-04 +7.899559E-04 +1.662445E-04 +7.899559E-04 +7.662185E-03 
 +1.857903E-04 -6.717303E-04 +5.028181E-04 -6.717303E-04 +3.931601E-04 -9.162438E-05 +5.028181E-04 -9.162438E-05 +6.941923E-03 
 -1.033495E-04 +7.294656E-04 -6.650732E-05 +7.294656E-04 -3.958033E-05 -7.766378E-04 -6.650732E-05 -7.766378E-04 +7.427986E-03 
 +5.573931E-05 +7.455023E-05 -4.979314E-04 +7.455023E-05 -3.056759E-04 +1.192150E-04 -4.979314E-04 +1.192150E-04 +7.762610E-03 
 -2.415894E-04 +4.079431E-04 +5.103765E-05 +4.079431E-04 +6.861313E-04 -4.216680E-04 +5.103765E-05 -4.216680E-04 +7.591229E-03 
 -1.416755E-04 -1.201687E-03 +2.959185E-04 -1.201687E-03 +4.063846E-05 -6.544281E-04 +2.959185E-04 -6.544281E-04 +7.371119E-03 
 -3.478063E-05 -1.582167E-04 +9.027257E-04 -1.582167E-04 +6.078497E-04 -8.820627E-05 +9.027257E-04 -8.820627E-05 +7.064729E-03 
 +3.914090E-04 -5.927761E-05 -5.118330E-04 -5.927761E-05 -5.454036E-04 -1.044619E-04 -5.118330E-04 -1.044619E-04 +7.622218E-03 
 -1.001452E-04 -2.433870E-04 -2.897608E-04 -2.433870E-04 +3.027109E-04 +4.937289E-04 -2.897608E-04 +4.937289E-04 +7.384375E-03 
 -2.302585E-04 +1.095542E-03 -3.202549E-07 +1.095542E-03 +1.508921E-04 -4.761494E-04 -3.202549E-07 -4.761494E-04 +7.333210E-03 
 +1.256296E-04 +5.312430E-04 +2.961072E-05 +5.312430E-04 +9.245030E-05 -5.833786E-04 +2.961072E-05 -5.833786E-04 +7.639630E-03 
 +1.372447E-04 -6.804074E-04 +2.461630E-05 -6.804074E-04 -4.520317E-05 -1.704196E-04 +2.461630E-05 -1.704196E-04 +7.686897E-03 
 -3.662665E-05 +1.047785E-03 -2.688160E-04 +1.047785E-03 -1.804952E-04 -3.028788E-04 -2.688160E-04 -3.028788E-04 +8.000003E-03 
 -9.274426E-05 -5.421825E-04 +3.821443E-05 -5.421825E-04 -3.209146E-04 +5.574776E-05 +3.821443E-05 +5.574776E-05 +7.811446E-03 
 -5.335549E-04 +4.378989E-04 -8.107293E-05 +4.378989E-04 +2.583328E-04 -1.196332E-04 -8.107293E-05 -1.196332E-04 +7.863331E-03 
 -5.002054E-04 +3.180745E-04 -3.532448E-04 +3.180745E-04 -2.477570E-04 +3.616133E-04 -3.532448E-04 +3.616133E-04 +7.936100E-03 
 -2.694396E-04 -7.450344E-04 +2.233595E-04 -7.450344E-04 +2.297987E-04 +4.620953E-04 +2.233595E-04 +4.620953E-04 +7.616651E-03 
 -3.565156E-04 +4.177807E-05 -5.473956E-05 +4.177807E-05 +2.360946E-04 -3.545123E-04 -5.473956E-05 -3.545123E-04 +7.653072E-03 
 -2.190193E-04 -9.366263E-04 -8.087974E-05 -9.366263E-04 +6.219871E-05 -9.896347E-05 -8.087974E-05 -9.896347E-05 +7.451265E-03 
 -4.444341E-04 -3.625199E-04 +3.270156E-05 -3.625199E-04 +6.956028E-05 -4.706220E-04 +3.270156E-05 -4.706220E-04 +7.725672E-03 
 -2.312650E-04 -6.571515E-04 +9.917059E-05 -6.571515E-04 -3.336190E-04 -5.817913E-05 +9.917059E-05 -5.817913E-05 +7.678080E-03 
 +7.296742E-05 +7.838614E-04 +1.272045E-05 +7.838614E-04 -1.984567E-04 +1.175391E-04 +1.272045E-05 +1.175391E-04 +7.603686E-03 
 -1.303525E-04 -4.379748E-04 +6.973433E-05 -4.379748E-04 +6.038016E-05 +1.615298E-04 +6.973433E-05 +1.615298E-04 +7.780612E-03 
 +1.244841E-04 -1.738298E-04 -8.866312E-05 -1.738298E-04 -1.714278E-04 +6.458656E-04 -8.866312E-05 +6.458656E-04 +7.494142E-03 
 +2.301443E-05 -1.426925E-04 -2.123467E-04 -1.426925E-04 +9.419714E-05 -2.501566E-04 -2.123467E-04 -2.501566E-04 +7.372904E-03 
 -1.368843E-04 -6.626382E-04 -6.286332E-04 -6.626382E-04 -1.619507E-04 -1.389354E-04 -6.286332E-04 -1.389354E-04 +7.846097E-03 
 -2.655528E-04 +7.776491E-04 +5.689652E-04 +7.776491E-04 -1.791163E-04 -2.664697E-04 +5.689652E-04 -2.664697E-04 +7.592036E-03 
 -2.117520E-04 +4.562558E-04 -2.807664E-04 +4.562558E-04 +4.628940E-04 +3.046546E-05 -2.807664E-04 +3.046546E-05 +7.376003E-03 
 +2.410127E-04 -1.577763E-04 -2.483757E-06 -1.577763E-04 +1.870481E-04 -3.033494E-04 -2.483757E-06 -3.033494E-04 +6.893672E-03 
 +3.714508E-04 -4.799314E-05 +2.473245E-04 -4.799314E-05 -2.112176E-05 +3.286220E-05 +2.473245E-04 +3.286220E-05 +7.209542E-03 
 +1.768278E-04 +5.372400E-04 -3.773727E-04 +5.372400E-04 +1.209543E-04 -3.982591E-04 -3.773727E-04 -3.982591E-04 +7.301106E-03 
 -2.321394E-04 +4.094356E-04 -1.395300E-04 +4.094356E-04 -1.149087E-04 +6.345587E-04 -1.395300E-04 +6.345587E-04 +7.269168E-03 
 +9.098285E-05 +3.981016E-04 +4.860801E-04 +3.981016E-04 +1.980573E-04 +6.791801E-05 +4.860801E-04 +6.791801E-05 +7.231910E-03 
 +4.294167E-05 +4.980854E-05 +5.717755E-04 +4.980854E-05 -4.340570E-05 +5.210926E-04 +5.717755E-04 +5.210926E-04 +7.567937E-03 
 +2.953752E-04 -6.501273E-04 +5.957467E-05 -6.501273E-04 -3.819713E-04 -3.698138E-04 +5.957467E-05 -3.698138E-04 +7.507205E-03 
 +6.420713E-05 -4.986774E-04 +2.549277E-04 -4.986774E-04 +3.536415E-04 +9.924775E-04 +2.549277E-04 +9.924775E-04 +7.028351E-03 
 +4.585622E-04 -1.085141E-05 +3.210317E-04 -1.085141E-05 -1.125787E-04 -2.478668E-04 +3.210317E-04 -2.478668E-04 +6.977877E-03 
 +5.402900E-04 -6.814530E-05 +2.091841E-04 -6.814530E-05 +1.139236E-05 +2.605611E-04 +2.091841E-04 +2.605611E-04 +7.474306E-03 
 -6.089116E-04 -4.557314E-04 +3.755050E-05 -4.557314E-04 -4.382301E-05 -1.994593E-04 +3.755050E-05 -1.994593E-04 +7.947983E-03 
 -8.790560E-05 +2.559041E-04 +4.350169E-04 +2.559041E-04 +1.414324E-04 +3.475867E-04 +4.350169E-04 +3.475867E-04 +7.666784E-03 
 +9.548287E-05 -5.368676E-05 +2.876852E-04 -5.368676E-05 -2.835523E-04 -6.817262E-05 +2.876852E-04 -6.817262E-05 +7.320535E-03 
 -2.069308E-04 -1.070602E-04 -2.579900E-05 -1.070602E-04 +1.656143E-04 -6.491608E-04 -2.579900E-05 -6.491608E-04 +7.185839E-03 
 +3.273484E-05 -1.392693E-04 +4.491080E-04 -1.392693E-04 -1.552154E-04 -3.501236E-05 +4.491080E-04 -3.501236E-05 +6.897978E-03 
 -9.489913E-05 +3.389818E-04 +2.416248E-04 +3.389818E-04 +2.412423E-04 +1.206265E-04 +2.416248E-04 +1.206265E-04 +7.131047E-03 
 +9.647609E-05 -1.343083E-03 +6.078326E-04 -1.343083E-03 -3.474820E-04 -1.825586E-04 +6.078326E-04 -1.825586E-04 +7.567813E-03 
 -3.414930E-05 -1.001639E-03 +1.509188E-04 -1.001639E-03 -1.455096E-04 +1.054717E-05 +1.509188E-04 +1.054717E-05 +7.719613E-03 
 -1.270279E-05 -6.691656E-04 +2.445423E-04 -6.691656E-04 -5.393746E-05 +1.511377E-04 +2.445423E-04 +1.511377E-04 +7.533937E-03 
 -4.139843E-04 +4.569049E-04 +2.761717E-04 +4.569049E-04 +2.378621E-04 +8.950484E-05 +2.761717E-04 +8.950484E-05 +7.559747E-03 
 +1.728379E-05 +5.250172E-04 +4.330756E-04 +5.250172E-04 -1.282257E-04 +5.771159E-04 +4.330756E-04 +5.771159E-04 +7.495353E-03 
 +1.543666E-04 +5.356498E-04 -1.954616E-04 +5.356498E-04 +8.172858E-05 -1.087838E-04 -1.954616E-04 -1.087838E-04 +7.446710E-03 
 -4.286433E-05 -8.150323E-04 +6.101146E-05 -8.150323E-04 +1.854451E-04 +2.647283E-04 +6.101146E-05 +2.647283E-04 +7.293963E-03 
 -1.843482E-04 -2.673172E-04 +2.083513E-05 -2.673172E-04 +3.534705E-05 -1.304808E-04 +2.083513E-05 -1.304808E-04 +7.584258E-03 
 -2.920095E-04 +4.487270E-04 +3.403543E-04 +4.487270E-04 +1.713300E-04 +9.633454E-05 +3.403543E-04 +9.633454E-05 +7.759750E-03 
 +8.436640E-05 +3.564311E-05 +3.638433E-04 +3.564311E-05 -3.308153E-04 -3.697177E-04 +3.638433E-04 -3.697177E-04 +7.500916E-03 
 +2.437283E-04 -2.039181E-04 -1.372180E-04 -2.039181E-04 +3.682714E-04 +2.922190E-04 -1.372180E-04 +2.922190E-04 +6.920684E-03 
 +2.929708E-04 +1.924860E-04 -2.419859E-04 +1.924860E-04 -2.200506E-04 -3.909685E-04 -2.419859E-04 -3.909685E-04 +7.388055E-03 
 +2.997427E-04 -6.397248E-04 -4.510327E-04 -6.397248E-04 +4.891718E-06 -1.732303E-04 -4.510327E-04 -1.732303E-04 +7.524713E-03 
 +4.490491E-05 +1.022778E-05 +2.266764E-05 +1.022778E-05 -1.076658E-04 -8.123362E-05 +2.266764E-05 -8.123362E-05 +7.584777E-03 
 +2.789375E-04 -5.308742E-04 -3.064741E-04 -5.308742E-04 +3.150232E-05 +4.822298E-04 -3.064741E-04 +4.822298E-04 +7.483229E-03 
 +2.933952E-04 -2.009083E-04 -4.899374E-04 -2.009083E-04 +2.136792E-04 +1.916343E-04 -4.899374E-04 +1.916343E-04 +7.175961E-03 
 +8.764724E-05 +6.753554E-04 +2.710133E-04 +6.753554E-04 -1.972524E-04 -4.625639E-04 +2.710133E-04 -4.625639E-04 +7.338508E-03 
 +2.701679E-04 -3.830311E-04 +1.110316E-04 -3.830311E-04 -1.715682E-04 +2.832327E-04 +1.110316E-04 +2.832327E-04 +7.195964E-03 
 -2.282073E-04 -3.065544E-04 +2.724233E-04 -3.065544E-04 +1.374502E-04 +1.185080E-04 +2.724233E-04 +1.185080E-04 +7.508027E-03 
 -4.817126E-04 -8.552782E-04 +2.967080E-04 -8.552782E-04 -9.294226E-05 +1.405849E-04 +2.967080E-04 +1.405849E-04 +7.992737E-03 
 -4.411575E-04 -6.765094E-05 -7.412499E-05 -6.765094E-05 +9.935068E-05 +1.049999E-04 -7.412499E-05 +1.049999E-04 +7.764094E-03 
 -9.951925E-05 -1.355482E-03 -3.132835E-05 -1.355482E-03 +3.286723E-05 +3.799525E-04 -3.132835E-05 +3.799525E-04 +7.373060E-03 
 +2.387133E-04 -8.674024E-04 -3.212744E-04 -8.674024E-04 -2.193049E-04 +4.607698E-04 -3.212744E-04 +4.607698E-04 +7.198111E-03 
 -2.182369E-04 +5.328294E-05 -4.742605E-04 +5.328294E-05 -1.314487E-04 +5.425289E-04 -4.742605E-04 +5.425289E-04 +7.347413E-03 
 +5.044073E-06 -4.042547E-04 +8.539823E-05 -4.042547E-04 +4.113966E-04 -7.675351E-04 +8.539823E-05 -7.675351E-04 +7.138015E-03 
 -4.259842E-05 -1.912750E-04 +4.751799E-04 -1.912750E-04 -3.470565E-04 -2.866137E-04 +4.751799E-04 -2.866137E-04 +7.462566E-03 
 -3.969669E-04 +1.063511E-03 -2.123641E-04 +1.063511E-03 +3.159199E-04 -1.940449E-04 -2.123641E-04 -1.940449E-04 +7.790013E-03 
 +3.109678E-05 +3.177768E-04 +4.302667E-04 +3.177768E-04 -1.643254E-05 +1.478124E-04 +4.302667E-04 +1.478124E-04 +7.315768E-03 
 +2.074663E-04 +1.710104E-04 +5.906138E-04 +1.710104E-04 -8.540734E-05 +1.713356E-04 +5.906138E-04 +1.713356E-04 +7.153741E-03 
 -2.268974E-04 -3.207489E-04 +9.757413E-05 -3.207489E-04 +7.943263E-05 +9.381821E-05 +9.757413E-05 +9.381821E-05 +7.546984E-03 
 -3.338725E-04 -1.078937E-03 -8.342797E-05 -1.078937E-03 -1.299834E-04 -4.402350E-04 -8.342797E-05 -4.402350E-04 +7.799332E-03 
 -1.571622E-07 -5.149216E-04 +6.255030E-05 -5.149216E-04 +7.123473E-05 -9.847476E-05 +6.255030E-05 -9.847476E-05 +7.870846E-03 
 +1.116262E-04 +7.013472E-05 +1.179796E-04 +7.013472E-05 +3.226756E-04 +3.770914E-05 +1.179796E-04 +3.770914E-05 +7.466549E-03 
 -8.938780E-05 -1.970709E-04 +5.502813E-04 -1.970709E-04 -4.481496E-04 -2.699848E-04 +5.502813E-04 -2.699848E-04 +7.549904E-03 
 -9.163684E-05 -2.960258E-04 +1.159835E-04 -2.960258E-04 +2.284495E-04 +7.414926E-04 +1.159835E-04 +7.414926E-04 +7.434828E-03 
 -9.276645E-06 -6.267857E-04 -1.267450E-04 -6.267857E-04 +1.720413E-04 +6.680931E-05 -1.267450E-04 +6.680931E-05 +7.485072E-03 
 +3.612696E-04 -1.475495E-04 +3.279786E-04 -1.475495E-04 -3.874971E-04 +1.110317E-04 +3.279786E-04 +1.110317E-04 +7.576962E-03 
 -1.187938E-04 +7.044779E-04 -5.154038E-04 +7.044779E-04 +8.884977E-05 -4.653900E-04 -5.154038E-04 -4.653900E-04 +7.837226E-03 
 -1.859895E-04 -9.662906E-04 -5.238476E-05 -9.662906E-04 +1.357177E-04 -2.357147E-04 -5.238476E-05 -2.357147E-04 +7.708882E-03 
 -1.850097E-04 -1.644480E-05 +8.687376E-04 -1.644480E-05 -1.567362E-04 +2.030001E-04 +8.687376E-04 +2.030001E-04 +7.376396E-03 
 -1.843403E-04 +4.724480E-04 +4.851287E-04 +4.724480E-04 +1.324034E-04 +3.079715E-04 +4.851287E-04 +3.079715E-04 +7.534319E-03 
 -2.064274E-04 +2.629494E-04 +4.871545E-05 +2.629494E-04 -7.544297E-05 +2.198766E-04 +4.871545E-05 +2.198766E-04 +7.817705E-03 
 -1.154772E-04 -7.952966E-04 +2.712315E-04 -7.952966E-04 +8.459834E-05 -6.265295E-04 +2.712315E-04 -6.265295E-04 +7.666244E-03 
 -1.456493E-04 +6.267529E-04 +2.503052E-04 +6.267529E-04 -3.565009E-04 -1.964400E-04 +2.503052E-04 -1.964400E-04 +7.814453E-03 
 -3.136387E-04 +6.043582E-04 -3.756938E-04 +6.043582E-04 -3.971622E-05 -4.066530E-04 -3.756938E-04 -4.066530E-04 +7.824407E-03 
 -5.240317E-04 +3.807761E-05 -5.122023E-04 +3.807761E-05 +5.855493E-05 -6.210354E-04 -5.122023E-04 -6.210354E-04 +8.039107E-03 
 -2.250590E-04 -5.426067E-04 -5.348117E-04 -5.426067E-04 +1.882242E-04 +2.540377E-04 -5.348117E-04 +2.540377E-04 +7.361249E-03 
 -2.403789E-04 +5.620389E-04 -2.936790E-04 +5.620389E-04 +4.199640E-04 +3.687856E-04 -2.936790E-04 +3.687856E-04 +6.999629E-03 
 +1.320116E-04 +9.413762E-04 -3.598947E-05 +9.413762E-04 -4.299750E-04 -3.660552E-04 -3.598947E-05 -3.660552E-04 +7.755364E-03 
 -1.141444E-04 +4.373186E-04 +9.678346E-06 +4.373186E-04 -8.078934E-05 +4.229332E-05 +9.678346E-06 +4.229332E-05 +7.567581E-03 
 -3.047728E-04 -3.233127E-04 +4.977073E-04 -3.233127E-04 +1.955005E-04 +7.172186E-04 +4.977073E-04 +7.172186E-04 +7.387972E-03 
 -4.227409E-04 -4.450711E-04 +4.907153E-04 -4.450711E-04 -1.966399E-04 -2.180791E-04 +4.907153E-04 -2.180791E-04 +7.628029E-03 
 +2.525936E-05 -3.753458E-04 -1.004922E-04 -3.753458E-04 +1.582174E-04 -3.661876E-04 -1.004922E-04 -3.661876E-04 +7.213900E-03 
 +3.677738E-04 -7.924928E-04 -5.439203E-05 -7.924928E-04 -1.827227E-04 -4.333205E-04 -5.439203E-05 -4.333205E-04 +7.057224E-03 
 -5.598472E-04 +6.659767E-04 +1.787788E-04 +6.659767E-04 +3.304402E-05 -3.376970E-04 +1.787788E-04 -3.376970E-04 +7.528632E-03 
 -3.892987E-04 -6.903225E-04 +1.772946E-04 -6.903225E-04 +1.717290E-04 -4.679690E-04 +1.772946E-04 -4.679690E-04 +7.702668E-03 
 +3.439683E-04 +2.829681E-04 -7.099305E-04 +2.829681E-04 -1.124962E-04 -3.545018E-04 -7.099305E-04 -3.545018E-04 +7.313387E-03 
 -8.151545E-05 +4.798117E-04 -1.530584E-04 +4.798117E-04 -2.693883E-04 -4.471897E-05 -1.530584E-04 -4.471897E-05 +7.720757E-03 
 +1.521196E-04 +2.736907E-04 +4.205246E-04 +2.736907E-04 +3.287862E-04 -3.202188E-04 +4.205246E-04 -3.202188E-04 +7.333681E-03 
 -2.615690E-04 -1.171683E-04 +2.828198E-04 -1.171683E-04 +1.451498E-04 -8.963280E-05 +2.828198E-04 -8.963280E-05 +7.564173E-03 
 -1.560131E-04 +2.659544E-04 +2.582174E-04 +2.659544E-04 -3.107337E-04 -1.340120E-05 +2.582174E-04 -1.340120E-05 +7.976335E-03 
 +4.802804E-04 +1.768388E-04 -2.342214E-05 +1.768388E-04 +1.146806E-04 -4.478319E-04 -2.342214E-05 -4.478319E-04 +7.278496E-03 
 +4.626744E-04 +6.286107E-05 +4.763815E-04 +6.286107E-05 +2.117056E-05 -3.467842E-04 +4.763815E-04 -3.467842E-04 +6.797357E-03 
 +9.583719E-05 +4.050768E-04 -3.688221E-04 +4.050768E-04 -2.323735E-04 -2.941918E-04 -3.688221E-04 -2.941918E-04 +7.332498E-03 
 +2.215495E-04 +3.099520E-04 -9.375211E-04 +3.099520E-04 -1.497826E-04 +8.346099E-05 -9.375211E-04 +8.346099E-05 +7.248587E-03 
 -2.381468E-04 +4.567170E-04 -3.586487E-04 +4.567170E-04 +1.300418E-04 +2.805676E-04 -3.586487E-04 +2.805676E-04 +7.132330E-03 
 -1.654078E-04 +3.416370E-04 +1.947545E-04 +3.416370E-04 +3.073785E-04 -2.597396E-04 +1.947545E-04 -2.597396E-04 +7.076175E-03 
 -6.376682E-04 +1.137172E-03 +2.863654E-04 +1.137172E-03 +1.444467E-04 -5.361490E-04 +2.863654E-04 -5.361490E-04 +7.243142E-03 
 -4.794426E-04 +7.762184E-04 +2.998291E-04 +7.762184E-04 +1.725271E-04 +2.074707E-04 +2.998291E-04 +2.074707E-04 +7.575872E-03 
 -9.654841E-05 +4.047730E-04 +4.320157E-04 +4.047730E-04 -2.780822E-04 +3.812633E-04 +4.320157E-04 +3.812633E-04 +7.675054E-03 
 -5.931669E-04 -7.032079E-04 +5.346494E-04 -7.032079E-04 -1.873131E-04 +9.242095E-06 +5.346494E-04 +9.242095E-06 +8.116844E-03 
 -3.145327E-04 +7.601520E-04 -1.875950E-04 +7.601520E-04 +1.017367E-04 -2.337489E-05 -1.875950E-04 -2.337489E-05 +7.502559E-03 
 +1.720668E-04 +4.832166E-04 -5.959843E-04 +4.832166E-04 +8.037324E-05 -1.833849E-05 -5.959843E-04 -1.833849E-05 +6.960880E-03 
 +1.161881E-04 +6.330852E-04 -6.283516E-04 +6.330852E-04 -1.888360E-04 -4.310568E-04 -6.283516E-04 -4.310568E-04 +7.650199E-03 
 -1.283656E-04 -7.510633E-04 +2.983086E-04 -7.510633E-04 -3.106977E-04 -2.462993E-05 +2.983086E-04 -2.462993E-05 +7.962650E-03 
 -5.083902E-04 +1.028141E-03 +6.068858E-04 +1.028141E-03 +7.700962E-05 +4.958414E-04 +6.068858E-04 +4.958414E-04 +7.745958E-03 
 -2.466876E-04 -9.513341E-05 +3.032694E-04 -9.513341E-05 +2.282545E-04 -4.133571E-04 +3.032694E-04 -4.133571E-04 +7.611678E-03 
 +2.984889E-04 -1.581205E-04 +4.802792E-04 -1.581205E-04 -3.564415E-04 +7.817490E-05 +4.802792E-04 +7.817490E-05 +7.854020E-03 
 -7.055701E-05 +4.835315E-04 +1.648643E-05 +4.835315E-04 +6.407149E-04 +6.344342E-04 +1.648643E-05 +6.344342E-04 +7.151716E-03 
 +3.177568E-04 +2.365154E-04 -1.046646E-04 +2.365154E-04 +1.207041E-04 +2.372740E-04 -1.046646E-04 +2.372740E-04 +7.383741E-03 
 +2.832072E-04 +3.122717E-04 +9.901117E-05 +3.122717E-04 -4.624655E-04 +1.948022E-04 +9.901117E-05 +1.948022E-04 +7.397091E-03 
 +2.213842E-04 -3.735059E-04 +1.006171E-04 -3.735059E-04 +2.174261E-04 -2.436645E-04 +1.006171E-04 -2.436645E-04 +7.102046E-03 
 +5.566073E-04 -2.038885E-04 +3.862015E-04 -2.038885E-04 -8.553348E-05 +4.836791E-05 +3.862015E-04 +4.836791E-05 +7.282480E-03 
 +2.921621E-04 -1.476282E-04 -2.190285E-04 -1.476282E-04 -1.789443E-04 +3.129079E-04 -2.190285E-04 +3.129079E-04 +7.423018E-03 
 +1.256253E-05 +8.668732E-04 +5.174615E-04 +8.668732E-04 +2.227139E-04 +6.507980E-04 +5.174615E-04 +6.507980E-04 +7.507006E-03 
 -2.813872E-04 -5.581258E-04 +5.922352E-04 -5.581258E-04 -4.469462E-04 -1.826897E-05 +5.922352E-04 -1.826897E-05 +7.869528E-03 
 -4.135443E-04 +4.631520E-04 +2.078008E-04 +4.631520E-04 +1.811687E-04 -6.632379E-06 +2.078008E-04 -6.632379E-06 +7.912245E-03 
 +1.500409E-04 -2.983494E-04 -1.127182E-04 -2.983494E-04 +1.788550E-04 -5.796952E-04 -1.127182E-04 -5.796952E-04 +7.377349E-03 
 -7.290432E-04 +7.559618E-04 -1.048562E-04 +7.559618E-04 +1.742758E-04 -4.064230E-04 -1.048562E-04 -4.064230E-04 +7.814546E-03 
 -7.924343E-04 +6.607727E-04 -2.106704E-04 +6.607727E-04 +1.383659E-04 +3.926611E-04 -2.106704E-04 +3.926611E-04 +7.603637E-03 
 +7.007392E-05 +3.650752E-05 +9.537766E-04 +3.650752E-05 -1.387050E-04 +2.773701E-05 +9.537766E-04 +2.773701E-05 +7.307934E-03 
 +1.124817E-04 -8.727431E-04 +3.947076E-04 -8.727431E-04 -1.429104E-04 +2.559859E-04 +3.947076E-04 +2.559859E-04 +7.121826E-03 
 -5.204369E-04 +1.632258E-04 +6.688252E-05 +1.632258E-04 +2.037312E-04 +2.644009E-04 +6.688252E-05 +2.644009E-04 +7.709202E-03 
 +9.029825E-05 +7.345755E-04 +3.008297E-04 +7.345755E-04 -3.672234E-04 -2.262930E-04 +3.008297E-04 -2.262930E-04 +7.691019E-03 
 +1.653624E-04 -1.976793E-04 -3.793884E-04 -1.976793E-04 +8.619679E-05 +3.171074E-04 -3.793884E-04 +3.171074E-04 +7.633098E-03 
 -2.947079E-04 +9.256800E-04 -4.516226E-05 +9.256800E-04 -2.271704E-04 +6.216177E-05 -4.516226E-05 +6.216177E-05 +7.843266E-03 
 -7.871089E-05 -1.882792E-04 -3.876151E-05 -1.882792E-04 +1.589904E-04 +2.678359E-04 -3.876151E-05 +2.678359E-04 +7.325763E-03 
 +3.282898E-04 +6.156068E-04 -7.706321E-04 +6.156068E-04 -1.419877E-04 +3.258747E-04 -7.706321E-04 +3.258747E-04 +7.379099E-03 
 +6.396099E-05 +4.532794E-04 -4.690716E-04 +4.532794E-04 +3.119250E-04 -8.362822E-05 -4.690716E-04 -8.362822E-05 +6.812476E-03 
 +3.189470E-04 -4.209702E-04 +3.387458E-04 -4.209702E-04 +2.322470E-04 +4.022253E-04 +3.387458E-04 +4.022253E-04 +6.912983E-03 
 +4.160198E-04 -1.498858E-04 +4.629646E-04 -1.498858E-04 +2.165367E-04 -3.453639E-04 +4.629646E-04 -3.453639E-04 +7.065212E-03 
 +4.258748E-04 -4.995280E-04 -1.386147E-04 -4.995280E-04 -6.433435E-04 +1.772374E-04 -1.386147E-04 +1.772374E-04 +7.140017E-03 
 +1.513156E-04 +2.648254E-04 +3.155498E-04 +2.648254E-04 +4.118362E-04 +4.208265E-04 +3.155498E-04 +4.208265E-04 +7.285268E-03 
 -2.019938E-04 -4.315718E-05 -2.085950E-05 -4.315718E-05 -4.923514E-05 -5.707562E-05 -2.085950E-05 -5.707562E-05 +7.717528E-03 
 -1.304975E-04 +1.606170E-03 +6.172415E-04 +1.606170E-03 -6.185579E-04 -1.737742E-04 +6.172415E-04 -1.737742E-04 +7.850948E-03 
 -2.598382E-04 -4.631910E-04 -1.685494E-04 -4.631910E-04 +2.516335E-04 -8.535058E-05 -1.685494E-04 -8.535058E-05 +7.568382E-03 
 -1.815169E-04 +1.238098E-04 -9.894773E-04 +1.238098E-04 -2.965131E-04 -1.734639E-04 -9.894773E-04 -1.734639E-04 +7.561633E-03 
 +3.681133E-04 -9.996415E-04 -3.531064E-04 -9.996415E-04 +2.603522E-04 -2.261435E-04 -3.531064E-04 -2.261435E-04 +7.016204E-03 
 -4.585667E-06 -4.922175E-04 +5.682593E-04 -4.922175E-04 -1.622932E-05 -4.223258E-06 +5.682593E-04 -4.223258E-06 +7.635385E-03 
 -2.167452E-04 -5.579703E-04 +2.562733E-04 -5.579703E-04 +3.178262E-04 -1.001997E-04 +2.562733E-04 -1.001997E-04 +7.341551E-03 
 -2.754932E-04 +4.404945E-04 -1.518784E-04 +4.404945E-04 +2.014658E-04 -1.641385E-04 -1.518784E-04 -1.641385E-04 +7.295137E-03 
 +2.120614E-04 +8.729106E-05 -4.006296E-04 +8.729106E-05 -2.895468E-04 +2.971377E-04 -4.006296E-04 +2.971377E-04 +7.112377E-03 
 +4.667312E-04 -8.548714E-04 -3.518323E-04 -8.548714E-04 -3.509421E-04 -7.779727E-05 -3.518323E-04 -7.779727E-05 +7.389292E-03 
 -1.590159E-04 +2.972005E-04 -2.373838E-04 +2.972005E-04 +3.095137E-04 -8.599435E-04 -2.373838E-04 -8.599435E-04 +7.212983E-03 
 -7.702081E-05 +5.264220E-04 -8.316355E-04 +5.264220E-04 -2.346874E-04 -5.110739E-04 -8.316355E-04 -5.110739E-04 +7.433292E-03 
 +1.644280E-04 -2.857356E-04 -5.464432E-04 -2.857356E-04 +1.082911E-04 +3.384213E-04 -5.464432E-04 +3.384213E-04 +7.198952E-03 
 +2.811964E-05 +4.965203E-04 +4.936585E-04 +4.965203E-04 +7.163375E-05 -1.588364E-04 +4.936585E-04 -1.588364E-04 +6.872528E-03 
 -1.179088E-04 -5.771844E-04 -3.376892E-04 -5.771844E-04 -9.881330E-05 +1.581686E-04 -3.376892E-04 +1.581686E-04 +7.585245E-03 
 +2.426244E-04 +5.815927E-04 -3.866503E-04 +5.815927E-04 +4.160206E-04 +1.026691E-05 -3.866503E-04 +1.026691E-05 +7.167062E-03 
 -3.505690E-05 +1.069773E-03 -1.117138E-05 +1.069773E-03 -4.280653E-04 -1.830289E-04 -1.117138E-05 -1.830289E-04 +7.579577E-03 
 -2.141972E-04 -2.764135E-04 +3.347781E-06 -2.764135E-04 +3.070206E-04 -3.428027E-04 +3.347781E-06 -3.428027E-04 +7.604992E-03 
 +2.027243E-04 -5.063617E-04 -4.000274E-04 -5.063617E-04 +1.975088E-04 +1.540240E-04 -4.000274E-04 +1.540240E-04 +7.327835E-03 
 +4.285141E-05 -3.849248E-04 -6.246702E-05 -3.849248E-04 -7.095427E-04 -2.611451E-04 -6.246702E-05 -2.611451E-04 +7.577858E-03 
 -1.670469E-04 +2.466840E-04 +6.869687E-05 +2.466840E-04 +6.048857E-04 -3.490465E-04 +6.869687E-05 -3.490465E-04 +7.860532E-03 
 +5.537955E-05 +4.068330E-04 +4.833341E-04 +4.068330E-04 -2.539414E-04 +2.383367E-04 +4.833341E-04 +2.383367E-04 +7.868442E-03 
 -1.481388E-04 +1.018897E-03 -5.564119E-05 +1.018897E-03 -2.888652E-04 -4.207468E-04 -5.564119E-05 -4.207468E-04 +7.600083E-03 
 +4.737818E-05 +2.050844E-04 +2.930097E-04 +2.050844E-04 -1.511238E-04 +9.443047E-04 +2.930097E-04 +9.443047E-04 +7.459386E-03 
 +4.652294E-04 -1.011520E-04 +3.671792E-05 -1.011520E-04 +3.869646E-04 +2.283198E-04 +3.671792E-05 +2.283198E-04 +7.029911E-03 
 +3.941113E-04 +3.415527E-04 -8.778318E-05 +3.415527E-04 -9.983222E-05 +7.275499E-05 -8.778318E-05 +7.275499E-05 +7.589065E-03 
 -1.217008E-07 +6.519114E-04 -9.018751E-04 +6.519114E-04 +1.461121E-04 +4.229097E-05 -9.018751E-04 +4.229097E-05 +7.284980E-03 
 -3.490458E-04 -5.570253E-04 +3.226364E-04 -5.570253E-04 +2.044259E-04 +2.859275E-05 +3.226364E-04 +2.859275E-05 +7.461446E-03 
 +2.630562E-05 +4.839991E-04 -4.402395E-05 +4.839991E-04 -3.908437E-05 +2.418590E-04 -4.402395E-05 +2.418590E-04 +7.479516E-03 
 +1.975764E-04 -7.106210E-04 -9.071045E-04 -7.106210E-04 -4.216578E-04 -3.653675E-04 -9.071045E-04 -3.653675E-04 +7.871028E-03 
 +1.240843E-04 -1.696959E-04 -1.018618E-04 -1.696959E-04 -4.544793E-04 +9.532829E-05 -1.018618E-04 +9.532829E-05 +7.387424E-03 
 +2.923348E-05 +1.889808E-04 +2.113003E-04 +1.889808E-04 +4.202862E-04 +2.866914E-04 +2.113003E-04 +2.866914E-04 +7.217802E-03 
 -3.808133E-04 +1.000209E-04 +3.985521E-04 +1.000209E-04 +4.173007E-05 +3.727467E-04 +3.985521E-04 +3.727467E-04 +7.363235E-03 
 -3.737763E-05 -8.011048E-04 +9.530794E-05 -8.011048E-04 +8.671363E-05 -6.151572E-04 +9.530794E-05 -6.151572E-04 +7.252665E-03 
 +1.039070E-04 -4.238543E-04 -4.037763E-04 -4.238543E-04 -6.785669E-05 +6.039133E-04 -4.037763E-04 +6.039133E-04 +7.382852E-03 
 -4.930509E-04 +4.207209E-04 +1.013009E-04 +4.207209E-04 +1.240363E-04 +8.075633E-05 +1.013009E-04 +8.075633E-05 +7.348142E-03 
 -1.726635E-04 +6.552668E-05 -1.856711E-04 +6.552668E-05 +2.419037E-04 -8.391156E-04 -1.856711E-04 -8.391156E-04 +7.506785E-03 
 +1.810331E-04 +5.213449E-04 -1.036179E-04 +5.213449E-04 -4.168778E-04 +4.927426E-04 -1.036179E-04 +4.927426E-04 +7.619529E-03 
 +2.568966E-05 +6.760501E-04 -3.650407E-04 +6.760501E-04 +3.785142E-04 -3.034449E-04 -3.650407E-04 -3.034449E-04 +7.532587E-03 
 +8.648688E-06 -4.341423E-04 -3.722147E-04 -4.341423E-04 -2.372112E-04 +2.450384E-04 -3.722147E-04 +2.450384E-04 +7.685952E-03 
 -1.094608E-04 +7.549311E-04 -2.102444E-04 +7.549311E-04 -9.927353E-05 +2.609359E-04 -2.102444E-04 +2.609359E-04 +7.809323E-03 
 +3.079164E-04 -4.440612E-04 +2.807720E-04 -4.440612E-04 +2.547339E-04 +7.931971E-04 +2.807720E-04 +7.931971E-04 +7.185032E-03 
 +8.817904E-05 +7.120738E-04 +1.211563E-04 +7.120738E-04 -6.079409E-05 +3.417908E-04 +1.211563E-04 +3.417908E-04 +7.150245E-03 
 -2.332342E-04 +2.958954E-04 +7.610387E-04 +2.958954E-04 -2.196744E-04 -2.023077E-04 +7.610387E-04 -2.023077E-04 +7.573269E-03 
 +2.815014E-04 +1.321065E-04 +6.927096E-04 +1.321065E-04 -2.367696E-04 -1.906306E-04 +6.927096E-04 -1.906306E-04 +7.458386E-03 
 +3.438545E-05 -3.147544E-04 +7.888823E-04 -3.147544E-04 +3.819926E-05 -7.644593E-04 +7.888823E-04 -7.644593E-04 +7.740646E-03 
 -8.522345E-05 +8.495712E-04 -2.270322E-04 +8.495712E-04 +3.163258E-04 -5.994767E-04 -2.270322E-04 -5.994767E-04 +7.285493E-03 
 -3.536000E-04 -1.746945E-04 +1.622493E-04 -1.746945E-04 +4.206249E-04 +5.801824E-04 +1.622493E-04 +5.801824E-04 +7.404002E-03 
 -4.641057E-04 -1.223148E-03 -2.629463E-04 -1.223148E-03 -1.960215E-04 -1.283280E-04 -2.629463E-04 -1.283280E-04 +7.570589E-03 
 +3.155665E-05 -1.505338E-04 -2.909932E-04 -1.505338E-04 -2.495784E-04 +7.492552E-05 -2.909932E-04 +7.492552E-05 +7.893885E-03 
 +1.042872E-04 -2.313574E-03 -4.386095E-04 -2.313574E-03 -2.850967E-04 +2.982819E-04 -4.386095E-04 +2.982819E-04 +7.593293E-03 
 -2.252504E-05 +6.711558E-04 -1.953179E-04 +6.711558E-04 -6.988899E-05 +3.195374E-04 -1.953179E-04 +3.195374E-04 +7.684907E-03 
 +2.170099E-04 -8.123179E-05 -3.121655E-04 -8.123179E-05 +3.392215E-05 -2.440213E-04 -3.121655E-04 -2.440213E-04 +7.466512E-03 
 +1.236977E-04 +8.810417E-05 -5.016991E-04 +8.810417E-05 +2.257511E-04 +2.327256E-04 -5.016991E-04 +2.327256E-04 +7.170049E-03 
 -7.551346E-05 -9.651316E-04 -4.699589E-04 -9.651316E-04 -9.800206E-05 -1.808425E-05 -4.699589E-04 -1.808425E-05 +7.711092E-03 
 -8.503080E-06 +2.422453E-04 -5.173489E-04 +2.422453E-04 -2.732360E-04 +6.800224E-05 -5.173489E-04 +6.800224E-05 +7.832075E-03 
 -1.234998E-04 +6.982703E-04 -1.217717E-03 +6.982703E-04 +2.341359E-04 -4.460123E-04 -1.217717E-03 -4.460123E-04 +7.403591E-03 
 -4.347164E-04 +2.799590E-04 -7.411039E-05 +2.799590E-04 +1.980567E-04 -1.612370E-04 -7.411039E-05 -1.612370E-04 +7.481461E-03 
 -1.443868E-04 +5.873085E-04 +7.803256E-04 +5.873085E-04 -7.313877E-06 +1.618523E-04 +7.803256E-04 +1.618523E-04 +7.222652E-03 
 -8.584696E-05 +6.963055E-04 -5.918642E-04 +6.963055E-04 -7.319742E-05 -2.764227E-04 -5.918642E-04 -2.764227E-04 +7.585403E-03 
 -1.724487E-05 +1.465868E-05 -3.963603E-04 +1.465868E-05 -4.373168E-05 +4.084206E-04 -3.963603E-04 +4.084206E-04 +7.699508E-03 
 +2.135620E-04 +1.161364E-06 +1.175563E-04 +1.161364E-06 +2.115770E-04 -1.316674E-04 +1.175563E-04 -1.316674E-04 +6.973806E-03 
 +2.811399E-04 -1.831716E-04 -6.553520E-04 -1.831716E-04 +4.962793E-05 -4.560184E-05 -6.553520E-04 -4.560184E-05 +7.586778E-03 
 +1.375744E-04 +4.839520E-04 -4.711091E-05 +4.839520E-04 -5.260870E-04 +8.249750E-05 -4.711091E-05 +8.249750E-05 +7.678858E-03 
 -1.407178E-04 +2.704742E-04 +2.191840E-04 +2.704742E-04 +4.022778E-04 -3.185646E-04 +2.191840E-04 -3.185646E-04 +7.549747E-03 
 +4.605685E-04 -7.554463E-04 +1.952035E-04 -7.554463E-04 -6.162678E-04 +5.046265E-04 +1.952035E-04 +5.046265E-04 +7.929947E-03 
 +3.871684E-05 +2.923472E-05 -2.941166E-04 +2.923472E-05 +3.242954E-04 +7.214269E-04 -2.941166E-04 +7.214269E-04 +7.594450E-03 
 -5.093084E-04 -5.644385E-04 -2.884060E-05 -5.644385E-04 +3.378883E-04 +9.807298E-05 -2.884060E-05 +9.807298E-05 +7.629187E-03 
 +3.907330E-04 -4.914681E-04 +3.730021E-05 -4.914681E-04 +2.176211E-06 -2.864697E-04 +3.730021E-05 -2.864697E-04 +7.536332E-03 
 +1.325111E-04 -6.827768E-04 +3.216399E-04 -6.827768E-04 -3.350288E-04 +1.035762E-04 +3.216399E-04 +1.035762E-04 +7.633298E-03 
 -2.079608E-04 -2.358164E-04 -4.388931E-04 -2.358164E-04 -6.554406E-05 +4.377352E-05 -4.388931E-04 +4.377352E-05 +7.478919E-03 
 +1.672293E-04 -5.928695E-06 -9.244487E-05 -5.928695E-06 -2.822883E-04 -8.350959E-05 -9.244487E-05 -8.350959E-05 +7.487764E-03 
 +1.153814E-04 +4.483175E-04 +4.965191E-04 +4.483175E-04 +2.043807E-04 -9.611074E-05 +4.965191E-04 -9.611074E-05 +7.581841E-03 
 -4.596883E-05 +4.659655E-04 -1.479530E-05 +4.659655E-04 -1.926121E-04 +3.413426E-05 -1.479530E-05 +3.413426E-05 +7.645149E-03 
 +1.222819E-04 +4.591903E-05 -6.942298E-05 +4.591903E-05 +1.235138E-04 +1.337865E-04 -6.942298E-05 +1.337865E-04 +7.580033E-03 
 +2.347771E-04 +4.222837E-04 -4.673249E-04 +4.222837E-04 -3.098882E-04 +3.405062E-05 -4.673249E-04 +3.405062E-05 +7.436274E-03 
 +4.133490E-04 -4.600834E-05 -4.037456E-04 -4.600834E-05 +1.529899E-04 +2.682194E-04 -4.037456E-04 +2.682194E-04 +7.504023E-03 
 +2.077710E-04 +3.994854E-04 +4.386815E-04 +3.994854E-04 -1.595524E-04 +9.095493E-05 +4.386815E-04 +9.095493E-05 +7.463275E-03 
 +3.438051E-05 +4.367071E-04 +4.056341E-04 +4.367071E-04 +3.369105E-04 -3.686276E-04 +4.056341E-04 -3.686276E-04 +7.217041E-03 
 -4.496377E-05 +7.393543E-04 -5.909473E-05 +7.393543E-04 -1.358248E-05 +2.114610E-05 -5.909473E-05 +2.114610E-05 +7.762461E-03 
 -1.167047E-04 +2.635698E-06 +5.606322E-04 +2.635698E-06 -1.623433E-04 +1.501827E-04 +5.606322E-04 +1.501827E-04 +7.533492E-03 
 -2.489720E-04 -4.490253E-04 +3.382413E-04 -4.490253E-04 +3.191762E-04 -1.082550E-04 +3.382413E-04 -1.082550E-04 +7.200187E-03 
 +4.968346E-04 -4.085085E-04 -2.978629E-04 -4.085085E-04 -3.713787E-04 -3.988284E-04 -2.978629E-04 -3.988284E-04 +7.654958E-03 
 +5.569413E-04 +5.975358E-04 +2.854195E-04 +5.975358E-04 -2.244860E-05 -8.877707E-05 +2.854195E-04 -8.877707E-05 +7.138233E-03 
 +3.164315E-04 -1.456511E-04 -4.923753E-04 -1.456511E-04 +6.920845E-05 -9.854010E-05 -4.923753E-04 -9.854010E-05 +6.859778E-03 
 +3.367514E-04 +2.768445E-04 -1.535753E-04 +2.768445E-04 +1.493342E-04 +6.700372E-04 -1.535753E-04 +6.700372E-04 +6.941455E-03 
 +4.508803E-04 -1.415145E-04 +1.187037E-04 -1.415145E-04 -6.985744E-05 -1.522104E-04 +1.187037E-04 -1.522104E-04 +6.784047E-03 
 +3.207746E-04 -2.437792E-04 -7.333405E-04 -2.437792E-04 +4.524822E-04 +3.342091E-04 -7.333405E-04 +3.342091E-04 +7.069856E-03 
 +1.461925E-04 +3.642228E-04 -5.550444E-04 +3.642228E-04 +1.746906E-04 -1.121565E-04 -5.550444E-04 -1.121565E-04 +7.376104E-03 
 +7.229805E-05 +4.083770E-04 -2.764826E-04 +4.083770E-04 -1.551635E-04 -4.544494E-04 -2.764826E-04 -4.544494E-04 +7.332115E-03 
 +4.047063E-04 +2.458561E-04 +1.447405E-04 +2.458561E-04 +3.403357E-05 +3.214992E-04 +1.447405E-04 +3.214992E-04 +7.282676E-03 
 +1.475444E-04 -1.414307E-05 +1.327304E-04 -1.414307E-05 -5.127694E-04 -3.238383E-04 +1.327304E-04 -3.238383E-04 +7.569596E-03 
 -7.204078E-05 +9.415260E-04 -2.494880E-05 +9.415260E-04 +3.767081E-05 -1.100967E-04 -2.494880E-05 -1.100967E-04 +7.731786E-03 
 +1.000561E-04 -8.194640E-05 -1.746658E-05 -8.194640E-05 +1.174272E-04 -4.116605E-04 -1.746658E-05 -4.116605E-04 +7.354570E-03 
 -7.084254E-05 +3.238944E-04 -1.025404E-04 +3.238944E-04 -9.969552E-05 -6.081097E-04 -1.025404E-04 -6.081097E-04 +7.475954E-03 
 -3.404477E-04 +8.815195E-04 +1.958245E-04 +8.815195E-04 +9.734701E-05 -1.989772E-04 +1.958245E-04 -1.989772E-04 +7.877835E-03 
 -2.413770E-04 -4.399307E-04 -1.038334E-04 -4.399307E-04 +5.013875E-06 +4.216909E-04 -1.038334E-04 +4.216909E-04 +7.404753E-03 
 +8.982341E-05 +1.720837E-04 -6.789207E-04 +1.720837E-04 -1.265639E-04 +3.036231E-04 -6.789207E-04 +3.036231E-04 +7.171696E-03 
 -7.639759E-05 +1.274011E-04 -3.398902E-04 +1.274011E-04 +1.802210E-04 -7.224469E-04 -3.398902E-04 -7.224469E-04 +7.140054E-03 
 +1.054596E-04 +3.876139E-04 -2.756933E-04 +3.876139E-04 -1.653496E-04 +4.779601E-04 -2.756933E-04 +4.779601E-04 +7.296467E-03 
 +1.096883E-04 +4.569162E-05 -3.090487E-04 +4.569162E-05 +2.904455E-04 +4.409976E-04 -3.090487E-04 +4.409976E-04 +7.000037E-03 
 +1.326580E-04 +7.544043E-04 -3.561429E-04 +7.544043E-04 -9.528511E-05 +2.521251E-04 -3.561429E-04 +2.521251E-04 +7.383865E-03 
 -3.371643E-05 -1.234097E-03 -2.670938E-04 -1.234097E-03 -5.144106E-05 +1.965771E-05 -2.670938E-04 +1.965771E-05 +7.667510E-03 
 +1.078018E-04 -3.817255E-04 +4.020508E-04 -3.817255E-04 -1.000186E-04 +3.930992E-05 +4.020508E-04 +3.930992E-05 +7.314187E-03 
 +1.799468E-04 -1.143680E-04 -6.418517E-05 -1.143680E-04 -4.006755E-04 +4.875130E-04 -6.418517E-05 +4.875130E-04 +7.818330E-03 
 -5.641617E-04 -5.108836E-04 +3.878917E-04 -5.108836E-04 +4.655044E-04 -2.659359E-04 +3.878917E-04 -2.659359E-04 +7.802237E-03 
 -3.278692E-04 +8.553466E-04 +3.853929E-05 +8.553466E-04 -8.824938E-06 -2.449764E-04 +3.853929E-05 -2.449764E-04 +7.437318E-03 
 -1.136716E-04 -3.092089E-04 -4.736648E-04 -3.092089E-04 +2.888457E-04 +2.535239E-04 -4.736648E-04 +2.535239E-04 +7.337157E-03 
 +2.902884E-04 +5.811994E-06 +2.516535E-04 +5.811994E-06 +2.402955E-04 +6.349113E-05 +2.516535E-04 +6.349113E-05 +6.955493E-03 
 +4.106471E-04 +6.396355E-05 -4.229420E-04 +6.396355E-05 -4.146890E-05 -2.740986E-04 -4.229420E-04 -2.740986E-04 +6.963866E-03 
 -5.928746E-04 -4.723844E-04 +4.395727E-04 -4.723844E-04 +3.287125E-04 +2.766299E-04 +4.395727E-04 +2.766299E-04 +8.038186E-03 
 -1.581822E-04 +7.792323E-04 -5.861575E-04 +7.792323E-04 -5.682873E-04 -5.485705E-04 -5.861575E-04 -5.485705E-04 +7.938282E-03 
 +2.933514E-04 -1.186123E-04 -3.873963E-04 -1.186123E-04 +5.328367E-05 +2.839078E-04 -3.873963E-04 +2.839078E-04 +7.381355E-03 
 +1.228781E-04 +1.408467E-04 +8.058893E-04 +1.408467E-04 +1.107045E-04 +3.917239E-04 +8.058893E-04 +3.917239E-04 +7.228875E-03 
 -1.604891E-04 -2.104686E-05 +7.410432E-04 -2.104686E-05 -8.518569E-05 -1.251623E-04 +7.410432E-04 -1.251623E-04 +7.399355E-03 
 +3.021389E-04 +1.324237E-04 -1.441643E-04 +1.324237E-04 -5.171860E-05 +8.800186E-04 -1.441643E-04 +8.800186E-04 +7.495536E-03 
 +1.976466E-04 +1.039228E-03 -3.469404E-04 +1.039228E-03 +9.308125E-05 -2.197050E-04 -3.469404E-04 -2.197050E-04 +7.019835E-03 
 -5.481447E-04 -5.666119E-04 +4.703974E-04 -5.666119E-04 +2.719899E-04 +2.537453E-05 +4.703974E-04 +2.537453E-05 +7.566696E-03 
 -3.360187E-04 -5.774457E-04 +7.841439E-04 -5.774457E-04 -2.346756E-04 +3.983020E-04 +7.841439E-04 +3.983020E-04 +7.806371E-03 
 -2.939582E-04 +1.112175E-04 -8.481526E-06 +1.112175E-04 +1.166312E-04 +1.259613E-04 -8.481526E-06 +1.259613E-04 +7.905059E-03 
 -4.880587E-04 +7.664726E-04 -4.237567E-05 +7.664726E-04 -2.027573E-04 -3.687207E-04 -4.237567E-05 -3.687207E-04 +7.873956E-03 
 -3.561403E-04 -5.384554E-04 -2.202574E-04 -5.384554E-04 +3.795714E-05 -1.512987E-05 -2.202574E-04 -1.512987E-05 +7.916272E-03 
 -1.898729E-04 +1.043919E-03 -3.485922E-04 +1.043919E-03 +1.627900E-04 -4.507740E-04 -3.485922E-04 -4.507740E-04 +7.228638E-03 
 +2.178142E-04 -6.739417E-04 -1.312159E-04 -6.739417E-04 +4.874906E-05 +4.189474E-04 -1.312159E-04 +4.189474E-04 +7.112351E-03 
 -5.195642E-05 -1.243154E-03 +1.334878E-04 -1.243154E-03 -3.084976E-04 +5.684438E-05 +1.334878E-04 +5.684438E-05 +7.885672E-03 
 +2.268896E-06 -4.838731E-04 +3.495968E-04 -4.838731E-04 +2.255895E-05 +1.042777E-04 +3.495968E-04 +1.042777E-04 +7.268640E-03 
 +2.057857E-04 -4.321554E-04 -2.104837E-04 -4.321554E-04 +9.047380E-05 +5.357172E-04 -2.104837E-04 +5.357172E-04 +7.282891E-03 
 -2.292207E-04 +2.035677E-04 -4.994125E-04 +2.035677E-04 +1.275175E-04 +2.000493E-04 -4.994125E-04 +2.000493E-04 +7.420356E-03 
 -1.522780E-04 +6.972539E-04 +4.532893E-04 +6.972539E-04 +3.386285E-04 -6.094163E-05 +4.532893E-04 -6.094163E-05 +7.216647E-03 
 +2.984748E-04 -4.255456E-04 +1.112273E-04 -4.255456E-04 +1.500334E-04 +7.633145E-05 +1.112273E-04 +7.633145E-05 +7.545677E-03 
 -8.391059E-05 +5.644170E-04 +1.784589E-04 +5.644170E-04 -5.025202E-04 +4.005313E-04 +1.784589E-04 +4.005313E-04 +7.805515E-03 
 +8.785845E-05 -1.952802E-05 -2.947264E-04 -1.952802E-05 +7.322566E-05 -2.085725E-04 -2.947264E-04 -2.085725E-04 +7.284294E-03 
 -2.790880E-04 +4.767871E-04 -6.448432E-05 +4.767871E-04 -1.853725E-05 +2.820303E-04 -6.448432E-05 +2.820303E-04 +7.685749E-03 
 -2.500054E-04 +7.322951E-04 -3.885410E-05 +7.322951E-04 -1.706019E-05 -6.161153E-05 -3.885410E-05 -6.161153E-05 +7.754616E-03 
 +1.841069E-04 -3.103657E-04 -4.348640E-04 -3.103657E-04 -4.065820E-05 -3.908099E-04 -4.348640E-04 -3.908099E-04 +7.241684E-03 
 -2.406588E-04 -3.266211E-04 -9.342641E-04 -3.266211E-04 +1.368954E-04 +8.419268E-06 -9.342641E-04 +8.419268E-06 +7.442612E-03 
 +1.297415E-04 -3.158388E-04 -5.214660E-04 -3.158388E-04 +2.064897E-04 -3.629950E-05 -5.214660E-04 -3.629950E-05 +7.309067E-03 
 +1.626671E-04 +9.994542E-04 +1.163471E-04 +9.994542E-04 -4.566469E-04 +2.939354E-04 +1.163471E-04 +2.939354E-04 +7.812597E-03 
 -3.066957E-05 +1.716307E-05 -5.185638E-04 +1.716307E-05 +3.600678E-04 +3.987683E-04 -5.185638E-04 +3.987683E-04 +7.611346E-03 
 -4.834449E-05 +5.617765E-04 -5.582076E-04 +5.617765E-04 -4.885416E-05 -9.302053E-05 -5.582076E-04 -9.302053E-05 +7.503582E-03 
 -6.487469E-05 -1.093522E-04 +4.308424E-04 -1.093522E-04 -2.237727E-04 -4.181080E-04 +4.308424E-04 -4.181080E-04 +7.672807E-03 
 -1.092172E-04 +3.395739E-04 +1.768330E-04 +3.395739E-04 -2.931210E-04 -2.611952E-04 +1.768330E-04 -2.611952E-04 +7.883150E-03 
 -3.593040E-04 -3.758154E-04 -3.049272E-04 -3.758154E-04 +7.279338E-05 -2.200423E-04 -3.049272E-04 -2.200423E-04 +7.530258E-03 
 -5.706666E-04 +1.223980E-03 -1.024777E-04 +1.223980E-03 +1.964624E-04 -3.975877E-04 -1.024777E-04 -3.975877E-04 +7.749780E-03 
 -7.513768E-05 -1.035016E-03 +2.028799E-04 -1.035016E-03 -2.701784E-04 -2.697767E-04 +2.028799E-04 -2.697767E-04 +7.880090E-03 
 +3.580112E-05 -3.933334E-04 -4.400889E-05 -3.933334E-04 +1.811096E-04 -6.331059E-04 -4.400889E-05 -6.331059E-04 +7.210076E-03 
 -1.145998E-04 +1.932120E-04 -3.820032E-04 +1.932120E-04 +9.914421E-05 -2.394395E-04 -3.820032E-04 -2.394395E-04 +7.394151E-03 
 +3.325332E-04 -3.463558E-04 -6.275869E-05 -3.463558E-04 +1.879923E-04 -5.014935E-04 -6.275869E-05 -5.014935E-04 +6.793558E-03 
 +4.068959E-05 -2.307139E-04 +1.157654E-04 -2.307139E-04 +7.646365E-05 +1.999082E-04 +1.157654E-04 +1.999082E-04 +7.054116E-03 
 -2.902711E-04 -3.505014E-05 -2.747242E-04 -3.505014E-05 +1.218247E-04 -4.427026E-04 -2.747242E-04 -4.427026E-04 +7.438949E-03 
 +3.790593E-05 +2.299845E-04 +3.707536E-04 +2.299845E-04 -3.342961E-06 +2.060683E-04 +3.707536E-04 +2.060683E-04 +7.521862E-03 
 -3.270092E-04 -2.280701E-04 +3.474896E-04 -2.280701E-04 -3.403802E-04 -3.684261E-04 +3.474896E-04 -3.684261E-04 +7.725378E-03 
 -2.799277E-05 +6.838694E-04 -1.240506E-04 +6.838694E-04 -9.179177E-05 -1.308412E-04 -1.240506E-04 -1.308412E-04 +7.585044E-03 
 +2.410317E-04 +5.559830E-05 +1.096061E-04 +5.559830E-05 +4.351995E-04 +3.423160E-04 +1.096061E-04 +3.423160E-04 +6.797690E-03 
 +1.549050E-04 +5.837378E-04 -6.620171E-04 +5.837378E-04 -4.333709E-05 +1.236431E-04 -6.620171E-04 +1.236431E-04 +7.437362E-03 
 +1.558137E-04 +7.229504E-04 -3.172494E-05 +7.229504E-04 -3.533815E-04 -2.090918E-05 -3.172494E-05 -2.090918E-05 +7.700161E-03 
 +3.841407E-04 -2.022485E-04 +6.906432E-04 -2.022485E-04 -4.453164E-05 -1.314920E-04 +6.906432E-04 -1.314920E-04 +7.049649E-03 
 +1.355777E-04 +2.682879E-04 +3.382592E-04 +2.682879E-04 +1.651143E-04 -7.310417E-04 +3.382592E-04 -7.310417E-04 +7.212136E-03 
 +2.589189E-05 +4.938533E-05 +4.950565E-05 +4.938533E-05 +2.043619E-04 +7.159389E-04 +4.950565E-05 +7.159389E-04 +7.407308E-03 
 +6.437759E-05 +8.736289E-04 -3.305173E-04 +8.736289E-04 -3.094034E-04 -4.234773E-04 -3.305173E-04 -4.234773E-04 +7.788140E-03 
 -1.759704E-04 +6.845742E-04 +9.322452E-05 +6.845742E-04 +6.986782E-05 +2.711552E-04 +9.322452E-05 +2.711552E-04 +7.597449E-03 
 +2.834643E-04 +3.488844E-05 -1.642330E-04 +3.488844E-05 -2.143670E-05 -3.161395E-04 -1.642330E-04 -3.161395E-04 +7.350966E-03 
 +4.990427E-04 -3.995998E-05 -1.390653E-04 -3.995998E-05 -8.916740E-05 +8.777487E-04 -1.390653E-04 +8.777487E-04 +7.211812E-03 
 -2.556945E-04 +4.603955E-04 -1.466822E-04 +4.603955E-04 -8.875866E-05 -2.240955E-05 -1.466822E-04 -2.240955E-05 +7.625730E-03 
 +4.821678E-05 +2.792649E-04 -1.725817E-04 +2.792649E-04 -1.831385E-04 +1.068680E-04 -1.725817E-04 +1.068680E-04 +7.446964E-03 
 +5.099957E-04 -7.296376E-04 +1.169259E-04 -7.296376E-04 +2.273447E-05 +2.116471E-04 +1.169259E-04 +2.116471E-04 +7.087487E-03 
 +2.682500E-04 +6.213081E-04 +3.005570E-04 +6.213081E-04 +3.126875E-04 +6.559110E-04 +3.005570E-04 +6.559110E-04 +7.028081E-03 
 +1.826764E-06 +1.787449E-04 -3.865662E-04 +1.787449E-04 +5.050953E-05 +3.471070E-05 -3.865662E-04 +3.471070E-05 +7.018785E-03 
 -3.772255E-04 +6.372450E-04 -1.917052E-04 +6.372450E-04 -2.028121E-04 -1.037129E-04 -1.917052E-04 -1.037129E-04 +7.804849E-03 
 -1.384344E-04 +7.134778E-05 +1.179575E-04 +7.134778E-05 +2.657487E-04 +3.791360E-05 +1.179575E-04 +3.791360E-05 +7.515821E-03 
 -3.948310E-04 -3.271078E-04 +1.966932E-04 -3.271078E-04 -1.318133E-04 -2.523670E-04 +1.966932E-04 -2.523670E-04 +7.812426E-03 
 -1.889847E-04 +9.898873E-04 -1.195071E-04 +9.898873E-04 -2.361757E-04 -1.871204E-04 -1.195071E-04 -1.871204E-04 +7.991895E-03 
 -2.745855E-04 -1.314311E-04 +2.706933E-05 -1.314311E-04 +2.697629E-04 +1.204793E-04 +2.706933E-05 +1.204793E-04 +7.656127E-03 
 +3.908290E-05 +3.327898E-04 +3.335366E-04 +3.327898E-04 +3.687138E-04 -3.984008E-04 +3.335366E-04 -3.984008E-04 +6.971993E-03 
 +1.681158E-04 -1.294847E-04 +8.391778E-04 -1.294847E-04 -1.645188E-04 -1.178856E-05 +8.391778E-04 -1.178856E-05 +7.360567E-03 
 +1.086830E-04 +1.687188E-04 +7.661962E-04 +1.687188E-04 +3.764451E-04 +5.926087E-04 +7.661962E-04 +5.926087E-04 +7.107696E-03 
 +2.895630E-04 +1.060229E-03 -1.070751E-05 +1.060229E-03 -3.937683E-05 -8.409502E-04 -1.070751E-05 -8.409502E-04 +7.568737E-03 
 -7.188397E-06 +3.851765E-04 +3.220501E-04 +3.851765E-04 -8.044772E-04 +5.721007E-04 +3.220501E-04 +5.721007E-04 +7.931550E-03 
 -8.037663E-04 -1.794918E-04 +3.444091E-04 -1.794918E-04 +3.545856E-04 +2.657610E-04 +3.444091E-04 +2.657610E-04 +8.052780E-03 
 -1.908447E-04 -1.148139E-03 -4.938713E-04 -1.148139E-03 +1.602463E-05 +6.725902E-05 -4.938713E-04 +6.725902E-05 +7.648288E-03 
 +5.449059E-04 +5.429995E-04 +2.287014E-05 +5.429995E-04 -1.040930E-04 -4.785735E-04 +2.287014E-05 -4.785735E-04 +6.989777E-03 
 +2.112351E-04 -4.662767E-04 +3.004935E-04 -4.662767E-04 -1.235222E-05 -8.461640E-05 +3.004935E-04 -8.461640E-05 +6.915107E-03 
 +3.515944E-05 +2.170647E-05 -1.815223E-04 +2.170647E-05 +4.039291E-04 -2.590813E-04 -1.815223E-04 -2.590813E-04 +7.015766E-03 
 +4.528499E-05 -5.912658E-04 -3.361736E-04 -5.912658E-04 -1.534383E-04 +2.565700E-04 -3.361736E-04 +2.565700E-04 +7.391948E-03 
 +2.597810E-04 +7.030244E-05 -1.816173E-05 +7.030244E-05 +1.104698E-04 +2.359263E-04 -1.816173E-05 +2.359263E-04 +7.475309E-03 
 +3.993526E-04 +7.838423E-05 +2.909196E-04 +7.838423E-05 -8.255445E-04 -2.419074E-04 +2.909196E-04 -2.419074E-04 +7.616994E-03 
 -1.187269E-04 -2.457722E-05 +5.464940E-04 -2.457722E-05 +7.684019E-04 -3.972919E-04 +5.464940E-04 -3.972919E-04 +7.336842E-03 
 -6.155308E-05 +3.039505E-04 +7.810242E-05 +3.039505E-04 -9.824230E-05 -2.421783E-04 +7.810242E-05 -2.421783E-04 +7.391217E-03 
 +2.735601E-04 +7.695037E-05 -4.059188E-04 +7.695037E-05 -2.354711E-04 +6.115431E-05 -4.059188E-04 +6.115431E-05 +7.790309E-03 
 -1.371106E-04 +7.921768E-04 -7.654129E-04 +7.921768E-04 -2.668328E-05 -4.363401E-04 -7.654129E-04 -4.363401E-04 +7.506851E-03 
 +3.218528E-04 +1.272872E-04 -8.031093E-04 +1.272872E-04 -1.548737E-04 -2.272401E-04 -8.031093E-04 -2.272401E-04 +7.498650E-03 
 +3.124067E-04 +2.409000E-04 +3.316113E-04 +2.409000E-04 -8.045841E-05 +2.638410E-04 +3.316113E-04 +2.638410E-04 +7.184144E-03 
 +4.942750E-04 +4.692941E-04 +4.120925E-04 +4.692941E-04 +4.766493E-06 -2.032741E-04 +4.120925E-04 -2.032741E-04 +6.949873E-03 
 +2.352328E-04 +2.607519E-04 -2.177946E-04 +2.607519E-04 +2.956850E-04 +1.379644E-04 -2.177946E-04 +1.379644E-04 +6.758817E-03 
 -5.411525E-04 -5.656664E-04 -2.587963E-04 -5.656664E-04 +2.791996E-04 -4.471086E-04 -2.587963E-04 -4.471086E-04 +7.539515E-03 
 -3.291815E-04 -1.472800E-04 +1.695601E-04 -1.472800E-04 +2.748976E-05 -2.662897E-04 +1.695601E-04 -2.662897E-04 +7.438904E-03 
 +1.328594E-04 -2.982941E-04 -2.178210E-04 -2.982941E-04 +4.956929E-06 +8.903189E-05 -2.178210E-04 +8.903189E-05 +7.233963E-03 
 +3.910897E-04 -3.155673E-04 -4.787182E-08 -3.155673E-04 +1.165245E-04 -5.017025E-04 -4.787182E-08 -5.017025E-04 +7.054550E-03 
 -1.073141E-04 +1.751605E-04 +9.011534E-05 +1.751605E-04 -4.009478E-04 -3.966753E-04 +9.011534E-05 -3.966753E-04 +7.700756E-03 
 +2.639743E-05 +2.914498E-04 -1.972615E-04 +2.914498E-04 -2.223558E-04 -3.616892E-04 -1.972615E-04 -3.616892E-04 +7.464504E-03 
 -1.497985E-04 -3.932558E-04 +2.547767E-04 -3.932558E-04 +3.243160E-04 -4.761899E-04 +2.547767E-04 -4.761899E-04 +7.194928E-03 
 +2.675124E-05 +7.667926E-04 +8.829452E-05 +7.667926E-04 -1.447364E-04 +1.153161E-04 +8.829452E-05 +1.153161E-04 +7.437243E-03 
 +3.954072E-04 +2.514674E-04 +3.942540E-04 +2.514674E-04 -1.251072E-05 -3.516112E-04 +3.942540E-04 -3.516112E-04 +7.566501E-03 
 -3.439415E-04 -1.451579E-04 +1.135750E-04 -1.451579E-04 +3.764177E-04 -3.098043E-04 +1.135750E-04 -3.098043E-04 +7.403575E-03 
 +1.986682E-04 +6.631595E-05 +1.536235E-04 +6.631595E-05 +6.204287E-05 +4.358010E-04 +1.536235E-04 +4.358010E-04 +7.306478E-03 
 +4.353159E-04 +1.227233E-05 +6.934421E-04 +1.227233E-05 -1.490707E-04 -4.528929E-04 +6.934421E-04 -4.528929E-04 +7.157505E-03 
 +3.550533E-04 +3.937088E-04 +5.493407E-04 +3.937088E-04 -2.621422E-04 -1.273683E-04 +5.493407E-04 -1.273683E-04 +7.125662E-03 
 -3.755674E-05 +1.265746E-04 +2.077251E-04 +1.265746E-04 +1.543241E-05 -1.977296E-04 +2.077251E-04 -1.977296E-04 +7.685695E-03 
 -3.374547E-04 -1.384620E-03 +2.829885E-04 -1.384620E-03 +1.266074E-04 -2.038390E-05 +2.829885E-04 -2.038390E-05 +7.990730E-03 
 +1.031280E-04 -4.320891E-04 +2.127196E-04 -4.320891E-04 -2.038318E-04 -2.432646E-04 +2.127196E-04 -2.432646E-04 +7.596807E-03 
 -2.410138E-04 +2.294894E-04 -5.006963E-04 +2.294894E-04 -9.043485E-05 -1.396203E-04 -5.006963E-04 -1.396203E-04 +7.381558E-03 
 -4.000276E-04 +9.149209E-04 -3.678476E-04 +9.149209E-04 -5.628708E-05 +1.225994E-04 -3.678476E-04 +1.225994E-04 +7.696301E-03 
 +1.105159E-04 +3.520923E-05 -3.154275E-04 +3.520923E-05 -1.704781E-04 -9.228155E-05 -3.154275E-04 -9.228155E-05 +7.576716E-03 
 -1.041653E-05 +6.571155E-04 -5.387988E-04 +6.571155E-04 +1.468400E-04 +1.874308E-05 -5.387988E-04 +1.874308E-05 +7.394053E-03 
 -3.905761E-04 -5.781869E-04 -7.446812E-05 -5.781869E-04 +2.327843E-04 +6.335173E-05 -7.446812E-05 +6.335173E-05 +7.851465E-03 
 +1.435027E-04 -6.582076E-04 +3.216905E-04 -6.582076E-04 -3.043763E-05 -5.017440E-04 +3.216905E-04 -5.017440E-04 +7.429813E-03 
 +2.177381E-04 +1.141225E-04 -9.017223E-06 +1.141225E-04 +2.659861E-04 +2.035518E-04 -9.017223E-06 +2.035518E-04 +7.061593E-03 
 +3.767043E-04 +5.030648E-05 +2.377627E-04 +5.030648E-05 +1.328310E-05 +8.556717E-05 +2.377627E-04 +8.556717E-05 +7.263873E-03 
 +4.220848E-04 +4.059970E-04 +4.530286E-04 +4.059970E-04 -5.781323E-05 +4.534599E-04 +4.530286E-04 +4.534599E-04 +7.465463E-03 
 -2.029383E-04 +2.786103E-04 -2.723783E-04 +2.786103E-04 +2.085135E-04 +2.317753E-04 -2.723783E-04 +2.317753E-04 +7.501371E-03 
 -1.865118E-04 +4.813305E-04 +3.083963E-05 +4.813305E-04 -3.374241E-04 +7.104611E-05 +3.083963E-05 +7.104611E-05 +7.605287E-03 
 -1.627952E-04 -5.496768E-04 +4.092719E-05 -5.496768E-04 +7.665694E-05 -6.710364E-04 +4.092719E-05 -6.710364E-04 +7.741747E-03 
 -3.858843E-04 +9.361638E-04 +2.457448E-04 +9.361638E-04 +2.113006E-04 +6.607406E-05 +2.457448E-04 +6.607406E-05 +7.596498E-03 
 -4.793949E-04 -2.321678E-04 +8.095547E-05 -2.321678E-04 +1.569455E-04 +3.011710E-04 +8.095547E-05 +3.011710E-04 +7.876907E-03 
 +2.476504E-04 +7.363443E-04 +1.984840E-04 +7.363443E-04 -7.891904E-04 +5.217663E-05 +1.984840E-04 +5.217663E-05 +8.071963E-03 
 -1.908694E-04 +1.287254E-04 -6.696322E-06 +1.287254E-04 +3.485054E-04 -6.367305E-04 -6.696322E-06 -6.367305E-04 +7.673221E-03 
 -2.877917E-04 -4.688675E-04 -2.565311E-04 -4.688675E-04 +3.210170E-04 +2.961045E-05 -2.565311E-04 +2.961045E-05 +7.357118E-03 
 +4.627816E-04 +9.223080E-04 -9.957569E-04 +9.223080E-04 -2.991910E-05 +3.542127E-05 -9.957569E-04 +3.542127E-05 +7.035897E-03 
 +1.667034E-04 +8.805035E-05 -5.712535E-04 +8.805035E-05 -4.129779E-04 +2.593583E-04 -5.712535E-04 +2.593583E-04 +7.500111E-03 
 -1.333796E-05 +2.940250E-04 +3.643879E-04 +2.940250E-04 +3.561766E-05 -7.565038E-04 +3.643879E-04 -7.565038E-04 +7.175782E-03 
 -2.220169E-06 +5.583686E-05 -4.033326E-04 +5.583686E-05 +1.589489E-04 +8.224327E-04 -4.033326E-04 +8.224327E-04 +7.369499E-03 
 -4.601813E-05 +1.302075E-04 +2.779615E-05 +1.302075E-04 -1.458004E-04 -3.348622E-04 +2.779615E-05 -3.348622E-04 +7.705429E-03 
 -9.529587E-05 +4.089802E-04 +5.862263E-04 +4.089802E-04 +1.381827E-05 -3.420668E-04 +5.862263E-04 -3.420668E-04 +7.286322E-03 
 -2.637692E-04 -1.448080E-03 +9.193698E-05 -1.448080E-03 -2.347931E-04 -5.557590E-06 +9.193698E-05 -5.557590E-06 +8.112444E-03 
 +9.283457E-05 +4.845855E-04 +2.434326E-04 +4.845855E-04 +2.581972E-05 -1.208378E-04 +2.434326E-04 -1.208378E-04 +7.548214E-03 
 -1.763433E-04 +2.353023E-04 +2.326489E-05 +2.353023E-04 +2.013697E-04 +8.003623E-05 +2.326489E-05 +8.003623E-05 +7.009163E-03 
 -5.406589E-04 -9.547008E-04 -6.451084E-05 -9.547008E-04 +3.407978E-04 -1.465250E-04 -6.451084E-05 -1.465250E-04 +7.708310E-03 
 -3.521256E-04 +9.439467E-04 +4.142639E-04 +9.439467E-04 -1.547966E-04 -2.733096E-05 +4.142639E-04 -2.733096E-05 +7.868282E-03 
 +6.356899E-05 -2.589033E-04 -8.000714E-05 -2.589033E-04 -1.070213E-04 -3.357124E-04 -8.000714E-05 -3.357124E-04 +7.446937E-03 
 +1.055719E-04 +4.445378E-04 +1.127394E-04 +4.445378E-04 +1.783071E-04 -2.639204E-04 +1.127394E-04 -2.639204E-04 +7.462828E-03 
 -4.342954E-05 +5.292796E-04 +4.581613E-04 +5.292796E-04 +8.685191E-05 +3.782558E-04 +4.581613E-04 +3.782558E-04 +7.484088E-03 
 -8.011636E-05 -3.654723E-04 -3.301470E-04 -3.654723E-04 +5.140810E-05 -1.456132E-04 -3.301470E-04 -1.456132E-04 +7.457966E-03 
 -1.484020E-04 +3.270996E-05 +2.814857E-04 +3.270996E-05 -4.876687E-04 +2.075840E-04 +2.814857E-04 +2.075840E-04 +7.599077E-03 
 -4.192258E-04 +4.912939E-04 +9.050182E-05 +4.912939E-04 +2.929878E-04 -1.771523E-04 +9.050182E-05 -1.771523E-04 +7.288430E-03 
 -6.334718E-05 -5.412032E-04 +9.652905E-06 -5.412032E-04 +4.346513E-04 -2.437667E-04 +9.652905E-06 -2.437667E-04 +7.192078E-03 
 +5.187387E-04 +1.027172E-03 +1.787069E-04 +1.027172E-03 -6.794478E-04 -3.980629E-05 +1.787069E-04 -3.980629E-05 +7.660542E-03 
 -1.445289E-04 -4.467858E-04 +1.501743E-04 -4.467858E-04 +3.083220E-04 +1.051291E-03 +1.501743E-04 +1.051291E-03 +7.333748E-03 
 -2.912515E-04 +2.291216E-04 -2.295780E-04 +2.291216E-04 +3.907818E-04 +2.350746E-04 -2.295780E-04 +2.350746E-04 +7.395743E-03 
 +1.792751E-04 +7.581465E-04 +1.356878E-04 +7.581465E-04 -5.147959E-04 +1.917002E-05 +1.356878E-04 +1.917002E-05 +7.996010E-03 
 +3.682176E-04 -2.260828E-04 +5.388548E-04 -2.260828E-04 +1.244026E-04 +6.221312E-04 +5.388548E-04 +6.221312E-04 +7.245437E-03 
 -1.016466E-04 -1.075215E-03 +4.975261E-04 -1.075215E-03 -1.238593E-04 -5.901955E-04 +4.975261E-04 -5.901955E-04 +7.504486E-03 
 +5.218258E-06 +2.795924E-04 +3.122479E-04 +2.795924E-04 -1.588874E-04 +1.295256E-04 +3.122479E-04 +1.295256E-04 +7.623488E-03 
 +1.754015E-04 -1.371254E-04 -5.125073E-05 -1.371254E-04 -1.850902E-04 -6.655585E-05 -5.125073E-05 -6.655585E-05 +7.539062E-03 
 -4.321398E-04 +3.644886E-04 +3.172372E-05 +3.644886E-04 +5.665842E-05 -1.753698E-04 +3.172372E-05 -1.753698E-04 +8.000345E-03 
 +4.751063E-04 -7.279401E-05 +1.444009E-04 -7.279401E-05 +6.110254E-05 -2.292576E-04 +1.444009E-04 -2.292576E-04 +7.019691E-03 
 +3.807993E-04 +9.754023E-05 -3.497151E-04 +9.754023E-05 -8.386108E-05 +1.433181E-04 -3.497151E-04 +1.433181E-04 +7.565374E-03 
 -2.301428E-04 +7.777111E-04 -1.866477E-04 +7.777111E-04 +1.685029E-04 +3.370080E-04 -1.866477E-04 +3.370080E-04 +7.905459E-03 
 +9.686453E-06 -7.589055E-04 +2.578034E-04 -7.589055E-04 +1.041722E-04 +2.897764E-04 +2.578034E-04 +2.897764E-04 +7.595764E-03 
 -3.017824E-04 +1.105768E-03 -2.723562E-04 +1.105768E-03 -1.626314E-04 -3.530775E-04 -2.723562E-04 -3.530775E-04 +8.051481E-03 
 -3.336998E-04 -8.333204E-04 +8.904188E-05 -8.333204E-04 -4.965612E-04 -1.100386E-04 +8.904188E-05 -1.100386E-04 +8.164620E-03 
 -4.827047E-04 +1.091542E-03 -1.312388E-04 +1.091542E-03 +4.386574E-04 +2.232866E-04 -1.312388E-04 +2.232866E-04 +7.831375E-03 
 +9.596522E-05 -4.352944E-04 -1.759979E-04 -4.352944E-04 -5.843046E-05 -1.260342E-04 -1.759979E-04 -1.260342E-04 +7.734161E-03 
 -1.560117E-04 +1.907017E-04 +2.788742E-04 +1.907017E-04 +1.489624E-04 -5.304329E-04 +2.788742E-04 -5.304329E-04 +7.606030E-03 
 -5.701831E-05 +4.942091E-04 +1.602760E-04 +4.942091E-04 +3.315561E-05 -1.706102E-04 +1.602760E-04 -1.706102E-04 +7.490583E-03 
 +2.091157E-04 -5.793014E-04 +8.376545E-05 -5.793014E-04 -4.877971E-04 -3.801910E-04 +8.376545E-05 -3.801910E-04 +7.699680E-03 
 +1.002430E-04 +4.428896E-04 +9.078328E-04 +4.428896E-04 +2.960362E-04 +1.715510E-05 +9.078328E-04 +1.715510E-05 +7.325158E-03 
 -1.000201E-04 +4.049971E-04 +5.707653E-04 +4.049971E-04 +3.074820E-04 -3.308217E-04 +5.707653E-04 -3.308217E-04 +6.786967E-03 
 -2.108671E-04 +1.429568E-05 -3.073842E-04 +1.429568E-05 +2.478938E-04 -5.478950E-04 -3.073842E-04 -5.478950E-04 +7.487923E-03 
 -2.418836E-04 -1.757014E-04 +4.197178E-04 -1.757014E-04 -4.744427E-04 +2.489084E-04 +4.197178E-04 +2.489084E-04 +8.028897E-03 
 -4.294265E-04 -5.662443E-04 +1.431841E-04 -5.662443E-04 +2.906452E-04 -3.826849E-04 +1.431841E-04 -3.826849E-04 +7.589389E-03 
 -4.856204E-05 -1.188772E-03 -1.925394E-04 -1.188772E-03 +3.283198E-05 -7.610361E-05 -1.925394E-04 -7.610361E-05 +7.496307E-03 
 +9.764748E-05 -4.905811E-04 +6.507368E-05 -4.905811E-04 -2.179129E-04 +3.009585E-04 +6.507368E-05 +3.009585E-04 +7.551713E-03 
 +1.434601E-04 +5.479722E-04 +3.466279E-04 +5.479722E-04 -4.814447E-04 +2.718971E-04 +3.466279E-04 +2.718971E-04 +7.655544E-03 
 +3.473838E-05 +2.492338E-04 +2.326516E-04 +2.492338E-04 +2.287721E-04 +4.303408E-04 +2.326516E-04 +4.303408E-04 +7.223692E-03 
 -1.135171E-05 +6.477489E-04 -1.666600E-04 +6.477489E-04 +5.351995E-05 +6.187302E-04 -1.666600E-04 +6.187302E-04 +7.110513E-03 
 +3.051838E-04 -7.971161E-05 -7.768190E-05 -7.971161E-05 -5.171518E-04 -4.696762E-04 -7.768190E-05 -4.696762E-04 +7.919026E-03 
 +9.589144E-05 -5.409677E-04 +5.946434E-04 -5.409677E-04 +5.540929E-04 -2.678971E-04 +5.946434E-04 -2.678971E-04 +7.003568E-03 
 +2.328677E-04 +2.961607E-04 +4.920921E-04 +2.961607E-04 +1.588185E-04 +6.512296E-04 +4.920921E-04 +6.512296E-04 +6.864941E-03 
 +5.200829E-05 -5.088799E-04 +4.129533E-05 -5.088799E-04 +9.680558E-05 -1.468517E-04 +4.129533E-05 -1.468517E-04 +7.286649E-03 
 +6.160935E-04 +6.001308E-04 -7.733080E-04 +6.001308E-04 -6.413885E-05 +7.254095E-06 -7.733080E-04 +7.254095E-06 +7.280550E-03 
 -1.921663E-04 +3.460114E-04 -1.348309E-04 +3.460114E-04 -4.688723E-05 -1.844828E-05 -1.348309E-04 -1.844828E-05 +7.580178E-03 
 -1.218892E-04 -5.444551E-04 -2.774475E-04 -5.444551E-04 +6.943458E-05 +2.497981E-04 -2.774475E-04 +2.497981E-04 +7.661290E-03 
 +4.105998E-04 +7.889990E-05 -8.751610E-04 +7.889990E-05 +3.539599E-05 +2.377006E-04 -8.751610E-04 +2.377006E-04 +6.989454E-03 
 -3.800879E-04 -2.089597E-04 +3.259499E-04 -2.089597E-04 +2.869274E-04 +9.433984E-04 +3.259499E-04 +9.433984E-04 +7.114855E-03 
 +2.502531E-05 -1.565624E-04 +2.502062E-04 -1.565624E-04 -3.635259E-04 -2.215175E-04 +2.502062E-04 -2.215175E-04 +7.356745E-03 
 +1.237958E-04 -3.858396E-04 +2.044071E-04 -3.858396E-04 +8.345224E-05 +2.001541E-04 +2.044071E-04 +2.001541E-04 +7.132316E-03 
 -4.038644E-04 -1.865999E-08 +3.082060E-04 -1.865999E-08 +8.077786E-05 +9.851110E-04 +3.082060E-04 +9.851110E-04 +7.810388E-03 
 -7.095198E-04 -3.776210E-04 -9.435691E-04 -3.776210E-04 +6.637768E-05 -2.675283E-05 -9.435691E-04 -2.675283E-05 +7.917971E-03 
 -2.890600E-05 +4.286863E-04 -4.239159E-04 +4.286863E-04 -2.533151E-04 +3.892509E-04 -4.239159E-04 +3.892509E-04 +7.424837E-03 
 +5.198247E-04 -1.010387E-04 -1.740311E-04 -1.010387E-04 +1.007440E-05 -2.995115E-04 -1.740311E-04 -2.995115E-04 +7.075899E-03 
 +1.943550E-05 +2.159352E-06 +1.320765E-04 +2.159352E-06 +5.795226E-04 +6.747006E-06 +1.320765E-04 +6.747006E-06 +7.057479E-03 
 +8.929355E-05 -9.791045E-04 +4.683217E-05 -9.791045E-04 -3.910602E-04 -2.624006E-04 +4.683217E-05 -2.624006E-04 +7.361008E-03 
 +1.377888E-04 -1.694121E-04 -1.280462E-04 -1.694121E-04 +1.208248E-04 -1.627994E-04 -1.280462E-04 -1.627994E-04 +7.544941E-03 
 +1.019156E-04 +4.278327E-04 +1.741181E-04 +4.278327E-04 -3.293454E-04 +1.245949E-04 +1.741181E-04 +1.245949E-04 +7.642512E-03 
 -3.215797E-04 +9.992284E-04 -1.048900E-04 +9.992284E-04 +1.241074E-04 +6.766555E-05 -1.048900E-04 +6.766555E-05 +7.859373E-03 
 -8.348314E-05 +1.030149E-03 -6.731509E-05 +1.030149E-03 -1.202223E-04 +3.006769E-05 -6.731509E-05 +3.006769E-05 +7.838432E-03 
 +8.890039E-05 -4.292261E-04 +4.636265E-04 -4.292261E-04 -1.486798E-04 -2.155039E-04 +4.636265E-04 -2.155039E-04 +7.209861E-03 
 -6.054850E-04 -7.816715E-05 +2.773377E-04 -7.816715E-05 +8.329260E-05 +3.742655E-04 +2.773377E-04 +3.742655E-04 +7.913787E-03 
 -6.203777E-04 -8.110428E-04 +1.956810E-04 -8.110428E-04 +8.111622E-05 -4.497614E-04 +1.956810E-04 -4.497614E-04 +7.808680E-03 
 -3.004357E-04 +1.137004E-03 +2.615410E-04 +1.137004E-03 +1.365476E-04 -3.169782E-05 +2.615410E-04 -3.169782E-05 +7.690431E-03 
 +3.886843E-04 +7.917431E-04 +4.743863E-04 +7.917431E-04 +2.028547E-04 +1.188278E-04 +4.743863E-04 +1.188278E-04 +7.293065E-03 
 +9.526069E-05 -4.830352E-05 -5.338143E-04 -4.830352E-05 +1.159699E-04 +1.928746E-04 -5.338143E-04 +1.928746E-04 +7.154153E-03 
 +9.710774E-05 -7.121584E-04 -2.317327E-04 -7.121584E-04 +1.284144E-04 -6.359141E-05 -2.317327E-04 -6.359141E-05 +7.115363E-03 
 -2.029998E-04 -4.723213E-05 +4.082273E-04 -4.723213E-05 -8.644701E-05 -2.860267E-04 +4.082273E-04 -2.860267E-04 +7.526807E-03 
 -7.408986E-04 -8.640298E-04 -1.321189E-04 -8.640298E-04 +1.629323E-04 +1.360530E-04 -1.321189E-04 +1.360530E-04 +7.593633E-03 
 +4.040889E-05 -4.574236E-04 +4.604456E-04 -4.574236E-04 -1.168827E-04 -1.696240E-04 +4.604456E-04 -1.696240E-04 +7.672383E-03 
 +3.243406E-04 -9.602767E-04 -3.076834E-04 -9.602767E-04 -2.724171E-04 -2.877036E-04 -3.076834E-04 -2.877036E-04 +7.687635E-03 
 +9.070172E-05 -1.301535E-05 -3.619051E-04 -1.301535E-05 +3.305045E-04 -1.370024E-04 -3.619051E-04 -1.370024E-04 +7.070583E-03 
 +2.992430E-04 -3.843106E-04 +3.509510E-04 -3.843106E-04 -2.424157E-04 -6.486361E-04 +3.509510E-04 -6.486361E-04 +7.412568E-03 
 -1.658622E-04 +4.062718E-04 -2.528196E-04 +4.062718E-04 -2.268137E-04 -4.123107E-06 -2.528196E-04 -4.123107E-06 +7.557255E-03 
 +1.707004E-05 -4.698951E-04 -2.542133E-04 -4.698951E-04 +3.441820E-04 +3.086418E-04 -2.542133E-04 +3.086418E-04 +7.111391E-03 
 +1.193372E-04 +7.013543E-04 -3.253814E-04 +7.013543E-04 +6.829822E-06 -1.515755E-04 -3.253814E-04 -1.515755E-04 +7.307174E-03 
 +5.931441E-06 -3.865416E-04 +1.398035E-04 -3.865416E-04 -9.231409E-05 +9.506573E-05 +1.398035E-04 +9.506573E-05 +7.777498E-03 
 +9.338771E-05 -6.328271E-04 +3.898295E-04 -6.328271E-04 -1.758316E-04 -1.603831E-04 +3.898295E-04 -1.603831E-04 +7.698438E-03 
 +3.998963E-04 +4.345559E-04 -2.627335E-04 +4.345559E-04 +2.939754E-04 -1.690778E-04 -2.627335E-04 -1.690778E-04 +7.208958E-03 
 -1.336834E-05 -3.269921E-04 -1.844707E-04 -3.269921E-04 -2.175134E-04 +2.963295E-04 -1.844707E-04 +2.963295E-04 +7.272639E-03 
 -6.660781E-05 +7.378134E-04 +2.251467E-04 +7.378134E-04 +3.961152E-04 +6.311628E-04 +2.251467E-04 +6.311628E-04 +7.257321E-03 
 +2.545301E-04 +1.089187E-03 -1.171295E-04 +1.089187E-03 -5.172123E-04 -5.187943E-05 -1.171295E-04 -5.187943E-05 +7.681489E-03 
 -1.570021E-04 -3.316934E-04 -2.371727E-04 -3.316934E-04 -8.658430E-05 -2.105260E-04 -2.371727E-04 -2.105260E-04 +7.691066E-03 
 -7.309337E-04 -4.226146E-05 -1.445231E-04 -4.226146E-05 -8.383857E-05 +2.906231E-04 -1.445231E-04 +2.906231E-04 +7.985394E-03 
 -3.981525E-05 +8.229396E-04 +2.022671E-04 +8.229396E-04 -4.615481E-04 +1.246552E-04 +2.022671E-04 +1.246552E-04 +7.937348E-03 
 -1.907384E-05 -1.608191E-04 -1.201320E-04 -1.608191E-04 +1.170252E-04 -4.951112E-04 -1.201320E-04 -4.951112E-04 +7.775578E-03 
 +2.475107E-05 -1.382377E-04 +4.854627E-04 -1.382377E-04 +3.169514E-04 -5.050569E-04 +4.854627E-04 -5.050569E-04 +7.340152E-03 
 +9.705570E-05 -6.051502E-05 +1.759267E-04 -6.051502E-05 +2.725588E-04 +1.841416E-05 +1.759267E-04 +1.841416E-05 +7.386073E-03 
 +9.699819E-06 -8.578178E-04 -6.035934E-04 -8.578178E-04 -3.539460E-04 +8.223145E-05 -6.035934E-04 +8.223145E-05 +7.552688E-03 
 +1.875504E-04 -4.065126E-04 -3.954346E-04 -4.065126E-04 -1.198628E-04 +1.011432E-04 -3.954346E-04 +1.011432E-04 +7.365645E-03 
 +7.868250E-05 -2.856826E-04 -2.312746E-04 -2.856826E-04 +5.669929E-04 -3.343322E-04 -2.312746E-04 -3.343322E-04 +7.104883E-03 
 +2.241170E-04 -5.593717E-04 +1.689637E-04 -5.593717E-04 -6.360592E-04 +2.829810E-04 +1.689637E-04 +2.829810E-04 +7.653740E-03 
 -4.310804E-05 -2.802597E-04 +3.016545E-04 -2.802597E-04 +6.180943E-06 -1.507121E-04 +3.016545E-04 -1.507121E-04 +7.693867E-03 
 +1.249590E-04 +2.488067E-04 +1.919672E-04 +2.488067E-04 +2.996148E-04 +6.486807E-04 +1.919672E-04 +6.486807E-04 +7.285488E-03 
 -3.631567E-04 +1.511093E-04 +3.244382E-04 +1.511093E-04 -1.140098E-04 +2.111959E-04 +3.244382E-04 +2.111959E-04 +7.617824E-03 
 -1.005062E-03 -3.096714E-04 -1.777177E-06 -3.096714E-04 +1.853365E-04 +1.370445E-04 -1.777177E-06 +1.370445E-04 +8.217733E-03 
 +1.105139E-04 -1.070848E-04 +1.351288E-04 -1.070848E-04 -3.959405E-04 -1.595293E-04 +1.351288E-04 -1.595293E-04 +7.944888E-03 
 +2.273072E-04 -3.292743E-04 -1.486433E-04 -3.292743E-04 +1.700697E-04 +3.955656E-04 -1.486433E-04 +3.955656E-04 +7.211482E-03 
 -2.108959E-05 -2.130561E-04 +3.274992E-04 -2.130561E-04 +1.345885E-04 -2.185055E-04 +3.274992E-04 -2.185055E-04 +7.101461E-03 
 -1.494925E-04 +5.781951E-05 +4.461976E-04 +5.781951E-05 -9.416632E-05 +5.520296E-04 +4.461976E-04 +5.520296E-04 +7.502633E-03 
 -2.989842E-04 +2.011059E-04 -3.929332E-04 +2.011059E-04 +8.642496E-05 -2.228404E-04 -3.929332E-04 -2.228404E-04 +7.214423E-03 
 -2.942349E-05 +4.096073E-04 -2.007257E-05 +4.096073E-04 +8.022797E-05 -2.560278E-04 -2.007257E-05 -2.560278E-04 +7.161482E-03 
 +2.121337E-05 +8.511060E-04 +3.829199E-06 +8.511060E-04 -4.640393E-04 -2.322327E-04 +3.829199E-06 -2.322327E-04 +7.709988E-03 
 +1.794908E-04 +7.217642E-04 -2.994039E-04 +7.217642E-04 -2.700773E-05 -5.440601E-05 -2.994039E-04 -5.440601E-05 +7.372463E-03 
 -1.281495E-04 +6.462723E-04 +3.739544E-04 +6.462723E-04 +4.312054E-04 +8.025309E-04 +3.739544E-04 +8.025309E-04 +6.982687E-03 
 +6.835136E-05 -5.088848E-04 +2.097145E-04 -5.088848E-04 +2.761669E-04 -2.887550E-04 +2.097145E-04 -2.887550E-04 +6.883405E-03 
 +8.306551E-05 -8.003166E-05 +3.256743E-04 -8.003166E-05 -7.236810E-05 +9.266738E-04 +3.256743E-04 +9.266738E-04 +7.513544E-03 
 +2.791859E-05 +6.451191E-04 +4.750054E-05 +6.451191E-04 +4.207254E-05 -2.368497E-04 +4.750054E-05 -2.368497E-04 +7.607168E-03 
 +1.679826E-04 -3.792157E-04 -7.586060E-04 -3.792157E-04 +5.355906E-05 +2.580564E-05 -7.586060E-04 +2.580564E-05 +7.338202E-03 
 +1.630888E-04 -4.627333E-04 +2.317806E-05 -4.627333E-04 -2.853974E-05 -3.291402E-04 +2.317806E-05 -3.291402E-04 +7.373778E-03 
 +1.292595E-04 +9.794256E-05 +1.670588E-04 +9.794256E-05 -2.506514E-04 +2.781398E-04 +1.670588E-04 +2.781398E-04 +7.540290E-03 
 -4.253794E-04 -1.660066E-04 +3.041937E-04 -1.660066E-04 +1.522037E-04 -4.279799E-04 +3.041937E-04 -4.279799E-04 +7.827488E-03 
 -4.398280E-04 -4.227212E-04 -6.493834E-05 -4.227212E-04 +2.260131E-04 +2.736757E-05 -6.493834E-05 +2.736757E-05 +7.552706E-03 
 -2.934620E-04 -1.202533E-03 +2.114613E-05 -1.202533E-03 -2.946914E-04 -1.451625E-04 +2.114613E-05 -1.451625E-04 +7.802179E-03 
 -3.751182E-04 +7.213092E-04 +8.558737E-04 +7.213092E-04 +2.640684E-04 +4.978557E-06 +8.558737E-04 +4.978557E-06 +7.631299E-03 
 +2.397051E-04 -4.020330E-04 +4.185424E-04 -4.020330E-04 -2.673595E-04 -8.679942E-05 +4.185424E-04 -8.679942E-05 +7.500384E-03 
 +1.407775E-04 -8.367881E-05 -1.214831E-04 -8.367881E-05 +3.982598E-04 -1.551501E-04 -1.214831E-04 -1.551501E-04 +7.045404E-03 
 +2.695206E-04 +3.073653E-04 -3.671397E-04 +3.073653E-04 -2.007467E-04 +5.787229E-04 -3.671397E-04 +5.787229E-04 +7.432669E-03 
 -6.813395E-05 -5.858230E-04 -1.337105E-04 -5.858230E-04 -3.178613E-04 -2.605183E-04 -1.337105E-04 -2.605183E-04 +7.757615E-03 
 -5.740261E-04 +4.157389E-04 -3.573123E-04 +4.157389E-04 +6.497325E-04 +1.505994E-04 -3.573123E-04 +1.505994E-04 +7.662206E-03 
 -2.789387E-05 +5.706173E-04 -1.326360E-04 +5.706173E-04 -2.172421E-04 +3.863394E-04 -1.326360E-04 +3.863394E-04 +7.942536E-03 
 +1.585750E-04 +6.454706E-04 -2.219034E-04 +6.454706E-04 -7.531227E-05 -2.536120E-05 -2.219034E-04 -2.536120E-05 +8.146987E-03 
 +3.215965E-04 +8.726481E-04 -4.695877E-04 +8.726481E-04 -4.621556E-04 +2.970669E-04 -4.695877E-04 +2.970669E-04 +7.962639E-03 
 +1.842959E-04 -1.242134E-04 -2.793461E-04 -1.242134E-04 +1.124302E-04 +2.133994E-04 -2.793461E-04 +2.133994E-04 +7.117716E-03 
 -1.524242E-04 +4.350551E-04 -3.944357E-04 +4.350551E-04 +2.420121E-04 -5.681121E-04 -3.944357E-04 -5.681121E-04 +7.404760E-03 
 -5.218243E-05 +5.795223E-04 -2.529992E-04 +5.795223E-04 -2.292647E-04 +5.543286E-04 -2.529992E-04 +5.543286E-04 +7.740617E-03 
 -3.202943E-04 +4.176089E-04 -2.388118E-05 +4.176089E-04 +1.334485E-04 -7.460095E-05 -2.388118E-05 -7.460095E-05 +7.417326E-03 
 +5.508711E-06 +2.468145E-05 +1.397892E-04 +2.468145E-05 +3.669117E-04 -5.038326E-04 +1.397892E-04 -5.038326E-04 +6.988832E-03 
 +3.383271E-04 +1.315715E-04 +2.642720E-04 +1.315715E-04 +1.025730E-04 -3.448692E-04 +2.642720E-04 -3.448692E-04 +7.554235E-03 
 -7.800157E-05 -2.188164E-04 +1.434903E-04 -2.188164E-04 -1.453915E-04 +6.819227E-04 +1.434903E-04 +6.819227E-04 +7.714242E-03 
 -3.484571E-04 -6.854648E-05 +6.259913E-04 -6.854648E-05 +3.724271E-05 +7.207498E-04 +6.259913E-04 +7.207498E-04 +7.507604E-03 
 -2.328528E-04 +6.761717E-04 +2.531416E-04 +6.761717E-04 -2.794343E-04 +7.833095E-04 +2.531416E-04 +7.833095E-04 +7.810579E-03 
 -3.252378E-04 +6.111657E-04 -7.717389E-04 +6.111657E-04 -3.441848E-04 -2.687128E-04 -7.717389E-04 -2.687128E-04 +7.509897E-03 
 -3.165542E-04 -2.579582E-04 -3.034850E-04 -2.579582E-04 +2.430106E-04 -2.534667E-04 -3.034850E-04 -2.534667E-04 +7.211909E-03 
 +6.278855E-05 -1.893459E-05 +5.049540E-04 -1.893459E-05 +4.957533E-04 -3.558906E-05 +5.049540E-04 -3.558906E-05 +7.103833E-03 
 +2.514826E-04 -1.368094E-04 +8.033117E-05 -1.368094E-04 -4.871318E-04 +2.120687E-04 +8.033117E-05 +2.120687E-04 +7.762349E-03 
 +1.194328E-04 -5.213069E-04 -4.103526E-04 -5.213069E-04 +3.628142E-05 +1.198621E-04 -4.103526E-04 +1.198621E-04 +7.277983E-03 
 +1.870104E-04 +1.552809E-04 -2.619410E-04 +1.552809E-04 +3.534205E-04 -3.671046E-04 -2.619410E-04 -3.671046E-04 +7.164465E-03 
 +2.834514E-04 +3.338436E-05 -1.786433E-04 +3.338436E-05 -7.959982E-05 +6.042119E-04 -1.786433E-04 +6.042119E-04 +7.227249E-03 
 -1.944427E-04 +9.807564E-05 -3.446068E-04 +9.807564E-05 -2.700667E-04 -3.892505E-04 -3.446068E-04 -3.892505E-04 +7.464182E-03 
 -5.354885E-04 +4.785961E-04 -2.695448E-04 +4.785961E-04 +2.273898E-04 +2.794540E-04 -2.695448E-04 +2.794540E-04 +7.591825E-03 
 +1.772914E-04 +4.036226E-04 -6.461422E-04 +4.036226E-04 +2.828212E-04 -2.287190E-04 -6.461422E-04 -2.287190E-04 +7.176536E-03 
 +4.209995E-04 -6.077422E-05 +1.041571E-05 -6.077422E-05 -5.172091E-05 +3.083482E-04 +1.041571E-05 +3.083482E-04 +7.140158E-03 
 +5.910542E-04 -4.842246E-05 +1.644841E-04 -4.842246E-05 -6.001671E-04 +3.249688E-04 +1.644841E-04 +3.249688E-04 +7.609031E-03 
 +8.159483E-05 +8.402860E-05 -5.815568E-04 +8.402860E-05 +2.073853E-04 -3.323725E-04 -5.815568E-04 -3.323725E-04 +7.654573E-03 
 +4.287983E-05 -3.938877E-04 +3.231425E-04 -3.938877E-04 +7.333056E-05 +8.265303E-04 +3.231425E-04 +8.265303E-04 +7.619254E-03 
 +1.243887E-04 -3.931483E-04 +7.675694E-04 -3.931483E-04 -3.019701E-04 -1.407597E-04 +7.675694E-04 -1.407597E-04 +7.465843E-03 
 -3.884670E-05 +7.285864E-04 -3.893435E-04 +7.285864E-04 -2.659945E-04 +8.958370E-05 -3.893435E-04 +8.958370E-05 +7.516432E-03 
 -1.498086E-04 +3.159243E-04 +8.574444E-05 +3.159243E-04 +2.023569E-04 +3.007661E-04 +8.574444E-05 +3.007661E-04 +7.512050E-03 
 -2.973446E-05 +9.298803E-05 +1.686073E-04 +9.298803E-05 +6.112916E-04 -1.105281E-04 +1.686073E-04 -1.105281E-04 +6.822543E-03 
 +6.163385E-06 +8.981008E-05 -7.870288E-05 +8.981008E-05 +6.672144E-05 +1.792491E-04 -7.870288E-05 +1.792491E-04 +7.380235E-03 
 +2.417922E-04 +2.936750E-04 -2.401859E-04 +2.936750E-04 -5.937659E-04 -2.669967E-04 -2.401859E-04 -2.669967E-04 +7.726801E-03 
 +7.087715E-05 +4.577597E-04 -6.431880E-04 +4.577597E-04 +1.234437E-04 +2.352731E-04 -6.431880E-04 +2.352731E-04 +7.277651E-03 
 +1.503650E-04 +8.081411E-04 -8.347370E-05 +8.081411E-04 -1.541333E-04 +1.642121E-04 -8.347370E-05 +1.642121E-04 +7.592853E-03 
 +9.463321E-05 +8.798100E-04 +4.529153E-04 +8.798100E-04 -1.880669E-04 +2.721534E-04 +4.529153E-04 +2.721534E-04 +7.396406E-03 
 +2.676270E-04 +3.615177E-04 +2.527537E-05 +3.615177E-04 +9.950682E-05 +8.756302E-05 +2.527537E-05 +8.756302E-05 +7.332533E-03 
 +4.437013E-04 -2.838281E-04 +6.815418E-05 -2.838281E-04 +3.312039E-04 +1.025125E-04 +6.815418E-05 +1.025125E-04 +7.260201E-03 
 +1.461135E-04 +3.122019E-04 +2.867715E-04 +3.122019E-04 -3.606422E-04 -4.246851E-04 +2.867715E-04 -4.246851E-04 +7.611644E-03 
 -1.267397E-04 -6.818159E-05 +3.817664E-04 -6.818159E-05 +1.633040E-04 +3.543280E-04 +3.817664E-04 +3.543280E-04 +7.934394E-03 
 -3.065132E-04 -2.960663E-04 -1.393498E-04 -2.960663E-04 +1.299172E-04 +3.678381E-04 -1.393498E-04 +3.678381E-04 +8.093737E-03 
 -2.175700E-04 +1.086579E-03 +4.431204E-04 +1.086579E-03 -7.852307E-05 +3.825062E-05 +4.431204E-04 +3.825062E-05 +7.581390E-03 
 +1.556876E-04 -7.232853E-04 -3.481177E-05 -7.232853E-04 -6.887334E-05 +1.066362E-04 -3.481177E-05 +1.066362E-04 +7.373122E-03 
 +6.486959E-05 +5.263385E-04 -4.762829E-04 +5.263385E-04 +1.008339E-04 -2.128316E-04 -4.762829E-04 -2.128316E-04 +7.262284E-03 
 +1.206553E-04 +8.117489E-05 -3.051606E-04 +8.117489E-05 +7.753666E-05 -2.817722E-04 -3.051606E-04 -2.817722E-04 +7.390142E-03 
 +3.434361E-04 +1.837774E-04 -7.785931E-04 +1.837774E-04 -2.117331E-04 -1.469042E-05 -7.785931E-04 -1.469042E-05 +7.129454E-03 
 +2.301877E-04 -8.786742E-05 +4.839961E-05 -8.786742E-05 -1.339430E-06 -2.130352E-04 +4.839961E-05 -2.130352E-04 +7.353128E-03 
 -1.439153E-04 +5.564864E-04 +7.051922E-06 +5.564864E-04 -1.582067E-04 -1.493314E-04 +7.051922E-06 -1.493314E-04 +7.479711E-03 
 +4.289152E-05 -3.727069E-04 -8.687166E-04 -3.727069E-04 +1.754775E-04 -1.283640E-04 -8.687166E-04 -1.283640E-04 +7.416877E-03 
 -2.011576E-04 -8.931281E-04 -8.409684E-05 -8.931281E-04 +1.284655E-05 -5.313550E-04 -8.409684E-05 -5.313550E-04 +7.703556E-03 
 -2.118350E-04 -2.308858E-04 +9.362464E-05 -2.308858E-04 +4.595771E-04 -2.962665E-04 +9.362464E-05 -2.962665E-04 +7.320645E-03 
 -1.544132E-04 -2.884572E-04 -5.390908E-05 -2.884572E-04 +7.790267E-05 +1.348214E-04 -5.390908E-05 +1.348214E-04 +7.770678E-03 
 +6.045125E-05 -1.627874E-04 -3.989389E-04 -1.627874E-04 -2.794784E-04 +1.122303E-04 -3.989389E-04 +1.122303E-04 +7.576494E-03 
 +5.021113E-04 +4.360299E-04 -4.617291E-04 +4.360299E-04 -8.150504E-05 -6.039439E-04 -4.617291E-04 -6.039439E-04 +7.381561E-03 
 +8.061871E-05 +1.792807E-04 -8.094492E-05 +1.792807E-04 +9.208930E-05 +5.640691E-04 -8.094492E-05 +5.640691E-04 +7.326751E-03 
 +3.791416E-05 +4.052454E-04 +8.554987E-05 +4.052454E-04 +3.234161E-04 -3.898343E-04 +8.554987E-05 -3.898343E-04 +6.987640E-03 
 -1.610928E-04 +6.539521E-04 +9.737454E-05 +6.539521E-04 -3.280149E-04 +1.487093E-05 +9.737454E-05 +1.487093E-05 +7.722440E-03 
 +2.735775E-04 +6.490220E-04 -2.239604E-04 +6.490220E-04 -4.789875E-04 +2.889521E-04 -2.239604E-04 +2.889521E-04 +7.759241E-03 
 +1.303975E-04 -2.140712E-04 -6.318945E-04 -2.140712E-04 +3.804087E-04 +6.476282E-05 -6.318945E-04 +6.476282E-05 +7.474281E-03 
 -3.488078E-04 +1.045495E-03 +1.121857E-04 +1.045495E-03 +8.206728E-05 -2.504478E-04 +1.121857E-04 -2.504478E-04 +7.669909E-03 
 +2.865672E-04 +3.154236E-04 +3.153945E-04 +3.154236E-04 -1.715266E-04 +1.718059E-04 +3.153945E-04 +1.718059E-04 +7.472366E-03 
 +3.694502E-05 +2.833097E-04 +1.489482E-04 +2.833097E-04 +4.991884E-04 +3.156492E-04 +1.489482E-04 +3.156492E-04 +6.798150E-03 
 +1.733122E-04 +8.035618E-04 -4.013880E-05 +8.035618E-04 -2.906228E-04 +2.680248E-05 -4.013880E-05 +2.680248E-05 +7.400312E-03 
 +2.528599E-04 -6.992791E-04 +6.555440E-04 -6.992791E-04 -2.255478E-05 -1.282611E-04 +6.555440E-04 -1.282611E-04 +7.688611E-03 
 -2.046530E-04 +8.090681E-04 -6.897866E-05 +8.090681E-04 +3.503569E-05 +8.847117E-05 -6.897866E-05 +8.847117E-05 +7.829240E-03 
 +1.229049E-04 +3.544412E-04 -4.080555E-04 +3.544412E-04 -6.911467E-05 +3.801472E-04 -4.080555E-04 +3.801472E-04 +7.294792E-03 
 +6.127193E-04 +3.452363E-04 +5.036282E-04 +3.452363E-04 -8.911510E-05 -2.559138E-05 +5.036282E-04 -2.559138E-05 +7.064308E-03 
 +2.841645E-04 +1.216813E-04 -1.310691E-04 +1.216813E-04 -7.801055E-05 +3.739062E-04 -1.310691E-04 +3.739062E-04 +7.598994E-03 
 -1.290301E-04 +1.479605E-04 -5.375779E-04 +1.479605E-04 +1.181884E-05 -1.399688E-04 -5.375779E-04 -1.399688E-04 +7.392037E-03 
 +1.072237E-04 +7.730778E-04 -3.153745E-04 +7.730778E-04 -8.493110E-05 +3.905765E-04 -3.153745E-04 +3.905765E-04 +7.309971E-03 
 +7.321976E-05 -1.010591E-04 -2.069684E-04 -1.010591E-04 +3.452876E-04 -3.076155E-04 -2.069684E-04 -3.076155E-04 +7.007559E-03 
 -4.961613E-05 -5.733360E-04 -1.050500E-04 -5.733360E-04 +2.911942E-04 -6.307359E-04 -1.050500E-04 -6.307359E-04 +7.538679E-03 
 +4.953563E-05 +2.913349E-04 +9.063125E-05 +2.913349E-04 -1.016616E-04 -4.336327E-04 +9.063125E-05 -4.336327E-04 +7.606030E-03 
 +1.163265E-05 +1.062629E-05 -1.138061E-04 +1.062629E-05 -6.729220E-05 -2.579608E-04 -1.138061E-04 -2.579608E-04 +7.370643E-03 
 -2.719398E-04 -4.547281E-04 -2.379887E-04 -4.547281E-04 +2.814908E-04 +7.389611E-04 -2.379887E-04 +7.389611E-04 +7.353602E-03 
 +1.732517E-04 +2.914742E-04 -2.926787E-04 +2.914742E-04 -3.473570E-04 -3.309605E-04 -2.926787E-04 -3.309605E-04 +7.872929E-03 
 -3.646044E-04 +1.313778E-05 +1.362883E-04 +1.313778E-05 +7.513246E-05 -8.871307E-04 +1.362883E-04 -8.871307E-04 +7.829655E-03 
 -4.288423E-04 +3.991380E-04 +2.977429E-04 +3.991380E-04 +2.637997E-04 -1.482077E-04 +2.977429E-04 -1.482077E-04 +7.424676E-03 
 +1.738181E-04 +1.272127E-04 -1.495311E-04 +1.272127E-04 -5.094698E-04 -1.097707E-04 -1.495311E-04 -1.097707E-04 +7.851207E-03 
 -2.431132E-04 -5.941561E-05 +4.317497E-04 -5.941561E-05 +1.989040E-04 +3.033355E-04 +4.317497E-04 +3.033355E-04 +7.955290E-03 
 -1.104157E-04 +4.380176E-04 +1.551656E-04 +4.380176E-04 +1.889073E-04 -2.683824E-05 +1.551656E-04 -2.683824E-05 +7.517796E-03 
 +1.371165E-04 +2.362715E-04 -1.591182E-04 +2.362715E-04 +2.513864E-04 -3.385487E-04 -1.591182E-04 -3.385487E-04 +7.146155E-03 
 -1.364981E-04 +6.923232E-04 +7.344659E-05 +6.923232E-04 -2.358742E-04 +4.937568E-04 +7.344659E-05 +4.937568E-04 +7.542655E-03 
 +2.001944E-04 +9.029556E-05 +4.434452E-04 +9.029556E-05 -7.311632E-05 -4.447531E-04 +4.434452E-04 -4.447531E-04 +7.289425E-03 
 -1.306385E-05 -4.238915E-06 -2.855605E-04 -4.238915E-06 +2.569866E-04 +3.144676E-05 -2.855605E-04 +3.144676E-05 +7.170560E-03 
 -1.492247E-04 +5.031137E-04 -6.676624E-04 +5.031137E-04 +2.964596E-04 +3.430260E-04 -6.676624E-04 +3.430260E-04 +7.066595E-03 
 +6.048375E-04 +7.508593E-05 -5.009337E-04 +7.508593E-05 -3.786524E-04 +6.721506E-05 -5.009337E-04 +6.721506E-05 +7.773517E-03 
 +2.314497E-04 -1.988262E-04 -2.476414E-04 -1.988262E-04 -3.640777E-04 +4.394390E-05 -2.476414E-04 +4.394390E-05 +8.158637E-03 
 -1.257775E-04 +4.119591E-04 -4.980447E-05 +4.119591E-04 +2.176276E-04 +3.852423E-04 -4.980447E-05 +3.852423E-04 +7.365342E-03 
 +9.542122E-05 +9.524953E-04 -3.973189E-05 +9.524953E-04 -1.402071E-04 -3.165100E-04 -3.973189E-05 -3.165100E-04 +7.901188E-03 
 -4.896855E-05 +9.328211E-04 -3.234982E-04 +9.328211E-04 -4.486445E-04 -3.927667E-04 -3.234982E-04 -3.927667E-04 +7.889299E-03 
 -2.482103E-04 +2.209382E-04 +1.240614E-04 +2.209382E-04 +6.001165E-05 -1.949255E-04 +1.240614E-04 -1.949255E-04 +7.511297E-03 
 +1.781504E-04 +1.970020E-04 +7.952475E-05 +1.970020E-04 +3.401725E-07 +9.169465E-05 +7.952475E-05 +9.169465E-05 +7.206424E-03 
 +3.275029E-04 -5.695791E-05 +5.139731E-04 -5.695791E-05 +7.758334E-06 -2.316385E-05 +5.139731E-04 -2.316385E-05 +7.074194E-03 
 -4.153330E-05 +1.003563E-04 -3.252574E-04 +1.003563E-04 +3.257422E-04 +2.771717E-05 -3.252574E-04 +2.771717E-05 +7.084164E-03 
 -4.061011E-05 -5.793112E-04 +1.399987E-04 -5.793112E-04 -1.346024E-04 +1.040701E-04 +1.399987E-04 +1.040701E-04 +7.650054E-03 
 +3.587168E-04 +5.786802E-05 +6.419228E-04 +5.786802E-05 -3.247695E-04 -9.092211E-05 +6.419228E-04 -9.092211E-05 +7.347747E-03 
 -1.238195E-04 -5.546749E-04 -1.363206E-04 -5.546749E-04 +8.833318E-05 -4.467049E-04 -1.363206E-04 -4.467049E-04 +7.284550E-03 
 -6.788500E-05 +4.675401E-04 -3.070267E-04 +4.675401E-04 -8.195893E-05 -1.763489E-04 -3.070267E-04 -1.763489E-04 +7.288633E-03 
 +2.032680E-04 -3.283186E-04 -9.466188E-05 -3.283186E-04 +2.026658E-04 +1.866802E-04 -9.466188E-05 +1.866802E-04 +7.151531E-03 
 +1.963602E-04 +2.194093E-05 -5.096402E-07 +2.194093E-05 +2.963825E-04 -2.314109E-04 -5.096402E-07 -2.314109E-04 +7.049361E-03 
 +2.176732E-04 +1.764625E-04 -3.565571E-04 +1.764625E-04 +3.872030E-04 +2.102715E-04 -3.565571E-04 +2.102715E-04 +6.721911E-03 
 +3.078556E-04 +5.078911E-04 -1.168425E-04 +5.078911E-04 -2.365825E-04 +3.142778E-04 -1.168425E-04 +3.142778E-04 +7.544547E-03 
 +2.455735E-04 +4.624459E-04 +5.127199E-04 +4.624459E-04 -5.753225E-04 -2.549246E-04 +5.127199E-04 -2.549246E-04 +7.610253E-03 
 +2.102240E-04 +3.258810E-04 +5.231199E-04 +3.258810E-04 +4.348141E-04 -1.796934E-04 +5.231199E-04 -1.796934E-04 +7.179241E-03 
 +1.739937E-04 -1.510992E-04 +5.123595E-04 -1.510992E-04 +2.830238E-04 +3.708505E-04 +5.123595E-04 +3.708505E-04 +7.139673E-03 
 +1.820860E-04 +8.491244E-04 -3.477039E-04 +8.491244E-04 +1.018669E-04 -1.590583E-04 -3.477039E-04 -1.590583E-04 +7.849133E-03 
 +4.131786E-04 +2.058851E-04 -2.857298E-04 +2.058851E-04 -3.000487E-04 +1.513018E-04 -2.857298E-04 +1.513018E-04 +7.660700E-03 
 +3.028189E-04 +7.120267E-04 -1.528092E-04 +7.120267E-04 -5.201302E-05 -1.963835E-05 -1.528092E-04 -1.963835E-05 +7.158124E-03 
 +1.125225E-06 +4.355560E-05 -1.550274E-04 +4.355560E-05 -3.237641E-04 +2.847550E-04 -1.550274E-04 +2.847550E-04 +7.662875E-03 
 +2.433814E-04 -4.036180E-05 -1.646277E-04 -4.036180E-05 +2.202350E-05 +6.491772E-05 -1.646277E-04 +6.491772E-05 +7.221082E-03 
 +1.416105E-04 +3.354383E-04 +1.513240E-04 +3.354383E-04 -1.805100E-04 +1.242576E-04 +1.513240E-04 +1.242576E-04 +7.149227E-03 
 -3.445122E-04 -6.460915E-04 +9.923875E-05 -6.460915E-04 -2.904162E-04 +1.860863E-04 +9.923875E-05 +1.860863E-04 +7.614294E-03 
 +2.047322E-05 +2.871944E-04 +1.506426E-04 +2.871944E-04 +3.069213E-04 -6.936578E-05 +1.506426E-04 -6.936578E-05 +7.909679E-03 
 +9.606666E-05 +3.559188E-04 +5.118761E-04 +3.559188E-04 -7.476437E-06 +8.243453E-05 +5.118761E-04 +8.243453E-05 +7.339136E-03 
 -1.091700E-04 -1.309302E-03 +1.073255E-04 -1.309302E-03 -3.789520E-04 +5.171372E-04 +1.073255E-04 +5.171372E-04 +7.751517E-03 
 +2.153136E-04 +2.992603E-04 -1.134186E-03 +2.992603E-04 -5.144078E-05 -2.410596E-04 -1.134186E-03 -2.410596E-04 +7.155393E-03 
 +4.604868E-04 +4.800168E-05 -3.717953E-04 +4.800168E-05 -4.756808E-05 -4.103474E-04 -3.717953E-04 -4.103474E-04 +6.747430E-03 
 +2.974686E-04 -1.981475E-04 +1.015675E-04 -1.981475E-04 +1.001181E-04 -1.073312E-04 +1.015675E-04 -1.073312E-04 +7.179231E-03 
 +1.322327E-04 +6.263391E-04 +3.147765E-04 +6.263391E-04 -2.117291E-04 +4.115291E-06 +3.147765E-04 +4.115291E-06 +7.601895E-03 
 +1.836535E-04 +1.435042E-04 -6.277392E-05 +1.435042E-04 +4.841310E-04 +4.519467E-04 -6.277392E-05 +4.519467E-04 +7.257519E-03 
 +1.731646E-04 -1.984987E-04 -2.953294E-04 -1.984987E-04 +3.493479E-04 -2.711283E-04 -2.953294E-04 -2.711283E-04 +7.128148E-03 
 -3.752554E-04 +4.091001E-04 +4.468469E-04 +4.091001E-04 +2.246325E-04 -3.101509E-04 +4.468469E-04 -3.101509E-04 +8.026346E-03 
 +4.785877E-05 +5.628289E-04 -2.080116E-04 +5.628289E-04 -4.516136E-04 -2.280255E-04 -2.080116E-04 -2.280255E-04 +7.737678E-03 
 +1.345907E-04 +2.109172E-04 +4.256660E-04 +2.109172E-04 -1.217219E-04 +2.100409E-04 +4.256660E-04 +2.100409E-04 +7.216048E-03 
 +2.713266E-05 +2.391750E-04 +2.898673E-04 +2.391750E-04 +3.762461E-04 +1.520074E-04 +2.898673E-04 +1.520074E-04 +7.530301E-03 
 +4.281084E-04 +1.746644E-04 -3.736614E-04 +1.746644E-04 -2.112335E-04 -1.112358E-04 -3.736614E-04 -1.112358E-04 +7.928430E-03 
 +1.315079E-07 -2.649709E-05 +1.042506E-03 -2.649709E-05 +6.095797E-05 +3.535573E-05 +1.042506E-03 +3.535573E-05 +7.362605E-03 
 +2.092607E-04 +5.626943E-05 -1.698824E-04 +5.626943E-05 +2.237934E-04 -3.864595E-04 -1.698824E-04 -3.864595E-04 +7.237882E-03 
 +2.377086E-05 +7.294771E-04 -5.173861E-04 +7.294771E-04 -5.104822E-04 -3.653356E-04 -5.173861E-04 -3.653356E-04 +7.688779E-03 
 -5.277331E-04 +2.021222E-04 -1.347984E-04 +2.021222E-04 +1.897631E-05 -9.362865E-05 -1.347984E-04 -9.362865E-05 +7.489651E-03 
 +1.867145E-04 -3.026993E-04 -3.341428E-04 -3.026993E-04 -2.235708E-06 -3.153097E-04 -3.341428E-04 -3.153097E-04 +7.453405E-03 
 +3.071889E-04 +5.422231E-04 -3.205596E-04 +5.422231E-04 +1.392203E-04 -3.222643E-04 -3.205596E-04 -3.222643E-04 +7.212885E-03 
 +3.120536E-05 +1.341113E-05 +9.879324E-05 +1.341113E-05 +2.494451E-04 -6.028573E-05 +9.879324E-05 -6.028573E-05 +7.095316E-03 
 -1.750683E-04 +5.919311E-04 -4.388770E-05 +5.919311E-04 +4.692619E-04 +1.936576E-04 -4.388770E-05 +1.936576E-04 +7.217728E-03 
 -5.676834E-04 +1.974308E-03 -3.773572E-04 +1.974308E-03 -4.299890E-04 -1.276239E-04 -3.773572E-04 -1.276239E-04 +8.463638E-03 
 +1.490947E-04 -7.987346E-04 +9.483460E-05 -7.987346E-04 -2.098595E-04 +1.403681E-04 +9.483460E-05 +1.403681E-04 +7.699581E-03 
 +4.433931E-04 +3.062992E-04 +3.328049E-04 +3.062992E-04 -1.735836E-04 +1.065613E-04 +3.328049E-04 +1.065613E-04 +7.369051E-03 
 -2.277607E-05 -3.240226E-04 +9.791170E-05 -3.240226E-04 +3.946358E-05 +3.869949E-04 +9.791170E-05 +3.869949E-04 +7.623655E-03 
 -2.214766E-04 +1.229239E-05 -3.507693E-04 +1.229239E-05 +3.401521E-05 +4.927184E-04 -3.507693E-04 +4.927184E-04 +7.560835E-03 
 +1.958460E-04 +4.364036E-04 -3.923857E-05 +4.364036E-04 +4.194386E-05 +6.433340E-05 -3.923857E-05 +6.433340E-05 +7.172758E-03 
 +2.119157E-04 -1.618711E-04 +1.959681E-04 -1.618711E-04 +2.644583E-04 +1.210881E-04 +1.959681E-04 +1.210881E-04 +7.267470E-03 
 -1.702489E-04 +5.138395E-04 +2.896032E-04 +5.138395E-04 +2.287672E-04 -2.152591E-05 +2.896032E-04 -2.152591E-05 +7.658586E-03 
 +1.528398E-04 +2.001915E-04 +6.894530E-04 +2.001915E-04 -1.091962E-04 +3.674219E-04 +6.894530E-04 +3.674219E-04 +7.460346E-03 
 +1.377342E-04 -4.585130E-04 +7.174205E-04 -4.585130E-04 -6.880656E-05 -4.638370E-04 +7.174205E-04 -4.638370E-04 +7.417383E-03 
 +9.966395E-05 -3.619292E-04 +8.118620E-05 -3.619292E-04 +4.761424E-05 -5.646799E-04 +8.118620E-05 -5.646799E-04 +7.391868E-03 
 -2.813047E-04 +3.343056E-05 -4.986307E-04 +3.343056E-05 -1.598303E-04 +3.887222E-05 -4.986307E-04 +3.887222E-05 +7.635047E-03 
 -1.213850E-04 +6.292694E-04 +1.725169E-04 +6.292694E-04 +1.553921E-04 -1.426792E-04 +1.725169E-04 -1.426792E-04 +7.492865E-03 
 +2.603747E-04 -4.051552E-04 +7.602573E-05 -4.051552E-04 -3.185547E-06 +1.181575E-05 +7.602573E-05 +1.181575E-05 +7.261635E-03 
 +1.575385E-04 -9.258506E-05 +6.105991E-04 -9.258506E-05 -1.955911E-04 +6.410203E-06 +6.105991E-04 +6.410203E-06 +7.543290E-03 
 -4.841149E-04 +4.693354E-04 +3.897439E-04 +4.693354E-04 -1.326358E-05 +9.191581E-05 +3.897439E-04 +9.191581E-05 +7.883591E-03 
 -6.574280E-04 +6.544203E-04 +4.790141E-05 +6.544203E-04 +2.998072E-04 +1.857439E-04 +4.790141E-05 +1.857439E-04 +7.656437E-03 
 +3.786629E-04 +3.572848E-04 -2.376249E-04 +3.572848E-04 -1.183410E-04 -1.165768E-05 -2.376249E-04 -1.165768E-05 +7.123083E-03 
 +4.295256E-04 +1.973358E-04 -1.954825E-04 +1.973358E-04 -3.489849E-04 -2.041610E-04 -1.954825E-04 -2.041610E-04 +7.454029E-03 
 -2.882848E-04 -8.166949E-04 +2.615856E-04 -8.166949E-04 +1.599265E-04 +2.363811E-04 +2.615856E-04 +2.363811E-04 +7.741539E-03 
 -1.140394E-06 +1.036449E-04 -4.748360E-04 +1.036449E-04 -6.469936E-05 +3.428730E-04 -4.748360E-04 +3.428730E-04 +7.584627E-03 
 +2.370113E-04 +3.906231E-04 -7.229654E-04 +3.906231E-04 +1.248393E-04 +1.150658E-04 -7.229654E-04 +1.150658E-04 +7.074175E-03 
 -8.854867E-05 +7.065168E-04 -3.996837E-05 +7.065168E-04 -4.944595E-04 -2.861058E-04 -3.996837E-05 -2.861058E-04 +7.584056E-03 
 -3.463356E-04 -1.426768E-03 +1.242315E-04 -1.426768E-03 +1.769743E-04 -9.704631E-05 +1.242315E-04 -9.704631E-05 +7.803102E-03 
 -2.484099E-04 -4.108923E-04 +3.657930E-05 -4.108923E-04 -4.048020E-05 +2.367322E-04 +3.657930E-05 +2.367322E-04 +7.790084E-03 
 -1.304728E-04 -9.832804E-04 +6.078830E-04 -9.832804E-04 -1.477463E-04 +1.533096E-04 +6.078830E-04 +1.533096E-04 +7.665562E-03 
 -2.279488E-04 +9.176205E-04 +1.325246E-04 +9.176205E-04 +2.450852E-04 -2.256859E-04 +1.325246E-04 -2.256859E-04 +7.772784E-03 
 -4.013770E-04 -5.795461E-04 -3.256401E-04 -5.795461E-04 -2.063634E-04 +1.938110E-04 -3.256401E-04 +1.938110E-04 +7.630058E-03 
 -2.874948E-06 +8.126082E-04 -2.758910E-04 +8.126082E-04 +9.280136E-05 -3.920486E-04 -2.758910E-04 -3.920486E-04 +7.356534E-03 
 +8.855754E-05 -1.071453E-04 +6.844896E-05 -1.071453E-04 +3.062196E-04 -1.147628E-04 +6.844896E-05 -1.147628E-04 +7.220202E-03 
 +6.186566E-05 +2.990317E-04 +2.406857E-04 +2.990317E-04 +1.151641E-04 +4.154860E-04 +2.406857E-04 +4.154860E-04 +7.441137E-03 
 +4.214922E-04 -3.600107E-04 +8.447720E-05 -3.600107E-04 -6.316517E-04 -2.393300E-04 +8.447720E-05 -2.393300E-04 +7.712655E-03 
 -1.309180E-04 -2.096086E-04 -3.173017E-05 -2.096086E-04 +3.009606E-04 +6.854106E-04 -3.173017E-05 +6.854106E-04 +7.399070E-03 
 -3.766353E-04 +1.109290E-03 +2.634582E-04 +1.109290E-03 -4.394659E-05 -2.813864E-04 +2.634582E-04 -2.813864E-04 +7.471072E-03 
 -5.258937E-05 -3.181592E-04 +5.001018E-04 -3.181592E-04 +9.724297E-05 -1.133399E-04 +5.001018E-04 -1.133399E-04 +7.973901E-03 
 +8.905900E-05 +4.022057E-04 -3.573730E-05 +4.022057E-04 -2.997133E-04 +2.276314E-04 -3.573730E-05 +2.276314E-04 +7.715870E-03 
 +2.478317E-04 +7.347673E-04 -6.620876E-05 +7.347673E-04 +5.064070E-04 +5.050763E-04 -6.620876E-05 +5.050763E-04 +6.964739E-03 
 +7.685078E-05 +1.519257E-04 -4.457160E-04 +1.519257E-04 +1.680143E-04 -3.210800E-04 -4.457160E-04 -3.210800E-04 +7.209140E-03 
 +1.702855E-04 -3.117094E-04 -5.285517E-04 -3.117094E-04 -2.248873E-04 -3.445721E-04 -5.285517E-04 -3.445721E-04 +7.795034E-03 
 +1.265628E-04 +6.239600E-05 +4.537517E-04 +6.239600E-05 -1.408058E-04 +6.451535E-04 +4.537517E-04 +6.451535E-04 +7.746511E-03 
 +3.744008E-04 +2.312135E-04 -5.578940E-04 +2.312135E-04 -3.471290E-04 +3.602389E-04 -5.578940E-04 +3.602389E-04 +7.541152E-03 
 -1.746749E-04 -5.204599E-04 +2.562826E-04 -5.204599E-04 -2.467402E-04 -2.490621E-04 +2.562826E-04 -2.490621E-04 +7.552147E-03 
 +2.643194E-04 -3.946999E-04 +6.080428E-04 -3.946999E-04 +2.357403E-04 +2.146811E-04 +6.080428E-04 +2.146811E-04 +7.223705E-03 
 +3.364267E-04 +6.397597E-04 -2.926173E-04 +6.397597E-04 -5.925657E-04 +1.179313E-04 -2.926173E-04 +1.179313E-04 +7.634695E-03 
 -5.214420E-04 -6.047119E-04 -5.402305E-04 -6.047119E-04 +2.432427E-04 -3.652146E-04 -5.402305E-04 -3.652146E-04 +7.733158E-03 
 -2.697649E-04 -3.642843E-04 +3.676382E-04 -3.642843E-04 +2.052753E-04 -1.609740E-05 +3.676382E-04 -1.609740E-05 +7.386985E-03 
 +1.897893E-04 -1.976934E-04 +2.211174E-04 -1.976934E-04 -3.059642E-05 +1.469221E-04 +2.211174E-04 +1.469221E-04 +7.041007E-03 
 +3.061628E-04 +1.322845E-04 -1.532480E-04 +1.322845E-04 +1.230300E-05 +5.945944E-04 -1.532480E-04 +5.945944E-04 +7.003124E-03 
 +1.972703E-04 +1.066568E-04 -2.721216E-04 +1.066568E-04 -3.810160E-04 +2.225828E-04 -2.721216E-04 +2.225828E-04 +7.708019E-03 
 +5.552291E-05 -1.191516E-04 -5.451512E-04 -1.191516E-04 +6.151821E-05 -1.418901E-04 -5.451512E-04 -1.418901E-04 +7.466840E-03 
 -3.082226E-04 +4.713460E-04 +1.515415E-04 +4.713460E-04 +2.265480E-04 +1.267273E-04 +1.515415E-04 +1.267273E-04 +7.188127E-03 
 +5.716803E-05 -1.789243E-04 +3.999296E-04 -1.789243E-04 +3.700963E-04 -1.873138E-04 +3.999296E-04 -1.873138E-04 +7.250148E-03 
 +4.167832E-04 +8.312284E-04 +4.125930E-05 +8.312284E-04 -4.705914E-04 +1.015568E-04 +4.125930E-05 +1.015568E-04 +7.613753E-03 
 +9.105909E-05 -5.757936E-04 +9.288522E-04 -5.757936E-04 +8.989907E-05 +1.487568E-04 +9.288522E-04 +1.487568E-04 +7.631416E-03 
 +2.494054E-04 +7.531985E-04 +1.171790E-04 +7.531985E-04 -4.712036E-04 -3.965744E-05 +1.171790E-04 -3.965744E-05 +7.433142E-03 
 +9.218297E-05 +2.958674E-05 -2.071438E-04 +2.958674E-05 +1.753039E-04 -4.026580E-04 -2.071438E-04 -4.026580E-04 +7.088935E-03 
 +4.204008E-04 +7.101999E-04 +4.194657E-04 +7.101999E-04 +3.776485E-04 -1.015052E-04 +4.194657E-04 -1.015052E-04 +7.035089E-03 
 +4.406451E-04 +4.712034E-04 -1.965792E-04 +4.712034E-04 +1.799204E-04 -3.966288E-04 -1.965792E-04 -3.966288E-04 +7.139721E-03 
 +3.476834E-04 -1.057902E-04 -2.967795E-04 -1.057902E-04 +1.145100E-04 +2.830821E-04 -2.967795E-04 +2.830821E-04 +6.860089E-03 
 +1.587454E-04 +2.855564E-04 +4.301202E-04 +2.855564E-04 +6.342661E-05 +1.459459E-04 +4.301202E-04 +1.459459E-04 +7.144779E-03 
 +8.116626E-05 +1.871845E-04 -3.191468E-04 +1.871845E-04 +1.836645E-04 +5.706116E-05 -3.191468E-04 +5.706116E-05 +7.014752E-03 
 +1.295868E-04 +5.101942E-04 +7.729871E-05 +5.101942E-04 +5.761176E-06 +2.121664E-04 +7.729871E-05 +2.121664E-04 +7.679296E-03 
 -1.858837E-04 +5.854587E-04 +2.095181E-05 +5.854587E-04 -2.600407E-04 -3.622111E-04 +2.095181E-05 -3.622111E-04 +7.684682E-03 
 -5.352495E-04 +5.498396E-04 +1.283701E-05 +5.498396E-04 -2.567656E-05 -1.307319E-04 +1.283701E-05 -1.307319E-04 +7.674810E-03 
 +2.073869E-05 +4.128614E-04 -1.497608E-05 +4.128614E-04 -4.481128E-05 +8.401737E-04 -1.497608E-05 +8.401737E-04 +6.928083E-03 
 +2.865424E-04 -3.441110E-05 +3.807488E-04 -3.441110E-05 -4.453149E-05 +2.164324E-04 +3.807488E-04 +2.164324E-04 +7.091364E-03 
 -4.095795E-04 -3.990045E-04 -2.102195E-04 -3.990045E-04 +2.422783E-04 +5.287973E-06 -2.102195E-04 +5.287973E-06 +7.290514E-03 
 -2.801860E-04 +7.048616E-04 -5.024837E-04 +7.048616E-04 +2.532713E-04 +6.318216E-05 -5.024837E-04 +6.318216E-05 +7.802135E-03 
 +3.970494E-04 -3.113615E-04 -3.738328E-04 -3.113615E-04 -7.468231E-04 -3.928154E-04 -3.738328E-04 -3.928154E-04 +7.930567E-03 
 +3.141342E-04 +1.676494E-04 -3.139763E-04 +1.676494E-04 +2.235478E-04 +1.618697E-04 -3.139763E-04 +1.618697E-04 +6.987894E-03 
 +2.086315E-04 -4.043667E-04 +2.520472E-04 -4.043667E-04 -2.077288E-04 -4.200655E-04 +2.520472E-04 -4.200655E-04 +7.411764E-03 
 -3.487342E-04 +1.190272E-04 -2.136087E-04 +1.190272E-04 +1.789519E-04 -4.506612E-05 -2.136087E-04 -4.506612E-05 +7.540145E-03 
 -2.675383E-04 -5.054209E-04 -3.039357E-04 -5.054209E-04 +7.876056E-05 +4.123089E-04 -3.039357E-04 +4.123089E-04 +7.373843E-03 
 +1.776605E-04 +7.274055E-04 +1.268521E-04 +7.274055E-04 +7.694634E-05 -1.370092E-04 +1.268521E-04 -1.370092E-04 +7.262731E-03 
 -6.197438E-05 -3.240518E-04 +3.370990E-04 -3.240518E-04 -4.234861E-04 -2.724273E-04 +3.370990E-04 -2.724273E-04 +7.548307E-03 
 +3.545520E-04 -1.539966E-04 +8.122297E-06 -1.539966E-04 -2.058755E-04 -2.871334E-04 +8.122297E-06 -2.871334E-04 +7.297822E-03 
 +1.571295E-04 +7.637310E-04 +6.471909E-06 +7.637310E-04 +1.093653E-04 +2.018992E-04 +6.471909E-06 +2.018992E-04 +7.241296E-03 
 -1.130974E-04 +3.080792E-04 +4.289944E-04 +3.080792E-04 +5.013706E-04 +1.223482E-05 +4.289944E-04 +1.223482E-05 +7.305214E-03 
 +3.124342E-04 -2.972182E-04 +1.028981E-04 -2.972182E-04 +1.520169E-04 -4.847958E-04 +1.028981E-04 -4.847958E-04 +7.191155E-03 
 -7.357937E-06 +1.670458E-04 +6.900683E-05 +1.670458E-04 +2.163511E-04 +2.813923E-04 +6.900683E-05 +2.813923E-04 +7.467598E-03 
 -1.700301E-04 -3.346180E-04 +2.278333E-04 -3.346180E-04 +4.519542E-04 +5.897359E-04 +2.278333E-04 +5.897359E-04 +7.488290E-03 
 -3.554486E-05 +7.417027E-04 +4.494895E-04 +7.417027E-04 -5.326189E-04 -2.295800E-04 +4.494895E-04 -2.295800E-04 +8.179791E-03 
 +4.615203E-05 +1.031055E-03 -6.059639E-05 +1.031055E-03 -1.077814E-04 +9.125641E-05 -6.059639E-05 +9.125641E-05 +7.391756E-03 
 +1.831838E-04 -4.440606E-04 -5.787194E-04 -4.440606E-04 +1.605787E-05 +2.960906E-04 -5.787194E-04 +2.960906E-04 +7.493790E-03 
 -4.144724E-04 +1.501368E-03 -8.780345E-04 +1.501368E-03 -2.234611E-04 -1.493452E-05 -8.780345E-04 -1.493452E-05 +7.827539E-03 
 -2.883225E-04 +4.959984E-04 +2.715786E-04 +4.959984E-04 -6.283519E-05 -3.900251E-04 +2.715786E-04 -3.900251E-04 +7.990278E-03 
 -8.629834E-05 -5.359319E-04 +3.338560E-05 -5.359319E-04 +4.785447E-05 -3.993724E-04 +3.338560E-05 -3.993724E-04 +7.528665E-03 
 -4.241801E-04 +1.804409E-04 +3.985073E-04 +1.804409E-04 +1.905418E-04 -3.747744E-04 +3.985073E-04 -3.747744E-04 +7.482516E-03 
 -2.518977E-04 -6.379315E-04 +4.830585E-04 -6.379315E-04 -8.417784E-05 +3.712264E-04 +4.830585E-04 +3.712264E-04 +7.487903E-03 
 -3.311911E-04 -6.381005E-05 +1.534063E-04 -6.381005E-05 -7.141710E-05 +5.946204E-05 +1.534063E-04 +5.946204E-05 +7.672437E-03 
 -1.601577E-04 -9.404551E-04 -7.095622E-06 -9.404551E-04 -5.224769E-04 +1.903153E-04 -7.095622E-06 +1.903153E-04 +8.103835E-03 
 +1.180775E-04 -5.717308E-04 -1.470324E-04 -5.717308E-04 +1.300814E-04 -1.576175E-04 -1.470324E-04 -1.576175E-04 +7.928415E-03 
 -6.407684E-04 +5.440216E-05 -3.355494E-04 +5.440216E-05 +2.688727E-04 -3.732547E-04 -3.355494E-04 -3.732547E-04 +7.914054E-03 
 -3.345388E-04 +1.879951E-04 +6.474263E-05 +1.879951E-04 +2.328876E-05 +3.144969E-04 +6.474263E-05 +3.144969E-04 +7.547629E-03 
 +4.756491E-04 +4.270483E-04 +7.953919E-04 +4.270483E-04 -3.086196E-04 -1.238062E-04 +7.953919E-04 -1.238062E-04 +7.368356E-03 
 -8.723061E-05 +6.616116E-04 +3.517683E-04 +6.616116E-04 +7.664159E-05 +4.507454E-04 +3.517683E-04 +4.507454E-04 +7.157372E-03 
 +2.780557E-04 +1.524470E-04 +2.320518E-04 +1.524470E-04 -1.412400E-04 -1.116651E-04 +2.320518E-04 -1.116651E-04 +7.494406E-03 
 +4.687482E-04 +3.544123E-04 +3.919385E-04 +3.544123E-04 +8.488794E-05 +2.519271E-04 +3.919385E-04 +2.519271E-04 +7.289081E-03 
 +1.539332E-04 -3.416541E-04 +2.283585E-04 -3.416541E-04 +1.363298E-04 -2.812617E-04 +2.283585E-04 -2.812617E-04 +7.053043E-03 
 +2.356655E-04 -3.597079E-04 +1.444575E-04 -3.597079E-04 +9.421575E-05 -3.675019E-04 +1.444575E-04 -3.675019E-04 +7.355977E-03 
 +1.829036E-04 -1.666928E-04 -4.849820E-04 -1.666928E-04 +3.152347E-04 -4.891054E-04 -4.849820E-04 -4.891054E-04 +7.221179E-03 
 -4.240994E-04 -8.294360E-04 +4.700973E-04 -8.294360E-04 -2.198998E-05 -9.099965E-05 +4.700973E-04 -9.099965E-05 +7.668001E-03 
 -9.438692E-05 +7.699846E-04 +1.625953E-04 +7.699846E-04 +1.595982E-04 -7.960272E-04 +1.625953E-04 -7.960272E-04 +7.425650E-03 
 +1.886445E-04 +9.758240E-04 -5.159918E-04 +9.758240E-04 +4.716844E-06 -2.393256E-05 -5.159918E-04 -2.393256E-05 +7.027013E-03 
 -1.631593E-04 -7.142366E-04 -3.582576E-04 -7.142366E-04 +1.362164E-04 +3.798153E-04 -3.582576E-04 +3.798153E-04 +7.324507E-03 
 -8.347675E-05 +7.258562E-04 -1.424076E-05 +7.258562E-04 -3.890312E-04 +1.906568E-04 -1.424076E-05 +1.906568E-04 +7.786140E-03 
 +1.240222E-04 +2.749496E-04 -3.116565E-04 +2.749496E-04 +1.349796E-04 +1.086958E-04 -3.116565E-04 +1.086958E-04 +7.730320E-03 
 -3.631072E-04 -2.762118E-04 +3.139353E-04 -2.762118E-04 -1.920052E-04 +2.500710E-04 +3.139353E-04 +2.500710E-04 +7.595645E-03 
 -2.803084E-04 +6.934065E-04 +5.711189E-04 +6.934065E-04 -9.681885E-05 -1.775032E-04 +5.711189E-04 -1.775032E-04 +7.826967E-03 
 -2.041066E-04 -1.543077E-03 -1.954487E-04 -1.543077E-03 +9.644644E-05 -2.247824E-04 -1.954487E-04 -2.247824E-04 +7.607026E-03 
 -1.374250E-04 -8.730011E-04 +2.695260E-04 -8.730011E-04 +1.751503E-04 +5.204279E-05 +2.695260E-04 +5.204279E-05 +7.667252E-03 
 +3.675576E-04 -5.404567E-04 +5.952488E-05 -5.404567E-04 -7.227154E-04 -2.938512E-04 +5.952488E-05 -2.938512E-04 +7.929827E-03 
 +5.332181E-06 -3.073895E-04 -1.791376E-04 -3.073895E-04 +1.862907E-04 -1.982091E-04 -1.791376E-04 -1.982091E-04 +7.436598E-03 
 -6.437321E-04 -3.202501E-04 -4.781804E-05 -3.202501E-04 +4.853795E-04 +1.494449E-04 -4.781804E-05 +1.494449E-04 +7.455519E-03 
 +1.271943E-04 -4.467914E-04 -1.051344E-04 -4.467914E-04 -3.587157E-04 -5.119765E-04 -1.051344E-04 -5.119765E-04 +7.680656E-03 
 +1.015451E-04 +1.028665E-03 +7.998690E-06 +1.028665E-03 -1.359677E-05 +2.408903E-04 +7.998690E-06 +2.408903E-04 +7.506111E-03 
 -3.966496E-04 +7.677402E-04 +5.446524E-06 +7.677402E-04 +8.064630E-05 +1.346066E-04 +5.446524E-06 +1.346066E-04 +7.791606E-03 
 -8.152393E-05 +1.297725E-04 +2.467782E-04 +1.297725E-04 +1.542449E-04 -3.612613E-04 +2.467782E-04 -3.612613E-04 +7.146374E-03 
 +3.216658E-04 -5.751725E-04 +9.933416E-07 -5.751725E-04 -8.579218E-06 +3.593356E-04 +9.933416E-07 +3.593356E-04 +7.245105E-03 
 +4.523157E-04 -6.058463E-05 -2.342782E-04 -6.058463E-05 -4.106387E-04 -3.049067E-05 -2.342782E-04 -3.049067E-05 +7.404962E-03 
 -2.987458E-04 -3.844387E-04 -3.627691E-04 -3.844387E-04 +6.300417E-04 +3.383695E-04 -3.627691E-04 +3.383695E-04 +7.169943E-03 
 +4.223532E-04 -7.548702E-04 -3.487329E-04 -7.548702E-04 -6.889413E-04 +6.033347E-04 -3.487329E-04 +6.033347E-04 +7.882049E-03 
 +3.771441E-04 -2.526036E-04 +3.904299E-05 -2.526036E-04 +2.951958E-04 +1.777084E-04 +3.904299E-05 +1.777084E-04 +7.271789E-03 
 +1.107135E-04 -4.591777E-04 -1.890877E-04 -4.591777E-04 +5.016398E-04 -3.119302E-04 -1.890877E-04 -3.119302E-04 +6.831588E-03 
 -7.616104E-04 -4.581651E-04 +3.064416E-04 -4.581651E-04 +3.470180E-04 -3.433001E-04 +3.064416E-04 -3.433001E-04 +8.024407E-03 
 -5.757950E-04 -4.571305E-04 +2.662739E-04 -4.571305E-04 +9.528962E-05 -2.712654E-05 +2.662739E-04 -2.712654E-05 +7.618750E-03 
 +5.675022E-04 +1.813584E-04 +1.188457E-04 +1.813584E-04 -6.367563E-05 +1.641559E-04 +1.188457E-04 +1.641559E-04 +6.867484E-03 
 +4.562056E-04 -5.001788E-04 -2.854310E-04 -5.001788E-04 +2.654316E-04 -2.646455E-04 -2.854310E-04 -2.646455E-04 +7.017073E-03 
 +4.537725E-04 +8.183939E-04 -7.196530E-05 +8.183939E-04 -7.043306E-04 -4.981395E-04 -7.196530E-05 -4.981395E-04 +7.585807E-03 
 +3.209021E-04 -5.102636E-04 -5.330732E-04 -5.102636E-04 +1.401072E-04 -7.497598E-05 -5.330732E-04 -7.497598E-05 +7.267779E-03 
 +1.475189E-04 +5.218491E-04 -3.456846E-04 +5.218491E-04 -2.763799E-04 +2.791804E-04 -3.456846E-04 +2.791804E-04 +7.584380E-03 
 +2.502781E-04 -6.611799E-04 +5.256837E-04 -6.611799E-04 +3.495798E-05 -4.329245E-04 +5.256837E-04 -4.329245E-04 +7.338691E-03 
 +2.418316E-04 +2.198008E-04 +4.073401E-04 +2.198008E-04 +1.954371E-04 +1.607003E-04 +4.073401E-04 +1.607003E-04 +6.710794E-03 
 +4.384815E-04 -2.380600E-05 +1.765371E-05 -2.380600E-05 -1.425187E-04 -1.827939E-04 +1.765371E-05 -1.827939E-04 +7.205124E-03 
 +1.075438E-04 +7.037628E-05 -3.211890E-04 +7.037628E-05 +2.567966E-04 +1.213627E-04 -3.211890E-04 +1.213627E-04 +7.133843E-03 
 -8.917101E-05 -5.073598E-04 -3.804255E-04 -5.073598E-04 -1.245347E-04 +7.517304E-05 -3.804255E-04 +7.517304E-05 +7.447630E-03 
 -3.259219E-04 +1.027007E-03 -4.829455E-05 +1.027007E-03 -2.919779E-04 -1.253885E-04 -4.829455E-05 -1.253885E-04 +7.663257E-03 
 -2.382852E-04 -3.659781E-04 +3.398063E-04 -3.659781E-04 +4.047952E-04 -1.087642E-04 +3.398063E-04 -1.087642E-04 +6.880361E-03 
 -3.528121E-04 -1.872195E-04 -3.038465E-05 -1.872195E-04 +1.310318E-05 -3.032805E-04 -3.038465E-05 -3.032805E-04 +7.590792E-03 
 -1.433614E-04 -8.300390E-04 +8.623328E-05 -8.300390E-04 -1.685617E-05 -2.199135E-04 +8.623328E-05 -2.199135E-04 +7.909863E-03 
 -1.576987E-04 +4.077959E-04 -8.599348E-05 +4.077959E-04 -2.072631E-04 -4.113345E-04 -8.599348E-05 -4.113345E-04 +7.714128E-03 
 -9.370270E-04 +2.553924E-04 -1.144753E-04 +2.553924E-04 +2.441294E-04 -1.153602E-04 -1.144753E-04 -1.153602E-04 +7.827882E-03 
 +2.980555E-04 +4.675372E-04 +2.700381E-04 +4.675372E-04 -3.102137E-04 +6.840547E-04 +2.700381E-04 +6.840547E-04 +7.501295E-03 
 +3.156558E-04 +3.106146E-04 +3.693865E-04 +3.106146E-04 +1.107924E-04 -3.347152E-04 +3.693865E-04 -3.347152E-04 +7.400866E-03 
 -6.742982E-04 -3.419994E-04 +1.380741E-04 -3.419994E-04 +2.937112E-05 -1.096695E-04 +1.380741E-04 -1.096695E-04 +7.597012E-03 
 +2.280487E-04 -6.578591E-05 +8.417816E-05 -6.578591E-05 +2.432234E-04 -3.659840E-04 +8.417816E-05 -3.659840E-04 +7.109341E-03 
 -4.618210E-05 -1.659452E-04 +6.820039E-04 -1.659452E-04 +2.327946E-04 -1.524734E-04 +6.820039E-04 -1.524734E-04 +7.115078E-03 
 +3.564810E-04 -2.602245E-06 +4.732633E-04 -2.602245E-06 +6.669130E-06 -8.724536E-04 +4.732633E-04 -8.724536E-04 +7.269619E-03 
 +2.751117E-04 +4.324009E-04 +5.859377E-06 +4.324009E-04 -3.856778E-05 -1.389646E-04 +5.859377E-06 -1.389646E-04 +7.191173E-03 
 +1.143510E-04 +4.619713E-04 -5.972426E-04 +4.619713E-04 -1.172661E-04 +7.544865E-05 -5.972426E-04 +7.544865E-05 +7.267149E-03 
 -2.535584E-04 -1.742593E-04 -3.010641E-04 -1.742593E-04 -1.078771E-04 -3.220009E-04 -3.010641E-04 -3.220009E-04 +7.576942E-03 
 +2.292289E-04 +1.217644E-04 +2.901175E-04 +1.217644E-04 +6.245311E-05 +3.598241E-04 +2.901175E-04 +3.598241E-04 +6.986460E-03 
 +3.141188E-04 +2.328408E-04 +1.091405E-04 +2.328408E-04 -8.951749E-05 +7.183037E-04 +1.091405E-04 +7.183037E-04 +7.098139E-03 
 -1.833178E-04 -2.706917E-04 +2.128218E-04 -2.706917E-04 +5.249826E-05 -4.520243E-04 +2.128218E-04 -4.520243E-04 +7.346508E-03 
 +5.132465E-04 +3.764845E-05 +5.230966E-04 +3.764845E-05 +1.007264E-04 -1.228417E-04 +5.230966E-04 -1.228417E-04 +7.051212E-03 
 +5.964383E-05 +4.828825E-04 +6.732501E-04 +4.828825E-04 -1.474427E-05 +2.356565E-04 +6.732501E-04 +2.356565E-04 +7.578549E-03 
 -2.516587E-04 -9.645707E-04 +2.042812E-04 -9.645707E-04 -4.459076E-05 +2.864710E-04 +2.042812E-04 +2.864710E-04 +7.521585E-03 
 +1.959994E-04 +9.407762E-04 -4.685307E-05 +9.407762E-04 +9.144621E-06 +3.829076E-05 -4.685307E-05 +3.829076E-05 +7.542043E-03 
 -3.396658E-04 -7.707399E-04 -7.342612E-05 -7.707399E-04 -2.299344E-06 +1.816418E-04 -7.342612E-05 +1.816418E-04 +8.075596E-03 
 -3.388022E-04 +9.511585E-04 -2.957618E-04 +9.511585E-04 -2.441925E-04 -2.621374E-04 -2.957618E-04 -2.621374E-04 +7.855134E-03 
 +1.468441E-04 +8.383351E-05 -5.248759E-04 +8.383351E-05 +1.085446E-04 -6.862901E-04 -5.248759E-04 -6.862901E-04 +7.410146E-03 
 -2.285743E-04 +2.182311E-04 +5.485098E-05 +2.182311E-04 +2.821509E-04 +2.524889E-04 +5.485098E-05 +2.524889E-04 +7.681690E-03 
 -1.009945E-04 +8.465619E-04 +7.411886E-05 +8.465619E-04 -4.144912E-04 -4.970596E-05 +7.411886E-05 -4.970596E-05 +7.952632E-03 
 +2.495575E-04 +2.021178E-04 -4.289143E-04 +2.021178E-04 +1.378099E-04 -2.415630E-04 -4.289143E-04 -2.415630E-04 +7.220301E-03 
 -3.149301E-04 +3.851742E-04 -7.838857E-04 +3.851742E-04 -4.274426E-05 -2.146400E-04 -7.838857E-04 -2.146400E-04 +7.455455E-03 
 -4.826626E-04 +5.868442E-04 -2.335269E-04 +5.868442E-04 -1.199134E-04 +2.928992E-04 -2.335269E-04 +2.928992E-04 +7.921508E-03 
 -1.968108E-04 +1.695036E-04 +1.324802E-04 +1.695036E-04 +1.467699E-04 +5.215032E-04 +1.324802E-04 +5.215032E-04 +7.265011E-03 
 +1.801606E-04 +4.623557E-04 -1.744668E-04 +4.623557E-04 +1.034228E-04 -1.005135E-04 -1.744668E-04 -1.005135E-04 +7.418694E-03 
 -1.271103E-04 +3.283570E-04 +1.044165E-04 +3.283570E-04 +3.918239E-04 +1.581814E-04 +1.044165E-04 +1.581814E-04 +7.116694E-03 
 +9.643294E-05 -9.344427E-04 -6.096283E-05 -9.344427E-04 -1.056991E-04 -1.491431E-04 -6.096283E-05 -1.491431E-04 +7.144375E-03 
 +3.866194E-04 +5.328358E-05 -1.399977E-04 +5.328358E-05 -3.088710E-04 -7.446674E-04 -1.399977E-04 -7.446674E-04 +7.464911E-03 
 -5.341485E-04 -3.003985E-04 +2.742892E-04 -3.003985E-04 -1.588626E-04 +7.485774E-04 +2.742892E-04 +7.485774E-04 +7.522361E-03 
 -1.975183E-04 -1.099163E-03 +5.426905E-04 -1.099163E-03 +2.314919E-04 -3.842960E-05 +5.426905E-04 -3.842960E-05 +7.407910E-03 
 +3.047966E-04 +4.241411E-04 -2.069097E-04 +4.241411E-04 +2.047268E-04 +5.478556E-04 -2.069097E-04 +5.478556E-04 +7.063965E-03 
 +2.851035E-04 -1.846233E-05 -4.034199E-04 -1.846233E-05 -3.177765E-04 -2.205770E-04 -4.034199E-04 -2.205770E-04 +7.889537E-03 
 +4.767472E-06 +5.168244E-05 +3.098617E-04 +5.168244E-05 -8.785247E-05 +3.225055E-05 +3.098617E-04 +3.225055E-05 +7.610241E-03 
 +2.298615E-05 +1.425909E-04 +5.455085E-04 +1.425909E-04 +1.856181E-04 -3.854877E-05 +5.455085E-04 -3.854877E-05 +7.171903E-03 
 +8.205834E-05 -1.198759E-04 +3.108082E-06 -1.198759E-04 +1.391369E-04 +3.270572E-04 +3.108082E-06 +3.270572E-04 +7.533688E-03 
 -1.130345E-04 +1.869557E-04 +8.554995E-05 +1.869557E-04 -1.036955E-04 +1.620038E-04 +8.554995E-05 +1.620038E-04 +7.396132E-03 
 -8.180235E-05 -6.701148E-04 +1.325937E-04 -6.701148E-04 +2.627900E-04 +3.343999E-05 +1.325937E-04 +3.343999E-05 +7.323564E-03 
 -1.699220E-04 +1.703239E-04 +6.364410E-05 +1.703239E-04 -2.877583E-04 -2.758665E-04 +6.364410E-05 -2.758665E-04 +7.826588E-03 
 +5.706331E-05 -3.699166E-04 +2.282317E-04 -3.699166E-04 -1.901467E-04 -2.966761E-04 +2.282317E-04 -2.966761E-04 +7.547493E-03 
 +1.759799E-04 -3.418987E-05 -1.556665E-04 -3.418987E-05 +6.601780E-05 -5.927967E-04 -1.556665E-04 -5.927967E-04 +7.540640E-03 
 -3.117073E-04 +6.046834E-04 -6.701411E-04 +6.046834E-04 -5.709122E-04 -4.456235E-04 -6.701411E-04 -4.456235E-04 +7.812893E-03 
 +2.292715E-04 +6.421806E-06 -2.395160E-04 +6.421806E-06 +3.805915E-04 -2.770504E-04 -2.395160E-04 -2.770504E-04 +7.085390E-03 
 +3.084232E-04 +5.641533E-04 +3.868734E-04 +5.641533E-04 +9.412028E-05 -8.168679E-05 +3.868734E-04 -8.168679E-05 +6.819857E-03 
 -2.258702E-04 +4.017153E-04 +4.163200E-04 +4.017153E-04 -7.491278E-05 -5.676855E-05 +4.163200E-04 -5.676855E-05 +7.278945E-03 
 +3.166394E-05 -5.934472E-04 -1.914312E-04 -5.934472E-04 +3.726166E-04 -3.817566E-04 -1.914312E-04 -3.817566E-04 +7.093753E-03 
 +2.344916E-04 +1.496985E-03 +6.331719E-04 +1.496985E-03 -6.965364E-06 +3.154276E-04 +6.331719E-04 +3.154276E-04 +7.418116E-03 
 -1.092382E-04 -9.202425E-04 +3.055787E-04 -9.202425E-04 -4.313265E-04 -5.338852E-04 +3.055787E-04 -5.338852E-04 +8.167111E-03 
 -6.451993E-05 -1.744418E-04 -1.267500E-04 -1.744418E-04 +2.587278E-04 -3.831995E-04 -1.267500E-04 -3.831995E-04 +7.588894E-03 
 -1.684463E-04 -1.144809E-03 +3.045580E-04 -1.144809E-03 -2.778621E-04 +1.924702E-04 +3.045580E-04 +1.924702E-04 +7.568866E-03 
 -3.971726E-04 -1.386372E-04 -3.660064E-04 -1.386372E-04 +3.492459E-04 +3.319212E-04 -3.660064E-04 +3.319212E-04 +7.489149E-03 
 +8.663825E-05 -2.844679E-04 +1.887914E-04 -2.844679E-04 -1.253471E-04 -5.487975E-04 +1.887914E-04 -5.487975E-04 +7.409725E-03 
 +1.589751E-04 -3.729171E-05 +7.861280E-04 -3.729171E-05 +1.339370E-05 -3.443040E-04 +7.861280E-04 -3.443040E-04 +7.622119E-03 
 +3.650082E-04 +2.607810E-04 +2.069561E-04 +2.607810E-04 +1.363193E-04 +3.736730E-04 +2.069561E-04 +3.736730E-04 +7.250849E-03 
 -3.322027E-05 +6.872570E-04 -1.312265E-05 +6.872570E-04 -1.758200E-04 +2.512998E-05 -1.312265E-05 +2.512998E-05 +7.606826E-03 
 -3.346997E-05 -2.376396E-04 +3.474885E-05 -2.376396E-04 +3.302187E-04 +6.752803E-04 +3.474885E-05 +6.752803E-04 +7.460018E-03 
 +4.158852E-04 -7.782347E-04 -1.376199E-04 -7.782347E-04 -6.448520E-05 -7.235770E-04 -1.376199E-04 -7.235770E-04 +6.952790E-03 
 +2.591953E-06 -1.832966E-04 -6.412485E-04 -1.832966E-04 -2.102325E-04 +2.767545E-04 -6.412485E-04 +2.767545E-04 +7.375446E-03 
 -6.020347E-04 +7.654747E-04 -5.513127E-04 +7.654747E-04 -1.382696E-04 -4.261251E-05 -5.513127E-04 -4.261251E-05 +7.938651E-03 
 -1.872991E-04 -4.673852E-04 +1.023769E-04 -4.673852E-04 +2.265641E-04 -3.530321E-04 +1.023769E-04 -3.530321E-04 +7.385409E-03 
 +3.575039E-04 +6.340765E-05 +6.589764E-04 +6.340765E-05 -5.286251E-04 -1.119895E-04 +6.589764E-04 -1.119895E-04 +7.731808E-03 
 +1.055382E-04 -1.162729E-05 +7.113154E-04 -1.162729E-05 -2.382644E-04 -1.514324E-04 +7.113154E-04 -1.514324E-04 +7.971173E-03 
 -3.923545E-04 +1.956978E-04 -4.883933E-05 +1.956978E-04 +5.164165E-04 +2.970095E-04 -4.883933E-05 +2.970095E-04 +7.592305E-03 
 -3.916084E-04 +6.060741E-04 +1.469912E-04 +6.060741E-04 -3.400584E-04 -2.710724E-05 +1.469912E-04 -2.710724E-05 +7.863109E-03 
 -2.651557E-04 -1.137857E-03 +2.005378E-04 -1.137857E-03 -9.621220E-06 +2.381935E-04 +2.005378E-04 +2.381935E-04 +8.150307E-03 
 -6.774935E-04 +7.264913E-04 +4.907910E-06 +7.264913E-04 +3.418729E-04 -1.560222E-04 +4.907910E-06 -1.560222E-04 +7.637484E-03 
 -2.241045E-04 -8.580924E-04 -7.736324E-04 -8.580924E-04 +7.724477E-05 -7.330562E-04 -7.736324E-04 -7.330562E-04 +8.120524E-03 
 -1.596616E-05 +3.164110E-04 -7.570143E-04 +3.164110E-04 -7.241753E-05 -1.024673E-03 -7.570143E-04 -1.024673E-03 +7.529110E-03 
 +5.766232E-05 -1.208492E-03 -3.569870E-04 -1.208492E-03 +1.046256E-04 +2.733412E-04 -3.569870E-04 +2.733412E-04 +6.987732E-03 
 -4.509503E-04 +5.603608E-04 +1.813723E-04 +5.603608E-04 -9.781752E-05 +1.011771E-04 +1.813723E-04 +1.011771E-04 +7.906977E-03 
 -7.781975E-04 +2.201723E-04 -2.870263E-04 +2.201723E-04 +4.855971E-04 +3.681935E-04 -2.870263E-04 +3.681935E-04 +7.764500E-03 
 -1.879025E-05 -7.021204E-04 +1.603778E-04 -7.021204E-04 -2.975928E-04 +2.305544E-04 +1.603778E-04 +2.305544E-04 +7.647045E-03 
 -2.133606E-04 +2.832462E-04 +4.385070E-04 +2.832462E-04 -1.628113E-04 -1.297571E-04 +4.385070E-04 -1.297571E-04 +7.755016E-03 
 +2.790051E-05 -4.225316E-04 +7.906745E-04 -4.225316E-04 +1.644036E-04 -2.838493E-05 +7.906745E-04 -2.838493E-05 +7.624274E-03 
 +3.298910E-04 +6.432745E-04 +1.813055E-04 +6.432745E-04 +1.559804E-04 +1.451399E-04 +1.813055E-04 +1.451399E-04 +7.378925E-03 
 -1.057605E-05 +5.038193E-04 -5.493127E-04 +5.038193E-04 +8.968227E-05 -4.814876E-04 -5.493127E-04 -4.814876E-04 +7.018340E-03 
 -1.896105E-04 -1.962589E-04 +1.686122E-04 -1.962589E-04 +4.252068E-04 +1.574679E-04 +1.686122E-04 +1.574679E-04 +7.429889E-03 
 +3.016534E-04 -6.529885E-05 +4.490944E-05 -6.529885E-05 -5.813780E-04 +7.508715E-05 +4.490944E-05 +7.508715E-05 +8.083365E-03 
 +1.761301E-04 +6.598487E-04 +2.254590E-04 +6.598487E-04 -4.031883E-04 +9.322166E-05 +2.254590E-04 +9.322166E-05 +7.875222E-03 
 -6.231312E-05 +3.093529E-04 +6.688813E-04 +3.093529E-04 +5.759797E-04 +3.350838E-04 +6.688813E-04 +3.350838E-04 +7.244833E-03 
 +4.959551E-04 -4.677297E-04 +3.658551E-04 -4.677297E-04 -3.369022E-04 -1.139027E-05 +3.658551E-04 -1.139027E-05 +7.537955E-03 
 +9.288901E-05 -1.080051E-04 +5.094946E-04 -1.080051E-04 +3.470837E-05 +4.815648E-04 +5.094946E-04 +4.815648E-04 +7.428037E-03 
 +1.131331E-05 +4.594074E-04 +2.341273E-04 +4.594074E-04 +9.442139E-05 +1.108581E-03 +2.341273E-04 +1.108581E-03 +7.334532E-03 
 +2.567716E-04 +7.665758E-05 +1.657960E-04 +7.665758E-05 -1.062029E-04 -1.920971E-04 +1.657960E-04 -1.920971E-04 +7.209460E-03 
 +1.705412E-04 +5.785380E-04 -6.542623E-04 +5.785380E-04 -4.355051E-04 -1.406756E-04 -6.542623E-04 -1.406756E-04 +7.376713E-03 
 +2.179260E-04 -9.698649E-05 -1.537224E-06 -9.698649E-05 +1.288667E-04 +6.277658E-05 -1.537224E-06 +6.277658E-05 +7.157032E-03 
 -3.804216E-04 +3.919128E-05 -3.061491E-04 +3.919128E-05 +1.566194E-04 +1.007648E-04 -3.061491E-04 +1.007648E-04 +7.329443E-03 
 +3.061323E-04 -1.727577E-04 -3.402173E-04 -1.727577E-04 +1.019552E-04 -4.014444E-04 -3.402173E-04 -4.014444E-04 +7.465704E-03 
 -4.596126E-04 -9.286108E-05 -1.802517E-04 -9.286108E-05 +5.237694E-05 +7.209033E-05 -1.802517E-04 +7.209033E-05 +7.709367E-03 
 -3.248179E-04 -1.016528E-03 -1.504001E-04 -1.016528E-03 +2.583107E-04 +6.000210E-05 -1.504001E-04 +6.000210E-05 +7.721663E-03 
 -2.252815E-04 -2.113782E-04 +1.897676E-04 -2.113782E-04 +9.251012E-05 +3.309647E-04 +1.897676E-04 +3.309647E-04 +7.126786E-03 
 -3.757490E-04 +6.584927E-04 +2.263821E-04 +6.584927E-04 +1.275919E-04 -2.234008E-04 +2.263821E-04 -2.234008E-04 +7.497792E-03 
 +1.874678E-04 -7.359266E-05 +1.268557E-04 -7.359266E-05 -1.598520E-04 -1.057049E-04 +1.268557E-04 -1.057049E-04 +7.640331E-03 
 +2.333207E-04 +1.923976E-04 +3.929023E-05 +1.923976E-04 +7.842298E-05 -1.721324E-04 +3.929023E-05 -1.721324E-04 +7.398281E-03 
 +3.618930E-04 +4.048951E-04 -1.667692E-04 +4.048951E-04 +7.534851E-05 +2.520239E-05 -1.667692E-04 +2.520239E-05 +7.046541E-03 
 +5.553415E-04 +1.280454E-04 -3.694842E-04 +1.280454E-04 +1.583611E-04 +3.282588E-04 -3.694842E-04 +3.282588E-04 +7.305791E-03 
 +6.628034E-04 -5.155791E-04 -2.114525E-04 -5.155791E-04 -4.470837E-04 -1.945791E-04 -2.114525E-04 -1.945791E-04 +7.555092E-03 
 -8.465892E-05 +5.905856E-04 -4.965869E-04 +5.905856E-04 +3.686686E-04 -6.247050E-04 -4.965869E-04 -6.247050E-04 +7.281343E-03 
 -1.265869E-04 +4.877828E-04 -2.855309E-04 +4.877828E-04 +2.041248E-05 -4.598613E-04 -2.855309E-04 -4.598613E-04 +7.353599E-03 
 +7.789151E-05 -8.334035E-05 -5.701895E-04 -8.334035E-05 -2.092961E-04 +6.247038E-04 -5.701895E-04 +6.247038E-04 +7.395770E-03 
 +2.590286E-05 -2.163828E-04 -4.964882E-04 -2.163828E-04 +3.307186E-04 +3.149292E-04 -4.964882E-04 +3.149292E-04 +7.303912E-03 
 +6.958494E-04 +5.327872E-04 +2.915371E-04 +5.327872E-04 -3.176352E-04 +1.035893E-04 +2.915371E-04 +1.035893E-04 +7.541330E-03 
 +9.213289E-05 +2.938446E-04 +4.777350E-04 +2.938446E-04 +3.399782E-04 +3.729130E-05 +4.777350E-04 +3.729130E-05 +7.528058E-03 
 +2.813629E-04 -2.481145E-04 +8.383768E-04 -2.481145E-04 +2.449528E-04 -1.124976E-04 +8.383768E-04 -1.124976E-04 +7.285357E-03 
 +3.081855E-04 +1.925825E-04 -3.336920E-05 +1.925825E-04 -7.611290E-04 +1.220634E-04 -3.336920E-05 +1.220634E-04 +8.052514E-03 
 +2.623751E-04 +3.806276E-04 +1.505647E-04 +3.806276E-04 -2.182964E-04 +1.142120E-04 +1.505647E-04 +1.142120E-04 +7.621626E-03 
 +4.595692E-04 -1.437300E-04 -1.576825E-04 -1.437300E-04 +4.784814E-04 +3.267705E-04 -1.576825E-04 +3.267705E-04 +7.406410E-03 
 +3.782283E-04 +6.460443E-04 -4.449755E-04 +6.460443E-04 -6.148529E-04 +7.008938E-04 -4.449755E-04 +7.008938E-04 +7.774355E-03 
 +3.344800E-04 -1.137076E-05 +9.911402E-06 -1.137076E-05 +1.443224E-04 +1.579953E-04 +9.911402E-06 +1.579953E-04 +7.249618E-03 
 -8.769926E-05 +1.352630E-04 +1.012652E-04 +1.352630E-04 -2.026063E-04 +2.987178E-04 +1.012652E-04 +2.987178E-04 +7.738234E-03 
 -3.006326E-04 -7.487297E-04 -3.702572E-04 -7.487297E-04 +4.232818E-04 -5.570209E-04 -3.702572E-04 -5.570209E-04 +7.647642E-03 
 +8.835020E-05 -6.151197E-04 -5.038995E-04 -6.151197E-04 -2.753688E-04 +3.812510E-04 -5.038995E-04 +3.812510E-04 +7.181315E-03 
 +3.662335E-04 -2.961117E-04 +8.020914E-04 -2.961117E-04 +1.398217E-04 +4.098553E-05 +8.020914E-04 +4.098553E-05 +7.081468E-03 
 +5.232957E-04 +4.679403E-04 +2.444460E-04 +4.679403E-04 -4.771747E-05 +2.706004E-05 +2.444460E-04 +2.706004E-05 +6.772891E-03 
 +3.518316E-04 +3.553482E-05 -3.714061E-04 +3.553482E-05 +5.398212E-05 -4.943811E-04 -3.714061E-04 -4.943811E-04 +6.916664E-03 
 -9.956467E-05 +4.760411E-05 +1.336600E-04 +4.760411E-05 -4.821228E-05 -9.281124E-04 +1.336600E-04 -9.281124E-04 +7.411563E-03 
 +2.575366E-05 +1.792077E-05 -2.017978E-04 +1.792077E-05 +2.924355E-04 +9.453346E-05 -2.017978E-04 +9.453346E-05 +7.317092E-03 
 +3.635654E-05 -7.989432E-04 +2.581776E-04 -7.989432E-04 -3.019631E-04 -4.605708E-04 +2.581776E-04 -4.605708E-04 +7.365993E-03 
 +1.847833E-05 +2.369007E-04 +3.030500E-04 +2.369007E-04 -1.387996E-04 +9.481654E-04 +3.030500E-04 +9.481654E-04 +7.486384E-03 
 -3.732327E-05 -1.980291E-05 -2.692892E-04 -1.980291E-05 +3.900602E-04 +1.311674E-04 -2.692892E-04 +1.311674E-04 +7.159329E-03 
 +1.167997E-04 -1.859353E-04 +1.611452E-04 -1.859353E-04 -3.058472E-05 -7.322399E-04 +1.611452E-04 -7.322399E-04 +7.065766E-03 
 +3.848399E-04 +7.609261E-05 +7.753164E-04 +7.609261E-05 -1.798813E-04 -4.362733E-04 +7.753164E-04 -4.362733E-04 +7.364110E-03 
 +5.823593E-04 +1.285381E-04 +2.291670E-04 +1.285381E-04 +2.866604E-06 -1.781873E-04 +2.291670E-04 -1.781873E-04 +6.986369E-03 
 -6.839904E-05 +6.145158E-04 +1.047431E-04 +6.145158E-04 +2.375350E-04 -6.855604E-04 +1.047431E-04 -6.855604E-04 +7.186564E-03 
 +3.991279E-05 +4.398922E-05 -2.526079E-04 +4.398922E-05 +6.653032E-05 -3.593914E-04 -2.526079E-04 -3.593914E-04 +7.371220E-03 
 -1.888823E-05 +2.863090E-04 +1.019539E-04 +2.863090E-04 +2.159320E-04 +7.101943E-04 +1.019539E-04 +7.101943E-04 +7.071968E-03 
 -4.855790E-05 +9.012932E-05 +1.651766E-04 +9.012932E-05 -3.663033E-04 -3.647650E-04 +1.651766E-04 -3.647650E-04 +7.553245E-03 
 +9.059638E-05 -2.968317E-04 +4.195793E-04 -2.968317E-04 +3.051895E-05 +6.640934E-04 +4.195793E-04 +6.640934E-04 +7.583727E-03 
 +3.275001E-04 +1.116417E-05 +3.416072E-04 +1.116417E-05 -4.052307E-04 +3.338946E-04 +3.416072E-04 +3.338946E-04 +7.494804E-03 
 +1.183500E-04 +7.175420E-04 +1.236309E-04 +7.175420E-04 -6.719283E-04 -1.360818E-04 +1.236309E-04 -1.360818E-04 +8.041333E-03 
 +3.289137E-05 +1.485139E-04 -2.650315E-04 +1.485139E-04 +3.120274E-04 +2.911507E-04 -2.650315E-04 +2.911507E-04 +7.564408E-03 
 -2.433268E-04 +9.554446E-04 -3.172831E-04 +9.554446E-04 +2.101889E-04 -4.050149E-04 -3.172831E-04 -4.050149E-04 +7.444044E-03 
 -1.338840E-04 -1.005921E-03 +3.826839E-04 -1.005921E-03 -2.705251E-04 +9.255759E-05 +3.826839E-04 +9.255759E-05 +7.837010E-03 
 -7.788873E-05 -2.356079E-05 -1.468782E-04 -2.356079E-05 +1.042023E-04 +4.143026E-04 -1.468782E-04 +4.143026E-04 +7.314498E-03 
 +2.020790E-05 +8.293537E-04 +8.335957E-05 +8.293537E-04 -1.347889E-04 -8.633507E-05 +8.335957E-05 -8.633507E-05 +7.617749E-03 
 -1.846774E-04 -5.350943E-04 -3.968047E-04 -5.350943E-04 -2.062106E-04 +1.892285E-04 -3.968047E-04 +1.892285E-04 +7.808100E-03 
 -4.196751E-04 -3.924193E-04 +1.309007E-05 -3.924193E-04 +9.604888E-05 +9.432071E-07 +1.309007E-05 +9.432071E-07 +7.763986E-03 
 -4.162182E-04 -8.293197E-04 +3.175970E-04 -8.293197E-04 -7.203079E-05 +9.680213E-05 +3.175970E-04 +9.680213E-05 +7.894996E-03 
 -5.386795E-04 +4.752376E-05 -2.703552E-04 +4.752376E-05 +5.790860E-04 -1.832741E-05 -2.703552E-04 -1.832741E-05 +7.941551E-03 
 -8.891898E-05 -3.047186E-04 +2.407877E-04 -3.047186E-04 -3.161551E-04 -2.750316E-04 +2.407877E-04 -2.750316E-04 +7.647791E-03 
 +2.315031E-04 -6.917104E-04 +2.850695E-04 -6.917104E-04 +6.538168E-06 -4.630817E-05 +2.850695E-04 -4.630817E-05 +7.498841E-03 
 +2.145685E-04 +7.303274E-04 +3.235980E-04 +7.303274E-04 -3.061975E-04 +1.480906E-04 +3.235980E-04 +1.480906E-04 +7.715826E-03 
 +3.373144E-04 +6.436983E-05 -3.404015E-04 +6.436983E-05 +2.856719E-04 +7.249716E-05 -3.404015E-04 +7.249716E-05 +7.312739E-03 
 +3.869211E-05 -1.274880E-04 -8.999348E-06 -1.274880E-04 +1.659843E-04 +6.248389E-04 -8.999348E-06 +6.248389E-04 +7.588029E-03 
 +1.712578E-04 -2.964615E-04 -1.595756E-04 -2.964615E-04 +1.483732E-04 +6.423008E-04 -1.595756E-04 +6.423008E-04 +7.129469E-03 
 +2.426516E-04 +5.398085E-04 +1.044755E-04 +5.398085E-04 +2.404466E-05 +5.629467E-04 +1.044755E-04 +5.629467E-04 +7.081029E-03 
 -1.078409E-04 +3.025989E-04 +5.146716E-04 +3.025989E-04 +1.297567E-04 +3.355747E-04 +5.146716E-04 +3.355747E-04 +7.377540E-03 
 -7.990403E-05 +4.122473E-04 -3.947519E-04 +4.122473E-04 +1.166657E-04 -4.737457E-04 -3.947519E-04 -4.737457E-04 +7.407631E-03 
 +5.519245E-05 -1.002294E-04 -8.201469E-05 -1.002294E-04 -5.771534E-04 +3.339117E-04 -8.201469E-05 +3.339117E-04 +7.874396E-03 
 -1.302622E-05 -1.075796E-03 +3.588613E-04 -1.075796E-03 +3.754919E-04 +3.953372E-04 +3.588613E-04 +3.953372E-04 +7.396762E-03 
 +4.145112E-04 +5.449914E-04 -1.796002E-04 +5.449914E-04 +3.156453E-05 -2.529286E-04 -1.796002E-04 -2.529286E-04 +7.097300E-03 
 -9.391421E-05 -2.447450E-04 -2.711124E-04 -2.447450E-04 +3.401190E-04 +2.155942E-04 -2.711124E-04 +2.155942E-04 +7.455637E-03 
 -4.037359E-04 +6.317890E-04 +2.156603E-04 +6.317890E-04 -1.857469E-04 -5.156410E-04 +2.156603E-04 -5.156410E-04 +7.769264E-03 
 -4.837544E-04 -9.897463E-04 -3.029963E-04 -9.897463E-04 +2.495456E-04 -2.495134E-04 -3.029963E-04 -2.495134E-04 +7.220834E-03 
 -5.907072E-05 +3.654483E-04 -8.956328E-04 +3.654483E-04 -2.953427E-04 -8.407097E-05 -8.956328E-04 -8.407097E-05 +7.487686E-03 
 +2.554726E-04 +4.709380E-04 -7.621368E-04 +4.709380E-04 -2.635457E-04 +2.338759E-04 -7.621368E-04 +2.338759E-04 +7.402451E-03 
 +1.097131E-04 +1.181236E-05 -1.611787E-04 +1.181236E-05 +3.795154E-04 +7.790743E-06 -1.611787E-04 +7.790743E-06 +7.320069E-03 
 +2.523214E-04 +4.040628E-04 -3.098135E-04 +4.040628E-04 -3.797568E-04 +4.909034E-04 -3.098135E-04 +4.909034E-04 +7.537461E-03 
 +2.943971E-05 -6.411634E-04 -1.344192E-05 -6.411634E-04 +1.567307E-04 +2.038516E-04 -1.344192E-05 +2.038516E-04 +7.403228E-03 
 +6.575058E-05 +2.024270E-05 +5.604078E-04 +2.024270E-05 +2.270448E-04 +4.106769E-05 +5.604078E-04 +4.106769E-05 +7.042868E-03 
 -4.871546E-04 +2.082942E-04 +1.998791E-05 +2.082942E-04 +1.301512E-04 +2.471028E-04 +1.998791E-05 +2.471028E-04 +7.732178E-03 
 -3.390645E-04 -3.358258E-04 +4.870714E-04 -3.358258E-04 -2.799203E-04 +8.221903E-06 +4.870714E-04 +8.221903E-06 +7.842879E-03 
 -8.373779E-05 -2.594939E-04 +1.969452E-04 -2.594939E-04 +3.171010E-04 +7.083944E-04 +1.969452E-04 +7.083944E-04 +7.412910E-03 
 +2.721397E-05 +4.338046E-04 +7.112864E-05 +4.338046E-04 -3.977538E-04 +3.511499E-04 +7.112864E-05 +3.511499E-04 +7.997528E-03 
 -7.325551E-05 -2.999384E-04 -4.015122E-04 -2.999384E-04 +7.581994E-04 -1.083702E-04 -4.015122E-04 -1.083702E-04 +7.501326E-03 
 -2.442602E-04 +1.630336E-04 -6.231367E-04 +1.630336E-04 +1.715983E-04 -2.044509E-04 -6.231367E-04 -2.044509E-04 +7.767227E-03 
 +1.490486E-04 -6.105225E-04 -4.792387E-05 -6.105225E-04 -7.624649E-04 +3.680594E-04 -4.792387E-05 +3.680594E-04 +7.975834E-03 
 -2.863701E-04 +4.659980E-04 +1.592963E-04 +4.659980E-04 +2.875288E-04 -4.217311E-04 +1.592963E-04 -4.217311E-04 +7.496489E-03 
 -3.152986E-04 +4.990522E-04 +2.195495E-05 +4.990522E-04 -2.227302E-04 -3.909644E-05 +2.195495E-05 -3.909644E-05 +7.445994E-03 
 +9.653970E-05 -2.696810E-04 +1.184574E-04 -2.696810E-04 +2.475155E-04 -3.321530E-04 +1.184574E-04 -3.321530E-04 +7.076229E-03 
 +1.082834E-04 +7.569246E-05 +3.874327E-04 +7.569246E-05 -5.103003E-04 -3.319534E-05 +3.874327E-04 -3.319534E-05 +7.646985E-03 
 +5.431958E-04 -8.784902E-05 +3.967998E-04 -8.784902E-05 +5.141183E-05 -1.247021E-04 +3.967998E-04 -1.247021E-04 +7.510358E-03 
 +2.311613E-05 -3.616302E-04 +2.077676E-04 -3.616302E-04 +1.547456E-04 +4.047251E-04 +2.077676E-04 +4.047251E-04 +7.400824E-03 
 -2.189491E-04 +8.458279E-05 -2.196523E-04 +8.458279E-05 +2.638489E-04 -2.154524E-04 -2.196523E-04 -2.154524E-04 +7.468492E-03 
 -3.108079E-04 -5.321550E-04 +6.185010E-04 -5.321550E-04 -2.121222E-04 -2.088508E-04 +6.185010E-04 -2.088508E-04 +7.836380E-03 
 -1.224996E-04 -1.897056E-04 -2.829946E-05 -1.897056E-04 -4.324166E-05 +1.602516E-04 -2.829946E-05 +1.602516E-04 +7.512730E-03 
 +2.484680E-04 -5.457287E-04 -7.367008E-04 -5.457287E-04 -1.510115E-05 +6.644804E-04 -7.367008E-04 +6.644804E-04 +7.421477E-03 
 +6.100881E-04 +4.603415E-05 -6.619669E-04 +4.603415E-05 -1.617591E-05 +2.808929E-04 -6.619669E-04 +2.808929E-04 +7.359396E-03 
 +5.775110E-04 +7.397280E-04 -4.592122E-04 +7.397280E-04 -6.079575E-05 +1.049046E-04 -4.592122E-04 +1.049046E-04 +7.076633E-03 
 -1.414888E-04 +1.694874E-04 -2.335500E-04 +1.694874E-04 +2.196134E-04 +6.348516E-04 -2.335500E-04 +6.348516E-04 +7.327011E-03 
 -3.369329E-04 -1.343610E-04 -3.553781E-04 -1.343610E-04 -1.746439E-04 +3.498271E-04 -3.553781E-04 +3.498271E-04 +7.964035E-03 
 +1.134066E-05 +3.820627E-04 -1.376096E-04 +3.820627E-04 +6.884290E-05 -1.536372E-04 -1.376096E-04 -1.536372E-04 +7.198137E-03 
 +1.397509E-04 +6.848467E-05 +1.443339E-05 +6.848467E-05 +1.026363E-04 -4.401593E-04 +1.443339E-05 -4.401593E-04 +7.076926E-03 
 -1.735532E-04 -3.302606E-04 -3.255944E-04 -3.302606E-04 +1.031091E-04 +2.224124E-04 -3.255944E-04 +2.224124E-04 +7.631453E-03 
 +3.554440E-04 +1.946076E-04 -6.515774E-04 +1.946076E-04 +6.043661E-06 -7.887880E-05 -6.515774E-04 -7.887880E-05 +6.936437E-03 
 +3.406548E-04 -1.805804E-04 -1.756436E-05 -1.805804E-04 -1.093407E-06 +2.375633E-04 -1.756436E-05 +2.375633E-04 +7.276930E-03 
 -7.663546E-05 +6.736186E-04 +3.009840E-04 +6.736186E-04 +1.543932E-04 -3.544384E-04 +3.009840E-04 -3.544384E-04 +7.637973E-03 
 +1.373022E-05 -9.213871E-04 +3.176946E-04 -9.213871E-04 -5.284425E-04 -2.954096E-04 +3.176946E-04 -2.954096E-04 +7.645243E-03 
 -2.862147E-04 +6.449420E-04 +2.202020E-04 +6.449420E-04 +2.801759E-04 +3.363921E-04 +2.202020E-04 +3.363921E-04 +7.846277E-03 
 +1.262928E-04 -8.095633E-04 +2.042261E-04 -8.095633E-04 -2.733278E-04 -2.796293E-04 +2.042261E-04 -2.796293E-04 +7.529897E-03 
 -1.714824E-04 +6.937111E-04 +2.392283E-04 +6.937111E-04 -1.204495E-04 -8.116133E-05 +2.392283E-04 -8.116133E-05 +7.779069E-03 
 +1.682184E-04 +8.409123E-05 +2.431826E-04 +8.409123E-05 +4.006861E-05 +2.080439E-04 +2.431826E-04 +2.080439E-04 +7.370704E-03 
 +2.841585E-04 -3.834384E-04 -9.548857E-05 -3.834384E-04 -3.543826E-05 +1.917918E-04 -9.548857E-05 +1.917918E-04 +7.344788E-03 
 +3.059463E-04 -1.529847E-04 +4.548392E-05 -1.529847E-04 +1.849476E-04 -5.174532E-05 +4.548392E-05 -5.174532E-05 +7.365705E-03 
 +3.417713E-04 +2.276297E-04 +3.104090E-04 +2.276297E-04 +2.356002E-04 -4.922158E-04 +3.104090E-04 -4.922158E-04 +6.808805E-03 
 +1.095994E-04 -1.730923E-04 -1.343042E-05 -1.730923E-04 +2.738002E-04 +3.491279E-04 -1.343042E-05 +3.491279E-04 +7.170935E-03 
 -2.201760E-04 -5.892948E-04 +7.462451E-05 -5.892948E-04 -3.362724E-04 +4.957566E-04 +7.462451E-05 +4.957566E-04 +7.784398E-03 
 -3.586276E-05 -5.270152E-04 -3.526783E-04 -5.270152E-04 -4.614159E-05 -1.411818E-04 -3.526783E-04 -1.411818E-04 +7.733244E-03 
 -4.225524E-05 -4.487286E-04 -4.822289E-04 -4.487286E-04 -4.687142E-05 -3.239850E-05 -4.822289E-04 -3.239850E-05 +7.739087E-03 
 +1.109262E-05 -3.731912E-05 +5.041764E-04 -3.731912E-05 -3.803295E-04 +4.556605E-05 +5.041764E-04 +4.556605E-05 +8.003273E-03 
 -6.045898E-04 -7.063980E-04 +3.408091E-04 -7.063980E-04 +4.139945E-04 -5.974660E-04 +3.408091E-04 -5.974660E-04 +7.571532E-03 
 -4.510107E-04 +3.425688E-04 +1.249426E-04 +3.425688E-04 +2.449322E-04 +7.539169E-04 +1.249426E-04 +7.539169E-04 +7.304703E-03 
 +4.404595E-05 -2.889154E-04 +5.166360E-04 -2.889154E-04 -3.343159E-04 -1.915323E-04 +5.166360E-04 -1.915323E-04 +7.725628E-03 
 +5.990255E-05 +6.188659E-04 +1.097587E-04 +6.188659E-04 +2.327155E-04 +6.890278E-04 +1.097587E-04 +6.890278E-04 +7.518286E-03 
 +4.909509E-04 -3.877193E-05 -5.467488E-04 -3.877193E-05 +2.200686E-05 +1.724699E-04 -5.467488E-04 +1.724699E-04 +7.118426E-03 
 +7.142585E-05 +3.857352E-04 -6.231802E-04 +3.857352E-04 +1.670309E-04 +1.376218E-06 -6.231802E-04 +1.376218E-06 +7.401845E-03 
 +8.050590E-06 +4.510716E-04 -1.220292E-05 +4.510716E-04 -2.714941E-04 +2.794136E-04 -1.220292E-05 +2.794136E-04 +7.483694E-03 
 +3.084502E-04 +2.992196E-04 +3.197426E-04 +2.992196E-04 -1.964174E-04 +3.102359E-04 +3.197426E-04 +3.102359E-04 +7.225608E-03 
 +9.951186E-05 -4.149200E-04 +3.512909E-04 -4.149200E-04 -2.725890E-05 +3.982633E-04 +3.512909E-04 +3.982633E-04 +7.286389E-03 
 +1.282366E-04 -2.528875E-04 +2.310865E-04 -2.528875E-04 +1.312629E-04 -5.533398E-04 +2.310865E-04 -5.533398E-04 +6.941856E-03 
 -6.347639E-05 -8.441043E-04 +2.454608E-04 -8.441043E-04 -2.694836E-04 +3.021424E-04 +2.454608E-04 +3.021424E-04 +7.477729E-03 
 +1.888127E-04 +3.165920E-05 -4.256160E-05 +3.165920E-05 -1.229122E-04 +4.284289E-05 -4.256160E-05 +4.284289E-05 +7.375027E-03 
 +3.660721E-04 -8.021290E-04 -3.539513E-04 -8.021290E-04 +1.607373E-04 +2.870413E-05 -3.539513E-04 +2.870413E-05 +7.012186E-03 
 +3.074723E-04 +3.880629E-04 +1.552925E-04 +3.880629E-04 +1.317360E-04 +4.150334E-04 +1.552925E-04 +4.150334E-04 +7.181679E-03 
 +2.617104E-04 -1.458684E-04 -2.660145E-04 -1.458684E-04 +1.643021E-04 -5.458593E-04 -2.660145E-04 -5.458593E-04 +7.191933E-03 
 -8.540234E-05 +6.289094E-04 -6.555538E-04 +6.289094E-04 +1.317109E-04 -3.415802E-04 -6.555538E-04 -3.415802E-04 +7.437121E-03 
 +5.273770E-05 +4.202279E-04 -4.758825E-04 +4.202279E-04 +3.049115E-04 -1.706430E-04 -4.758825E-04 -1.706430E-04 +7.190473E-03 
 +1.962273E-04 +9.268530E-05 -1.194322E-04 +9.268530E-05 +6.795979E-05 +7.935469E-05 -1.194322E-04 +7.935469E-05 +7.467064E-03 
 +2.082574E-04 -3.868321E-04 +1.498943E-04 -3.868321E-04 -6.700732E-04 +4.532340E-05 +1.498943E-04 +4.532340E-05 +7.836226E-03 
 -4.259207E-04 +2.518612E-05 +2.178161E-05 +2.518612E-05 +4.535394E-04 +1.131466E-04 +2.178161E-05 +1.131466E-04 +7.932286E-03 
 +4.173997E-04 -1.156496E-03 -2.942970E-05 -1.156496E-03 -7.531905E-04 +5.679426E-06 -2.942970E-05 +5.679426E-06 +7.836745E-03 
 -1.075067E-04 -1.091294E-03 +3.990459E-04 -1.091294E-03 +4.457805E-04 -1.868768E-04 +3.990459E-04 -1.868768E-04 +7.684981E-03 
 -2.883177E-04 +6.570328E-06 +2.279545E-04 +6.570328E-06 +4.978792E-04 +2.156191E-04 +2.279545E-04 +2.156191E-04 +7.326810E-03 
 +3.241560E-04 +8.848500E-04 -3.145585E-04 +8.848500E-04 -2.300117E-04 -7.268337E-04 -3.145585E-04 -7.268337E-04 +7.232354E-03 
 -3.732390E-04 -3.871635E-04 -1.284398E-04 -3.871635E-04 +1.207110E-04 -2.359693E-04 -1.284398E-04 -2.359693E-04 +7.480768E-03 
 +1.831270E-04 -1.765817E-04 -7.605074E-05 -1.765817E-04 +9.790988E-05 -6.241783E-06 -7.605074E-05 -6.241783E-06 +7.602215E-03 
 -2.247809E-04 +7.964778E-04 +1.426606E-04 +7.964778E-04 -6.628968E-05 +2.959197E-04 +1.426606E-04 +2.959197E-04 +8.099547E-03 
 -4.517295E-04 -1.523071E-04 -1.482091E-04 -1.523071E-04 -4.239434E-05 -1.004893E-04 -1.482091E-04 -1.004893E-04 +7.986618E-03 
 +1.500274E-04 -3.225091E-04 +1.106917E-04 -3.225091E-04 -9.919651E-05 +1.672987E-04 +1.106917E-04 +1.672987E-04 +7.627335E-03 
 +6.186607E-05 +1.894031E-04 +6.296725E-04 +1.894031E-04 -1.081553E-04 +5.512077E-04 +6.296725E-04 +5.512077E-04 +7.355506E-03 
 -2.473786E-04 -7.410381E-04 -1.469163E-04 -7.410381E-04 -8.516246E-05 +1.716711E-04 -1.469163E-04 +1.716711E-04 +7.795860E-03 
 -4.029355E-04 -9.632295E-05 -2.909560E-04 -9.632295E-05 -9.568333E-06 +5.995325E-04 -2.909560E-04 +5.995325E-04 +7.487601E-03 
 +4.945182E-04 -7.185034E-05 +2.063897E-04 -7.185034E-05 +2.638639E-05 -1.634139E-04 +2.063897E-04 -1.634139E-04 +7.377073E-03 
 +2.235141E-04 -7.535420E-04 +1.863302E-04 -7.535420E-04 -3.787917E-04 +2.341094E-05 +1.863302E-04 +2.341094E-05 +7.480195E-03 
 +2.339777E-04 +7.815573E-04 +1.615131E-04 +7.815573E-04 -4.551159E-05 +1.640032E-04 +1.615131E-04 +1.640032E-04 +7.710219E-03 
 +3.943873E-04 -8.008453E-04 +6.252895E-04 -8.008453E-04 +1.810143E-04 -2.319038E-04 +6.252895E-04 -2.319038E-04 +7.175052E-03 
 -3.430800E-04 +1.490054E-03 +1.864726E-04 +1.490054E-03 +5.622526E-05 +3.385086E-05 +1.864726E-04 +3.385086E-05 +7.542945E-03 
 -4.018045E-04 +3.012632E-04 +6.359516E-04 +3.012632E-04 -7.576613E-05 -4.138619E-04 +6.359516E-04 -4.138619E-04 +7.709750E-03 
 +3.532657E-04 -7.465713E-04 +2.677116E-04 -7.465713E-04 +2.607317E-04 +4.372593E-04 +2.677116E-04 +4.372593E-04 +7.000517E-03 
 +3.276770E-04 -9.057942E-05 +2.161128E-04 -9.057942E-05 -4.504777E-04 -4.101194E-04 +2.161128E-04 -4.101194E-04 +7.254379E-03 
 +6.525491E-05 -1.113321E-04 +3.459789E-04 -1.113321E-04 +5.443554E-05 -1.635056E-04 +3.459789E-04 -1.635056E-04 +7.349415E-03 
 +2.622282E-04 -3.393431E-04 -2.468447E-04 -3.393431E-04 +1.618452E-04 -5.967304E-04 -2.468447E-04 -5.967304E-04 +6.863203E-03 
 -1.170749E-04 +1.916078E-04 -5.194196E-04 +1.916078E-04 +1.188481E-04 +5.598540E-04 -5.194196E-04 +5.598540E-04 +7.155767E-03 
 -2.020215E-04 -2.087982E-05 -9.667967E-05 -2.087982E-05 +7.571175E-05 +1.469380E-04 -9.667967E-05 +1.469380E-04 +7.836852E-03 
 -6.980610E-05 +1.519708E-03 +1.398924E-04 +1.519708E-03 +6.664341E-05 -6.377049E-05 +1.398924E-04 -6.377049E-05 +7.789942E-03 
 -1.265981E-04 -1.181921E-03 -5.677480E-04 -1.181921E-03 +8.723381E-05 -3.638327E-04 -5.677480E-04 -3.638327E-04 +7.452158E-03 
 +9.891563E-05 +6.959365E-05 -1.916757E-04 +6.959365E-05 -2.169263E-04 +1.990103E-04 -1.916757E-04 +1.990103E-04 +7.499284E-03 
 -1.316529E-04 +1.862947E-04 -5.986976E-04 +1.862947E-04 +1.306444E-04 -4.729872E-04 -5.986976E-04 -4.729872E-04 +6.962030E-03 
 -1.600038E-04 -4.478346E-04 -5.822866E-04 -4.478346E-04 +2.297114E-04 +8.604955E-05 -5.822866E-04 +8.604955E-05 +7.114402E-03 
 +1.648808E-04 -9.397207E-04 +1.567630E-04 -9.397207E-04 -2.235989E-04 -5.360885E-04 +1.567630E-04 -5.360885E-04 +7.432927E-03 
 -1.973349E-04 -4.196567E-05 -2.402904E-04 -4.196567E-05 -3.659343E-05 +1.514877E-04 -2.402904E-04 +1.514877E-04 +7.451721E-03 
 +5.064278E-05 +3.141063E-04 +1.622344E-04 +3.141063E-04 +8.491079E-05 +9.612482E-05 +1.622344E-04 +9.612482E-05 +7.476920E-03 
 +1.587531E-04 -2.431281E-04 +3.053399E-04 -2.431281E-04 -3.502422E-04 -1.997402E-04 +3.053399E-04 -1.997402E-04 +7.539222E-03 
 +2.002858E-04 -7.780489E-04 +2.817594E-04 -7.780489E-04 -1.897001E-05 -5.582548E-04 +2.817594E-04 -5.582548E-04 +7.604450E-03 
 -1.204234E-04 -9.383535E-04 -6.417323E-05 -9.383535E-04 -9.090404E-05 -2.630183E-04 -6.417323E-05 -2.630183E-04 +7.874494E-03 
 +2.292629E-04 +9.457234E-05 -3.613824E-04 +9.457234E-05 -1.844250E-04 -1.792762E-04 -3.613824E-04 -1.792762E-04 +7.095063E-03 
 +2.734996E-05 +4.409820E-04 -1.236227E-04 +4.409820E-04 -4.857980E-05 -4.831417E-04 -1.236227E-04 -4.831417E-04 +7.389410E-03 
 -2.012991E-04 +9.583869E-04 +2.486818E-04 +9.583869E-04 -4.376117E-05 +4.321607E-04 +2.486818E-04 +4.321607E-04 +7.492258E-03 
 -4.980571E-04 +3.845260E-04 -1.071162E-04 +3.845260E-04 +2.437740E-04 -5.295671E-04 -1.071162E-04 -5.295671E-04 +7.663645E-03 
 -1.743778E-05 -7.972150E-04 -2.213240E-06 -7.972150E-04 -4.102630E-04 +4.285266E-04 -2.213240E-06 +4.285266E-04 +8.129001E-03 
 +4.104176E-04 -2.787054E-04 +8.610208E-05 -2.787054E-04 -1.764640E-05 -7.071607E-05 +8.610208E-05 -7.071607E-05 +7.631568E-03 
 +3.282762E-04 +3.288701E-05 +4.740118E-04 +3.288701E-05 +3.646437E-05 -1.473537E-04 +4.740118E-04 -1.473537E-04 +7.172908E-03 
 -4.348245E-04 +4.051482E-04 +1.697524E-04 +4.051482E-04 +2.466412E-04 -5.410616E-04 +1.697524E-04 -5.410616E-04 +7.492300E-03 
 -5.347596E-04 +1.177327E-03 -4.648826E-05 +1.177327E-03 +1.294371E-04 +2.586425E-05 -4.648826E-05 +2.586425E-05 +7.726804E-03 
 +1.007417E-04 -7.814103E-05 +1.619288E-04 -7.814103E-05 +2.206573E-04 +8.168556E-05 +1.619288E-04 +8.168556E-05 +7.391276E-03 
 -2.894048E-05 -4.713709E-04 -1.409572E-04 -4.713709E-04 -2.753192E-05 -2.646735E-04 -1.409572E-04 -2.646735E-04 +7.415811E-03 
 -2.784475E-04 -1.466861E-04 +5.262893E-04 -1.466861E-04 +1.022693E-04 -2.732062E-04 +5.262893E-04 -2.732062E-04 +7.944128E-03 
 -1.795153E-04 -1.359264E-04 -1.337276E-04 -1.359264E-04 -3.145219E-04 +3.122955E-04 -1.337276E-04 +3.122955E-04 +7.764259E-03 
 -5.244093E-04 +4.484816E-04 -7.291740E-04 +4.484816E-04 +2.030065E-04 -5.308298E-05 -7.291740E-04 -5.308298E-05 +7.706300E-03 
 -3.498076E-04 -1.142636E-03 +9.555511E-06 -1.142636E-03 +2.317660E-04 +3.259742E-04 +9.555511E-06 +3.259742E-04 +7.289879E-03 
 -3.884707E-05 -8.461893E-04 +1.541709E-04 -8.461893E-04 -7.155073E-05 +2.297588E-04 +1.541709E-04 +2.297588E-04 +7.587705E-03 
 -3.443614E-04 -2.805298E-04 +8.043328E-05 -2.805298E-04 -1.526607E-04 +4.084249E-04 +8.043328E-05 +4.084249E-04 +7.732340E-03 
 -1.863213E-07 -1.621662E-04 +8.834369E-04 -1.621662E-04 -1.592635E-04 +7.917235E-05 +8.834369E-04 +7.917235E-05 +7.510464E-03 
 +9.503309E-05 -9.481951E-04 +8.437775E-04 -9.481951E-04 -2.356803E-04 -4.184381E-04 +8.437775E-04 -4.184381E-04 +7.647024E-03 
 -1.154104E-05 +4.028953E-04 -7.233162E-04 +4.028953E-04 +5.682243E-05 +1.532494E-04 -7.233162E-04 +1.532494E-04 +7.372133E-03 
 +1.115915E-04 -2.426574E-04 -1.761926E-04 -2.426574E-04 +1.953733E-04 +3.598938E-04 -1.761926E-04 +3.598938E-04 +7.131545E-03 
 -5.126991E-05 -5.023630E-04 -1.509351E-05 -5.023630E-04 -7.005047E-05 -2.705634E-04 -1.509351E-05 -2.705634E-04 +7.734472E-03 
 -5.563753E-04 +1.307804E-03 -4.504132E-04 +1.307804E-03 +1.308951E-05 +1.347470E-04 -4.504132E-04 +1.347470E-04 +7.938579E-03 
 -2.937905E-04 +2.005658E-04 +5.170163E-04 +2.005658E-04 +1.172581E-04 +6.957668E-04 +5.170163E-04 +6.957668E-04 +7.620964E-03 
 +9.983945E-05 +2.758099E-04 +6.785507E-04 +2.758099E-04 -3.684279E-04 +3.516715E-06 +6.785507E-04 +3.516715E-06 +7.534150E-03 
 +4.253174E-04 +5.761460E-05 -1.834640E-04 +5.761460E-05 +8.867564E-05 -1.197228E-04 -1.834640E-04 -1.197228E-04 +6.950264E-03 
 +2.417726E-04 +6.182234E-04 -1.624476E-04 +6.182234E-04 +1.739824E-04 +6.768587E-04 -1.624476E-04 +6.768587E-04 +6.830489E-03 
 +9.037434E-05 +7.492251E-05 -1.098791E-04 +7.492251E-05 -1.082864E-04 +3.106686E-04 -1.098791E-04 +3.106686E-04 +7.262770E-03 
 -1.974076E-04 +8.002387E-04 +9.139008E-05 +8.002387E-04 -1.093815E-04 +3.624124E-04 +9.139008E-05 +3.624124E-04 +7.527243E-03 
 -9.089617E-05 -2.174039E-04 -4.086656E-04 -2.174039E-04 +1.092489E-04 +7.856760E-06 -4.086656E-04 +7.856760E-06 +7.197063E-03 
 +4.854151E-05 -2.633414E-04 -3.218932E-04 -2.633414E-04 +5.713390E-04 +3.441136E-04 -3.218932E-04 +3.441136E-04 +7.152793E-03 
 +5.459938E-04 -8.201097E-04 +2.553526E-04 -8.201097E-04 -1.526862E-04 -7.902947E-05 +2.553526E-04 -7.902947E-05 +7.303608E-03 
 +1.621305E-04 +5.931892E-04 -2.914536E-04 +5.931892E-04 -9.910402E-05 -9.546372E-05 -2.914536E-04 -9.546372E-05 +6.879689E-03 
 -7.326423E-05 -2.032153E-04 -5.545515E-04 -2.032153E-04 +3.704489E-06 +9.355971E-05 -5.545515E-04 +9.355971E-05 +7.443964E-03 
 -2.842307E-04 +1.412646E-04 -1.435153E-04 +1.412646E-04 +7.944222E-05 -5.343956E-04 -1.435153E-04 -5.343956E-04 +7.599416E-03 
 -9.315911E-04 -4.916950E-04 +2.488330E-04 -4.916950E-04 +2.409189E-05 -1.023274E-04 +2.488330E-04 -1.023274E-04 +7.886109E-03 
 -1.651788E-04 +6.266361E-04 +4.681511E-05 +6.266361E-04 +2.884312E-04 -4.733435E-05 +4.681511E-05 -4.733435E-05 +7.536659E-03 
 +1.459504E-04 +2.348036E-05 +6.280035E-04 +2.348036E-05 -3.083171E-04 -1.798308E-04 +6.280035E-04 -1.798308E-04 +7.483150E-03 
 +1.245359E-04 -5.915391E-04 +1.092437E-04 -5.915391E-04 -3.221410E-04 +2.396613E-04 +1.092437E-04 +2.396613E-04 +7.602114E-03 
 +6.272552E-04 +6.809155E-05 -1.509347E-04 +6.809155E-05 +1.277059E-04 -7.081292E-05 -1.509347E-04 -7.081292E-05 +7.052533E-03 
 +1.044509E-04 -2.599307E-04 +1.282492E-04 -2.599307E-04 -2.797483E-05 -2.114866E-04 +1.282492E-04 -2.114866E-04 +7.109504E-03 
 +3.045227E-04 +3.383467E-04 -3.799021E-04 +3.383467E-04 -3.043133E-05 -2.777771E-04 -3.799021E-04 -2.777771E-04 +7.333839E-03 
 -2.260273E-05 +1.288118E-04 -2.791819E-04 +1.288118E-04 +2.118934E-04 +5.431182E-04 -2.791819E-04 +5.431182E-04 +7.090211E-03 
 +9.379061E-07 -2.853199E-04 +1.444086E-04 -2.853199E-04 +2.559238E-04 +3.909085E-05 +1.444086E-04 +3.909085E-05 +7.088349E-03 
 +5.434167E-04 -2.492536E-04 -2.151588E-04 -2.492536E-04 -1.378076E-04 +4.041175E-04 -2.151588E-04 +4.041175E-04 +7.458752E-03 
 +5.825499E-05 -8.985688E-04 +1.901867E-04 -8.985688E-04 -4.871327E-04 +3.322857E-04 +1.901867E-04 +3.322857E-04 +7.796546E-03 
 +2.970131E-05 +1.867531E-04 +5.380629E-04 +1.867531E-04 +1.530996E-04 -4.328653E-04 +5.380629E-04 -4.328653E-04 +7.864815E-03 
 -1.474352E-04 +4.382143E-04 -3.490121E-04 +4.382143E-04 -5.519532E-05 -4.148721E-04 -3.490121E-04 -4.148721E-04 +7.556525E-03 
 -2.043764E-04 +3.877391E-04 +2.561013E-05 +3.877391E-04 +7.412699E-05 -3.350333E-04 +2.561013E-05 -3.350333E-04 +7.729502E-03 
 -2.984053E-04 +6.536667E-04 +1.494890E-04 +6.536667E-04 -1.697830E-04 -9.463975E-05 +1.494890E-04 -9.463975E-05 +7.720037E-03 
 -1.667222E-04 -8.851586E-04 -3.044606E-04 -8.851586E-04 +1.581064E-04 -5.171653E-04 -3.044606E-04 -5.171653E-04 +7.641956E-03 
 +2.773006E-05 -2.597431E-04 -3.557852E-05 -2.597431E-04 +2.024404E-04 -2.270771E-04 -3.557852E-05 -2.270771E-04 +7.092638E-03 
 -1.974152E-04 -8.140490E-05 -2.230668E-04 -8.140490E-05 +2.424046E-04 -1.338991E-04 -2.230668E-04 -1.338991E-04 +7.316873E-03 
 +1.313223E-04 +8.110754E-04 -4.233622E-05 +8.110754E-04 -7.235608E-04 -7.886587E-04 -4.233622E-05 -7.886587E-04 +8.082232E-03 
 +2.661515E-04 -3.093407E-04 +2.620336E-04 -3.093407E-04 +5.229672E-04 -3.456793E-04 +2.620336E-04 -3.456793E-04 +6.916528E-03 
 -9.549337E-07 -5.447235E-04 +1.477866E-04 -5.447235E-04 -9.713251E-05 +2.694179E-04 +1.477866E-04 +2.694179E-04 +7.357217E-03 
 -2.857222E-04 +9.688620E-04 +1.673998E-04 +9.688620E-04 +1.324566E-04 -1.830765E-04 +1.673998E-04 -1.830765E-04 +7.630594E-03 
 -3.256910E-04 +1.553991E-04 +4.051082E-04 +1.553991E-04 +7.169211E-05 -8.822670E-05 +4.051082E-04 -8.822670E-05 +7.819375E-03 
 -3.325253E-04 +2.831965E-04 -2.751476E-04 +2.831965E-04 -1.746164E-04 -5.815558E-04 -2.751476E-04 -5.815558E-04 +7.636330E-03 
 +2.976234E-04 +2.871002E-04 -3.130890E-05 +2.871002E-04 +3.156094E-04 -4.300515E-05 -3.130890E-05 -4.300515E-05 +6.870574E-03 
 +3.787711E-04 +9.583325E-05 -4.833657E-04 +9.583325E-05 -1.811536E-04 +7.641911E-05 -4.833657E-04 +7.641911E-05 +7.347465E-03 
 -3.677580E-04 -8.375742E-04 +1.808268E-04 -8.375742E-04 +3.659647E-05 +3.066098E-04 +1.808268E-04 +3.066098E-04 +7.694192E-03 
 +1.725883E-04 -3.824768E-05 +5.086553E-04 -3.824768E-05 -3.507046E-04 +1.645525E-04 +5.086553E-04 +1.645525E-04 +7.450814E-03 
 -6.439315E-05 -3.816152E-04 +5.655911E-04 -3.816152E-04 -1.948586E-04 -4.464095E-04 +5.655911E-04 -4.464095E-04 +7.552603E-03 
 -2.316758E-04 +1.431187E-04 +8.459954E-05 +1.431187E-04 +2.392303E-04 -4.984405E-04 +8.459954E-05 -4.984405E-04 +7.385077E-03 
 +2.712610E-04 -6.563274E-04 -1.472090E-04 -6.563274E-04 -2.590771E-04 -1.142223E-06 -1.472090E-04 -1.142223E-06 +7.547936E-03 
 +3.477069E-04 -4.512015E-04 +4.693157E-04 -4.512015E-04 -2.377848E-05 -3.094285E-04 +4.693157E-04 -3.094285E-04 +7.274789E-03 
 +3.096850E-04 +8.124026E-05 +4.146681E-04 +8.124026E-05 -1.807138E-04 -5.043735E-04 +4.146681E-04 -5.043735E-04 +7.451982E-03 
 +5.225402E-05 -1.509192E-05 +1.900644E-04 -1.509192E-05 -3.264083E-04 -5.509442E-05 +1.900644E-04 -5.509442E-05 +7.754826E-03 
 +6.279348E-05 -7.560465E-05 -3.704566E-06 -7.560465E-05 +3.960767E-04 +2.683576E-04 -3.704566E-06 +2.683576E-04 +7.227802E-03 
 +1.865168E-04 +5.348688E-05 -2.959243E-05 +5.348688E-05 +9.495419E-05 -1.949242E-04 -2.959243E-05 -1.949242E-04 +6.844372E-03 
 +2.813919E-04 -4.502285E-04 +5.209343E-04 -4.502285E-04 -1.375349E-04 +1.852173E-04 +5.209343E-04 +1.852173E-04 +6.967502E-03 
 -2.443149E-04 -3.464796E-05 -1.316841E-04 -3.464796E-05 -9.219523E-06 -3.979208E-04 -1.316841E-04 -3.979208E-04 +7.769570E-03 
 -3.759637E-04 -6.153175E-04 -2.072058E-04 -6.153175E-04 +9.569978E-05 +2.446095E-04 -2.072058E-04 +2.446095E-04 +7.546699E-03 
 +1.592122E-04 +1.826355E-05 -2.283433E-04 +1.826355E-05 +1.476861E-04 -5.925206E-05 -2.283433E-04 -5.925206E-05 +7.023781E-03 
 -4.703298E-04 -7.167783E-04 -9.143815E-05 -7.167783E-04 -1.038499E-05 +1.669668E-04 -9.143815E-05 +1.669668E-04 +7.730845E-03 
 +1.937342E-05 +1.615355E-05 +6.801146E-04 +1.615355E-05 +1.501711E-04 +1.145039E-03 +6.801146E-04 +1.145039E-03 +7.464178E-03 
 +3.955909E-04 +5.241024E-04 +5.135232E-06 +5.241024E-04 -2.678064E-04 -6.723525E-04 +5.135232E-06 -6.723525E-04 +7.469377E-03 
 -6.921285E-05 -5.339085E-04 -1.115415E-05 -5.339085E-04 +2.422192E-04 +5.587256E-04 -1.115415E-05 +5.587256E-04 +7.412410E-03 
 -4.126636E-04 +3.799406E-04 +1.781608E-04 +3.799406E-04 -3.055996E-05 -6.491161E-04 +1.781608E-04 -6.491161E-04 +7.625467E-03 
 -4.701915E-04 +3.348954E-04 -6.289376E-04 +3.348954E-04 +1.685733E-04 -2.269110E-04 -6.289376E-04 -2.269110E-04 +8.135234E-03 
 -4.473258E-04 -1.073308E-03 -1.033207E-04 -1.073308E-03 +1.870627E-04 -4.169429E-04 -1.033207E-04 -4.169429E-04 +7.833062E-03 
 -1.332526E-04 +1.226100E-04 -1.828611E-04 +1.226100E-04 -3.731246E-05 +8.712198E-05 -1.828611E-04 +8.712198E-05 +7.519115E-03 
 +2.565057E-04 +9.139372E-04 -8.572591E-05 +9.139372E-04 -2.442674E-04 -2.589261E-04 -8.572591E-05 -2.589261E-04 +7.758057E-03 
 -3.936660E-04 -1.197145E-03 -2.716793E-04 -1.197145E-03 -2.484552E-04 +4.098621E-04 -2.716793E-04 +4.098621E-04 +8.064846E-03 
 -3.519921E-04 -5.377506E-05 +3.268387E-05 -5.377506E-05 -2.290156E-04 +2.540981E-04 +3.268387E-05 +2.540981E-04 +8.284552E-03 
 -1.887777E-04 -2.242709E-04 -1.661518E-04 -2.242709E-04 -1.483867E-05 +8.449235E-05 -1.661518E-04 +8.449235E-05 +7.469540E-03 
 +2.477126E-04 -8.953142E-05 +1.116935E-04 -8.953142E-05 +1.677920E-04 +2.309099E-04 +1.116935E-04 +2.309099E-04 +7.233207E-03 
 +5.639911E-04 -6.330881E-04 +6.864193E-04 -6.330881E-04 -1.645957E-04 +4.201833E-04 +6.864193E-04 +4.201833E-04 +7.366156E-03 
 +1.456397E-04 +3.651337E-04 -3.084306E-04 +3.651337E-04 +1.203898E-04 +1.795532E-04 -3.084306E-04 +1.795532E-04 +7.173598E-03 
 +1.524794E-04 -5.583222E-06 +2.102509E-04 -5.583222E-06 +7.738709E-05 +6.427154E-04 +2.102509E-04 +6.427154E-04 +7.140419E-03 
 +7.999096E-05 -7.128624E-04 +3.374251E-04 -7.128624E-04 +2.052623E-05 -7.637158E-05 +3.374251E-04 -7.637158E-05 +7.329624E-03 
 +2.602231E-05 -3.409350E-04 -7.095224E-04 -3.409350E-04 -2.990715E-04 +3.654902E-04 -7.095224E-04 +3.654902E-04 +7.663285E-03 
 +1.033389E-05 +5.411301E-05 +5.255775E-04 +5.411301E-05 -6.408177E-06 +3.870874E-04 +5.255775E-04 +3.870874E-04 +7.563538E-03 
 +1.206224E-06 -6.549185E-05 -9.063191E-05 -6.549185E-05 +3.295531E-04 +3.471870E-04 -9.063191E-05 +3.471870E-04 +7.397304E-03 
 -5.270404E-05 +1.575301E-04 -7.276795E-04 +1.575301E-04 -7.465435E-05 +8.746013E-05 -7.276795E-04 +8.746013E-05 +7.667205E-03 
 -9.170820E-04 -8.669270E-04 -1.436882E-04 -8.669270E-04 +1.293654E-04 -5.197296E-04 -1.436882E-04 -5.197296E-04 +7.886079E-03 
 -2.915306E-04 -2.346292E-04 -2.787738E-05 -2.346292E-04 -2.356873E-04 -1.690380E-04 -2.787738E-05 -1.690380E-04 +7.513056E-03 
 +3.728374E-04 +1.783366E-04 +2.998576E-04 +1.783366E-04 -1.895473E-05 -3.365698E-05 +2.998576E-04 -3.365698E-05 +7.030800E-03 
 +3.351975E-04 +7.696739E-05 +3.559982E-05 +7.696739E-05 +1.662643E-04 +3.319309E-05 +3.559982E-05 +3.319309E-05 +6.901291E-03 
 +3.124673E-04 -1.982872E-04 -3.128697E-04 -1.982872E-04 +2.183461E-04 +1.351392E-04 -3.128697E-04 +1.351392E-04 +6.911994E-03 
 +2.135325E-04 +2.856027E-04 +2.251816E-04 +2.856027E-04 +4.801002E-05 +2.573221E-04 +2.251816E-04 +2.573221E-04 +7.101247E-03 
 +1.403345E-04 -4.750100E-04 -8.733248E-05 -4.750100E-04 +3.968791E-04 +2.723220E-04 -8.733248E-05 +2.723220E-04 +7.153022E-03 
 -1.875539E-05 -1.434234E-05 -1.169901E-05 -1.434234E-05 -7.039126E-05 +5.919685E-04 -1.169901E-05 +5.919685E-04 +7.593135E-03 
 +1.741613E-04 +1.036930E-05 +1.932068E-05 +1.036930E-05 -3.120259E-04 +1.503085E-04 +1.932068E-05 +1.503085E-04 +7.558882E-03 
 +3.341265E-04 -7.599847E-04 -4.857869E-05 -7.599847E-04 -2.438947E-04 -3.457088E-04 -4.857869E-05 -3.457088E-04 +7.173223E-03 
 +2.149056E-04 -7.752328E-04 -1.842539E-04 -7.752328E-04 +4.298960E-05 +2.757348E-05 -1.842539E-04 +2.757348E-05 +7.117584E-03 
 +1.716645E-04 -4.648059E-04 +3.345661E-04 -4.648059E-04 -2.506490E-04 -2.651038E-04 +3.345661E-04 -2.651038E-04 +7.379472E-03 
 -1.017496E-04 -2.151951E-04 -3.453304E-04 -2.151951E-04 +3.382038E-04 +2.808875E-04 -3.453304E-04 +2.808875E-04 +7.224056E-03 
 -3.319178E-04 -2.769954E-04 -1.695592E-04 -2.769954E-04 -1.952598E-04 +2.311508E-04 -1.695592E-04 +2.311508E-04 +7.449363E-03 
 +7.732871E-05 -8.654587E-04 +1.778577E-04 -8.654587E-04 +2.769377E-04 -4.372376E-04 +1.778577E-04 -4.372376E-04 +7.632051E-03 
 -4.375589E-06 +3.005851E-04 -6.069434E-04 +3.005851E-04 +4.691559E-05 +7.568655E-05 -6.069434E-04 +7.568655E-05 +7.735090E-03 
 -1.335709E-04 -8.288761E-04 -3.520897E-05 -8.288761E-04 -4.442972E-04 +5.376443E-05 -3.520897E-05 +5.376443E-05 +7.985379E-03 
 +3.033809E-04 -1.984914E-06 +5.324660E-04 -1.984914E-06 -2.832615E-04 -2.858383E-04 +5.324660E-04 -2.858383E-04 +7.476253E-03 
 +4.478565E-04 -5.534356E-04 -7.095972E-05 -5.534356E-04 +1.824849E-04 -2.270032E-04 -7.095972E-05 -2.270032E-04 +6.926978E-03 
 +1.078843E-04 -2.539442E-04 +2.026472E-05 -2.539442E-04 +1.252564E-04 -5.062513E-04 +2.026472E-05 -5.062513E-04 +7.144701E-03 
 +4.331773E-04 +7.772194E-04 -3.270973E-04 +7.772194E-04 -1.261951E-05 +1.374204E-04 -3.270973E-04 +1.374204E-04 +7.219579E-03 
 +1.422744E-04 -6.165648E-04 -5.038077E-04 -6.165648E-04 -9.636149E-05 +4.180999E-04 -5.038077E-04 +4.180999E-04 +7.403298E-03 
 -1.415383E-04 +1.431940E-04 -5.617922E-04 +1.431940E-04 +3.338985E-05 -4.340121E-04 -5.617922E-04 -4.340121E-04 +7.761314E-03 
 +3.599222E-04 +2.787584E-04 -4.084581E-04 +2.787584E-04 -1.123290E-04 -3.563142E-04 -4.084581E-04 -3.563142E-04 +7.526372E-03 
 +3.685804E-04 -6.325082E-05 -6.011312E-04 -6.325082E-05 +2.876561E-04 -2.961732E-04 -6.011312E-04 -2.961732E-04 +7.204015E-03 
 +2.200584E-04 +3.636770E-04 -4.800218E-04 +3.636770E-04 +1.676511E-04 +3.162551E-05 -4.800218E-04 +3.162551E-05 +6.943187E-03 
 +3.276764E-04 +4.233331E-04 +1.472723E-04 +4.233331E-04 +3.660466E-04 -2.068306E-04 +1.472723E-04 -2.068306E-04 +6.865440E-03 
 +1.704856E-04 -2.672774E-04 +2.695689E-04 -2.672774E-04 -5.626991E-05 -3.959036E-04 +2.695689E-04 -3.959036E-04 +7.300502E-03 
 +6.824026E-05 -1.344979E-05 -5.533134E-04 -1.344979E-05 +3.146266E-04 -8.779306E-06 -5.533134E-04 -8.779306E-06 +7.322677E-03 
 +4.107239E-04 -1.147484E-03 -2.639200E-04 -1.147484E-03 -4.871794E-04 -3.156219E-04 -2.639200E-04 -3.156219E-04 +7.597957E-03 
 +2.535038E-04 -1.474937E-03 +5.495754E-04 -1.474937E-03 -5.049966E-04 -1.446539E-04 +5.495754E-04 -1.446539E-04 +7.457324E-03 
 +2.315029E-05 -4.534160E-04 -1.210211E-04 -4.534160E-04 +5.059709E-04 +6.003892E-04 -1.210211E-04 +6.003892E-04 +7.076942E-03 
 +1.400924E-04 -8.077104E-04 -3.601462E-04 -8.077104E-04 -4.825043E-04 +2.594629E-04 -3.601462E-04 +2.594629E-04 +7.705843E-03 
 -5.116799E-04 +5.895813E-04 -2.419408E-04 +5.895813E-04 +3.130222E-04 +7.815982E-05 -2.419408E-04 +7.815982E-05 +8.086086E-03 
 -5.719213E-05 -8.883046E-04 -9.454436E-04 -8.883046E-04 -2.055074E-04 +2.155687E-04 -9.454436E-04 +2.155687E-04 +7.323655E-03 
 +8.002721E-05 -5.645087E-05 -4.199964E-04 -5.645087E-05 +6.479242E-05 -2.514503E-04 -4.199964E-04 -2.514503E-04 +7.217064E-03 
 -1.799789E-04 -1.449378E-04 +1.426767E-05 -1.449378E-04 -1.956858E-04 -1.982254E-04 +1.426767E-05 -1.982254E-04 +7.402624E-03 
 +2.306665E-04 -4.362608E-04 -5.290417E-04 -4.362608E-04 -7.918628E-05 -1.348906E-04 -5.290417E-04 -1.348906E-04 +7.408028E-03 
 +2.374570E-04 +5.512894E-04 -4.356920E-04 +5.512894E-04 -5.001460E-04 -4.128563E-04 -4.356920E-04 -4.128563E-04 +7.635289E-03 
 -3.755054E-04 +4.646085E-04 -3.117277E-04 +4.646085E-04 +5.008793E-04 +5.360754E-04 -3.117277E-04 +5.360754E-04 +8.090185E-03 
 -1.452005E-04 -1.142308E-03 +4.420438E-04 -1.142308E-03 +8.551450E-05 +4.008268E-04 +4.420438E-04 +4.008268E-04 +7.719248E-03 
 +4.732433E-04 +1.059585E-03 +2.819815E-04 +1.059585E-03 -2.798933E-06 +5.403991E-04 +2.819815E-04 +5.403991E-04 +7.094548E-03 
 +9.824712E-05 -1.928936E-04 +2.706083E-04 -1.928936E-04 -1.048821E-04 +4.847233E-04 +2.706083E-04 +4.847233E-04 +6.975924E-03 
 +8.024345E-05 -1.798110E-04 +3.557332E-04 -1.798110E-04 +8.497213E-05 +4.382593E-04 +3.557332E-04 +4.382593E-04 +7.092466E-03 
 -1.551632E-04 -2.658195E-04 +3.134662E-04 -2.658195E-04 -2.055230E-04 -4.222496E-06 +3.134662E-04 -4.222496E-06 +7.745894E-03 
 -5.673927E-04 +6.339496E-04 +3.711011E-04 +6.339496E-04 +2.656045E-04 -2.109698E-04 +3.711011E-04 -2.109698E-04 +7.730249E-03 
 -1.927311E-04 +6.376805E-04 +1.698149E-04 +6.376805E-04 -7.969130E-05 -3.967745E-05 +1.698149E-04 -3.967745E-05 +7.731711E-03 
 +4.572468E-05 +1.097186E-04 +1.534152E-04 +1.097186E-04 +2.282947E-04 -6.041795E-04 +1.534152E-04 -6.041795E-04 +7.563649E-03 
 +2.621895E-05 -9.583894E-05 +1.065582E-03 -9.583894E-05 -3.817639E-05 +1.597339E-04 +1.065582E-03 +1.597339E-04 +7.206534E-03 
 +3.569418E-04 -1.943966E-04 -3.768252E-04 -1.943966E-04 +2.706625E-04 -2.956188E-04 -3.768252E-04 -2.956188E-04 +7.202675E-03 
 +4.876412E-04 +1.874020E-04 -4.205141E-04 +1.874020E-04 +7.845105E-05 +3.527541E-04 -4.205141E-04 +3.527541E-04 +7.127703E-03 
 -1.795831E-04 -2.775765E-04 -5.116193E-04 -2.775765E-04 +3.417138E-04 +3.817993E-04 -5.116193E-04 +3.817993E-04 +7.500909E-03 
 -5.999652E-06 -7.453366E-04 -5.060537E-04 -7.453366E-04 -5.377398E-04 -2.660101E-04 -5.060537E-04 -2.660101E-04 +8.223143E-03 
 +1.115544E-04 +6.332758E-05 -7.720490E-05 +6.332758E-05 -2.354846E-04 +2.973963E-05 -7.720490E-05 +2.973963E-05 +7.606283E-03 
 -4.045782E-04 +1.304069E-04 -2.236253E-04 +1.304069E-04 +4.970110E-04 -6.972656E-04 -2.236253E-04 -6.972656E-04 +7.559104E-03 
 -6.411787E-05 -5.115617E-04 +1.192404E-05 -5.115617E-04 -6.902107E-05 -1.747606E-04 +1.192404E-05 -1.747606E-04 +7.673693E-03 
 -1.908198E-04 +5.123287E-04 -1.438318E-04 +5.123287E-04 -1.346690E-04 +3.264538E-04 -1.438318E-04 +3.264538E-04 +7.747330E-03 
 +8.379898E-05 +7.523732E-04 -4.201169E-04 +7.523732E-04 -2.457880E-04 +3.060017E-04 -4.201169E-04 +3.060017E-04 +7.589776E-03 
 +4.594331E-04 +2.011584E-04 -6.520104E-04 +2.011584E-04 -2.400849E-04 +4.487496E-04 -6.520104E-04 +4.487496E-04 +7.403961E-03 
 -4.334431E-04 +2.067112E-04 -3.003889E-04 +2.067112E-04 +9.015765E-06 +2.468732E-04 -3.003889E-04 +2.468732E-04 +7.968511E-03 
 -5.991503E-04 +1.067051E-03 +3.728055E-04 +1.067051E-03 +2.554889E-04 +3.517754E-05 +3.728055E-04 +3.517754E-05 +7.624053E-03 
 -3.724000E-05 -1.383491E-04 +4.341888E-04 -1.383491E-04 +2.833966E-04 -7.506977E-04 +4.341888E-04 -7.506977E-04 +7.553745E-03 
 +5.661476E-05 +1.427614E-03 +2.593758E-04 +1.427614E-03 -4.030450E-04 -1.393445E-04 +2.593758E-04 -1.393445E-04 +8.093394E-03 
 +1.299466E-04 -6.379120E-04 -2.195491E-04 -6.379120E-04 +2.167660E-04 +2.677774E-04 -2.195491E-04 +2.677774E-04 +7.857297E-03 
 +1.767879E-04 -6.251794E-04 -3.137283E-05 -6.251794E-04 -2.576209E-04 -3.318781E-04 -3.137283E-05 -3.318781E-04 +7.501042E-03 
 -5.521346E-05 -1.743837E-04 +4.796493E-04 -1.743837E-04 +2.054302E-04 -8.411626E-05 +4.796493E-04 -8.411626E-05 +7.039703E-03 
 -1.080540E-05 +8.116616E-04 +7.046516E-04 +8.116616E-04 +7.949286E-06 -1.960823E-04 +7.046516E-04 -1.960823E-04 +7.623022E-03 
 -3.410675E-04 -1.248051E-04 +6.874288E-05 -1.248051E-04 +8.790717E-05 +2.334023E-04 +6.874288E-05 +2.334023E-04 +7.591293E-03 
 +1.388191E-04 +5.320557E-04 +3.230533E-04 +5.320557E-04 -3.315327E-04 +7.985130E-06 +3.230533E-04 +7.985130E-06 +7.657771E-03 
 +1.339414E-04 +2.526754E-04 +3.207826E-05 +2.526754E-04 +7.775136E-05 -5.158404E-04 +3.207826E-05 -5.158404E-04 +7.599553E-03 
 -3.924044E-04 +5.584499E-04 -2.377072E-04 +5.584499E-04 +2.069350E-04 +3.389110E-05 -2.377072E-04 +3.389110E-05 +7.323073E-03 
 -1.671071E-04 +8.196118E-05 +4.530229E-06 +8.196118E-05 +2.662860E-04 -3.999562E-04 +4.530229E-06 -3.999562E-04 +7.289590E-03 
 +1.938192E-04 -1.893197E-04 +2.528783E-04 -1.893197E-04 -2.446443E-05 -3.117000E-04 +2.528783E-04 -3.117000E-04 +7.326425E-03 
 +2.004977E-04 -2.460094E-04 +3.048066E-04 -2.460094E-04 -1.271751E-04 -7.312966E-04 +3.048066E-04 -7.312966E-04 +7.366857E-03 
 -4.528491E-05 +2.626492E-04 +9.476606E-05 +2.626492E-04 -4.557427E-05 +1.178187E-04 +9.476606E-05 +1.178187E-04 +7.467212E-03 
 -7.020981E-05 -7.934395E-04 +1.822217E-05 -7.934395E-04 +4.451685E-04 +3.048470E-04 +1.822217E-05 +3.048470E-04 +7.127814E-03 
 -4.373372E-04 +7.685295E-04 +2.145999E-04 +7.685295E-04 +8.023217E-05 -4.836348E-04 +2.145999E-04 -4.836348E-04 +7.565061E-03 
 -1.782410E-04 -9.483496E-04 -2.444593E-04 -9.483496E-04 -9.761605E-05 -5.792184E-05 -2.444593E-04 -5.792184E-05 +7.367850E-03 
 -2.237354E-05 +1.473270E-03 -5.024263E-04 +1.473270E-03 -1.962449E-04 +9.530488E-07 -5.024263E-04 +9.530488E-07 +7.652555E-03 
 -8.299313E-05 +3.201878E-04 -5.227502E-04 +3.201878E-04 -4.612645E-04 +2.301017E-05 -5.227502E-04 +2.301017E-05 +7.762714E-03 
 +1.972974E-04 +2.519763E-04 -2.775915E-04 +2.519763E-04 +3.485974E-04 +4.008016E-04 -2.775915E-04 +4.008016E-04 +6.953512E-03 
 -1.356723E-04 -3.284546E-04 +1.573081E-04 -3.284546E-04 -2.607417E-05 -2.899866E-04 +1.573081E-04 -2.899866E-04 +7.183550E-03 
 -1.286865E-04 +3.423370E-05 +2.216226E-04 +3.423370E-05 -1.680732E-04 +7.028024E-05 +2.216226E-04 +7.028024E-05 +7.437969E-03 
 +1.764627E-04 +1.023184E-04 +2.918960E-04 +1.023184E-04 +2.593824E-04 +2.250818E-05 +2.918960E-04 +2.250818E-05 +7.306752E-03 
 +2.305346E-04 +4.301410E-04 +4.704256E-04 +4.301410E-04 -2.923317E-05 +8.899533E-05 +4.704256E-04 +8.899533E-05 +7.247966E-03 
 -1.203041E-04 -3.486538E-04 -5.165877E-04 -3.486538E-04 +2.393637E-05 +4.892735E-04 -5.165877E-04 +4.892735E-04 +7.214429E-03 
 +8.815178E-05 +6.619184E-04 -4.692413E-04 +6.619184E-04 -2.952405E-04 +2.255207E-04 -4.692413E-04 +2.255207E-04 +7.709504E-03 
 +3.304048E-04 +1.446661E-04 -1.295764E-04 +1.446661E-04 +4.908680E-04 -3.528606E-06 -1.295764E-04 -3.528606E-06 +7.400050E-03 
 -2.574318E-04 -4.321894E-04 +4.806712E-05 -4.321894E-04 -1.042086E-04 -3.566698E-04 +4.806712E-05 -3.566698E-04 +7.546011E-03 
 +2.407595E-04 +5.019122E-04 +3.861626E-04 +5.019122E-04 -3.336645E-04 -1.861783E-04 +3.861626E-04 -1.861783E-04 +7.295975E-03 
 -4.506629E-04 +4.392239E-04 +4.474148E-04 +4.392239E-04 +1.846661E-04 +8.085225E-04 +4.474148E-04 +8.085225E-04 +7.702083E-03 
 -1.025697E-03 -1.030535E-03 +5.876262E-06 -1.030535E-03 -5.308741E-06 +2.810440E-04 +5.876262E-06 +2.810440E-04 +7.958367E-03 
 +6.104245E-05 +2.648362E-04 -8.481042E-05 +2.648362E-04 +8.056297E-05 -6.750178E-05 -8.481042E-05 -6.750178E-05 +7.406869E-03 
 -4.007313E-04 -1.100270E-03 +3.058883E-04 -1.100270E-03 -3.893445E-04 +9.743446E-05 +3.058883E-04 +9.743446E-05 +7.836726E-03 
 +2.504938E-04 -2.399505E-04 +4.911284E-04 -2.399505E-04 +4.469508E-04 -8.402562E-06 +4.911284E-04 -8.402562E-06 +7.073792E-03 
 +1.253850E-04 +5.311250E-05 -6.195786E-05 +5.311250E-05 +6.451413E-04 +9.875793E-05 -6.195786E-05 +9.875793E-05 +7.053227E-03 
 +4.733695E-05 -3.366742E-04 -1.742985E-04 -3.366742E-04 -2.807535E-04 +2.105362E-04 -1.742985E-04 +2.105362E-04 +7.498674E-03 
 +3.820629E-04 +5.699727E-04 -8.762809E-04 +5.699727E-04 +2.498283E-04 +3.156696E-05 -8.762809E-04 +3.156696E-05 +7.193943E-03 
 +7.047315E-05 -7.970423E-04 +2.621174E-05 -7.970423E-04 -7.114405E-04 -5.872481E-04 +2.621174E-05 -5.872481E-04 +7.663133E-03 
 -6.173609E-04 +2.011317E-04 -1.131257E-04 +2.011317E-04 +3.348124E-04 -8.452099E-05 -1.131257E-04 -8.452099E-05 +7.603020E-03 
 -4.685988E-04 +2.615857E-04 -8.845954E-04 +2.615857E-04 -1.949796E-04 +1.184699E-06 -8.845954E-04 +1.184699E-06 +7.588297E-03 
 +2.375451E-04 +7.026334E-04 -4.167374E-04 +7.026334E-04 +1.767626E-04 -3.581882E-04 -4.167374E-04 -3.581882E-04 +7.502465E-03 
 +3.610478E-05 -2.633020E-04 +3.671235E-05 -2.633020E-04 -1.180189E-04 +5.377945E-04 +3.671235E-05 +5.377945E-04 +7.543501E-03 
 -2.961074E-04 -3.851797E-04 +7.081603E-04 -3.851797E-04 -1.756401E-05 -2.275039E-04 +7.081603E-04 -2.275039E-04 +7.921110E-03 
 -2.632475E-04 +2.608667E-04 +2.026913E-04 +2.608667E-04 -1.221669E-04 -9.946482E-05 +2.026913E-04 -9.946482E-05 +7.648057E-03 
 -5.550196E-04 +7.662574E-04 +1.257533E-04 +7.662574E-04 +5.196073E-04 -3.072507E-04 +1.257533E-04 -3.072507E-04 +7.596358E-03 
 -4.175670E-05 -7.937056E-04 +5.642337E-04 -7.937056E-04 -9.972455E-06 +1.417970E-04 +5.642337E-04 +1.417970E-04 +7.817310E-03 
 +2.600971E-04 +4.049558E-04 +3.655301E-04 +4.049558E-04 -4.154604E-04 +1.554193E-04 +3.655301E-04 +1.554193E-04 +7.355033E-03 
 -2.821626E-04 -2.610878E-04 +5.426284E-04 -2.610878E-04 +2.388281E-04 -1.505013E-05 +5.426284E-04 -1.505013E-05 +7.455295E-03 
 +1.349133E-04 -3.315088E-04 +6.872875E-05 -3.315088E-04 +1.646087E-05 -1.520172E-04 +6.872875E-05 -1.520172E-04 +7.412259E-03 
 +1.078880E-04 +7.264688E-04 -9.568305E-05 +7.264688E-04 -4.203664E-04 -4.324069E-04 -9.568305E-05 -4.324069E-04 +7.636018E-03 
 -3.388204E-04 +4.945516E-05 -3.061531E-04 +4.945516E-05 +2.592277E-04 +2.202392E-04 -3.061531E-04 +2.202392E-04 +7.682669E-03 
 +7.799931E-05 -7.658870E-04 -1.649880E-04 -7.658870E-04 +1.520508E-04 -8.242309E-04 -1.649880E-04 -8.242309E-04 +7.613031E-03 
 +3.924129E-04 +5.644635E-04 +1.704915E-05 +5.644635E-04 -3.613200E-04 -1.720934E-04 +1.704915E-05 -1.720934E-04 +7.960717E-03 
 -5.009610E-05 +4.787041E-05 -2.072942E-05 +4.787041E-05 +1.155777E-04 +7.498100E-04 -2.072942E-05 +7.498100E-04 +7.581282E-03 
 -3.518267E-04 -2.026421E-04 +3.305051E-05 -2.026421E-04 +4.105648E-04 +2.081882E-04 +3.305051E-05 +2.081882E-04 +7.306900E-03 
 +3.831088E-05 -9.874503E-05 +1.378153E-04 -9.874503E-05 -2.244095E-04 -1.260318E-04 +1.378153E-04 -1.260318E-04 +7.744164E-03 
 -5.410352E-05 -9.783010E-04 -3.998862E-05 -9.783010E-04 -1.664287E-04 +1.005769E-04 -3.998862E-05 +1.005769E-04 +7.787878E-03 
 -1.890003E-04 -3.106678E-04 +6.376970E-05 -3.106678E-04 +3.340614E-04 +1.088008E-04 +6.376970E-05 +1.088008E-04 +7.263963E-03 
 +1.726938E-04 -3.417875E-04 -3.740865E-04 -3.417875E-04 -4.432822E-04 +2.279686E-04 -3.740865E-04 +2.279686E-04 +7.646958E-03 
 -3.498350E-04 +5.743444E-04 -2.718040E-04 +5.743444E-04 +2.282857E-04 +3.869037E-04 -2.718040E-04 +3.869037E-04 +7.640274E-03 
 -3.885571E-04 -1.434308E-04 -3.730503E-04 -1.434308E-04 +1.538094E-04 +7.214409E-05 -3.730503E-04 +7.214409E-05 +7.586216E-03 
 -1.485729E-04 +6.125859E-04 -7.316334E-05 +6.125859E-04 -1.885747E-04 -3.504969E-05 -7.316334E-05 -3.504969E-05 +7.574938E-03 
 +2.237816E-04 +6.471512E-04 +1.084700E-04 +6.471512E-04 +8.823366E-06 -3.034031E-04 +1.084700E-04 -3.034031E-04 +7.267513E-03 
 -2.563222E-04 -1.052391E-03 -4.853997E-04 -1.052391E-03 +2.248727E-05 +2.670854E-04 -4.853997E-04 +2.670854E-04 +7.483282E-03 
 -9.007103E-05 +1.662231E-04 +8.263245E-05 +1.662231E-04 +2.157688E-04 +2.079909E-04 +8.263245E-05 +2.079909E-04 +7.779229E-03 
 +1.457293E-05 +5.260808E-04 +4.023131E-04 +5.260808E-04 -1.879648E-04 -4.352722E-05 +4.023131E-04 -4.352722E-05 +7.981532E-03 
 +5.385462E-05 -2.757762E-04 +4.224922E-05 -2.757762E-04 +3.604540E-04 +5.137583E-04 +4.224922E-05 +5.137583E-04 +7.059558E-03 
 +2.631912E-04 -9.852702E-04 +1.365367E-04 -9.852702E-04 -3.750087E-04 +2.451846E-04 +1.365367E-04 +2.451846E-04 +7.873731E-03 
 +7.473662E-06 +2.753610E-04 -4.681609E-05 +2.753610E-04 -2.060897E-04 +2.851723E-04 -4.681609E-05 +2.851723E-04 +7.381387E-03 
 -9.014519E-05 -2.283730E-05 +2.799024E-04 -2.283730E-05 +6.136839E-04 +2.196514E-04 +2.799024E-04 +2.196514E-04 +7.109787E-03 
 -1.035377E-04 +1.144802E-03 -2.373542E-04 +1.144802E-03 -5.094220E-04 -2.127972E-04 -2.373542E-04 -2.127972E-04 +7.944040E-03 
 -1.732535E-04 +7.833534E-04 +3.728017E-04 +7.833534E-04 -1.309967E-04 -4.163080E-05 +3.728017E-04 -4.163080E-05 +7.312558E-03 
 -7.315065E-05 -3.194987E-04 +3.913772E-04 -3.194987E-04 +4.588070E-04 -1.948433E-04 +3.913772E-04 -1.948433E-04 +7.521233E-03 
 -5.450944E-05 -1.398346E-04 -3.116827E-04 -1.398346E-04 -4.910930E-04 -2.340460E-04 -3.116827E-04 -2.340460E-04 +7.919916E-03 
 +9.665799E-05 -5.480908E-04 +2.517938E-04 -5.480908E-04 +2.467951E-04 -8.284801E-04 +2.517938E-04 -8.284801E-04 +6.769606E-03 
 +9.604764E-05 -4.830274E-05 -3.315745E-05 -4.830274E-05 +1.317184E-04 -4.347796E-04 -3.315745E-05 -4.347796E-04 +7.025664E-03 
 -2.313478E-04 -6.480115E-04 -2.206022E-04 -6.480115E-04 -1.797956E-04 +4.219048E-04 -2.206022E-04 +4.219048E-04 +7.686782E-03 
 -2.516189E-04 +9.422334E-04 +5.175813E-05 +9.422334E-04 -2.268125E-05 -2.478870E-04 +5.175813E-05 -2.478870E-04 +7.638681E-03 
 -2.418808E-04 +1.882700E-04 +2.605741E-05 +1.882700E-04 +1.368848E-05 -7.585625E-06 +2.605741E-05 -7.585625E-06 +7.696788E-03 
 -1.068542E-04 +2.251705E-04 +3.433087E-04 +2.251705E-04 -1.971776E-04 +8.768440E-06 +3.433087E-04 +8.768440E-06 +7.720415E-03 
 -5.894757E-04 -2.419484E-04 +1.193543E-04 -2.419484E-04 +5.617020E-04 -3.105754E-04 +1.193543E-04 -3.105754E-04 +7.422602E-03 
 -9.251143E-05 +9.635210E-04 +5.625505E-05 +9.635210E-04 -1.451845E-04 +3.774407E-04 +5.625505E-05 +3.774407E-04 +7.439367E-03 
 +4.429595E-04 +5.732247E-04 +2.451305E-04 +5.732247E-04 -2.727323E-04 +5.152669E-04 +2.451305E-04 +5.152669E-04 +7.462516E-03 
 +2.733338E-04 -4.421625E-04 -3.983794E-04 -4.421625E-04 +1.720037E-04 +1.599081E-04 -3.983794E-04 +1.599081E-04 +7.319503E-03 
 -2.883715E-04 -1.156526E-03 -6.345126E-04 -1.156526E-03 -2.087672E-04 +1.860288E-05 -6.345126E-04 +1.860288E-05 +7.417360E-03 
 +3.055782E-05 +3.966942E-04 +3.811805E-04 +3.966942E-04 +9.902916E-05 -2.435228E-04 +3.811805E-04 -2.435228E-04 +7.204959E-03 
 +3.422023E-04 -4.530049E-05 -1.329713E-04 -4.530049E-05 +4.403577E-04 +1.701163E-04 -1.329713E-04 +1.701163E-04 +6.913844E-03 
 +3.175958E-04 +1.347164E-04 -5.983795E-04 +1.347164E-04 -5.200096E-04 -3.540152E-04 -5.983795E-04 -3.540152E-04 +7.632066E-03 
 +4.222631E-04 -4.557376E-04 +1.209092E-04 -4.557376E-04 +3.834352E-04 +1.068681E-04 +1.209092E-04 +1.068681E-04 +6.918921E-03 
 -1.529569E-04 +1.162148E-03 -1.513730E-04 +1.162148E-03 -3.010602E-05 -8.623601E-05 -1.513730E-04 -8.623601E-05 +7.765114E-03 
 -6.926976E-05 +1.366485E-03 -3.385528E-04 +1.366485E-03 -7.601516E-05 -1.893683E-04 -3.385528E-04 -1.893683E-04 +8.096322E-03 
 +4.012672E-04 +3.672531E-04 +3.544514E-04 +3.672531E-04 -3.185391E-04 -3.600456E-05 +3.544514E-04 -3.600456E-05 +7.488037E-03 
 +3.225571E-05 +1.390039E-03 +1.465216E-04 +1.390039E-03 -7.971864E-05 +3.185393E-05 +1.465216E-04 +3.185393E-05 +7.594683E-03 
 +3.020960E-04 +6.331378E-05 -7.573340E-05 +6.331378E-05 +1.097921E-04 +6.348385E-04 -7.573340E-05 +6.348385E-04 +7.053516E-03 
 +5.710953E-04 +7.739966E-04 +2.919207E-04 +7.739966E-04 -1.072799E-04 -2.016212E-04 +2.919207E-04 -2.016212E-04 +6.845240E-03 
 -1.864307E-04 +5.699855E-04 +4.286166E-06 +5.699855E-04 +1.372931E-04 -4.940318E-05 +4.286166E-06 -4.940318E-05 +7.836003E-03 
 +4.502528E-05 +1.419220E-03 -4.628007E-04 +1.419220E-03 -1.152843E-04 -5.351738E-05 -4.628007E-04 -5.351738E-05 +7.613974E-03 
 +2.216020E-05 -2.225471E-04 +2.576610E-04 -2.225471E-04 +4.080540E-04 +5.424643E-04 +2.576610E-04 +5.424643E-04 +6.969959E-03 
 +2.252963E-04 -4.354989E-05 -5.134373E-04 -4.354989E-05 -2.992747E-04 -2.706805E-04 -5.134373E-04 -2.706805E-04 +7.330692E-03 
 -1.798479E-04 -8.429726E-05 -1.795715E-04 -8.429726E-05 -8.344585E-05 +2.050532E-04 -1.795715E-04 +2.050532E-04 +7.548166E-03 
 -3.226160E-04 -3.570618E-04 +4.887280E-04 -3.570618E-04 +1.313163E-04 +3.712486E-04 +4.887280E-04 +3.712486E-04 +7.331938E-03 
 -1.770230E-04 +8.115217E-04 -2.244573E-04 +8.115217E-04 +2.391439E-04 -5.176780E-04 -2.244573E-04 -5.176780E-04 +7.416222E-03 
 -2.079976E-04 +9.488259E-04 -4.606048E-04 +9.488259E-04 -4.141100E-05 -2.088675E-04 -4.606048E-04 -2.088675E-04 +7.322697E-03 
 +3.867541E-04 +2.427020E-04 -6.427946E-04 +2.427020E-04 +2.423813E-04 -1.788708E-04 -6.427946E-04 -1.788708E-04 +7.186571E-03 
 +1.943058E-04 -7.012316E-04 -3.409048E-04 -7.012316E-04 -1.936097E-04 +4.812347E-04 -3.409048E-04 +4.812347E-04 +7.672496E-03 
 -7.045626E-05 -7.011133E-04 +7.322326E-05 -7.011133E-04 -3.494887E-04 +4.194753E-04 +7.322326E-05 +4.194753E-04 +7.817564E-03 
 -9.908435E-06 -4.928297E-04 +4.985522E-04 -4.928297E-04 +3.246734E-04 -9.281248E-05 +4.985522E-04 -9.281248E-05 +7.423773E-03 
 -8.520932E-05 -7.058199E-04 +5.361809E-04 -7.058199E-04 -6.779711E-05 +4.152894E-05 +5.361809E-04 +4.152894E-05 +7.575208E-03 
 -1.231940E-04 +7.750126E-04 -3.613776E-04 +7.750126E-04 -5.013085E-05 +3.025114E-04 -3.613776E-04 +3.025114E-04 +7.503030E-03 
 -2.901796E-04 -2.266069E-04 -3.473746E-04 -2.266069E-04 +2.726025E-05 +4.276726E-05 -3.473746E-04 +4.276726E-05 +7.819711E-03 
 -1.154732E-04 +2.580146E-04 -7.045882E-04 +2.580146E-04 +1.817804E-04 -2.487565E-06 -7.045882E-04 -2.487565E-06 +7.089852E-03 
 +7.081913E-05 +5.224997E-04 -8.124376E-04 +5.224997E-04 -2.763689E-04 -3.822607E-04 -8.124376E-04 -3.822607E-04 +7.320109E-03 
 -4.234914E-04 -1.868542E-04 +3.663375E-04 -1.868542E-04 -7.840626E-06 -1.221443E-04 +3.663375E-04 -1.221443E-04 +7.564294E-03 
 -5.487836E-04 +1.073545E-03 +5.518263E-04 +1.073545E-03 +1.771141E-04 -7.285993E-05 +5.518263E-04 -7.285993E-05 +7.479366E-03 
 -1.011382E-04 +4.842513E-04 +1.510728E-04 +4.842513E-04 -7.138622E-05 +6.357204E-04 +1.510728E-04 +6.357204E-04 +7.890030E-03 
 -3.231447E-05 +6.378929E-04 +2.876113E-04 +6.378929E-04 -3.128652E-04 +5.776235E-05 +2.876113E-04 +5.776235E-05 +7.816597E-03 
 -5.475327E-04 +9.101067E-04 +3.233716E-04 +9.101067E-04 +1.856371E-05 -4.460991E-04 +3.233716E-04 -4.460991E-04 +7.955011E-03 
 -1.567750E-04 +1.252292E-03 +1.123170E-04 +1.252292E-03 -2.770886E-04 -5.047980E-04 +1.123170E-04 -5.047980E-04 +7.866855E-03 
 +7.770260E-05 +5.926413E-04 -4.319721E-04 +5.926413E-04 +9.832447E-05 -8.048921E-04 -4.319721E-04 -8.048921E-04 +7.346120E-03 
 +1.318516E-04 -5.466981E-04 +3.873377E-04 -5.466981E-04 +2.117275E-04 +3.303520E-04 +3.873377E-04 +3.303520E-04 +7.096691E-03 
 +2.154540E-04 -5.540252E-04 +4.593116E-04 -5.540252E-04 -3.795493E-04 -9.157960E-05 +4.593116E-04 -9.157960E-05 +7.692183E-03 
 -7.740210E-05 -6.612982E-04 -1.228457E-04 -6.612982E-04 +3.192868E-04 -7.670524E-04 -1.228457E-04 -7.670524E-04 +7.586249E-03 
 -2.998755E-04 +4.570710E-04 -2.667653E-05 +4.570710E-04 +2.828964E-04 -3.302863E-04 -2.667653E-05 -3.302863E-04 +7.380156E-03 
 -5.485254E-04 -5.024391E-04 -1.379459E-04 -5.024391E-04 +1.167898E-04 +6.642819E-04 -1.379459E-04 +6.642819E-04 +7.629483E-03 
 -2.692168E-04 +4.015811E-04 +3.309420E-04 +4.015811E-04 +1.305087E-04 +6.120309E-05 +3.309420E-04 +6.120309E-05 +7.674047E-03 
 +1.252269E-05 +5.565105E-06 +7.337224E-04 +5.565105E-06 -3.520831E-04 +4.397137E-04 +7.337224E-04 +4.397137E-04 +7.627148E-03 
 +1.095595E-04 -9.275261E-05 +5.734974E-04 -9.275261E-05 -1.339142E-04 -8.484769E-04 +5.734974E-04 -8.484769E-04 +7.465008E-03 
 -2.781921E-04 -4.145709E-04 -2.250239E-04 -4.145709E-04 +1.796664E-04 -2.592735E-04 -2.250239E-04 -2.592735E-04 +7.846342E-03 
 -1.933296E-04 -5.578541E-04 -3.903725E-04 -5.578541E-04 -1.259828E-04 -1.866372E-04 -3.903725E-04 -1.866372E-04 +7.659763E-03 
 +1.923906E-04 +1.050371E-04 -6.074667E-04 +1.050371E-04 +1.995998E-04 +3.309801E-04 -6.074667E-04 +3.309801E-04 +7.303255E-03 
 -1.310916E-04 +1.038967E-04 -5.375343E-04 +1.038967E-04 +1.957308E-04 +1.997848E-04 -5.375343E-04 +1.997848E-04 +7.515485E-03 
 -7.994677E-05 -1.097887E-03 +3.655042E-04 -1.097887E-03 -3.935203E-04 +3.974084E-04 +3.655042E-04 +3.974084E-04 +8.017891E-03 
 -1.474618E-04 +2.963277E-04 +4.595939E-05 +2.963277E-04 +1.624182E-04 -7.074837E-05 +4.595939E-05 -7.074837E-05 +7.552695E-03 
 -1.481144E-04 -5.599687E-04 -2.853783E-04 -5.599687E-04 -5.916554E-05 +7.567047E-05 -2.853783E-04 +7.567047E-05 +7.499373E-03 
 -3.915984E-04 +1.343378E-03 -7.398743E-05 +1.343378E-03 +1.610354E-04 -3.378738E-05 -7.398743E-05 -3.378738E-05 +7.564120E-03 
 +9.746246E-05 -2.254291E-05 +9.538559E-05 -2.254291E-05 -7.276191E-05 -1.168422E-06 +9.538559E-05 -1.168422E-06 +7.264886E-03 
 -4.406409E-05 +3.783573E-05 +2.375284E-04 +3.783573E-05 -2.820728E-04 +3.760832E-05 +2.375284E-04 +3.760832E-05 +7.582514E-03 
 +1.768461E-04 +5.089275E-04 -1.482591E-04 +5.089275E-04 +9.565203E-05 +5.175505E-05 -1.482591E-04 +5.175505E-05 +7.155417E-03 
 -6.193694E-04 +6.407548E-04 +1.057191E-04 +6.407548E-04 -2.698817E-04 -2.496900E-04 +1.057191E-04 -2.496900E-04 +7.715884E-03 
 -5.486954E-04 -4.541767E-04 -6.583290E-05 -4.541767E-04 +2.864851E-05 -1.063307E-04 -6.583290E-05 -1.063307E-04 +8.038373E-03 
 -3.427795E-04 +4.823459E-04 -2.247858E-04 +4.823459E-04 +9.851493E-05 +3.696146E-04 -2.247858E-04 +3.696146E-04 +7.624913E-03 
 +1.713843E-04 -1.576834E-04 -7.461310E-04 -1.576834E-04 +2.302303E-05 +6.306260E-04 -7.461310E-04 +6.306260E-04 +7.047293E-03 
 +2.756992E-04 -1.835713E-04 -7.673168E-05 -1.835713E-04 +2.584624E-05 +8.082759E-05 -7.673168E-05 +8.082759E-05 +7.082341E-03 
 -3.222094E-04 -3.786188E-04 -1.605475E-04 -3.786188E-04 +2.321178E-04 -1.988201E-04 -1.605475E-04 -1.988201E-04 +7.269861E-03 
 -8.767722E-05 +8.334271E-05 -1.812443E-04 +8.334271E-05 +4.637287E-04 -5.044176E-04 -1.812443E-04 -5.044176E-04 +7.200243E-03 
 +6.895982E-05 +3.727073E-04 +9.687281E-05 +3.727073E-04 -5.799767E-04 -1.706404E-04 +9.687281E-05 -1.706404E-04 +7.589538E-03 
 +1.269909E-04 -1.849089E-04 +2.502021E-04 -1.849089E-04 +6.145898E-05 -2.654156E-04 +2.502021E-04 -2.654156E-04 +7.524394E-03 
 +2.088773E-04 +1.431298E-04 +5.765791E-04 +1.431298E-04 -3.518912E-06 +2.744623E-05 +5.765791E-04 +2.744623E-05 +7.167995E-03 
 +1.104794E-04 +4.309223E-04 -3.096360E-04 +4.309223E-04 +2.302215E-04 +4.254458E-04 -3.096360E-04 +4.254458E-04 +6.931267E-03 
 +3.936037E-05 +1.957749E-04 +1.866834E-04 +1.957749E-04 -3.141447E-04 -4.560120E-05 +1.866834E-04 -4.560120E-05 +7.414544E-03 
 -3.381395E-04 -9.823155E-05 +5.159922E-04 -9.823155E-05 +1.127288E-04 -6.411684E-04 +5.159922E-04 -6.411684E-04 +7.400538E-03 
 -4.908276E-05 +3.146843E-04 +2.955737E-05 +3.146843E-04 +3.910044E-04 +1.831748E-04 +2.955737E-05 +1.831748E-04 +6.863533E-03 
 +5.059923E-04 -4.523921E-06 +1.131774E-04 -4.523921E-06 -1.343637E-04 -2.654064E-04 +1.131774E-04 -2.654064E-04 +6.921495E-03 
 +7.266806E-05 -7.693752E-05 +8.648438E-05 -7.693752E-05 +2.649334E-04 +3.088259E-04 +8.648438E-05 +3.088259E-04 +7.149489E-03 
 +1.168357E-04 -1.137015E-05 -7.596067E-04 -1.137015E-05 -2.906873E-04 +3.840748E-04 -7.596067E-04 +3.840748E-04 +7.326984E-03 
 -2.812022E-04 +9.959500E-04 -3.214824E-05 +9.959500E-04 +1.902056E-04 +1.375265E-05 -3.214824E-05 +1.375265E-05 +7.643697E-03 
 -1.449488E-04 -8.310808E-04 +4.677695E-04 -8.310808E-04 -2.261939E-04 +5.338234E-04 +4.677695E-04 +5.338234E-04 +7.826291E-03 
 +4.645904E-04 +3.592866E-04 -6.361717E-04 +3.592866E-04 -3.991010E-04 -1.579136E-04 -6.361717E-04 -1.579136E-04 +7.364212E-03 
 +1.163291E-04 +3.812194E-04 +1.284563E-04 +3.812194E-04 -5.547865E-05 +6.595825E-04 +1.284563E-04 +6.595825E-04 +7.446399E-03 
 -2.731099E-04 -8.719631E-04 -2.009684E-04 -8.719631E-04 -1.455916E-04 -1.171770E-04 -2.009684E-04 -1.171770E-04 +7.465582E-03 
 -4.034264E-04 -1.048562E-03 -1.129938E-04 -1.048562E-03 +2.114742E-04 -3.477119E-04 -1.129938E-04 -3.477119E-04 +7.486174E-03 
 -5.724700E-04 +4.549572E-04 +4.314718E-04 +4.549572E-04 +9.010801E-05 +4.010042E-04 +4.314718E-04 +4.010042E-04 +7.664063E-03 
 +5.076940E-04 +4.571792E-04 -2.245509E-05 +4.571792E-04 -1.096839E-04 -5.303129E-05 -2.245509E-05 -5.303129E-05 +6.980327E-03 
 +4.862556E-04 -6.518771E-04 -3.955693E-04 -6.518771E-04 +2.811378E-04 +2.842658E-04 -3.955693E-04 +2.842658E-04 +7.171123E-03 
 +1.672076E-04 +4.897098E-04 -2.293081E-04 +4.897098E-04 -5.173289E-04 -1.770096E-04 -2.293081E-04 -1.770096E-04 +7.407238E-03 
 +2.548139E-04 +6.331512E-04 +1.695405E-05 +6.331512E-04 +3.105768E-04 +7.035466E-05 +1.695405E-05 +7.035466E-05 +7.403604E-03 
 +3.157507E-04 -9.525254E-05 -6.243470E-05 -9.525254E-05 -2.037184E-04 +2.425186E-04 -6.243470E-05 +2.425186E-04 +7.329210E-03 
 +2.641629E-04 +3.159133E-04 +2.512658E-05 +3.159133E-04 +2.859487E-04 +4.130521E-05 +2.512658E-05 +4.130521E-05 +6.966910E-03 
 -9.102827E-06 +3.523710E-04 +6.390103E-05 +3.523710E-04 +4.320338E-04 +4.338241E-04 +6.390103E-05 +4.338241E-04 +7.388299E-03 
 +2.174832E-04 +7.014293E-04 +2.822802E-04 +7.014293E-04 -6.454753E-04 -2.978577E-04 +2.822802E-04 -2.978577E-04 +7.891321E-03 
 -3.685917E-04 +7.940994E-04 +1.068109E-04 +7.940994E-04 +2.109135E-04 +2.467042E-04 +1.068109E-04 +2.467042E-04 +7.508051E-03 
 -6.088895E-04 +4.224633E-04 +2.525685E-04 +4.224633E-04 +1.341743E-04 +3.737926E-04 +2.525685E-04 +3.737926E-04 +7.762161E-03 
 +8.448569E-05 +6.766892E-05 -2.005283E-04 +6.766892E-05 -4.080181E-05 +1.193659E-04 -2.005283E-04 +1.193659E-04 +7.678205E-03 
 +2.067334E-04 +3.974109E-04 +3.666699E-05 +3.974109E-04 +3.111500E-04 +3.361332E-04 +3.666699E-05 +3.361332E-04 +6.969131E-03 
 +5.608962E-05 -3.157630E-04 +2.918021E-04 -3.157630E-04 -2.237243E-05 -4.600378E-04 +2.918021E-04 -4.600378E-04 +7.222748E-03 
 -1.847398E-04 -1.716796E-04 -3.412336E-04 -1.716796E-04 -1.787723E-04 +4.750295E-05 -3.412336E-04 +4.750295E-05 +7.446767E-03 
 +1.967383E-05 +2.108126E-05 -1.079339E-04 +2.108126E-05 +1.023964E-04 -3.066057E-04 -1.079339E-04 -3.066057E-04 +7.209854E-03 
 -1.143748E-04 -3.612487E-04 +5.401687E-04 -3.612487E-04 -6.284083E-05 +2.935177E-04 +5.401687E-04 +2.935177E-04 +7.503145E-03 
 +3.144797E-04 +3.335227E-04 +1.649451E-04 +3.335227E-04 -3.878088E-04 -5.377776E-04 +1.649451E-04 -5.377776E-04 +7.523087E-03 
 -4.206898E-04 +1.467004E-04 -3.238657E-04 +1.467004E-04 +8.309160E-05 +5.305942E-04 -3.238657E-04 +5.305942E-04 +7.840133E-03 
 -1.738855E-04 -6.523482E-04 -3.521305E-04 -6.523482E-04 -1.324179E-04 +4.137350E-04 -3.521305E-04 +4.137350E-04 +7.561988E-03 
 -1.714525E-04 +4.316041E-04 -3.141957E-04 +4.316041E-04 +1.096116E-04 +2.379381E-04 -3.141957E-04 +2.379381E-04 +7.603787E-03 
 +1.401448E-04 -7.729379E-05 -6.565129E-04 -7.729379E-05 +1.963640E-04 -2.878777E-04 -6.565129E-04 -2.878777E-04 +7.311717E-03 
 +5.630872E-04 +4.890491E-04 -2.026323E-04 +4.890491E-04 -3.959559E-04 -4.162070E-04 -2.026323E-04 -4.162070E-04 +7.725094E-03 
 -1.735883E-04 -3.636998E-04 -2.767024E-04 -3.636998E-04 +2.859123E-04 +6.189673E-04 -2.767024E-04 +6.189673E-04 +7.414789E-03 
 +1.326598E-04 +8.012488E-04 -2.080651E-04 +8.012488E-04 -2.703936E-04 -3.398317E-04 -2.080651E-04 -3.398317E-04 +7.426339E-03 
 -3.706295E-05 -4.145508E-04 -3.225568E-06 -4.145508E-04 +3.492417E-05 +1.028848E-03 -3.225568E-06 +1.028848E-03 +7.548979E-03 
 -1.229674E-04 -2.730511E-04 +3.503172E-04 -2.730511E-04 -1.073914E-04 +2.151520E-04 +3.503172E-04 +2.151520E-04 +7.408719E-03 
 -3.171107E-04 +6.069408E-04 +2.772448E-04 +6.069408E-04 +2.955580E-04 -2.072005E-04 +2.772448E-04 -2.072005E-04 +7.720140E-03 
 +1.163423E-05 -3.425285E-04 +5.146976E-04 -3.425285E-04 +1.205274E-04 -1.989388E-04 +5.146976E-04 -1.989388E-04 +7.599927E-03 
 +2.104954E-04 +4.163000E-04 +9.375684E-04 +4.163000E-04 -1.940317E-04 +3.386818E-04 +9.375684E-04 +3.386818E-04 +7.433381E-03 
 -1.763112E-04 +7.767581E-04 +6.880225E-04 +7.767581E-04 +2.684200E-04 +1.734994E-04 +6.880225E-04 +1.734994E-04 +7.327013E-03 
 +7.731068E-05 +5.641412E-05 +1.897321E-04 +5.641412E-05 +1.475075E-04 +3.388267E-04 +1.897321E-04 +3.388267E-04 +7.125293E-03 
 +2.665931E-04 -1.951833E-05 -5.497394E-04 -1.951833E-05 -6.705891E-05 -5.599739E-04 -5.497394E-04 -5.599739E-04 +7.238731E-03 
 +6.121107E-05 -9.717404E-05 -1.632520E-04 -9.717404E-05 -2.250732E-05 +2.202257E-04 -1.632520E-04 +2.202257E-04 +7.488632E-03 
 -5.046799E-05 +1.253319E-05 +6.157537E-05 +1.253319E-05 -4.084137E-04 +1.994234E-04 +6.157537E-05 +1.994234E-04 +7.527850E-03 
 +2.146328E-04 -2.084098E-04 -1.068304E-04 -2.084098E-04 +4.294243E-04 +1.082580E-04 -1.068304E-04 +1.082580E-04 +7.395504E-03 
 +1.333144E-04 -6.548669E-04 -1.978354E-04 -6.548669E-04 -4.466558E-04 -1.669651E-04 -1.978354E-04 -1.669651E-04 +7.540274E-03 
 +3.283965E-04 -7.796598E-05 -9.560204E-04 -7.796598E-05 +2.471762E-04 +2.005969E-04 -9.560204E-04 +2.005969E-04 +6.979892E-03 
 +4.362545E-04 +3.148750E-04 -3.904470E-04 +3.148750E-04 -1.741360E-04 -4.610672E-04 -3.904470E-04 -4.610672E-04 +7.455017E-03 
 -4.607416E-04 -4.291999E-04 -2.311987E-04 -4.291999E-04 +1.890042E-04 -3.578714E-04 -2.311987E-04 -3.578714E-04 +7.446903E-03 
 -4.483425E-04 +7.985295E-04 +3.422351E-05 +7.985295E-04 +4.406897E-05 -4.664564E-04 +3.422351E-05 -4.664564E-04 +7.411640E-03 
 -5.928667E-05 +4.805335E-04 -4.794660E-04 +4.805335E-04 +2.590859E-04 -4.803659E-04 -4.794660E-04 -4.803659E-04 +7.075575E-03 
 +2.647035E-04 -4.426971E-04 -2.486314E-04 -4.426971E-04 -5.322650E-04 +1.287973E-05 -2.486314E-04 +1.287973E-05 +7.376560E-03 
 +2.010864E-05 +8.333662E-05 -1.976337E-04 +8.333662E-05 +2.147927E-04 -4.457489E-04 -1.976337E-04 -4.457489E-04 +7.389770E-03 
 -4.414536E-04 +9.109658E-04 +1.262350E-04 +9.109658E-04 -2.514694E-04 +3.624578E-05 +1.262350E-04 +3.624578E-05 +7.699461E-03 
 -5.186411E-04 +1.503495E-04 +3.222993E-04 +1.503495E-04 +2.038683E-04 -7.425133E-05 +3.222993E-04 -7.425133E-05 +7.776689E-03 
 -4.972054E-04 -8.792914E-04 -7.306599E-05 -8.792914E-04 +8.368197E-05 +8.446000E-07 -7.306599E-05 +8.446000E-07 +7.813883E-03 
 -3.187163E-04 -6.832734E-04 +6.589221E-05 -6.832734E-04 -2.025040E-04 +3.974240E-04 +6.589221E-05 +3.974240E-04 +7.816810E-03 
 -2.957533E-04 +3.306088E-04 +3.308576E-05 +3.306088E-04 +3.680727E-04 +4.415958E-04 +3.308576E-05 +4.415958E-04 +7.669440E-03 
 +3.119035E-05 -1.655860E-04 -5.484125E-05 -1.655860E-04 -2.636594E-04 +5.319171E-04 -5.484125E-05 +5.319171E-04 +7.682586E-03 
 +1.345962E-04 +3.541363E-04 -1.828586E-04 +3.541363E-04 +5.463790E-04 -2.400906E-04 -1.828586E-04 -2.400906E-04 +7.156826E-03 
 +6.847286E-04 +6.321272E-04 -2.688426E-04 +6.321272E-04 -8.844811E-05 +1.824828E-04 -2.688426E-04 +1.824828E-04 +7.145355E-03 
 +3.016811E-04 +2.291047E-04 -3.388257E-05 +2.291047E-04 +9.177373E-05 +3.467968E-04 -3.388257E-05 +3.467968E-04 +7.210951E-03 
 +1.527430E-05 -4.958936E-04 +2.460353E-04 -4.958936E-04 -1.927022E-04 -1.856069E-04 +2.460353E-04 -1.856069E-04 +7.396541E-03 
 +2.231165E-06 +8.351312E-04 +1.167001E-04 +8.351312E-04 -7.860972E-05 +3.151645E-04 +1.167001E-04 +3.151645E-04 +7.929641E-03 
 -2.927123E-04 -1.573718E-04 -3.069208E-04 -1.573718E-04 -2.200403E-04 +1.842960E-04 -3.069208E-04 +1.842960E-04 +7.840585E-03 
 -9.628428E-05 +2.324010E-04 -4.730585E-04 +2.324010E-04 -9.153465E-05 -1.823189E-04 -4.730585E-04 -1.823189E-04 +7.619058E-03 
 -8.043932E-05 -3.540068E-04 -2.039764E-04 -3.540068E-04 +6.025321E-05 -9.636161E-05 -2.039764E-04 -9.636161E-05 +7.498983E-03 
 +1.839199E-04 -4.891361E-04 -1.520645E-04 -4.891361E-04 -3.650983E-04 -4.224786E-04 -1.520645E-04 -4.224786E-04 +7.712683E-03 
 -6.323623E-05 +6.071470E-04 -5.438951E-04 +6.071470E-04 +2.249430E-04 +2.405663E-04 -5.438951E-04 +2.405663E-04 +7.301338E-03 
 +6.855572E-05 -3.707937E-04 -2.586423E-04 -3.707937E-04 +2.024800E-04 +2.913045E-04 -2.586423E-04 +2.913045E-04 +7.157496E-03 
 -4.004856E-04 +4.579682E-04 -4.256947E-04 +4.579682E-04 +3.359406E-04 -1.947178E-04 -4.256947E-04 -1.947178E-04 +7.447505E-03 
 -2.769618E-04 +3.017886E-04 -4.266672E-04 +3.017886E-04 -2.751527E-05 -5.585777E-04 -4.266672E-04 -5.585777E-04 +7.761294E-03 
 -3.783204E-04 -8.500488E-04 -2.822522E-04 -8.500488E-04 -1.488210E-04 -1.197965E-04 -2.822522E-04 -1.197965E-04 +7.555403E-03 
 -4.606077E-04 -4.052925E-04 +4.888530E-04 -4.052925E-04 +1.367737E-04 +4.986643E-04 +4.888530E-04 +4.986643E-04 +7.832785E-03 
 -3.131631E-04 +3.570099E-04 +4.632937E-04 +3.570099E-04 -2.973172E-05 +7.866106E-04 +4.632937E-04 +7.866106E-04 +7.747692E-03 
 +5.685154E-05 +2.585601E-04 +2.172998E-04 +2.585601E-04 -4.692664E-04 +1.054884E-04 +2.172998E-04 +1.054884E-04 +7.653317E-03 
 -2.510069E-04 -7.333211E-05 +3.427608E-04 -7.333211E-05 +1.424427E-04 -3.980468E-04 +3.427608E-04 -3.980468E-04 +7.457736E-03 
 -3.324637E-04 -5.274687E-04 +3.172632E-04 -5.274687E-04 +3.702827E-04 -1.846784E-06 +3.172632E-04 -1.846784E-06 +7.390349E-03 
 -3.194963E-04 +3.296803E-04 +1.427435E-04 +3.296803E-04 +9.169539E-05 -1.755115E-04 +1.427435E-04 -1.755115E-04 +7.633321E-03 
 +1.321169E-04 +2.201327E-05 -3.428425E-04 +2.201327E-05 +1.342435E-04 -5.995220E-04 -3.428425E-04 -5.995220E-04 +7.052001E-03 
 +4.408706E-04 +3.147124E-05 -4.658762E-04 +3.147124E-05 +4.642541E-05 -8.869194E-05 -4.658762E-04 -8.869194E-05 +7.161297E-03 
 +2.042662E-04 +8.224395E-05 -2.299504E-04 +8.224395E-05 +2.727987E-04 -1.073274E-04 -2.299504E-04 -1.073274E-04 +7.281466E-03 
 +1.197019E-04 -3.568085E-04 -9.371918E-05 -3.568085E-04 -3.122369E-04 -1.837851E-04 -9.371918E-05 -1.837851E-04 +7.398858E-03 
 -1.120915E-04 -3.066027E-04 -5.395179E-05 -3.066027E-04 -1.944916E-04 +6.187001E-05 -5.395179E-05 +6.187001E-05 +7.718704E-03 
 +1.569468E-04 +1.818520E-04 -5.217515E-04 +1.818520E-04 +6.022657E-06 -1.840532E-04 -5.217515E-04 -1.840532E-04 +7.285060E-03 
 +1.549562E-04 +3.615044E-04 +2.830099E-05 +3.615044E-04 -4.038443E-04 +1.051597E-04 +2.830099E-05 +1.051597E-04 +7.558894E-03 
 -2.656253E-04 -2.330697E-04 +4.160613E-04 -2.330697E-04 +2.216001E-04 -6.375510E-04 +4.160613E-04 -6.375510E-04 +7.696625E-03 
 +2.517103E-04 +6.298708E-05 -5.617292E-04 +6.298708E-05 -4.985741E-05 +4.863853E-04 -5.617292E-04 +4.863853E-04 +7.421591E-03 
 -8.440220E-07 +5.709262E-04 +2.929419E-04 +5.709262E-04 -2.350185E-04 +1.167202E-04 +2.929419E-04 +1.167202E-04 +7.503519E-03 
 -1.091961E-04 +2.905161E-04 +3.416247E-04 +2.905161E-04 -9.023384E-05 +7.576362E-05 +3.416247E-04 +7.576362E-05 +7.531100E-03 
 +1.207404E-04 +1.274885E-04 -4.026928E-04 +1.274885E-04 +2.168215E-04 +3.027010E-04 -4.026928E-04 +3.027010E-04 +7.091431E-03 
 +1.530928E-04 -2.267054E-04 -2.053400E-04 -2.267054E-04 +2.190674E-04 +4.846590E-04 -2.053400E-04 +4.846590E-04 +6.869599E-03 
 +1.680595E-04 +6.891115E-04 -9.014381E-05 +6.891115E-04 +2.929716E-05 +6.271228E-05 -9.014381E-05 +6.271228E-05 +7.257115E-03 
 -3.736359E-04 -7.325247E-04 +1.155453E-04 -7.325247E-04 -2.940250E-04 +1.098383E-04 +1.155453E-04 +1.098383E-04 +7.443666E-03 
 -3.895906E-04 -4.511905E-04 -1.524459E-04 -4.511905E-04 +1.135241E-04 +6.783077E-05 -1.524459E-04 +6.783077E-05 +7.581346E-03 
 -3.307965E-04 -1.334272E-03 -3.400443E-04 -1.334272E-03 +6.687765E-05 -7.472918E-04 -3.400443E-04 -7.472918E-04 +7.811629E-03 
 +2.969849E-04 +1.016697E-03 -1.450499E-04 +1.016697E-03 -4.680274E-04 +4.607251E-04 -1.450499E-04 +4.607251E-04 +7.835399E-03 
 -6.485141E-04 +8.699865E-04 -4.025580E-04 +8.699865E-04 -7.291386E-05 +8.215159E-05 -4.025580E-04 +8.215159E-05 +8.015884E-03 
 -6.681110E-04 +2.764903E-04 +1.544722E-04 +2.764903E-04 +4.053358E-04 +1.475583E-04 +1.544722E-04 +1.475583E-04 +7.602053E-03 
 +1.258142E-04 -2.162751E-04 -8.254173E-06 -2.162751E-04 +2.999369E-04 +2.000508E-04 -8.254173E-06 +2.000508E-04 +7.260353E-03 
 +4.385261E-05 -1.860921E-04 +1.951521E-04 -1.860921E-04 -1.804975E-04 -6.575042E-04 +1.951521E-04 -6.575042E-04 +7.748457E-03 
 +3.655886E-04 -8.644782E-04 +5.586836E-04 -8.644782E-04 -6.917522E-05 -7.039859E-04 +5.586836E-04 -7.039859E-04 +7.728854E-03 
 -2.468130E-04 -4.064000E-04 -3.680310E-05 -4.064000E-04 +1.531018E-04 -7.010081E-04 -3.680310E-05 -7.010081E-04 +7.904735E-03 
 -3.282583E-04 -9.923148E-04 +6.224106E-04 -9.923148E-04 +1.231300E-04 +5.311863E-06 +6.224106E-04 +5.311863E-06 +7.870240E-03 
 -8.119630E-05 -2.215847E-04 +3.104765E-04 -2.215847E-04 +8.512777E-05 +5.291605E-04 +3.104765E-04 +5.291605E-04 +7.430697E-03 
 +3.661244E-04 +4.032101E-04 -1.674980E-04 +4.032101E-04 -4.242450E-04 +4.439105E-04 -1.674980E-04 +4.439105E-04 +7.732746E-03 
 +4.918259E-04 -4.055219E-04 -4.871024E-04 -4.055219E-04 -2.341690E-04 +5.291035E-04 -4.871024E-04 +5.291035E-04 +7.266412E-03 
 +1.418466E-04 -6.026479E-04 -5.296373E-04 -6.026479E-04 +4.973845E-04 +9.475175E-05 -5.296373E-04 +9.475175E-05 +7.198772E-03 
 +5.032883E-04 +1.135570E-04 -5.168230E-04 +1.135570E-04 -4.606355E-04 -2.729289E-04 -5.168230E-04 -2.729289E-04 +7.355500E-03 
 -2.430673E-06 -1.268932E-04 -5.412395E-04 -1.268932E-04 +2.013008E-05 +1.938234E-04 -5.412395E-04 +1.938234E-04 +7.316933E-03 
 +1.139205E-04 -2.149269E-04 -1.691871E-04 -2.149269E-04 -2.562169E-05 -1.165675E-04 -1.691871E-04 -1.165675E-04 +7.501980E-03 
 -3.084060E-04 +1.209735E-03 -1.284817E-04 +1.209735E-03 +5.927049E-04 +1.949026E-04 -1.284817E-04 +1.949026E-04 +7.751281E-03 
 +3.806143E-04 -6.998645E-05 +3.853151E-04 -6.998645E-05 -3.569414E-04 -3.062684E-04 +3.853151E-04 -3.062684E-04 +7.720468E-03 
 +3.079235E-04 -4.349907E-04 +8.150631E-04 -4.349907E-04 +3.388542E-04 -2.423969E-04 +8.150631E-04 -2.423969E-04 +7.163611E-03 
 -2.166621E-04 +7.998171E-04 +5.468242E-04 +7.998171E-04 -3.859184E-04 +1.304703E-04 +5.468242E-04 +1.304703E-04 +7.789542E-03 
 +6.850879E-05 -1.383671E-04 +2.566946E-04 -1.383671E-04 -4.296720E-04 +1.558127E-04 +2.566946E-04 +1.558127E-04 +7.529754E-03 
 -5.676933E-05 -6.793595E-04 +2.998844E-05 -6.793595E-04 +5.699632E-04 +2.469689E-04 +2.998844E-05 +2.469689E-04 +7.234763E-03 
 +2.235783E-04 +3.930085E-04 -1.829773E-04 +3.930085E-04 -4.283314E-04 +1.475424E-04 -1.829773E-04 +1.475424E-04 +7.417437E-03 
 -2.975700E-04 +5.356338E-04 -3.335168E-04 +5.356338E-04 +3.783162E-04 +1.790940E-05 -3.335168E-04 +1.790940E-05 +7.194550E-03 
 -2.741223E-04 +2.150732E-04 +2.454069E-04 +2.150732E-04 +2.211017E-04 +5.525806E-04 +2.454069E-04 +5.525806E-04 +7.392181E-03 
 +6.989260E-04 -8.430005E-05 +3.105028E-04 -8.430005E-05 +5.773946E-06 -8.000686E-06 +3.105028E-04 -8.000686E-06 +7.160287E-03 
 +7.846160E-05 -7.439675E-04 -3.542406E-04 -7.439675E-04 -2.959988E-04 +3.917642E-04 -3.542406E-04 +3.917642E-04 +7.554248E-03 
 -2.339620E-04 -3.345174E-04 -2.197497E-05 -3.345174E-04 -2.380677E-04 -4.183874E-04 -2.197497E-05 -4.183874E-04 +7.931467E-03 
 -9.602436E-05 -1.225296E-04 +5.270734E-04 -1.225296E-04 +2.404590E-04 +6.082887E-04 +5.270734E-04 +6.082887E-04 +7.330563E-03 
 -8.208642E-05 -7.384441E-05 -1.336167E-04 -7.384441E-05 +4.505056E-04 -2.491153E-04 -1.336167E-04 -2.491153E-04 +7.164895E-03 
 -6.051338E-05 -4.582673E-04 -2.655806E-04 -4.582673E-04 +3.132670E-05 +3.810983E-04 -2.655806E-04 +3.810983E-04 +7.551321E-03 
 -1.534884E-04 +1.176266E-03 -7.902348E-05 +1.176266E-03 -3.512430E-04 +5.055588E-05 -7.902348E-05 +5.055588E-05 +7.778803E-03 
 +6.128247E-05 -2.880614E-04 -3.289758E-04 -2.880614E-04 -3.906936E-05 -8.968232E-05 -3.289758E-04 -8.968232E-05 +7.623093E-03 
 -1.080657E-04 -4.671404E-04 +1.237420E-04 -4.671404E-04 +1.795472E-04 +3.979331E-04 +1.237420E-04 +3.979331E-04 +7.647315E-03 
 +1.391565E-04 -5.592450E-04 +1.331744E-04 -5.592450E-04 -6.278650E-04 -2.566290E-04 +1.331744E-04 -2.566290E-04 +8.006259E-03 
 -9.026111E-05 +9.212111E-04 -3.539895E-04 +9.212111E-04 +1.448005E-04 +1.567710E-04 -3.539895E-04 +1.567710E-04 +7.641620E-03 
 +2.058165E-04 -4.964418E-04 -5.700406E-05 -4.964418E-04 -1.452966E-06 -5.650407E-04 -5.700406E-05 -5.650407E-04 +7.044141E-03 
 -1.069889E-04 -2.111156E-04 -5.970146E-04 -2.111156E-04 +1.484306E-04 +1.766164E-04 -5.970146E-04 +1.766164E-04 +6.995032E-03 
 -5.787038E-05 +3.241830E-05 -3.931566E-04 +3.241830E-05 +1.431137E-04 -6.046375E-04 -3.931566E-04 -6.046375E-04 +7.373174E-03 
 -4.144001E-04 -8.370148E-05 +4.615615E-05 -8.370148E-05 -1.321932E-05 +3.546355E-04 +4.615615E-05 +3.546355E-04 +7.945394E-03 
 +2.343316E-04 +2.923491E-04 +3.043995E-04 +2.923491E-04 -2.347770E-04 -1.059333E-04 +3.043995E-04 -1.059333E-04 +7.231514E-03 
 +1.259119E-04 +2.451839E-04 +6.262116E-04 +2.451839E-04 -2.908603E-04 -3.198676E-05 +6.262116E-04 -3.198676E-05 +7.440941E-03 
 -1.869473E-04 +7.438284E-04 +3.646585E-04 +7.438284E-04 +3.005143E-04 -1.387248E-04 +3.646585E-04 -1.387248E-04 +7.618422E-03 
 +1.780418E-04 -4.185263E-04 +6.643958E-05 -4.185263E-04 +1.034578E-04 +1.682985E-04 +6.643958E-05 +1.682985E-04 +7.225883E-03 
 +3.877043E-04 +4.176981E-05 +6.158673E-05 +4.176981E-05 +1.918209E-04 -3.882697E-04 +6.158673E-05 -3.882697E-04 +6.834462E-03 
 +1.481275E-04 +5.261384E-04 +1.546951E-04 +5.261384E-04 +3.303422E-04 +1.445024E-04 +1.546951E-04 +1.445024E-04 +6.974519E-03 
 -5.784644E-05 +3.499439E-04 -1.128285E-04 +3.499439E-04 -4.919651E-04 -3.084252E-04 -1.128285E-04 -3.084252E-04 +8.116166E-03 
 -7.555325E-05 -8.476593E-04 -4.965308E-05 -8.476593E-04 -8.192109E-06 +7.671920E-05 -4.965308E-05 +7.671920E-05 +7.625446E-03 
 -1.457116E-04 +6.194952E-04 -4.147890E-05 +6.194952E-04 +2.152400E-04 -2.840780E-04 -4.147890E-05 -2.840780E-04 +7.378645E-03 
 -1.097269E-04 +5.813472E-05 -8.335647E-04 +5.813472E-05 -6.641175E-05 -9.775680E-05 -8.335647E-04 -9.775680E-05 +7.506765E-03 
 +2.472182E-04 -3.120032E-04 -2.026157E-04 -3.120032E-04 +1.244608E-05 +1.364408E-04 -2.026157E-04 +1.364408E-04 +7.620409E-03 
 +1.932089E-04 -2.202206E-04 +2.440347E-04 -2.202206E-04 -1.792648E-04 -3.238850E-04 +2.440347E-04 -3.238850E-04 +7.661668E-03 
 +5.862491E-05 +3.228021E-04 +5.747195E-05 +3.228021E-04 +3.091893E-04 -2.031260E-04 +5.747195E-05 -2.031260E-04 +6.993176E-03 
 +4.321332E-04 +6.708763E-05 +3.501384E-04 +6.708763E-05 -3.197471E-04 -3.122122E-04 +3.501384E-04 -3.122122E-04 +7.329601E-03 
 +5.309138E-05 +5.973718E-04 -8.668298E-04 +5.973718E-04 +1.351369E-05 -3.252276E-05 -8.668298E-04 -3.252276E-05 +7.638524E-03 
 +2.878646E-04 +6.113169E-05 -6.944215E-04 +6.113169E-05 -1.639308E-04 -5.934603E-04 -6.944215E-04 -5.934603E-04 +7.113974E-03 
 +2.725094E-04 -9.351608E-05 +4.859857E-04 -9.351608E-05 +1.698686E-05 +1.152581E-05 +4.859857E-04 +1.152581E-05 +7.016550E-03 
 -2.138414E-04 -7.560304E-04 -2.021486E-04 -7.560304E-04 -1.669180E-05 -1.041131E-04 -2.021486E-04 -1.041131E-04 +7.408409E-03 
 +2.631737E-04 -1.701534E-03 -1.814256E-04 -1.701534E-03 -2.448825E-04 -9.854544E-06 -1.814256E-04 -9.854544E-06 +7.682037E-03 
 +1.411816E-04 +3.723876E-04 +3.120926E-05 +3.723876E-04 +3.262565E-04 +5.408785E-04 +3.120926E-05 +5.408785E-04 +7.028515E-03 
 -5.665629E-04 +8.711395E-04 +5.441978E-05 +8.711395E-04 +3.329840E-04 +5.291881E-04 +5.441978E-05 +5.291881E-04 +7.372743E-03 
 -1.681025E-04 +1.741007E-04 -1.240787E-04 +1.741007E-04 -8.363969E-04 +3.886623E-04 -1.240787E-04 +3.886623E-04 +8.187254E-03 
 -4.129311E-04 -3.379805E-04 -9.672827E-05 -3.379805E-04 +1.910373E-04 +1.088246E-04 -9.672827E-05 +1.088246E-04 +7.685093E-03 
 -2.727902E-04 +4.480466E-06 -3.548017E-05 +4.480466E-06 +1.334714E-04 +7.231208E-04 -3.548017E-05 +7.231208E-04 +7.464536E-03 
 -9.982690E-05 -1.157945E-03 -1.154442E-04 -1.157945E-03 +2.332808E-04 -3.573732E-05 -1.154442E-04 -3.573732E-05 +7.624371E-03 
 -2.876632E-04 +6.307413E-04 -1.583656E-04 +6.307413E-04 -1.653362E-04 -4.701132E-04 -1.583656E-04 -4.701132E-04 +8.093945E-03 
 -1.314007E-04 +8.107939E-04 +4.128135E-04 +8.107939E-04 -2.219953E-04 -1.470992E-04 +4.128135E-04 -1.470992E-04 +7.968585E-03 
 +2.443005E-04 -5.843465E-04 -4.732320E-04 -5.843465E-04 +2.516152E-04 +8.239182E-06 -4.732320E-04 +8.239182E-06 +7.027018E-03 
 +1.371449E-04 +2.217111E-04 -1.818416E-04 +2.217111E-04 -4.275440E-05 -1.135010E-04 -1.818416E-04 -1.135010E-04 +7.421550E-03 
 +2.178028E-04 -4.481326E-05 +5.363221E-04 -4.481326E-05 +2.056066E-04 -2.578280E-04 +5.363221E-04 -2.578280E-04 +7.356341E-03 
 -1.672028E-04 -1.560263E-04 +1.881518E-04 -1.560263E-04 +6.122509E-05 -5.320592E-04 +1.881518E-04 -5.320592E-04 +7.697692E-03 
 -1.212733E-04 -4.320523E-04 -4.148459E-04 -4.320523E-04 -3.841251E-04 +5.901267E-04 -4.148459E-04 +5.901267E-04 +7.863672E-03 
 +2.286871E-04 -6.300365E-04 -7.203375E-04 -6.300365E-04 +2.825497E-04 +2.859213E-04 -7.203375E-04 +2.859213E-04 +7.475355E-03 
 -2.554269E-04 -1.688438E-04 +5.035303E-05 -1.688438E-04 +3.646004E-06 +3.474246E-04 +5.035303E-05 +3.474246E-04 +7.701945E-03 
 +2.327339E-05 -7.695419E-04 +1.218395E-04 -7.695419E-04 -3.494371E-04 +3.255226E-04 +1.218395E-04 +3.255226E-04 +7.821715E-03 
 +1.898176E-04 +1.162267E-04 -2.431612E-06 +1.162267E-04 +9.987591E-05 -5.594877E-05 -2.431612E-06 -5.594877E-05 +7.279163E-03 
 -2.167861E-04 +7.272688E-04 +1.683963E-05 +7.272688E-04 +5.172082E-04 +5.069718E-04 +1.683963E-05 +5.069718E-04 +7.444174E-03 
 +2.195495E-04 -7.438195E-04 -2.837378E-04 -7.438195E-04 -7.323929E-04 +6.418431E-05 -2.837378E-04 +6.418431E-05 +7.773246E-03 
 -3.927274E-04 +3.320394E-04 +1.176686E-04 +3.320394E-04 +3.367347E-04 -9.871229E-05 +1.176686E-04 -9.871229E-05 +7.715187E-03 
 +1.044147E-04 -8.619117E-04 -3.398167E-05 -8.619117E-04 +3.026373E-04 -2.647531E-04 -3.398167E-05 -2.647531E-04 +7.139870E-03 
 -1.275998E-04 +4.225824E-04 +1.267333E-05 +4.225824E-04 -5.068264E-04 -1.002895E-04 +1.267333E-05 -1.002895E-04 +7.788337E-03 
 -8.543592E-04 +7.150872E-04 +6.963733E-04 +7.150872E-04 +3.832118E-04 +2.649427E-06 +6.963733E-04 +2.649427E-06 +7.727107E-03 
 -5.868852E-05 +1.015499E-04 +5.362535E-04 +1.015499E-04 -1.779281E-04 -5.431534E-04 +5.362535E-04 -5.431534E-04 +7.417625E-03 
 -2.532023E-05 -1.900483E-04 -3.027257E-04 -1.900483E-04 +1.101403E-04 -2.432294E-04 -3.027257E-04 -2.432294E-04 +7.302913E-03 
 +4.074759E-04 -5.839990E-05 -1.701759E-04 -5.839990E-05 +2.713577E-05 -8.366432E-05 -1.701759E-04 -8.366432E-05 +6.953679E-03 
 +6.080741E-04 -3.771981E-04 -2.754011E-04 -3.771981E-04 -4.262520E-05 -1.874228E-04 -2.754011E-04 -1.874228E-04 +7.116470E-03 
 +5.554763E-05 +5.392991E-04 -1.511366E-04 +5.392991E-04 -1.971055E-04 -2.572262E-04 -1.511366E-04 -2.572262E-04 +7.160045E-03 
 +2.490616E-04 +2.831420E-04 -3.419260E-04 +2.831420E-04 -1.220029E-04 +4.541312E-05 -3.419260E-04 +4.541312E-05 +7.223594E-03 
 +1.670117E-04 -1.675027E-04 +2.347048E-04 -1.675027E-04 +1.035681E-04 -2.232837E-04 +2.347048E-04 -2.232837E-04 +7.135720E-03 
 +5.444711E-05 +3.767797E-05 +8.448365E-05 +3.767797E-05 +4.681473E-04 +2.610621E-04 +8.448365E-05 +2.610621E-04 +6.875211E-03 
 +1.594305E-04 +5.585890E-04 +1.521894E-04 +5.585890E-04 -3.431952E-04 -4.113144E-04 +1.521894E-04 -4.113144E-04 +7.416504E-03 
 -2.084099E-04 -2.503746E-04 -5.420007E-05 -2.503746E-04 +2.134227E-04 +2.621948E-04 -5.420007E-05 +2.621948E-04 +7.453771E-03 
 +1.123583E-04 +6.037352E-05 -4.308445E-04 +6.037352E-05 -3.104432E-05 -5.615739E-05 -4.308445E-04 -5.615739E-05 +7.532205E-03 
 -8.785186E-05 -1.204272E-04 +4.880941E-04 -1.204272E-04 +4.289065E-05 -3.643979E-04 +4.880941E-04 -3.643979E-04 +7.569853E-03 
 -6.301137E-04 -9.174314E-05 -1.316191E-05 -9.174314E-05 +1.928501E-04 +2.746896E-04 -1.316191E-05 +2.746896E-04 +7.917888E-03 
 -1.806636E-05 -2.885377E-04 -9.261484E-04 -2.885377E-04 -3.612931E-04 -2.569874E-04 -9.261484E-04 -2.569874E-04 +7.262805E-03 
 +2.166890E-05 +2.391489E-04 -2.260670E-04 +2.391489E-04 +3.075074E-04 +2.279048E-04 -2.260670E-04 +2.279048E-04 +7.089452E-03 
 -9.556394E-05 -4.274975E-04 +4.809936E-04 -4.274975E-04 +1.190684E-04 -2.799629E-04 +4.809936E-04 -2.799629E-04 +7.409063E-03 
 +3.178961E-04 +9.333113E-04 +5.086014E-04 +9.333113E-04 -3.102362E-04 +6.102840E-05 +5.086014E-04 +6.102840E-05 +7.629032E-03 
 -3.511646E-05 -1.135011E-04 +1.017193E-04 -1.135011E-04 -1.780339E-04 -9.301653E-05 +1.017193E-04 -9.301653E-05 +7.438637E-03 
 +1.064433E-04 -2.520011E-04 -1.102590E-04 -2.520011E-04 -4.922254E-04 -2.154257E-05 -1.102590E-04 -2.154257E-05 +8.013661E-03 
 +2.313418E-04 -6.902470E-04 +1.227822E-05 -6.902470E-04 -5.111072E-04 -1.252083E-04 +1.227822E-05 -1.252083E-04 +7.656977E-03 
 -2.155704E-04 +5.631734E-04 +5.150385E-04 +5.631734E-04 +2.945522E-04 +4.972342E-04 +5.150385E-04 +4.972342E-04 +7.525822E-03 
 -1.383373E-05 -5.999774E-05 -8.184847E-05 -5.999774E-05 +4.201042E-04 -7.001196E-05 -8.184847E-05 -7.001196E-05 +7.132877E-03 
 -2.014057E-04 -2.844572E-04 +3.088025E-04 -2.844572E-04 +9.641336E-05 -1.310154E-04 +3.088025E-04 -1.310154E-04 +7.652554E-03 
 +3.473772E-04 +1.042951E-03 +6.758851E-04 +1.042951E-03 -2.902268E-04 -3.827436E-04 +6.758851E-04 -3.827436E-04 +7.846299E-03 
 +4.275859E-04 +7.415651E-04 +4.722908E-04 +7.415651E-04 +1.561067E-04 +5.197010E-04 +4.722908E-04 +5.197010E-04 +7.311459E-03 
 +3.320240E-04 +6.831622E-04 +1.946288E-04 +6.831622E-04 -3.317452E-04 -2.397287E-04 +1.946288E-04 -2.397287E-04 +7.405847E-03 
 +1.850421E-04 -9.687823E-05 +2.642931E-04 -9.687823E-05 +2.094669E-04 +6.399170E-05 +2.642931E-04 +6.399170E-05 +7.210593E-03 
 +7.439393E-05 +4.269162E-06 +1.002858E-04 +4.269162E-06 -3.317953E-04 -1.461894E-04 +1.002858E-04 -1.461894E-04 +7.676662E-03 
 -1.564941E-04 +8.306683E-04 -5.686682E-05 +8.306683E-04 +1.426977E-04 -5.128239E-04 -5.686682E-05 -5.128239E-04 +7.719963E-03 
 -4.555781E-04 +1.112492E-03 -1.449277E-05 +1.112492E-03 +3.608082E-04 -2.009277E-04 -1.449277E-05 -2.009277E-04 +7.539318E-03 
 +1.623564E-04 -4.807096E-04 +4.197239E-04 -4.807096E-04 -4.129922E-05 +2.445822E-05 +4.197239E-04 +2.445822E-05 +7.654916E-03 
 +2.486008E-04 +2.098273E-04 -1.450832E-04 +2.098273E-04 -6.577452E-05 +1.829938E-05 -1.450832E-04 +1.829938E-05 +7.182819E-03 
 +4.823798E-05 +3.531459E-04 +2.324474E-04 +3.531459E-04 -1.361260E-04 +1.034222E-04 +2.324474E-04 +1.034222E-04 +7.728269E-03 
 -4.259530E-05 +2.434661E-05 -8.533668E-05 +2.434661E-05 +6.678738E-04 -2.824770E-04 -8.533668E-05 -2.824770E-04 +6.961254E-03 
 +6.762405E-05 +3.114603E-04 +4.400763E-05 +3.114603E-04 -2.730684E-04 -1.749445E-04 +4.400763E-05 -1.749445E-04 +7.256313E-03 
 -7.213836E-05 +8.205894E-04 +6.439655E-04 +8.205894E-04 -2.387095E-05 -1.500360E-04 +6.439655E-04 -1.500360E-04 +7.839684E-03 
 +3.427175E-04 +4.797424E-05 +1.685021E-04 +4.797424E-05 +2.909039E-05 -6.897916E-05 +1.685021E-04 -6.897916E-05 +7.324281E-03 
 +4.308570E-04 +9.598989E-06 +4.679801E-05 +9.598989E-06 +7.591306E-05 +1.767701E-04 +4.679801E-05 +1.767701E-04 +7.009813E-03 
 -3.669233E-04 -8.466647E-04 +2.091750E-04 -8.466647E-04 +4.391190E-05 -7.683752E-05 +2.091750E-04 -7.683752E-05 +7.526394E-03 
 -6.369285E-05 -5.105452E-04 +3.227442E-05 -5.105452E-04 -3.424825E-04 -5.713095E-04 +3.227442E-05 -5.713095E-04 +7.721202E-03 
 +1.401882E-04 +2.138057E-04 +3.002918E-04 +2.138057E-04 -3.740571E-04 +6.783581E-04 +3.002918E-04 +6.783581E-04 +7.806537E-03 
 +2.577118E-04 -6.397402E-05 -5.882698E-05 -6.397402E-05 +1.801680E-04 -2.415313E-04 -5.882698E-05 -2.415313E-04 +7.012376E-03 
 -4.069498E-04 +8.669740E-04 -1.399145E-04 +8.669740E-04 +2.930793E-04 -1.491533E-04 -1.399145E-04 -1.491533E-04 +7.239785E-03 
 -9.720246E-05 -7.538852E-04 +8.025577E-06 -7.538852E-04 -3.356635E-05 -2.338431E-04 +8.025577E-06 -2.338431E-04 +7.293999E-03 
 +5.269785E-05 -2.350297E-04 -1.711731E-04 -2.350297E-04 +1.347365E-05 -1.045035E-03 -1.711731E-04 -1.045035E-03 +7.214938E-03 
 -3.664826E-04 +5.431739E-04 +2.904636E-04 +5.431739E-04 +9.009646E-05 +3.132449E-04 +2.904636E-04 +3.132449E-04 +7.711914E-03 
 -7.979662E-05 +1.288636E-04 +3.904884E-04 +1.288636E-04 -9.492922E-05 -4.718330E-04 +3.904884E-04 -4.718330E-04 +7.351726E-03 
 +2.142426E-04 +3.766638E-04 -1.827065E-04 +3.766638E-04 -1.643769E-04 +9.901789E-05 -1.827065E-04 +9.901789E-05 +7.330613E-03 
 +2.048518E-04 -2.282145E-04 -3.554159E-04 -2.282145E-04 +9.833744E-05 +3.921359E-04 -3.554159E-04 +3.921359E-04 +7.142609E-03 
 -1.003083E-04 +2.812296E-04 -3.672892E-04 +2.812296E-04 +7.958824E-05 +8.826790E-04 -3.672892E-04 +8.826790E-04 +7.252146E-03 
 -1.841258E-04 +6.036920E-04 +1.526060E-05 +6.036920E-04 +4.324868E-05 +8.168449E-04 +1.526060E-05 +8.168449E-04 +7.251950E-03 
 +5.017108E-04 +5.186428E-05 -8.060915E-05 +5.186428E-05 +2.233590E-04 -4.143553E-04 -8.060915E-05 -4.143553E-04 +7.125597E-03 
 +1.337845E-04 +1.111355E-03 +1.187650E-04 +1.111355E-03 -4.470668E-04 +3.082565E-04 +1.187650E-04 +3.082565E-04 +7.598579E-03 
 +1.540856E-04 +5.536246E-04 +4.719468E-04 +5.536246E-04 +3.388173E-04 +2.652972E-04 +4.719468E-04 +2.652972E-04 +6.902527E-03 
 +1.971544E-05 -5.185089E-04 +2.324111E-04 -5.185089E-04 -1.297712E-04 -9.407754E-04 +2.324111E-04 -9.407754E-04 +7.252887E-03 
 -2.531967E-04 +4.230654E-04 +1.937623E-04 +4.230654E-04 +2.624985E-04 -3.509474E-05 +1.937623E-04 -3.509474E-05 +7.519299E-03 
 -1.303476E-04 +7.265731E-05 +2.796201E-04 +7.265731E-05 +1.094850E-05 -2.699929E-04 +2.796201E-04 -2.699929E-04 +7.456696E-03 
 -2.344533E-04 -9.529127E-04 -1.449059E-04 -9.529127E-04 +1.428916E-05 -1.916127E-04 -1.449059E-04 -1.916127E-04 +7.710624E-03 
 +1.271956E-04 -1.121995E-03 -6.006163E-04 -1.121995E-03 -1.759096E-04 -3.949098E-04 -6.006163E-04 -3.949098E-04 +7.826022E-03 
 -3.701220E-05 -5.867386E-05 -4.178474E-04 -5.867386E-05 +1.138152E-04 -4.316457E-04 -4.178474E-04 -4.316457E-04 +7.616064E-03 
 +1.622910E-04 -7.065507E-04 +8.356009E-04 -7.065507E-04 +9.162070E-05 -5.150935E-04 +8.356009E-04 -5.150935E-04 +7.280060E-03 
 -2.180104E-04 +2.864023E-04 +5.183351E-04 +2.864023E-04 +2.964767E-04 +1.663242E-04 +5.183351E-04 +1.663242E-04 +7.241476E-03 
 -6.161123E-05 +5.986763E-04 +7.995129E-05 +5.986763E-04 -3.521975E-04 -5.786721E-06 +7.995129E-05 -5.786721E-06 +7.792491E-03 
 -8.840931E-05 -1.434934E-04 +1.509557E-04 -1.434934E-04 +4.449593E-06 +4.677734E-04 +1.509557E-04 +4.677734E-04 +7.272582E-03 
 +2.383545E-04 -5.366606E-04 -1.750864E-04 -5.366606E-04 +2.626943E-04 -1.256164E-04 -1.750864E-04 -1.256164E-04 +7.011514E-03 
 +2.111019E-04 -7.624277E-04 +5.917274E-04 -7.624277E-04 +4.152896E-05 +7.142476E-04 +5.917274E-04 +7.142476E-04 +7.487785E-03 
 +2.070930E-04 +1.367285E-04 +5.430173E-04 +1.367285E-04 -1.596728E-04 -2.504188E-05 +5.430173E-04 -2.504188E-05 +7.301830E-03 
 -7.347459E-05 -3.977670E-04 -4.659722E-05 -3.977670E-04 +2.292702E-04 -2.343215E-04 -4.659722E-05 -2.343215E-04 +7.664796E-03 
 -2.498141E-04 +1.367180E-03 +8.135544E-04 +1.367180E-03 -2.412477E-04 +2.515105E-04 +8.135544E-04 +2.515105E-04 +8.082167E-03 
 -4.566613E-04 -3.820160E-05 +2.648433E-04 -3.820160E-05 +1.957836E-04 -1.147877E-05 +2.648433E-04 -1.147877E-05 +7.952697E-03 
 -6.834637E-05 +1.175906E-04 -4.068425E-04 +1.175906E-04 -9.834455E-05 -7.076922E-04 -4.068425E-04 -7.076922E-04 +7.749949E-03 
 -1.178919E-04 +8.911454E-04 +2.140876E-04 +8.911454E-04 +1.110387E-04 -5.348325E-04 +2.140876E-04 -5.348325E-04 +7.700379E-03 
 -6.480418E-05 +3.263267E-04 +3.465319E-04 +3.263267E-04 -1.648451E-04 -5.370012E-05 +3.465319E-04 -5.370012E-05 +7.720763E-03 
 -1.972584E-04 +2.217553E-04 +1.398448E-04 +2.217553E-04 +7.269881E-05 +3.340246E-05 +1.398448E-04 +3.340246E-05 +7.498119E-03 
 -4.956662E-04 +8.268735E-04 -4.300006E-04 +8.268735E-04 +3.260319E-05 -4.055481E-04 -4.300006E-04 -4.055481E-04 +7.797225E-03 
 -3.378028E-04 -5.236318E-04 -1.360878E-04 -5.236318E-04 +9.049030E-05 +4.346149E-04 -1.360878E-04 +4.346149E-04 +7.663033E-03 
 -1.247406E-04 +4.825583E-04 +8.868670E-05 +4.825583E-04 +5.864819E-05 +2.264769E-04 +8.868670E-05 +2.264769E-04 +7.031464E-03 
 +1.852732E-04 -6.284247E-04 -5.825826E-04 -6.284247E-04 +1.564941E-04 +3.559805E-04 -5.825826E-04 +3.559805E-04 +6.907732E-03 
 +2.929824E-04 -1.603162E-03 -3.346004E-04 -1.603162E-03 -1.738250E-04 -2.545117E-04 -3.346004E-04 -2.545117E-04 +7.354075E-03 
 +2.574617E-04 -8.954795E-04 -2.578590E-05 -8.954795E-04 -6.372415E-05 -1.343290E-04 -2.578590E-05 -1.343290E-04 +6.931579E-03 
 +3.572114E-04 +1.806692E-05 -1.468362E-04 +1.806692E-05 -3.900394E-04 +6.393588E-04 -1.468362E-04 +6.393588E-04 +7.248801E-03 
 +2.440981E-04 -3.614252E-04 -8.498454E-04 -3.614252E-04 -1.890198E-04 +3.282014E-05 -8.498454E-04 +3.282014E-05 +7.381790E-03 
 +2.092380E-05 -5.292072E-04 -3.052100E-04 -5.292072E-04 +2.582554E-04 +4.216482E-04 -3.052100E-04 +4.216482E-04 +7.259544E-03 
 +3.786476E-05 +3.471205E-04 -6.116626E-04 +3.471205E-04 +5.686779E-05 -4.163976E-04 -6.116626E-04 -4.163976E-04 +7.248528E-03 
 +4.624719E-05 -3.263131E-04 -2.784182E-04 -3.263131E-04 -8.448250E-05 +4.750199E-04 -2.784182E-04 +4.750199E-04 +7.864390E-03 
 -2.270375E-04 +1.308394E-04 +4.875396E-07 +1.308394E-04 +1.030959E-04 -1.848154E-04 +4.875396E-07 -1.848154E-04 +7.474808E-03 
 +3.078267E-04 -5.160292E-04 -5.619174E-04 -5.160292E-04 +8.154239E-05 +1.770618E-04 -5.619174E-04 +1.770618E-04 +7.040317E-03 
 +3.955205E-04 +4.942262E-05 +2.207528E-04 +4.942262E-05 -3.997205E-04 -2.457526E-04 +2.207528E-04 -2.457526E-04 +7.169870E-03 
 +3.147530E-04 +2.850267E-04 +2.381484E-04 +2.850267E-04 +7.796843E-05 +2.699484E-04 +2.381484E-04 +2.699484E-04 +7.021396E-03 
 +2.702868E-04 +1.294426E-04 -3.347927E-04 +1.294426E-04 +1.882829E-04 -2.229937E-04 -3.347927E-04 -2.229937E-04 +7.096847E-03 
 +6.309230E-05 -9.533794E-04 -6.907401E-05 -9.533794E-04 -5.917014E-05 +1.059000E-04 -6.907401E-05 +1.059000E-04 +7.222172E-03 
 +9.712817E-05 +6.407673E-04 -3.242420E-04 +6.407673E-04 -2.762000E-04 +4.125192E-04 -3.242420E-04 +4.125192E-04 +7.244310E-03 
 +1.442184E-04 +6.792397E-04 +3.469220E-05 +6.792397E-04 +2.796838E-04 +2.029414E-04 +3.469220E-05 +2.029414E-04 +6.994781E-03 
 +2.396571E-04 -7.972430E-05 -2.680288E-04 -7.972430E-05 -1.249655E-06 +2.570967E-04 -2.680288E-04 +2.570967E-04 +7.120844E-03 
 -2.186369E-05 +1.738286E-04 -1.815481E-04 +1.738286E-04 +2.361059E-05 +4.728808E-04 -1.815481E-04 +4.728808E-04 +7.275144E-03 
 -1.972408E-05 +4.330329E-04 -3.976115E-05 +4.330329E-04 +1.105694E-06 +1.435118E-04 -3.976115E-05 +1.435118E-04 +7.072593E-03 
 +1.684613E-04 -1.281853E-04 +4.324212E-04 -1.281853E-04 +3.210223E-04 -4.067402E-04 +4.324212E-04 -4.067402E-04 +7.068181E-03 
 -3.879572E-04 +4.372949E-04 +7.133078E-04 +4.372949E-04 -1.416043E-04 -2.784053E-04 +7.133078E-04 -2.784053E-04 +7.722000E-03 
 -5.783905E-04 -9.002166E-04 -2.458656E-05 -9.002166E-04 -3.690862E-04 -2.597637E-04 -2.458656E-05 -2.597637E-04 +7.817862E-03 
 -2.174100E-04 +1.972945E-04 -6.423416E-04 +1.972945E-04 +5.999955E-04 -2.510662E-04 -6.423416E-04 -2.510662E-04 +7.016944E-03 
 +7.602424E-05 -1.101783E-03 -2.235240E-04 -1.101783E-03 -4.994841E-04 -1.972538E-04 -2.235240E-04 -1.972538E-04 +7.574220E-03 
 +1.166266E-04 +3.150930E-04 -2.480504E-04 +3.150930E-04 +2.761201E-05 +7.566498E-04 -2.480504E-04 +7.566498E-04 +7.437140E-03 
 +1.459391E-05 -7.461401E-04 -7.298277E-04 -7.461401E-04 +1.364668E-04 +1.465745E-04 -7.298277E-04 +1.465745E-04 +7.464741E-03 
 -6.918715E-05 -1.196762E-03 +3.301046E-05 -1.196762E-03 -4.050312E-04 -1.825698E-04 +3.301046E-05 -1.825698E-04 +7.846208E-03 
 -3.769793E-04 +5.637242E-04 -2.273311E-04 +5.637242E-04 +3.132292E-04 -1.485128E-04 -2.273311E-04 -1.485128E-04 +7.407405E-03 
 -1.236594E-04 +3.847839E-04 +2.963482E-04 +3.847839E-04 +4.291171E-04 +2.662425E-04 +2.963482E-04 +2.662425E-04 +7.261128E-03 
 -1.214266E-04 -6.432165E-04 -1.958130E-04 -6.432165E-04 -4.536610E-04 -7.001580E-04 -1.958130E-04 -7.001580E-04 +7.778954E-03 
 -3.888280E-04 -1.024389E-03 -1.039934E-04 -1.024389E-03 +7.895666E-05 +3.133297E-04 -1.039934E-04 +3.133297E-04 +7.682373E-03 
 -2.532474E-04 -1.082294E-04 +3.742705E-04 -1.082294E-04 +1.911320E-05 +1.512574E-04 +3.742705E-04 +1.512574E-04 +7.696086E-03 
 +4.486131E-05 -5.742133E-04 +5.178636E-04 -5.742133E-04 -4.591743E-04 +2.250397E-04 +5.178636E-04 +2.250397E-04 +7.687869E-03 
 +4.524926E-04 -3.865768E-04 -1.358743E-04 -3.865768E-04 +4.502285E-04 +2.230234E-04 -1.358743E-04 +2.230234E-04 +7.252773E-03 
 +2.731730E-04 -8.519124E-04 -1.819273E-04 -8.519124E-04 -1.372611E-04 +1.169053E-04 -1.819273E-04 +1.169053E-04 +7.477835E-03 
 -3.946925E-04 -3.477358E-04 +6.331844E-04 -3.477358E-04 +4.376036E-04 +9.165947E-05 +6.331844E-04 +9.165947E-05 +7.733298E-03 
 -7.677679E-05 +9.603841E-04 +3.655361E-04 +9.603841E-04 -2.174883E-04 +4.910052E-04 +3.655361E-04 +4.910052E-04 +7.983459E-03 
 +4.217344E-05 +4.814628E-05 -9.666564E-05 +4.814628E-05 -2.848141E-04 +1.018898E-04 -9.666564E-05 +1.018898E-04 +7.657380E-03 
 +9.204353E-05 +1.263307E-03 -5.968831E-04 +1.263307E-03 +3.231349E-04 -2.868356E-04 -5.968831E-04 -2.868356E-04 +7.382105E-03 
 +1.992507E-04 +1.870250E-04 -5.368831E-04 +1.870250E-04 -1.225666E-04 +3.118651E-04 -5.368831E-04 +3.118651E-04 +7.704445E-03 
 -3.242055E-04 +1.313798E-04 -1.890933E-04 +1.313798E-04 +6.408048E-05 -1.350632E-04 -1.890933E-04 -1.350632E-04 +8.135485E-03 
 -2.681642E-04 -1.490286E-03 -4.923442E-04 -1.490286E-03 -1.571445E-04 +1.568085E-04 -4.923442E-04 +1.568085E-04 +7.842765E-03 
 -3.780992E-04 +6.333398E-04 +4.746873E-04 +6.333398E-04 -1.098136E-04 +2.447433E-04 +4.746873E-04 +2.447433E-04 +7.950453E-03 
 -5.356534E-04 -7.478689E-04 +4.943750E-04 -7.478689E-04 +2.003401E-04 -1.076530E-03 +4.943750E-04 -1.076530E-03 +7.947289E-03 
 -1.132767E-04 -7.040763E-04 +3.249487E-04 -7.040763E-04 -1.835720E-05 +5.044556E-04 +3.249487E-04 +5.044556E-04 +7.493335E-03 
 +6.269848E-05 -4.520811E-04 -4.635023E-04 -4.520811E-04 -8.777972E-05 -1.110287E-04 -4.635023E-04 -1.110287E-04 +7.634500E-03 
 +1.816216E-04 -7.972570E-04 +1.322205E-05 -7.972570E-04 -6.067147E-04 +2.171962E-04 +1.322205E-05 +2.171962E-04 +7.366914E-03 
 -4.343670E-05 -3.454765E-04 -7.450950E-04 -3.454765E-04 +1.960360E-04 -2.817541E-04 -7.450950E-04 -2.817541E-04 +7.262828E-03 
 -4.715227E-04 +1.092107E-03 -1.150237E-05 +1.092107E-03 +8.939354E-05 -2.852911E-04 -1.150237E-05 -2.852911E-04 +7.656283E-03 
 +1.354931E-04 +3.699738E-04 -2.988079E-04 +3.699738E-04 +3.780827E-04 +2.140572E-04 -2.988079E-04 +2.140572E-04 +7.541385E-03 
 -1.126728E-04 -1.119641E-03 +4.770954E-04 -1.119641E-03 -1.756177E-04 -4.807975E-04 +4.770954E-04 -4.807975E-04 +7.451097E-03 
 -5.877845E-04 -6.926784E-04 +5.251470E-04 -6.926784E-04 +4.595139E-05 +2.029864E-04 +5.251470E-04 +2.029864E-04 +7.846984E-03 
 -2.366962E-04 -1.059532E-03 -2.133202E-04 -1.059532E-03 -6.250207E-05 +5.953669E-05 -2.133202E-04 +5.953669E-05 +7.787331E-03 
 -4.404741E-04 -3.092828E-04 -1.791584E-04 -3.092828E-04 -1.956813E-04 +4.751683E-06 -1.791584E-04 +4.751683E-06 +7.988420E-03 
 -4.681225E-04 +4.440320E-04 +8.767780E-05 +4.440320E-04 -1.652824E-05 -4.316861E-04 +8.767780E-05 -4.316861E-04 +7.933019E-03 
 -2.344483E-04 -4.686717E-04 -1.438039E-04 -4.686717E-04 +3.287527E-04 +6.439188E-04 -1.438039E-04 +6.439188E-04 +7.421640E-03 
 -3.891593E-04 +6.520042E-04 +2.561116E-04 +6.520042E-04 +4.165926E-05 +7.229589E-05 +2.561116E-04 +7.229589E-05 +7.570511E-03 
 -3.336340E-04 +9.491225E-04 -1.752054E-04 +9.491225E-04 +9.685662E-05 -3.913693E-04 -1.752054E-04 -3.913693E-04 +7.733332E-03 
 -1.660169E-05 +2.800562E-04 -4.944506E-04 +2.800562E-04 -3.561552E-04 -2.375131E-04 -4.944506E-04 -2.375131E-04 +7.794440E-03 
 +5.461009E-05 -9.447391E-04 -4.701213E-05 -9.447391E-04 +6.461702E-05 +4.108934E-04 -4.701213E-05 +4.108934E-04 +7.577163E-03 
 +2.541986E-05 +6.944246E-04 -2.390443E-04 +6.944246E-04 -4.669397E-05 -8.527366E-05 -2.390443E-04 -8.527366E-05 +7.492568E-03 
 -4.542733E-04 -7.289603E-04 -6.593197E-04 -7.289603E-04 +2.021322E-04 +1.001286E-04 -6.593197E-04 +1.001286E-04 +7.323552E-03 
 +4.346216E-04 -7.199223E-04 +4.089256E-05 -7.199223E-04 -4.575848E-04 -3.115488E-04 +4.089256E-05 -3.115488E-04 +7.436238E-03 
 +5.677486E-04 +5.565394E-04 +1.700608E-04 +5.565394E-04 +3.460368E-04 -1.409029E-04 +1.700608E-04 -1.409029E-04 +6.897376E-03 
 +1.892362E-04 -4.853514E-05 -1.728326E-04 -4.853514E-05 +1.113664E-04 -1.072501E-04 -1.728326E-04 -1.072501E-04 +7.237794E-03 
 +4.308382E-04 +2.231696E-05 +3.187333E-05 +2.231696E-05 -4.653808E-04 +3.821513E-04 +3.187333E-05 +3.821513E-04 +7.695527E-03 
 -9.895406E-05 -2.239974E-04 +7.065495E-04 -2.239974E-04 +4.815810E-04 -4.711686E-04 +7.065495E-04 -4.711686E-04 +7.145030E-03 
 +2.318336E-04 +5.755965E-04 -2.400530E-06 +5.755965E-04 -5.579607E-04 -1.383770E-04 -2.400530E-06 -1.383770E-04 +7.835726E-03 
 -5.289145E-04 +7.734538E-04 +8.187339E-04 +7.734538E-04 +5.628665E-04 -8.792694E-05 +8.187339E-04 -8.792694E-05 +7.641620E-03 
 -1.025169E-04 +9.458853E-05 -6.713175E-05 +9.458853E-05 +1.613759E-04 +3.119231E-06 -6.713175E-05 +3.119231E-06 +7.092043E-03 
 +3.467524E-04 -9.742906E-04 -5.652505E-04 -9.742906E-04 -1.588173E-04 +1.086076E-04 -5.652505E-04 +1.086076E-04 +7.143616E-03 
 -5.647390E-04 -8.364900E-04 -8.506238E-05 -8.364900E-04 +2.317152E-04 -4.498808E-05 -8.506238E-05 -4.498808E-05 +7.533380E-03 
 -1.561189E-04 -1.079903E-03 -7.151605E-04 -1.079903E-03 -2.256000E-04 -5.679986E-04 -7.151605E-04 -5.679986E-04 +7.308300E-03 
 +1.265391E-04 -8.547158E-05 -6.821053E-04 -8.547158E-05 -6.849565E-05 -2.717601E-05 -6.821053E-04 -2.717601E-05 +7.322358E-03 
 -2.401389E-04 +1.386539E-04 +1.968172E-04 +1.386539E-04 +1.484672E-04 -4.072952E-04 +1.968172E-04 -4.072952E-04 +7.090964E-03 
 -3.601270E-04 +3.436595E-04 +3.936106E-05 +3.436595E-04 +1.211976E-04 +4.991065E-04 +3.936106E-05 +4.991065E-04 +7.412703E-03 
 -3.415190E-04 -2.462949E-04 +4.939343E-05 -2.462949E-04 -1.319900E-04 -2.202741E-04 +4.939343E-05 -2.202741E-04 +7.918978E-03 
 -9.732819E-06 +2.684267E-04 -4.062352E-04 +2.684267E-04 +2.058407E-05 -2.384006E-04 -4.062352E-04 -2.384006E-04 +7.342928E-03 
 +1.811116E-04 +2.518142E-05 +2.873627E-04 +2.518142E-05 +5.585945E-05 -5.475347E-05 +2.873627E-04 -5.475347E-05 +7.067883E-03 
 +2.577971E-04 +4.324188E-04 +2.178743E-04 +4.324188E-04 +1.881757E-04 -3.838675E-04 +2.178743E-04 -3.838675E-04 +7.138282E-03 
 +1.027259E-04 -1.115354E-03 +5.234267E-04 -1.115354E-03 -3.177855E-04 +1.579696E-04 +5.234267E-04 +1.579696E-04 +7.950694E-03 
 -1.153405E-04 -3.670161E-04 +4.412028E-05 -3.670161E-04 -6.143614E-06 -2.413237E-04 +4.412028E-05 -2.413237E-04 +7.502510E-03 
 +3.660349E-05 -7.400771E-04 -2.096340E-04 -7.400771E-04 -1.368875E-04 +5.830223E-05 -2.096340E-04 +5.830223E-05 +7.534653E-03 
 +6.067001E-05 -2.020028E-04 +3.396312E-04 -2.020028E-04 +1.499706E-04 -7.833394E-04 +3.396312E-04 -7.833394E-04 +7.422467E-03 
 -1.564821E-04 +2.775998E-04 +2.074508E-04 +2.775998E-04 +1.636321E-04 +1.373214E-04 +2.074508E-04 +1.373214E-04 +7.209415E-03 
 -2.529619E-04 +5.825419E-04 -4.049380E-04 +5.825419E-04 +9.780840E-05 +7.067075E-05 -4.049380E-04 +7.067075E-05 +7.727085E-03 
 -1.342314E-04 +2.915979E-04 -2.502336E-04 +2.915979E-04 -2.286000E-04 -1.151859E-04 -2.502336E-04 -1.151859E-04 +7.748439E-03 
 -5.096976E-04 -2.350663E-04 +2.529228E-05 -2.350663E-04 -6.954710E-05 +2.641052E-05 +2.529228E-05 +2.641052E-05 +7.857132E-03 
 -1.045661E-04 +4.223861E-04 +1.284729E-04 +4.223861E-04 -3.380076E-05 +5.159664E-04 +1.284729E-04 +5.159664E-04 +7.410422E-03 
 +1.073692E-04 -7.863698E-04 +5.676110E-04 -7.863698E-04 +2.390805E-04 +1.085647E-04 +5.676110E-04 +1.085647E-04 +7.174961E-03 
 -3.111205E-04 +1.608829E-04 -2.250808E-04 +1.608829E-04 -2.552419E-04 +5.624468E-04 -2.250808E-04 +5.624468E-04 +7.668899E-03 
 -3.844248E-05 -1.205078E-03 -5.014483E-04 -1.205078E-03 -1.979430E-04 +3.063416E-04 -5.014483E-04 +3.063416E-04 +7.794155E-03 
 -9.547832E-05 -1.730293E-04 -6.415754E-04 -1.730293E-04 +6.236290E-04 +4.445676E-04 -6.415754E-04 +4.445676E-04 +7.159648E-03 
 -2.253229E-04 -5.913733E-04 -5.732718E-04 -5.913733E-04 +2.201504E-04 +8.497909E-05 -5.732718E-04 +8.497909E-05 +7.423700E-03 
 +3.474952E-04 -2.180590E-04 -3.120566E-04 -2.180590E-04 -4.030047E-04 -6.976237E-05 -3.120566E-04 -6.976237E-05 +7.922666E-03 
 +2.994146E-04 +3.256208E-04 +1.345282E-04 +3.256208E-04 +9.229181E-05 -4.330473E-04 +1.345282E-04 -4.330473E-04 +7.457078E-03 
 +5.081157E-05 +3.439969E-04 +1.185116E-04 +3.439969E-04 +2.352125E-04 +1.247524E-04 +1.185116E-04 +1.247524E-04 +7.217044E-03 
 -1.866580E-04 +5.754899E-04 -1.443974E-04 +5.754899E-04 +1.335988E-04 -1.792850E-04 -1.443974E-04 -1.792850E-04 +7.489894E-03 
 +1.614475E-04 -2.503724E-04 +5.464033E-04 -2.503724E-04 -4.257737E-04 +7.285659E-04 +5.464033E-04 +7.285659E-04 +8.047586E-03 
 -2.340705E-04 +4.078520E-04 +1.584978E-04 +4.078520E-04 +2.494356E-04 +3.770420E-04 +1.584978E-04 +3.770420E-04 +7.774516E-03 
 -2.639686E-05 -1.265588E-06 +1.184142E-04 -1.265588E-06 +7.892837E-05 -5.215182E-05 +1.184142E-04 -5.215182E-05 +7.433361E-03 
 -1.295254E-04 -1.537770E-04 -2.244969E-04 -1.537770E-04 +2.596171E-06 +5.518804E-04 -2.244969E-04 +5.518804E-04 +7.490310E-03 
 -1.556152E-04 +1.027789E-04 -6.492739E-06 +1.027789E-04 -7.854126E-05 -3.415415E-05 -6.492739E-06 -3.415415E-05 +7.583202E-03 
 +1.888419E-04 +6.064022E-04 +1.268383E-04 +6.064022E-04 +1.719003E-04 +5.055246E-04 +1.268383E-04 +5.055246E-04 +7.377681E-03 
 +1.724062E-04 -3.025914E-04 -4.313289E-05 -3.025914E-04 -5.810419E-05 +6.433288E-04 -4.313289E-05 +6.433288E-04 +7.156958E-03 
 +1.731426E-04 -3.818673E-04 +8.392749E-05 -3.818673E-04 +5.646638E-05 +1.835709E-04 +8.392749E-05 +1.835709E-04 +7.219234E-03 
 -2.302693E-04 +3.734909E-04 +2.187717E-04 +3.734909E-04 -3.062946E-04 -2.817192E-04 +2.187717E-04 -2.817192E-04 +7.718071E-03 
 -4.311260E-05 +3.892177E-04 +3.517591E-04 +3.892177E-04 -8.175199E-06 -5.539955E-04 +3.517591E-04 -5.539955E-04 +7.783094E-03 
 +7.562049E-05 -8.328239E-04 -8.187199E-05 -8.328239E-04 -3.362712E-04 -5.365757E-04 -8.187199E-05 -5.365757E-04 +7.499441E-03 
 -1.566646E-04 +1.390056E-03 -4.208385E-04 +1.390056E-03 +1.677582E-05 -2.159185E-04 -4.208385E-04 -2.159185E-04 +7.511279E-03 
 -8.179068E-05 -5.842563E-06 +1.539555E-05 -5.842563E-06 +1.319734E-04 -1.189877E-04 +1.539555E-05 -1.189877E-04 +7.229473E-03 
 +4.369694E-05 -7.533856E-04 -5.073333E-04 -7.533856E-04 -2.183278E-04 +4.160318E-04 -5.073333E-04 +4.160318E-04 +7.491002E-03 
 +3.091070E-04 -8.161605E-04 -6.277501E-04 -8.161605E-04 +1.321055E-04 +1.689218E-04 -6.277501E-04 +1.689218E-04 +7.273032E-03 
 -1.033374E-04 -1.128675E-03 -5.310207E-04 -1.128675E-03 +3.392268E-04 +4.692381E-04 -5.310207E-04 +4.692381E-04 +7.571566E-03 
 -1.142991E-04 +6.073234E-04 -7.460908E-04 +6.073234E-04 -3.903395E-04 -1.797128E-04 -7.460908E-04 -1.797128E-04 +7.796751E-03 
 +3.636438E-04 -6.526822E-04 +3.699086E-04 -6.526822E-04 +1.573272E-04 +3.779203E-04 +3.699086E-04 +3.779203E-04 +7.274101E-03 
 +3.620314E-04 +9.936301E-05 +6.907208E-04 +9.936301E-05 -1.493645E-04 +9.145081E-05 +6.907208E-04 +9.145081E-05 +7.531601E-03 
 -3.637268E-04 -4.876163E-04 +3.472313E-04 -4.876163E-04 +2.359749E-04 +5.810334E-04 +3.472313E-04 +5.810334E-04 +7.494037E-03 
 -5.475680E-04 +9.902437E-04 +2.322784E-05 +9.902437E-04 +1.691205E-04 -1.788467E-04 +2.322784E-05 -1.788467E-04 +7.465245E-03 
 +3.253806E-04 +2.970374E-04 +4.970301E-04 +2.970374E-04 -3.507004E-04 +1.234245E-04 +4.970301E-04 +1.234245E-04 +7.375862E-03 
 -1.447771E-04 +6.393103E-04 +4.963414E-04 +6.393103E-04 +6.768874E-05 -6.662435E-05 +4.963414E-04 -6.662435E-05 +7.430545E-03 
 +2.950621E-06 -6.358091E-04 -3.805834E-04 -6.358091E-04 +3.571372E-04 -2.608685E-04 -3.805834E-04 -2.608685E-04 +7.676496E-03 
 +1.814064E-04 +3.483940E-04 +2.363522E-04 +3.483940E-04 -2.408894E-04 -1.938800E-04 +2.363522E-04 -1.938800E-04 +7.477787E-03 
 -2.146809E-04 +2.362096E-04 -3.110717E-04 +2.362096E-04 +4.070272E-04 +4.155053E-04 -3.110717E-04 +4.155053E-04 +7.417826E-03 
 +2.508429E-04 -7.905274E-04 -2.250596E-04 -7.905274E-04 +2.586327E-06 +8.665140E-05 -2.250596E-04 +8.665140E-05 +7.595596E-03 
 -2.714931E-04 -1.016742E-03 +4.616117E-04 -1.016742E-03 -9.162896E-05 -3.140232E-04 +4.616117E-04 -3.140232E-04 +7.749482E-03 
 -4.181799E-04 +5.141984E-04 +3.630980E-04 +5.141984E-04 -6.418664E-05 +1.966226E-04 +3.630980E-04 +1.966226E-04 +8.027336E-03 
 -2.060833E-06 +3.412173E-04 +1.693710E-04 +3.412173E-04 -4.635715E-04 +4.633885E-04 +1.693710E-04 +4.633885E-04 +7.615166E-03 
 +1.007160E-04 -1.158858E-04 -4.043563E-04 -1.158858E-04 +4.169538E-05 +2.176222E-04 -4.043563E-04 +2.176222E-04 +7.134835E-03 
 -3.696929E-04 -1.202888E-03 -5.757118E-04 -1.202888E-03 -8.913696E-05 +9.324540E-04 -5.757118E-04 +9.324540E-04 +7.546818E-03 
 -1.507792E-05 +6.966240E-04 -4.649847E-04 +6.966240E-04 -5.387565E-05 +5.574540E-05 -4.649847E-04 +5.574540E-05 +7.371469E-03 
 -4.040187E-04 +1.721599E-04 +1.363610E-04 +1.721599E-04 -3.194884E-04 +4.823563E-04 +1.363610E-04 +4.823563E-04 +8.112240E-03 
 -2.694140E-04 -9.777651E-04 +3.079329E-04 -9.777651E-04 +8.174087E-05 +6.857563E-05 +3.079329E-04 +6.857563E-05 +7.551057E-03 
 +3.166272E-04 +1.931947E-04 -3.738099E-04 +1.931947E-04 +3.757035E-04 -2.154423E-04 -3.738099E-04 -2.154423E-04 +7.324963E-03 
 +4.528940E-04 +4.138991E-05 -2.717701E-04 +4.138991E-05 -7.010138E-04 -1.994694E-05 -2.717701E-04 -1.994694E-05 +7.518254E-03 
 -1.087084E-04 +3.168684E-04 -6.985686E-04 +3.168684E-04 +2.514785E-04 -3.425281E-04 -6.985686E-04 -3.425281E-04 +7.400859E-03 
 +6.888634E-05 -6.237107E-04 +1.175431E-04 -6.237107E-04 +2.165682E-04 -3.561531E-04 +1.175431E-04 -3.561531E-04 +7.473856E-03 
 +1.730407E-04 -4.326218E-04 +2.931523E-04 -4.326218E-04 -1.278317E-04 +4.184693E-05 +2.931523E-04 +4.184693E-05 +7.341478E-03 
 -4.405919E-04 -4.048731E-05 +9.053473E-05 -4.048731E-05 +1.438067E-04 +5.570311E-05 +9.053473E-05 +5.570311E-05 +7.858001E-03 
 -3.656490E-04 -6.961982E-04 +2.711742E-04 -6.961982E-04 +1.134705E-04 +2.642616E-04 +2.711742E-04 +2.642616E-04 +7.825219E-03 
 -1.697033E-05 +1.054713E-03 -2.447370E-04 +1.054713E-03 -4.754481E-04 +1.992378E-04 -2.447370E-04 +1.992378E-04 +7.641963E-03 
 -9.756626E-06 +5.583666E-04 -1.028495E-04 +5.583666E-04 +1.870443E-04 +1.198942E-04 -1.028495E-04 +1.198942E-04 +7.488706E-03 
 +4.249468E-05 -4.450283E-04 +1.138449E-04 -4.450283E-04 +1.925333E-04 -3.838389E-04 +1.138449E-04 -3.838389E-04 +7.258598E-03 
 +5.964838E-05 +3.608993E-04 +9.083749E-05 +3.608993E-04 +1.747232E-05 +1.572947E-05 +9.083749E-05 +1.572947E-05 +7.323594E-03 
 -4.260015E-06 +1.122043E-04 +2.342814E-04 +1.122043E-04 +3.065438E-04 -2.456598E-04 +2.342814E-04 -2.456598E-04 +7.219492E-03 
 +1.153793E-04 -1.903927E-04 +4.419359E-04 -1.903927E-04 -2.344128E-04 -3.098821E-04 +4.419359E-04 -3.098821E-04 +7.397043E-03 
 -5.631017E-05 +5.082531E-04 +8.039540E-04 +5.082531E-04 -1.941183E-05 -4.653783E-04 +8.039540E-04 -4.653783E-04 +7.356788E-03 
 +5.510112E-04 +5.569351E-04 +7.172526E-05 +5.569351E-04 +2.167415E-04 +1.356931E-04 +7.172526E-05 +1.356931E-04 +7.007687E-03 
 +3.270367E-04 +7.736283E-05 -4.801030E-05 +7.736283E-05 -2.138351E-04 -4.165645E-04 -4.801030E-05 -4.165645E-04 +7.260947E-03 
 +1.049727E-04 +1.114668E-04 +2.153518E-04 +1.114668E-04 +5.670076E-05 +9.211194E-05 +2.153518E-04 +9.211194E-05 +7.598183E-03 
 +3.335893E-04 -9.918837E-04 -3.068950E-04 -9.918837E-04 -1.465572E-05 +4.310602E-04 -3.068950E-04 +4.310602E-04 +7.436530E-03 
 +4.057107E-04 -7.035458E-04 +1.714916E-04 -7.035458E-04 -5.928858E-04 -2.702858E-04 +1.714916E-04 -2.702858E-04 +7.570146E-03 
 -4.185090E-06 -2.548220E-04 +1.541310E-04 -2.548220E-04 +1.213791E-04 -6.328960E-04 +1.541310E-04 -6.328960E-04 +7.326191E-03 
 -3.538110E-04 +1.701588E-04 +1.467897E-04 +1.701588E-04 +7.941609E-05 -4.526783E-04 +1.467897E-04 -4.526783E-04 +7.315158E-03 
 +9.639395E-06 +3.853957E-04 +2.492536E-04 +3.853957E-04 -2.374099E-04 -2.836605E-04 +2.492536E-04 -2.836605E-04 +7.744727E-03 
 -1.718489E-05 +8.122881E-04 -2.104219E-04 +8.122881E-04 -3.440444E-04 -3.257133E-04 -2.104219E-04 -3.257133E-04 +7.512875E-03 
 -5.532146E-04 +2.978421E-05 +4.572797E-04 +2.978421E-05 +3.354110E-04 +1.024641E-04 +4.572797E-04 +1.024641E-04 +7.330369E-03 
 -2.890643E-04 +1.381492E-04 +3.266496E-04 +1.381492E-04 +2.396622E-04 -4.636079E-04 +3.266496E-04 -4.636079E-04 +7.223075E-03 
 +1.880751E-04 -5.993646E-04 +1.363130E-04 -5.993646E-04 -2.350349E-04 +3.444481E-04 +1.363130E-04 +3.444481E-04 +7.475611E-03 
 -2.489877E-05 -1.304211E-04 +4.488280E-05 -1.304211E-04 +5.042598E-04 +3.915016E-04 +4.488280E-05 +3.915016E-04 +7.217008E-03 
 -1.812172E-04 -1.154770E-03 -4.241348E-04 -1.154770E-03 -2.788277E-04 +3.714158E-05 -4.241348E-04 +3.714158E-05 +7.571798E-03 
 -8.187150E-05 +1.232841E-04 -6.846446E-04 +1.232841E-04 -2.340714E-04 -5.492338E-04 -6.846446E-04 -5.492338E-04 +7.661587E-03 
 +2.662145E-04 +3.505226E-04 -2.558217E-05 +3.505226E-04 +7.195422E-05 -6.631767E-05 -2.558217E-05 -6.631767E-05 +7.170569E-03 
 -1.464258E-04 -9.197424E-05 +2.722489E-04 -9.197424E-05 +1.157410E-04 -4.153021E-04 +2.722489E-04 -4.153021E-04 +7.175592E-03 
 -3.107935E-04 +3.586367E-04 +5.415673E-04 +3.586367E-04 +1.373178E-04 +3.544195E-05 +5.415673E-04 +3.544195E-05 +7.461842E-03 
 -7.565861E-05 -4.449165E-04 +2.109926E-04 -4.449165E-04 -2.588979E-04 -6.963030E-04 +2.109926E-04 -6.963030E-04 +7.644046E-03 
 +1.543077E-04 +1.818165E-04 -1.856132E-04 +1.818165E-04 +5.830820E-04 +4.850815E-04 -1.856132E-04 +4.850815E-04 +7.208171E-03 
 +2.040431E-04 +1.236991E-03 -3.710765E-04 +1.236991E-03 -2.851003E-04 +1.854368E-04 -3.710765E-04 +1.854368E-04 +7.535422E-03 
 -3.550743E-05 +1.572704E-04 -2.188060E-04 +1.572704E-04 +5.651269E-05 -3.429949E-04 -2.188060E-04 -3.429949E-04 +7.480755E-03 
 -1.695219E-05 -2.061138E-04 +1.403866E-04 -2.061138E-04 +3.056151E-04 +5.943024E-04 +1.403866E-04 +5.943024E-04 +7.494591E-03 
 -2.989864E-04 +5.588015E-04 -3.462651E-04 +5.588015E-04 -2.361420E-04 -8.028310E-05 -3.462651E-04 -8.028310E-05 +7.858966E-03 
 +3.440446E-04 +8.804295E-05 -5.367537E-04 +8.804295E-05 +1.518846E-04 -3.504987E-04 -5.367537E-04 -3.504987E-04 +7.169119E-03 
 +1.525056E-04 -1.454834E-03 -1.916141E-04 -1.454834E-03 -3.227321E-04 +1.231097E-04 -1.916141E-04 +1.231097E-04 +7.485506E-03 
 +2.217954E-04 -3.421562E-04 -4.247878E-04 -3.421562E-04 +3.381123E-04 -2.754216E-04 -4.247878E-04 -2.754216E-04 +7.137970E-03 
 +2.047207E-04 +6.550324E-04 +5.011651E-04 +6.550324E-04 -3.558969E-04 +1.013211E-04 +5.011651E-04 +1.013211E-04 +7.664484E-03 
 +1.282752E-04 +9.401502E-05 +1.917571E-04 +9.401502E-05 +1.507341E-04 -3.951853E-04 +1.917571E-04 -3.951853E-04 +7.640586E-03 
 -1.005578E-04 +8.987952E-04 +4.132765E-04 +8.987952E-04 -2.333314E-05 +3.472910E-04 +4.132765E-04 +3.472910E-04 +7.320933E-03 
 -3.155821E-04 +1.474833E-04 +3.516000E-04 +1.474833E-04 +1.782753E-04 +3.026455E-04 +3.516000E-04 +3.026455E-04 +7.349151E-03 
 -4.504035E-04 -5.621962E-04 -3.189780E-04 -5.621962E-04 +4.165518E-05 +4.078151E-05 -3.189780E-04 +4.078151E-05 +7.806738E-03 
 +4.079060E-05 +6.268571E-05 -4.470393E-04 +6.268571E-05 -4.176512E-05 -3.027485E-05 -4.470393E-04 -3.027485E-05 +7.415687E-03 
 +1.136028E-04 -1.309626E-03 -4.536432E-04 -1.309626E-03 +2.189645E-04 +3.191596E-04 -4.536432E-04 +3.191596E-04 +7.530808E-03 
 +1.982540E-04 +5.667615E-04 -3.489133E-04 +5.667615E-04 -2.495116E-04 +1.764255E-04 -3.489133E-04 +1.764255E-04 +7.522043E-03 
 +2.630604E-04 -7.969426E-04 -2.901991E-04 -7.969426E-04 +1.006905E-04 -4.818753E-04 -2.901991E-04 -4.818753E-04 +6.959056E-03 
 +1.135886E-04 -3.041995E-05 -1.274341E-04 -3.041995E-05 +4.330221E-05 +4.035095E-04 -1.274341E-04 +4.035095E-04 +7.202966E-03 
 -1.055439E-04 -4.562610E-04 -4.141609E-04 -4.562610E-04 +5.507110E-05 +4.495877E-04 -4.141609E-04 +4.495877E-04 +7.764056E-03 
 +4.446702E-05 +5.154473E-04 -5.903711E-04 +5.154473E-04 -2.925751E-04 -1.346197E-04 -5.903711E-04 -1.346197E-04 +7.464172E-03 
 +1.225161E-05 -3.463576E-04 -3.887076E-04 -3.463576E-04 +2.376828E-04 +1.609827E-04 -3.887076E-04 +1.609827E-04 +7.135815E-03 
 -4.264753E-04 -5.953360E-04 -6.918122E-04 -5.953360E-04 +3.492255E-04 -1.400506E-04 -6.918122E-04 -1.400506E-04 +7.560920E-03 
 -1.392279E-04 -4.769182E-04 +1.401989E-04 -4.769182E-04 -2.600055E-04 +1.993837E-05 +1.401989E-04 +1.993837E-05 +7.506661E-03 
 -1.983897E-04 +1.307869E-04 +2.502527E-04 +1.307869E-04 +4.046594E-04 -5.408475E-04 +2.502527E-04 -5.408475E-04 +7.641302E-03 
 +5.657971E-06 -3.898118E-04 -1.180120E-04 -3.898118E-04 -3.020271E-04 +5.330616E-04 -1.180120E-04 +5.330616E-04 +7.320540E-03 
 +4.287568E-05 +4.628093E-04 -4.877714E-04 +4.628093E-04 +2.590361E-04 -5.129814E-04 -4.877714E-04 -5.129814E-04 +7.243792E-03 
 +2.358033E-04 +1.027395E-03 +2.786421E-05 +1.027395E-03 -5.305503E-04 -6.761240E-04 +2.786421E-05 -6.761240E-04 +8.118058E-03 
 +1.822498E-05 -6.641560E-04 -5.623870E-04 -6.641560E-04 -3.638853E-04 +4.278527E-05 -5.623870E-04 +4.278527E-05 +7.375585E-03 
 +5.205153E-05 +1.169607E-03 -1.458326E-04 +1.169607E-03 -2.096608E-04 -5.025849E-06 -1.458326E-04 -5.025849E-06 +7.990601E-03 
 +2.514911E-04 -1.090192E-04 -2.204718E-04 -1.090192E-04 +1.769865E-04 -1.906236E-04 -2.204718E-04 -1.906236E-04 +7.448645E-03 
 -3.907568E-05 +1.687387E-06 -5.681384E-04 +1.687387E-06 +2.977867E-04 +6.992603E-04 -5.681384E-04 +6.992603E-04 +6.990001E-03 
 -2.863005E-05 +1.537109E-03 +3.559504E-04 +1.537109E-03 -1.028126E-04 -1.461362E-04 +3.559504E-04 -1.461362E-04 +7.616157E-03 
 -8.839325E-05 -9.384574E-04 -1.164922E-04 -9.384574E-04 -1.376099E-04 +4.563082E-06 -1.164922E-04 +4.563082E-06 +7.615449E-03 
 -1.583216E-04 -2.604144E-04 +1.028081E-03 -2.604144E-04 +2.423238E-04 -1.910186E-04 +1.028081E-03 -1.910186E-04 +7.091853E-03 
 +6.617192E-05 -3.523137E-04 +8.345387E-04 -3.523137E-04 -5.164203E-05 +1.424780E-04 +8.345387E-04 +1.424780E-04 +7.366182E-03 
 -1.425771E-04 -7.185513E-04 -7.164218E-04 -7.185513E-04 -1.688151E-04 +7.083323E-04 -7.164218E-04 +7.083323E-04 +7.293381E-03 
 +1.646666E-04 +5.397173E-04 -3.146389E-04 +5.397173E-04 +5.226574E-04 +2.381815E-04 -3.146389E-04 +2.381815E-04 +6.922484E-03 
 +2.495652E-04 -4.212302E-04 -4.283266E-04 -4.212302E-04 -1.805886E-04 +2.275432E-04 -4.283266E-04 +2.275432E-04 +7.619515E-03 
 +1.278877E-06 -8.009919E-04 -4.154225E-04 -8.009919E-04 -2.453405E-04 -6.382707E-05 -4.154225E-04 -6.382707E-05 +7.834289E-03 
 +1.513327E-04 -7.368329E-04 -7.364150E-04 -7.368329E-04 +1.994070E-04 -3.394408E-04 -7.364150E-04 -3.394408E-04 +7.149573E-03 
 -7.562050E-05 +1.865047E-04 -9.626241E-05 +1.865047E-04 -2.359169E-04 +3.340985E-04 -9.626241E-05 +3.340985E-04 +7.565525E-03 
 +5.750636E-05 -1.646211E-04 +3.099995E-04 -1.646211E-04 +3.416357E-04 -3.855346E-04 +3.099995E-04 -3.855346E-04 +7.592253E-03 
 -1.218736E-04 -1.012430E-03 -1.732665E-04 -1.012430E-03 -3.008194E-04 +7.735847E-04 -1.732665E-04 +7.735847E-04 +7.434819E-03 
 +3.446865E-05 -3.743775E-04 -5.778179E-05 -3.743775E-04 +2.850242E-04 -6.286667E-04 -5.778179E-05 -6.286667E-04 +7.050310E-03 
 +5.883161E-04 -2.837064E-04 +4.193749E-04 -2.837064E-04 -8.759120E-05 -4.308687E-05 +4.193749E-04 -4.308687E-05 +6.897544E-03 
 -1.725473E-04 +4.841923E-04 -9.644238E-05 +4.841923E-04 -3.290173E-05 -3.892914E-04 -9.644238E-05 -3.892914E-04 +7.701725E-03 
 +1.000512E-04 -3.500263E-04 -3.634439E-04 -3.500263E-04 +1.656550E-04 +2.360408E-04 -3.634439E-04 +2.360408E-04 +7.359237E-03 
 +5.285931E-04 +4.179545E-04 +1.406374E-05 +4.179545E-04 -1.146048E-04 +3.487759E-04 +1.406374E-05 +3.487759E-04 +7.054566E-03 
 +8.086186E-05 +1.917297E-04 +2.747413E-04 +1.917297E-04 -7.328460E-04 +3.366750E-04 +2.747413E-04 +3.366750E-04 +8.008917E-03 
 +1.970840E-04 -1.729777E-04 -7.489679E-04 -1.729777E-04 -8.518759E-05 +5.709114E-04 -7.489679E-04 +5.709114E-04 +7.451485E-03 
 +1.625685E-04 -1.387857E-04 -4.730662E-04 -1.387857E-04 +2.578458E-04 -4.699869E-04 -4.730662E-04 -4.699869E-04 +6.984996E-03 
 -1.675072E-04 -1.001398E-04 +8.007290E-04 -1.001398E-04 +1.805450E-04 +5.013430E-04 +8.007290E-04 +5.013430E-04 +7.446369E-03 
 -2.395893E-04 +8.064073E-04 +1.790281E-04 +8.064073E-04 -1.993199E-04 +3.019862E-04 +1.790281E-04 +3.019862E-04 +7.559450E-03 
 +9.448411E-05 -1.067265E-03 +2.731984E-04 -1.067265E-03 -1.997416E-04 +2.394664E-04 +2.731984E-04 +2.394664E-04 +7.664016E-03 
 -4.572558E-04 +5.871803E-04 -3.425428E-04 +5.871803E-04 +2.479528E-04 -3.409807E-04 -3.425428E-04 -3.409807E-04 +7.753791E-03 
 -1.880635E-04 -4.421911E-04 -1.140640E-04 -4.421911E-04 -3.173237E-04 +2.373413E-04 -1.140640E-04 +2.373413E-04 +7.822027E-03 
 -3.757245E-04 -3.691556E-04 +3.809744E-04 -3.691556E-04 +3.466731E-04 -1.521634E-04 +3.809744E-04 -1.521634E-04 +7.791800E-03 
 -1.910025E-04 +1.274796E-04 +2.883212E-04 +1.274796E-04 +2.329026E-04 +6.220453E-05 +2.883212E-04 +6.220453E-05 +7.610890E-03 
 -1.576591E-04 +7.613795E-04 +2.255828E-04 +7.613795E-04 -3.696652E-04 -5.471909E-04 +2.255828E-04 -5.471909E-04 +7.382310E-03 
 +2.013611E-05 -3.888542E-04 -4.582811E-04 -3.888542E-04 +2.365211E-04 +1.468640E-04 -4.582811E-04 +1.468640E-04 +7.273966E-03 
 +4.428066E-04 -6.821038E-04 +3.401564E-04 -6.821038E-04 -1.431918E-04 +3.059232E-04 +3.401564E-04 +3.059232E-04 +7.421923E-03 
 +8.385729E-05 -5.068451E-05 +1.794296E-04 -5.068451E-05 +2.877862E-04 +7.049306E-04 +1.794296E-04 +7.049306E-04 +7.062012E-03 
 +1.291933E-04 -1.100495E-03 +2.361405E-04 -1.100495E-03 -1.605992E-04 -1.830101E-05 +2.361405E-04 -1.830101E-05 +7.633756E-03 
 +4.563617E-04 +9.087944E-05 +9.176206E-04 +9.087944E-05 -2.854482E-04 +2.630712E-04 +9.176206E-04 +2.630712E-04 +7.465349E-03 
 -2.330913E-04 -7.194254E-04 -1.234650E-04 -7.194254E-04 +3.066504E-04 -6.102401E-04 -1.234650E-04 -6.102401E-04 +7.578363E-03 
 -1.732509E-04 +7.754573E-04 -4.151576E-04 +7.754573E-04 -3.761598E-04 +6.304865E-04 -4.151576E-04 +6.304865E-04 +7.984463E-03 
 +2.509816E-04 -3.858436E-04 +2.391180E-04 -3.858436E-04 +8.593052E-06 -2.258827E-04 +2.391180E-04 -2.258827E-04 +7.146310E-03 
 -2.805914E-04 +2.780615E-04 -2.428639E-04 +2.780615E-04 +3.666559E-05 -6.479700E-04 -2.428639E-04 -6.479700E-04 +7.337357E-03 
 -4.413125E-04 -1.901893E-04 -1.353403E-04 -1.901893E-04 +7.260502E-04 -1.948976E-04 -1.353403E-04 -1.948976E-04 +7.614438E-03 
 +2.087647E-04 +1.205896E-04 -3.672439E-04 +1.205896E-04 +8.708973E-05 -1.820694E-06 -3.672439E-04 -1.820694E-06 +7.038381E-03 
 +3.421854E-04 -5.298358E-04 -2.274273E-04 -5.298358E-04 -1.838356E-05 -2.642110E-04 -2.274273E-04 -2.642110E-04 +7.181825E-03 
 -1.395058E-04 +1.622123E-05 -9.869766E-05 +1.622123E-05 -2.934697E-04 -2.958742E-04 -9.869766E-05 -2.958742E-04 +7.799437E-03 
 +3.515710E-04 +2.054872E-04 -4.046587E-04 +2.054872E-04 +1.075783E-04 -5.033666E-05 -4.046587E-04 -5.033666E-05 +7.262046E-03 
 +2.086664E-04 -1.062187E-03 +5.192502E-05 -1.062187E-03 -2.116043E-04 +2.512241E-04 +5.192502E-05 +2.512241E-04 +7.301325E-03 
 -1.637148E-06 +2.806664E-04 +7.469608E-05 +2.806664E-04 +3.280788E-04 -5.642595E-04 +7.469608E-05 -5.642595E-04 +7.360959E-03 
 -6.661668E-05 +3.171691E-04 +4.052334E-04 +3.171691E-04 -2.837862E-04 +6.053140E-04 +4.052334E-04 +6.053140E-04 +7.643607E-03 
 +7.616539E-05 +7.183626E-04 +3.350316E-04 +7.183626E-04 -3.066021E-05 +3.091258E-04 +3.350316E-04 +3.091258E-04 +7.841446E-03 
 -1.203380E-04 -8.354520E-04 -4.403617E-04 -8.354520E-04 +3.783970E-05 +1.556550E-04 -4.403617E-04 +1.556550E-04 +7.490071E-03 
 -1.537365E-04 +3.649747E-04 -1.067585E-05 +3.649747E-04 -1.133368E-05 -5.692358E-04 -1.067585E-05 -5.692358E-04 +7.815438E-03 
 -1.746573E-04 +2.116232E-04 +5.529046E-05 +2.116232E-04 +2.558075E-04 +1.223841E-05 +5.529046E-05 +1.223841E-05 +7.424855E-03 
 -3.489490E-04 -1.157439E-04 -1.436731E-04 -1.157439E-04 +3.456744E-04 +3.617594E-04 -1.436731E-04 +3.617594E-04 +7.207871E-03 
 -1.949953E-04 +2.646592E-04 +1.722240E-04 +2.646592E-04 +1.416200E-04 +1.525414E-04 +1.722240E-04 +1.525414E-04 +7.389304E-03 
 -6.179087E-05 -1.484637E-03 +2.384639E-04 -1.484637E-03 -4.716991E-04 +6.242263E-04 +2.384639E-04 +6.242263E-04 +7.749399E-03 
 +2.328690E-05 -5.797343E-04 +7.675607E-04 -5.797343E-04 -1.042227E-04 -5.486155E-04 +7.675607E-04 -5.486155E-04 +7.360724E-03 
 +3.063566E-04 -2.419751E-04 +5.581936E-04 -2.419751E-04 +1.986334E-04 +5.942171E-05 +5.581936E-04 +5.942171E-05 +7.328589E-03 
 -4.995619E-05 -1.229468E-03 +3.935669E-04 -1.229468E-03 -4.263376E-04 +4.435837E-04 +3.935669E-04 +4.435837E-04 +7.453127E-03 
 -1.021030E-04 +7.305849E-04 +1.223766E-04 +7.305849E-04 +1.602237E-04 -6.982851E-04 +1.223766E-04 -6.982851E-04 +7.036285E-03 
 -3.854762E-05 -3.118007E-04 -3.061017E-04 -3.118007E-04 -1.879814E-06 +1.010817E-03 -3.061017E-04 +1.010817E-03 +7.638352E-03 
 +3.297979E-05 +8.977696E-04 +2.434841E-04 +8.977696E-04 -1.195770E-04 +5.345602E-04 +2.434841E-04 +5.345602E-04 +7.588894E-03 
 +1.074525E-05 +5.857681E-04 +1.311982E-04 +5.857681E-04 +3.095005E-04 +2.942166E-04 +1.311982E-04 +2.942166E-04 +7.238036E-03 
 -8.250402E-05 +3.901529E-04 -2.021856E-04 +3.901529E-04 +3.392051E-04 -3.558164E-05 -2.021856E-04 -3.558164E-05 +7.341813E-03 
 +3.160876E-04 +2.170464E-04 -3.736065E-04 +2.170464E-04 +3.018715E-05 -1.418572E-04 -3.736065E-04 -1.418572E-04 +7.648773E-03 
 -2.394048E-04 +4.579335E-04 +3.404177E-04 +4.579335E-04 -6.354147E-05 +1.505400E-04 +3.404177E-04 +1.505400E-04 +7.733288E-03 
 -2.352873E-05 +1.865146E-04 -1.617287E-04 +1.865146E-04 -6.321367E-04 -3.967499E-04 -1.617287E-04 -3.967499E-04 +8.135196E-03 
 +1.113154E-04 -6.225397E-04 -2.828782E-04 -6.225397E-04 +3.805048E-04 +4.794903E-04 -2.828782E-04 +4.794903E-04 +7.238864E-03 
 +1.746699E-04 +5.797122E-04 +2.938592E-04 +5.797122E-04 +3.504856E-04 +6.520487E-04 +2.938592E-04 +6.520487E-04 +7.583551E-03 
 +2.332792E-04 +6.367582E-04 -3.024476E-05 +6.367582E-04 -5.216987E-04 +9.885652E-05 -3.024476E-05 +9.885652E-05 +7.871012E-03 
 -5.185648E-06 +2.505553E-04 +1.193607E-04 +2.505553E-04 +3.371200E-04 -2.208059E-04 +1.193607E-04 -2.208059E-04 +7.316086E-03 
 +1.781755E-04 -5.653388E-04 +3.795353E-05 -5.653388E-04 -5.370621E-04 +1.719129E-04 +3.795353E-05 +1.719129E-04 +7.651756E-03 
 +3.214917E-04 -9.216372E-06 -2.785744E-04 -9.216372E-06 +4.361769E-04 +1.587861E-04 -2.785744E-04 +1.587861E-04 +7.099422E-03 
 -1.877291E-04 +9.163199E-05 -3.105672E-04 +9.163199E-05 +1.438196E-04 -6.534884E-04 -3.105672E-04 -6.534884E-04 +7.215681E-03 
 -5.434041E-04 -4.890860E-04 +4.255148E-04 -4.890860E-04 +1.362601E-04 -2.314572E-04 +4.255148E-04 -2.314572E-04 +7.490283E-03 
 -8.744303E-05 +1.083512E-04 +2.877820E-04 +1.083512E-04 +6.207798E-05 -5.741545E-04 +2.877820E-04 -5.741545E-04 +7.678490E-03 
 +2.972951E-04 -1.491404E-03 -9.797643E-06 -1.491404E-03 -2.966738E-04 -3.193803E-04 -9.797643E-06 -3.193803E-04 +7.485196E-03 
 +2.756283E-04 +6.896885E-04 +2.918707E-04 +6.896885E-04 -2.095836E-04 -6.417197E-07 +2.918707E-04 -6.417197E-07 +7.413326E-03 
 -1.162202E-04 -3.579606E-04 +8.134984E-04 -3.579606E-04 +1.208738E-04 -6.260049E-04 +8.134984E-04 -6.260049E-04 +7.453346E-03 
 -4.296624E-04 -4.932410E-04 +3.232633E-04 -4.932410E-04 +1.436609E-04 +3.411506E-05 +3.232633E-04 +3.411506E-05 +7.506903E-03 
 -6.289475E-05 +3.267623E-04 -9.017101E-05 +3.267623E-04 -2.923815E-04 +5.039159E-04 -9.017101E-05 +5.039159E-04 +8.058148E-03 
 -2.835649E-04 +3.869236E-05 +7.882179E-04 +3.869236E-05 +3.459828E-04 -3.828277E-04 +7.882179E-04 -3.828277E-04 +7.331077E-03 
 +1.769449E-04 +2.519951E-04 +3.032676E-04 +2.519951E-04 -3.862441E-05 -6.737391E-05 +3.032676E-04 -6.737391E-05 +7.622260E-03 
 +1.363310E-04 +6.930428E-04 +3.218201E-05 +6.930428E-04 -2.346106E-04 -2.007839E-04 +3.218201E-05 -2.007839E-04 +7.875613E-03 
 +3.050063E-05 +2.141071E-04 +1.321250E-04 +2.141071E-04 -1.769533E-04 -5.015993E-04 +1.321250E-04 -5.015993E-04 +7.611230E-03 
 +3.985123E-05 +1.337285E-04 -9.629780E-06 +1.337285E-04 +5.012105E-04 +2.758481E-04 -9.629780E-06 +2.758481E-04 +6.806780E-03 
 -5.816390E-05 -5.265609E-04 -3.438632E-04 -5.265609E-04 -5.870605E-04 +4.865698E-05 -3.438632E-04 +4.865698E-05 +7.493962E-03 
 -1.449085E-04 +1.194326E-04 +9.235762E-05 +1.194326E-04 -5.769854E-05 -5.023335E-04 +9.235762E-05 -5.023335E-04 +7.479544E-03 
 -3.732755E-04 +9.548235E-04 +1.421362E-04 +9.548235E-04 +1.047400E-04 +1.388898E-05 +1.421362E-04 +1.388898E-05 +7.897450E-03 
 +1.755078E-04 +1.305761E-04 -3.213361E-04 +1.305761E-04 +9.969919E-05 -1.075837E-04 -3.213361E-04 -1.075837E-04 +7.417359E-03 
 +8.653915E-05 +7.790881E-04 -2.355315E-04 +7.790881E-04 +1.124561E-04 +2.028715E-04 -2.355315E-04 +2.028715E-04 +7.205927E-03 
 -1.383931E-04 -7.452453E-04 +1.060639E-04 -7.452453E-04 +6.040591E-06 +5.755430E-04 +1.060639E-04 +5.755430E-04 +7.802236E-03 
 +1.292009E-04 +2.895971E-04 +1.493892E-04 +2.895971E-04 -2.826177E-04 +3.288392E-04 +1.493892E-04 +3.288392E-04 +7.437939E-03 
 -4.748819E-05 +8.758477E-05 -5.008033E-06 +8.758477E-05 +1.412087E-04 -7.288196E-04 -5.008033E-06 -7.288196E-04 +7.530029E-03 
 -6.365576E-04 +3.837705E-04 -1.692867E-04 +3.837705E-04 -7.632837E-05 +2.727677E-04 -1.692867E-04 +2.727677E-04 +7.852271E-03 
 -7.826423E-04 +2.010009E-04 -2.483881E-04 +2.010009E-04 +1.577832E-04 -3.752274E-04 -2.483881E-04 -3.752274E-04 +7.834672E-03 
 +2.139771E-04 +4.052666E-04 +1.151832E-04 +4.052666E-04 -1.252468E-04 +4.897329E-04 +1.151832E-04 +4.897329E-04 +7.421750E-03 
 +2.339240E-04 +1.228125E-04 +4.997234E-05 +1.228125E-04 +1.793401E-04 -2.064949E-04 +4.997234E-05 -2.064949E-04 +7.182818E-03 
 +2.033317E-04 +4.358422E-04 -3.662306E-04 +4.358422E-04 +3.004142E-05 +4.221854E-04 -3.662306E-04 +4.221854E-04 +7.243067E-03 
 -2.395864E-04 -1.532308E-05 -4.648690E-04 -1.532308E-05 -8.694577E-05 +1.183222E-03 -4.648690E-04 +1.183222E-03 +7.816276E-03 
 -7.710773E-04 +7.929942E-04 -2.884293E-04 +7.929942E-04 -6.500590E-05 +2.335052E-04 -2.884293E-04 +2.335052E-04 +7.720742E-03 
 +7.206333E-05 -1.897259E-06 -9.127652E-05 -1.897259E-06 +6.057070E-05 -1.908583E-04 -9.127652E-05 -1.908583E-04 +7.437112E-03 
 +1.793826E-04 -7.582837E-06 +2.625491E-04 -7.582837E-06 -5.258804E-04 -4.870341E-04 +2.625491E-04 -4.870341E-04 +7.788348E-03 
 -1.255294E-05 -1.095487E-04 -5.877504E-05 -1.095487E-04 +4.674417E-04 +1.641998E-04 -5.877504E-05 +1.641998E-04 +7.085034E-03 
 -7.156419E-05 +6.320774E-04 -4.964290E-04 +6.320774E-04 +1.229731E-04 +3.440617E-06 -4.964290E-04 +3.440617E-06 +7.431868E-03 
 +2.508764E-04 -6.094602E-04 +1.630128E-04 -6.094602E-04 -3.102947E-06 -4.680357E-04 +1.630128E-04 -4.680357E-04 +7.260789E-03 
 -7.018340E-04 +7.836280E-05 -6.662720E-05 +7.836280E-05 -1.534971E-04 +9.999372E-05 -6.662720E-05 +9.999372E-05 +8.295401E-03 
 -1.950776E-04 -1.257823E-03 -7.802284E-05 -1.257823E-03 -2.135926E-05 +6.754424E-05 -7.802284E-05 +6.754424E-05 +7.393760E-03 
 +4.877464E-05 +9.019480E-04 +6.641918E-05 +9.019480E-04 +5.723222E-05 +3.278400E-04 +6.641918E-05 +3.278400E-04 +7.465940E-03 
 -6.337441E-04 -1.255400E-05 +1.577176E-04 -1.255400E-05 -1.099718E-05 +5.627453E-04 +1.577176E-04 +5.627453E-04 +7.805569E-03 
 -2.815116E-04 +1.186857E-03 +3.508459E-04 +1.186857E-03 -1.368114E-04 +1.730580E-04 +3.508459E-04 +1.730580E-04 +7.621222E-03 
 -2.399493E-05 +6.031553E-05 -1.585039E-04 +6.031553E-05 +3.927835E-04 +6.816641E-05 -1.585039E-04 +6.816641E-05 +7.006044E-03 
 +4.243965E-04 +1.074466E-04 -8.350019E-05 +1.074466E-04 -1.624957E-04 -2.265253E-05 -8.350019E-05 -2.265253E-05 +6.827104E-03 
 +1.772648E-04 -3.237592E-04 +4.832738E-04 -3.237592E-04 +2.814671E-05 +9.534315E-05 +4.832738E-04 +9.534315E-05 +7.605709E-03 
 -6.102152E-04 +7.861375E-04 +5.234600E-04 +7.861375E-04 -1.173632E-05 +1.274840E-04 +5.234600E-04 +1.274840E-04 +7.712864E-03 
 -1.722944E-04 -2.798614E-04 +1.015211E-04 -2.798614E-04 -6.741042E-06 +8.187601E-04 +1.015211E-04 +8.187601E-04 +7.609354E-03 
 -3.471850E-05 +1.359441E-03 +8.234667E-05 +1.359441E-03 -3.142290E-04 -3.369093E-04 +8.234667E-05 -3.369093E-04 +7.726314E-03 
 -6.286530E-05 -1.748103E-04 +5.832399E-04 -1.748103E-04 +8.416226E-05 -5.292323E-04 +5.832399E-04 -5.292323E-04 +7.592592E-03 
 -6.189053E-04 +1.770522E-04 +2.675674E-04 +1.770522E-04 +4.287982E-04 -3.848351E-04 +2.675674E-04 -3.848351E-04 +7.459062E-03 
 -4.666222E-04 -7.285806E-04 -3.750747E-04 -7.285806E-04 +1.685621E-04 +8.441893E-04 -3.750747E-04 +8.441893E-04 +7.561144E-03 
 +4.692328E-05 +3.568679E-04 -9.568344E-04 +3.568679E-04 +1.111317E-05 -1.416609E-05 -9.568344E-04 -1.416609E-05 +7.324517E-03 
 +3.719767E-04 +1.171039E-04 -5.279060E-05 +1.171039E-04 -6.551440E-04 +1.172159E-04 -5.279060E-05 +1.172159E-04 +7.521620E-03 
 +6.596955E-04 +4.949823E-04 +3.174553E-04 +4.949823E-04 +9.016664E-05 -5.778799E-05 +3.174553E-04 -5.778799E-05 +7.203721E-03 
 +3.847951E-04 -3.220534E-05 -1.015001E-04 -3.220534E-05 -2.851468E-06 +1.900666E-04 -1.015001E-04 +1.900666E-04 +7.017433E-03 
 +1.349415E-04 -5.607132E-04 -3.612646E-04 -5.607132E-04 -2.805407E-04 +1.386349E-04 -3.612646E-04 +1.386349E-04 +7.478724E-03 
 +2.245892E-05 +2.294414E-04 +4.514566E-04 +2.294414E-04 +4.975203E-04 +2.605734E-04 +4.514566E-04 +2.605734E-04 +6.862132E-03 
 +1.787546E-04 +3.428759E-04 +4.727347E-04 +3.428759E-04 +1.543039E-04 -2.255107E-04 +4.727347E-04 -2.255107E-04 +7.169473E-03 
 -9.878122E-05 -4.806884E-04 -1.714648E-04 -4.806884E-04 +1.459327E-04 +4.428267E-04 -1.714648E-04 +4.428267E-04 +7.222318E-03 
 +2.744154E-04 +3.416143E-04 +4.089093E-04 +3.416143E-04 +4.209901E-05 -6.123671E-04 +4.089093E-04 -6.123671E-04 +7.331110E-03 
 -2.742312E-04 +9.361927E-04 +5.411719E-04 +9.361927E-04 -1.209143E-04 +5.981628E-04 +5.411719E-04 +5.981628E-04 +7.471824E-03 
 -4.216310E-04 -1.180078E-04 -3.328255E-05 -1.180078E-04 +2.486607E-04 -3.848936E-04 -3.328255E-05 -3.848936E-04 +7.620606E-03 
 -2.062405E-04 +9.048927E-04 -3.030426E-04 +9.048927E-04 -8.214619E-05 -4.179885E-04 -3.030426E-04 -4.179885E-04 +7.557475E-03 
 -3.335728E-04 -1.247839E-05 -7.006093E-04 -1.247839E-05 -7.400938E-05 +1.526588E-04 -7.006093E-04 +1.526588E-04 +8.223503E-03 
 +2.589147E-04 -1.273333E-04 -4.646567E-04 -1.273333E-04 -1.175068E-04 -1.384016E-04 -4.646567E-04 -1.384016E-04 +7.796734E-03 
 +3.989377E-04 -5.222161E-04 -4.824976E-05 -5.222161E-04 +3.183477E-04 +2.973966E-04 -4.824976E-05 +2.973966E-04 +6.773651E-03 
 +1.125155E-04 +4.138102E-04 -1.312519E-04 +4.138102E-04 +1.254847E-04 -4.706485E-04 -1.312519E-04 -4.706485E-04 +7.146816E-03 
 +3.060912E-04 +1.570427E-04 -1.941533E-04 +1.570427E-04 -1.985050E-04 +2.239208E-04 -1.941533E-04 +2.239208E-04 +7.394453E-03 
 +4.269233E-04 +3.918002E-04 +5.550440E-05 +3.918002E-04 -2.378141E-04 -6.306863E-05 +5.550440E-05 -6.306863E-05 +7.280592E-03 
 +1.761713E-04 -7.277703E-04 +2.540918E-04 -7.277703E-04 +1.157886E-04 +4.104885E-04 +2.540918E-04 +4.104885E-04 +7.377002E-03 
 -2.735341E-04 +5.026404E-04 -2.869744E-04 +5.026404E-04 +3.488864E-05 -1.799037E-04 -2.869744E-04 -1.799037E-04 +7.466211E-03 
 -4.882774E-04 -7.054668E-04 -2.628002E-04 -7.054668E-04 +1.460334E-04 -2.370643E-04 -2.628002E-04 -2.370643E-04 +7.831347E-03 
 -4.950261E-05 +4.043849E-04 +3.439312E-04 +4.043849E-04 -4.288290E-04 -7.313075E-04 +3.439312E-04 -7.313075E-04 +7.924668E-03 
 +7.644735E-05 -5.721255E-04 -8.361934E-05 -5.721255E-04 +1.976655E-04 -6.359374E-04 -8.361934E-05 -6.359374E-04 +7.404529E-03 
 +2.644632E-05 +3.939954E-04 -3.204032E-04 +3.939954E-04 +2.739154E-04 -5.786086E-05 -3.204032E-04 -5.786086E-05 +7.647510E-03 
 +1.396388E-04 +6.491647E-04 +7.842983E-05 +6.491647E-04 -2.048701E-04 +3.354137E-04 +7.842983E-05 +3.354137E-04 +7.657626E-03 
 +1.554951E-04 -2.723153E-04 +1.626948E-04 -2.723153E-04 -3.156509E-04 -1.836749E-04 +1.626948E-04 -1.836749E-04 +7.529270E-03 
 +1.920828E-04 +1.726385E-04 -2.876044E-04 +1.726385E-04 -2.205242E-05 -4.507048E-04 -2.876044E-04 -4.507048E-04 +7.422159E-03 
 -6.309014E-06 -1.255160E-04 -1.932512E-05 -1.255160E-04 +1.778055E-04 +4.413991E-04 -1.932512E-05 +4.413991E-04 +7.658490E-03 
 +1.100013E-04 +2.549913E-04 +2.279099E-04 +2.549913E-04 +7.337595E-04 +6.446422E-04 +2.279099E-04 +6.446422E-04 +7.062823E-03 
 +4.080283E-04 +5.140088E-05 -1.660208E-04 +5.140088E-05 -5.411758E-04 +1.439936E-04 -1.660208E-04 +1.439936E-04 +7.660536E-03 
 -7.478775E-05 -2.466588E-04 -4.849875E-04 -2.466588E-04 -2.502874E-04 +4.903637E-04 -4.849875E-04 +4.903637E-04 +7.795864E-03 
 -9.533479E-08 +8.868952E-05 -3.592438E-04 +8.868952E-05 +2.538527E-04 -7.676610E-04 -3.592438E-04 -7.676610E-04 +7.042074E-03 
 -1.773709E-05 +1.181526E-03 -4.638066E-04 +1.181526E-03 +3.557588E-05 +1.019745E-04 -4.638066E-04 +1.019745E-04 +7.402102E-03 
 +2.639756E-04 -5.514506E-05 -4.240368E-05 -5.514506E-05 +1.719485E-04 -2.052341E-04 -4.240368E-05 -2.052341E-04 +7.205756E-03 
 +4.558581E-04 -2.091144E-04 -1.918086E-04 -2.091144E-04 +1.899188E-05 -1.776994E-04 -1.918086E-04 -1.776994E-04 +7.097084E-03 
 +1.868072E-04 +4.571164E-04 -8.833424E-05 +4.571164E-04 -4.446821E-04 +3.968439E-04 -8.833424E-05 +3.968439E-04 +7.954642E-03 
 -3.254506E-04 -1.959009E-04 -4.121218E-04 -1.959009E-04 +3.248405E-04 -9.224937E-04 -4.121218E-04 -9.224937E-04 +7.748456E-03 
 -2.734451E-04 +6.156287E-04 -7.275334E-05 +6.156287E-04 -2.524231E-05 +1.821023E-04 -7.275334E-05 +1.821023E-04 +7.628965E-03 
 -3.280739E-04 -2.348845E-04 +3.975705E-04 -2.348845E-04 +1.927988E-05 -7.300469E-04 +3.975705E-04 -7.300469E-04 +7.693727E-03 
 -8.430194E-05 -2.720323E-04 +2.762467E-04 -2.720323E-04 +1.730421E-04 -4.779965E-04 +2.762467E-04 -4.779965E-04 +7.523868E-03 
 +1.843025E-04 +7.150005E-05 -2.527407E-04 +7.150005E-05 -6.179567E-04 -3.245010E-04 -2.527407E-04 -3.245010E-04 +7.847531E-03 
 +9.667841E-05 -7.061496E-04 -3.310437E-04 -7.061496E-04 +6.609085E-05 +2.941159E-04 -3.310437E-04 +2.941159E-04 +7.330274E-03 
 +2.215902E-04 +4.162087E-05 -1.875938E-04 +4.162087E-05 -3.375800E-05 -8.277663E-05 -1.875938E-04 -8.277663E-05 +7.102203E-03 
 -3.309664E-04 +7.921860E-04 -1.223403E-04 +7.921860E-04 +1.764023E-04 +2.112266E-04 -1.223403E-04 +2.112266E-04 +7.574237E-03 
 -5.250143E-04 +1.137419E-04 +8.915305E-05 +1.137419E-04 +6.287833E-04 -4.766213E-04 +8.915305E-05 -4.766213E-04 +7.425195E-03 
 +2.718664E-04 +7.802082E-04 -1.395536E-04 +7.802082E-04 -3.015398E-04 +1.372185E-04 -1.395536E-04 +1.372185E-04 +7.889752E-03 
 +3.209638E-04 -7.637268E-04 -8.232968E-05 -7.637268E-04 -2.471271E-04 -8.710064E-05 -8.232968E-05 -8.710064E-05 +7.692066E-03 
 +5.760471E-04 +2.982981E-05 +4.931238E-04 +2.982981E-05 -3.194768E-04 -1.095284E-04 +4.931238E-04 -1.095284E-04 +7.676662E-03 
 +1.890444E-04 +3.795805E-04 +1.689162E-04 +3.795805E-04 +1.590005E-04 -2.504395E-04 +1.689162E-04 -2.504395E-04 +6.838012E-03 
 +8.115712E-05 -3.922501E-04 +5.411690E-04 -3.922501E-04 +1.040325E-04 +3.316001E-04 +5.411690E-04 +3.316001E-04 +7.212425E-03 
 +3.307090E-05 +7.780275E-04 -3.125386E-04 +7.780275E-04 -4.228701E-04 +2.546149E-05 -3.125386E-04 +2.546149E-05 +7.581960E-03 
 +2.352516E-05 -1.055292E-04 +6.554719E-05 -1.055292E-04 +2.567687E-04 -1.346003E-04 +6.554719E-05 -1.346003E-04 +7.402828E-03 
 +2.404867E-04 -1.114256E-03 +4.453306E-04 -1.114256E-03 -3.451746E-04 +3.644060E-04 +4.453306E-04 +3.644060E-04 +7.732393E-03 
 -6.165162E-05 +8.124693E-04 +2.488910E-05 +8.124693E-04 +2.585104E-04 -1.907580E-04 +2.488910E-05 -1.907580E-04 +7.475638E-03 
 +1.609700E-05 -5.143576E-04 -5.492607E-05 -5.143576E-04 +3.180408E-04 -4.867277E-05 -5.492607E-05 -4.867277E-05 +7.143405E-03 
 +4.477816E-04 +6.701029E-04 +5.113817E-04 +6.701029E-04 -4.957661E-04 -7.738624E-04 +5.113817E-04 -7.738624E-04 +7.611407E-03 
 +2.443219E-04 -2.296314E-04 -4.487880E-05 -2.296314E-04 +1.382462E-04 +3.165234E-04 -4.487880E-05 +3.165234E-04 +7.018853E-03 
 +5.508358E-05 +1.379278E-04 -1.335097E-04 +1.379278E-04 +4.872100E-05 +5.835561E-04 -1.335097E-04 +5.835561E-04 +7.281539E-03 
 +2.066080E-04 +2.588426E-04 -5.789922E-04 +2.588426E-04 -1.096953E-04 +1.244931E-04 -5.789922E-04 +1.244931E-04 +7.243806E-03 
 -2.582522E-04 +1.678223E-04 -3.143799E-04 +1.678223E-04 +1.878951E-04 -3.548589E-05 -3.143799E-04 -3.548589E-05 +7.251062E-03 
 -1.616397E-04 -1.009080E-03 +1.689100E-04 -1.009080E-03 -5.456456E-05 -1.382247E-04 +1.689100E-04 -1.382247E-04 +7.788452E-03 
 -1.736246E-04 -1.920537E-04 +1.733091E-04 -1.920537E-04 -7.099967E-05 +5.311049E-04 +1.733091E-04 +5.311049E-04 +7.487489E-03 
 -1.631130E-04 -9.593205E-04 -8.512061E-05 -9.593205E-04 -6.739622E-05 +2.031966E-04 -8.512061E-05 +2.031966E-04 +7.522751E-03 
 +4.764936E-04 +3.318664E-04 -4.330506E-04 +3.318664E-04 +9.357445E-05 +7.168191E-04 -4.330506E-04 +7.168191E-04 +7.162997E-03 
 +3.200363E-06 -1.326704E-04 -3.417412E-04 -1.326704E-04 +1.969836E-04 +4.115733E-04 -3.417412E-04 +4.115733E-04 +7.173021E-03 
 -4.957483E-04 +9.311800E-04 +6.760829E-05 +9.311800E-04 +3.120693E-05 +3.628157E-04 +6.760829E-05 +3.628157E-04 +7.771677E-03 
 +1.340625E-04 +1.502084E-04 -2.114271E-04 +1.502084E-04 +4.149274E-04 +7.856025E-05 -2.114271E-04 +7.856025E-05 +7.122267E-03 
 +4.157644E-04 -4.580374E-04 -3.283470E-05 -4.580374E-04 -5.304043E-04 +6.404451E-05 -3.283470E-05 +6.404451E-05 +7.440822E-03 
 +3.325045E-04 -4.533259E-04 -5.040453E-04 -4.533259E-04 -1.118197E-04 +4.164962E-05 -5.040453E-04 +4.164962E-05 +7.507876E-03 
 +2.526143E-06 +1.138838E-03 -4.756476E-04 +1.138838E-03 -5.639409E-04 -3.054075E-04 -4.756476E-04 -3.054075E-04 +8.241429E-03 
 +1.400385E-05 -1.598302E-04 -2.598038E-04 -1.598302E-04 -5.518901E-04 -2.411045E-06 -2.598038E-04 -2.411045E-06 +8.087574E-03 
 -5.504815E-04 +8.935680E-04 -4.732582E-04 +8.935680E-04 +2.827935E-04 +9.432383E-05 -4.732582E-04 +9.432383E-05 +7.615593E-03 
 -2.606286E-04 +1.194972E-04 -6.434847E-04 +1.194972E-04 +4.357896E-04 -4.961445E-04 -6.434847E-04 -4.961445E-04 +7.540751E-03 
 +4.649583E-04 -8.437576E-04 -2.907727E-05 -8.437576E-04 -2.219925E-04 -5.249064E-05 -2.907727E-05 -5.249064E-05 +7.447152E-03 
 -9.259840E-05 -6.324798E-04 +1.145925E-04 -6.324798E-04 +2.065377E-04 +2.991526E-05 +1.145925E-04 +2.991526E-05 +7.488894E-03 
 -7.457713E-05 -8.754205E-04 +2.997642E-05 -8.754205E-04 -1.892837E-04 -2.915113E-04 +2.997642E-05 -2.915113E-04 +7.919251E-03 
 -3.632819E-04 -6.915331E-05 -5.817953E-04 -6.915331E-05 +3.240116E-05 +1.385835E-04 -5.817953E-04 +1.385835E-04 +7.590083E-03 
 -7.488847E-05 +2.742817E-04 -3.336536E-04 +2.742817E-04 +1.590478E-04 +1.413820E-04 -3.336536E-04 +1.413820E-04 +7.378632E-03 
 +7.633786E-04 +5.555869E-04 +3.450022E-04 +5.555869E-04 +5.948951E-05 +1.301226E-04 +3.450022E-04 +1.301226E-04 +7.049508E-03 
 +4.653983E-04 -2.029471E-04 +5.822193E-04 -2.029471E-04 -1.704772E-04 -6.086676E-05 +5.822193E-04 -6.086676E-05 +7.212990E-03 
 -8.087437E-05 +4.480282E-04 -3.956560E-04 +4.480282E-04 +1.378026E-04 +6.203714E-04 -3.956560E-04 +6.203714E-04 +7.283229E-03 
 +2.374411E-04 +1.905122E-04 -1.565499E-04 +1.905122E-04 +1.210165E-04 +3.003443E-05 -1.565499E-04 +3.003443E-05 +7.290134E-03 
 +1.915013E-04 -6.683847E-05 +8.672466E-04 -6.683847E-05 -4.377827E-04 -1.279988E-04 +8.672466E-04 -1.279988E-04 +7.651837E-03 
 -6.132845E-04 +3.193829E-04 +1.324928E-04 +3.193829E-04 +4.473775E-04 -5.063263E-04 +1.324928E-04 -5.063263E-04 +7.649876E-03 
 -2.198223E-04 -3.360726E-04 -3.516599E-04 -3.360726E-04 +5.030069E-05 -3.355897E-04 -3.516599E-04 -3.355897E-04 +7.485879E-03 
 +3.150652E-04 -3.313600E-04 +3.824449E-04 -3.313600E-04 -5.120654E-05 +7.979480E-04 +3.824449E-04 +7.979480E-04 +7.230395E-03 
 +1.413086E-04 -8.969292E-05 -1.188891E-04 -8.969292E-05 +1.983895E-04 -2.281883E-04 -1.188891E-04 -2.281883E-04 +6.864217E-03 
 -1.475289E-04 +5.736818E-04 -1.648411E-04 +5.736818E-04 -1.390680E-04 -1.935757E-04 -1.648411E-04 -1.935757E-04 +7.473316E-03 
 +2.899991E-04 +2.166995E-04 -1.625369E-04 +2.166995E-04 -5.124827E-05 -4.520029E-04 -1.625369E-04 -4.520029E-04 +7.208361E-03 
 +2.548393E-04 -1.844949E-04 -4.020197E-04 -1.844949E-04 +2.464046E-04 +5.761970E-05 -4.020197E-04 +5.761970E-05 +7.358659E-03 
 +2.930370E-04 -5.523715E-04 -2.208559E-04 -5.523715E-04 -5.830778E-04 +1.937756E-05 -2.208559E-04 +1.937756E-05 +7.953077E-03 
 +2.853117E-04 +9.135046E-04 -2.835910E-04 +9.135046E-04 -5.705029E-04 +5.187236E-04 -2.835910E-04 +5.187236E-04 +8.024182E-03 
 -6.773799E-05 -2.832788E-04 +5.217573E-04 -2.832788E-04 +3.169730E-04 -1.494324E-04 +5.217573E-04 -1.494324E-04 +6.981589E-03 
 +3.397832E-04 -3.628677E-04 +7.952958E-04 -3.628677E-04 -1.223100E-04 -1.131007E-04 +7.952958E-04 -1.131007E-04 +6.971511E-03 
 -2.180793E-04 -5.430397E-04 +4.228483E-04 -5.430397E-04 +5.250565E-04 -5.795466E-04 +4.228483E-04 -5.795466E-04 +7.244105E-03 
 +1.852068E-05 +1.151176E-04 +6.407288E-05 +1.151176E-04 -1.240712E-04 -3.046167E-04 +6.407288E-05 -3.046167E-04 +7.464533E-03 
 +6.531204E-04 +1.455633E-04 -3.505517E-05 +1.455633E-04 +1.127314E-04 -7.964465E-05 -3.505517E-05 -7.964465E-05 +7.017442E-03 
 -2.539761E-04 -8.596042E-04 -1.276696E-04 -8.596042E-04 +1.150595E-04 +5.609767E-05 -1.276696E-04 +5.609767E-05 +7.336686E-03 
 -4.864350E-04 +1.322229E-03 +4.657929E-05 +1.322229E-03 +1.117926E-04 -3.049553E-04 +4.657929E-05 -3.049553E-04 +8.039531E-03 
 +5.345867E-05 +2.247184E-04 +1.085461E-04 +2.247184E-04 -2.932854E-04 +1.614031E-04 +1.085461E-04 +1.614031E-04 +7.813386E-03 
 -9.222413E-06 -1.906630E-04 -1.972606E-04 -1.906630E-04 +7.965366E-05 -3.320590E-04 -1.972606E-04 -3.320590E-04 +7.552241E-03 
 -1.629260E-04 +4.866479E-04 +1.394158E-04 +4.866479E-04 +9.037855E-06 +3.317403E-05 +1.394158E-04 +3.317403E-05 +7.744122E-03 
 +4.619503E-05 -1.170177E-04 -2.645332E-05 -1.170177E-04 +1.545154E-04 -3.977747E-04 -2.645332E-05 -3.977747E-04 +7.718109E-03 
 +3.810594E-04 -4.317097E-04 +1.024072E-04 -4.317097E-04 -2.146340E-04 +5.224022E-04 +1.024072E-04 +5.224022E-04 +7.516515E-03 
 -4.913281E-04 +8.034153E-04 -1.105408E-05 +8.034153E-04 +2.406864E-04 +1.235977E-04 -1.105408E-05 +1.235977E-04 +7.570469E-03 
 -4.765870E-04 -2.059720E-04 +1.670336E-04 -2.059720E-04 +8.299860E-05 -4.726116E-04 +1.670336E-04 -4.726116E-04 +7.939286E-03 
 +1.243362E-04 +8.559237E-04 -3.427570E-04 +8.559237E-04 -1.492512E-04 -5.050561E-04 -3.427570E-04 -5.050561E-04 +7.702493E-03 
 -1.077055E-04 -3.692518E-04 -4.140436E-04 -3.692518E-04 +1.230086E-04 -4.567328E-04 -4.140436E-04 -4.567328E-04 +7.334699E-03 
 +2.277738E-04 +5.750167E-04 -1.201842E-04 +5.750167E-04 -3.553576E-04 -1.434950E-04 -1.201842E-04 -1.434950E-04 +6.956780E-03 
 +2.857475E-04 +5.834266E-04 -6.195981E-04 +5.834266E-04 +2.284783E-04 -6.799579E-04 -6.195981E-04 -6.799579E-04 +7.200555E-03 
 -2.205811E-05 +8.001032E-04 -1.065307E-04 +8.001032E-04 +3.123788E-04 -5.640158E-06 -1.065307E-04 -5.640158E-06 +7.395011E-03 
 -4.447960E-05 +3.411603E-04 +7.761730E-04 +3.411603E-04 +1.604980E-04 -6.829095E-05 +7.761730E-04 -6.829095E-05 +7.113140E-03 
 +4.396770E-04 -1.776568E-04 +6.874015E-04 -1.776568E-04 -2.352263E-05 +1.415256E-04 +6.874015E-04 +1.415256E-04 +6.993202E-03 
 +3.378755E-04 -2.434459E-04 -1.032400E-04 -2.434459E-04 -4.818110E-04 -5.527082E-05 -1.032400E-04 -5.527082E-05 +7.970424E-03 
 +5.373659E-04 -3.489369E-04 -2.618990E-04 -3.489369E-04 -1.352792E-04 +3.499810E-04 -2.618990E-04 +3.499810E-04 +7.745761E-03 
 -4.508302E-04 -5.100137E-04 -7.321197E-05 -5.100137E-04 +3.431513E-04 -1.344958E-04 -7.321197E-05 -1.344958E-04 +7.712992E-03 
 +8.537669E-05 +3.318502E-04 +6.627286E-04 +3.318502E-04 +2.422043E-04 -1.522291E-04 +6.627286E-04 -1.522291E-04 +7.236617E-03 
 +3.772877E-04 +1.586272E-04 -3.718751E-04 +1.586272E-04 -8.119567E-05 -5.194960E-04 -3.718751E-04 -5.194960E-04 +7.591098E-03 
 +2.506582E-04 -5.703487E-04 +1.229844E-04 -5.703487E-04 -2.387104E-05 -3.538789E-04 +1.229844E-04 -3.538789E-04 +7.379362E-03 
 +3.127004E-05 -2.630819E-04 +3.892201E-04 -2.630819E-04 +5.662931E-04 +1.069202E-04 +3.892201E-04 +1.069202E-04 +6.913661E-03 
 +1.510362E-04 -1.857797E-04 +1.089458E-04 -1.857797E-04 -2.700247E-04 -5.092802E-06 +1.089458E-04 -5.092802E-06 +7.624530E-03 
 +2.089803E-04 +7.436278E-05 +5.604674E-04 +7.436278E-05 -1.855713E-04 +2.539567E-04 +5.604674E-04 +2.539567E-04 +7.522937E-03 
 -3.501868E-05 +2.733936E-04 -8.926061E-05 +2.733936E-04 +8.269503E-05 +4.720103E-04 -8.926061E-05 +4.720103E-04 +7.047271E-03 
 -1.550580E-05 -1.762916E-04 +5.183561E-04 -1.762916E-04 +1.932192E-04 +5.321370E-05 +5.183561E-04 +5.321370E-05 +6.883852E-03 
 +4.480525E-04 +4.812032E-04 -3.924511E-04 +4.812032E-04 +1.721519E-04 +2.801774E-04 -3.924511E-04 +2.801774E-04 +6.897360E-03 
 +2.723025E-04 +6.762358E-04 -8.039138E-04 +6.762358E-04 -2.257466E-04 -2.125043E-05 -8.039138E-04 -2.125043E-05 +7.152667E-03 
 +1.458329E-04 +1.952606E-05 -3.976272E-04 +1.952606E-05 -8.402218E-05 -7.054325E-05 -3.976272E-04 -7.054325E-05 +7.353006E-03 
 +1.187716E-04 +5.027000E-04 -2.120571E-04 +5.027000E-04 -3.939819E-06 -5.674055E-04 -2.120571E-04 -5.674055E-04 +7.422075E-03 
 -7.918255E-04 +1.749411E-04 -3.595982E-04 +1.749411E-04 -6.762127E-05 +1.672902E-04 -3.595982E-04 +1.672902E-04 +7.822327E-03 
 -3.474590E-04 +9.618292E-04 -4.786167E-04 +9.618292E-04 +9.697433E-05 -1.611955E-04 -4.786167E-04 -1.611955E-04 +7.984385E-03 
 +1.627138E-04 +6.127874E-04 +1.241101E-04 +6.127874E-04 -1.616143E-04 +2.053185E-04 +1.241101E-04 +2.053185E-04 +7.486347E-03 
 -4.966393E-04 +7.583819E-04 +7.284451E-05 +7.583819E-04 -1.132630E-04 +4.962381E-05 +7.284451E-05 +4.962381E-05 +7.795356E-03 
 -3.124407E-04 -2.167933E-04 -3.141157E-04 -2.167933E-04 +1.324185E-04 +1.637219E-05 -3.141157E-04 +1.637219E-05 +7.389791E-03 
 +1.790761E-04 -1.477180E-04 -3.399913E-04 -1.477180E-04 -1.857087E-04 +1.232357E-04 -3.399913E-04 +1.232357E-04 +7.566990E-03 
 +8.075325E-05 -3.308267E-04 +4.309591E-04 -3.308267E-04 -3.756707E-05 -6.082387E-04 +4.309591E-04 -6.082387E-04 +7.155677E-03 
 +2.681448E-04 -8.151294E-04 -3.310945E-05 -8.151294E-04 -2.270260E-04 +5.631043E-04 -3.310945E-05 +5.631043E-04 +7.488507E-03 
 +9.404457E-05 -3.877904E-04 +7.628468E-04 -3.877904E-04 +3.770965E-04 +5.776651E-05 +7.628468E-04 +5.776651E-05 +6.950387E-03 
 +2.329268E-04 +1.838439E-04 +5.334363E-04 +1.838439E-04 -5.502634E-05 +1.318250E-04 +5.334363E-04 +1.318250E-04 +7.423594E-03 
 +2.995673E-04 -9.758419E-04 -1.089791E-04 -9.758419E-04 -2.302206E-04 +5.913567E-05 -1.089791E-04 +5.913567E-05 +7.469321E-03 
 -2.233760E-04 +1.383781E-05 +2.905128E-04 +1.383781E-05 +1.070721E-04 -1.711977E-04 +2.905128E-04 -1.711977E-04 +7.522219E-03 
 -3.024006E-04 -6.205078E-04 -1.152833E-04 -6.205078E-04 +3.076098E-04 -1.371359E-04 -1.152833E-04 -1.371359E-04 +7.857984E-03 
 +4.232531E-04 +3.922712E-04 -1.115004E-04 +3.922712E-04 +2.643868E-04 -1.738115E-04 -1.115004E-04 -1.738115E-04 +7.310521E-03 
 +6.268945E-04 +2.726473E-05 +1.262161E-04 +2.726473E-05 -2.995546E-04 -4.506725E-04 +1.262161E-04 -4.506725E-04 +7.675294E-03 
 -4.625955E-04 +1.207471E-03 +1.278055E-04 +1.207471E-03 +1.028794E-04 -3.100641E-05 +1.278055E-04 -3.100641E-05 +7.845554E-03 
 -5.215385E-04 +6.717942E-04 +1.782344E-04 +6.717942E-04 +2.426890E-04 -2.551998E-04 +1.782344E-04 -2.551998E-04 +7.815219E-03 
 +2.149925E-05 +4.586165E-05 +2.605424E-04 +4.586165E-05 -2.555372E-05 -2.813793E-04 +2.605424E-04 -2.813793E-04 +7.483989E-03 
 +1.255680E-04 +3.375040E-04 +8.491775E-04 +3.375040E-04 -8.937743E-05 +7.390324E-04 +8.491775E-04 +7.390324E-04 +7.440589E-03 
 +1.943994E-04 -1.040294E-04 +4.101346E-04 -1.040294E-04 -1.669748E-04 -4.318996E-04 +4.101346E-04 -4.318996E-04 +7.331366E-03 
 +6.953812E-04 -1.085206E-04 -5.589250E-04 -1.085206E-04 +1.014225E-04 +1.038680E-04 -5.589250E-04 +1.038680E-04 +7.353399E-03 
 +2.876763E-04 -3.090601E-04 -6.164579E-04 -3.090601E-04 -3.993834E-04 +7.116320E-05 -6.164579E-04 +7.116320E-05 +7.466974E-03 
 -2.384742E-04 +5.474350E-04 -3.529668E-04 +5.474350E-04 +4.618871E-04 -8.425734E-04 -3.529668E-04 -8.425734E-04 +7.168312E-03 
 +9.882370E-05 -1.695327E-05 -8.941467E-05 -1.695327E-05 -7.653722E-04 -7.813643E-05 -8.941467E-05 -7.813643E-05 +8.170609E-03 
 -8.019808E-05 +2.460397E-04 +3.862709E-04 +2.460397E-04 +3.839447E-04 -1.991582E-04 +3.862709E-04 -1.991582E-04 +7.704846E-03 
 +1.983299E-04 +9.094305E-05 -9.991879E-05 +9.094305E-05 -4.062865E-04 -2.671964E-04 -9.991879E-05 -2.671964E-04 +7.319647E-03 
 +3.393701E-04 +1.873577E-05 -1.204063E-04 +1.873577E-05 +3.681409E-04 -8.706807E-05 -1.204063E-04 -8.706807E-05 +7.177703E-03 
 +4.652027E-04 -1.433548E-04 -2.486765E-04 -1.433548E-04 -1.351884E-04 +3.758765E-04 -2.486765E-04 +3.758765E-04 +7.366154E-03 
 +1.646028E-04 -3.379257E-04 +1.593581E-04 -3.379257E-04 +4.218786E-04 +2.998893E-04 +1.593581E-04 +2.998893E-04 +7.073179E-03 
 +1.070340E-04 -4.135597E-04 -1.821940E-04 -4.135597E-04 -2.536564E-04 -2.825608E-04 -1.821940E-04 -2.825608E-04 +7.476567E-03 
 +5.483584E-04 +4.841500E-04 -6.891618E-04 +4.841500E-04 +1.187754E-05 +5.407894E-04 -6.891618E-04 +5.407894E-04 +7.266792E-03 
 +7.401721E-05 +6.110890E-04 +2.303419E-05 +6.110890E-04 -2.689867E-04 +3.442784E-05 +2.303419E-05 +3.442784E-05 +7.606934E-03 
 -3.924661E-04 -9.677098E-05 -2.194882E-04 -9.677098E-05 +1.698609E-06 -2.277623E-04 -2.194882E-04 -2.277623E-04 +7.583496E-03 
 +1.054740E-04 +2.429461E-05 +1.929199E-04 +2.429461E-05 +1.295113E-04 +1.860407E-05 +1.929199E-04 +1.860407E-05 +6.887326E-03 
 +2.715670E-04 -1.297978E-05 +5.369810E-04 -1.297978E-05 +3.082215E-04 -2.655928E-05 +5.369810E-04 -2.655928E-05 +7.198577E-03 
 +2.518973E-04 -4.991562E-04 -3.635950E-04 -4.991562E-04 -6.295183E-05 +4.624617E-04 -3.635950E-04 +4.624617E-04 +7.343738E-03 
 -4.266679E-04 +8.319015E-04 -3.273867E-05 +8.319015E-04 +7.891054E-05 -9.786491E-05 -3.273867E-05 -9.786491E-05 +7.537843E-03 
 -3.311116E-04 -3.139625E-04 +3.697585E-04 -3.139625E-04 -2.680396E-05 -3.053567E-04 +3.697585E-04 -3.053567E-04 +7.310362E-03 
 -4.339071E-04 -6.746043E-04 +1.487566E-06 -6.746043E-04 +1.813570E-04 -3.881154E-04 +1.487566E-06 -3.881154E-04 +7.687448E-03 
 -6.492936E-04 -2.812165E-04 +1.613643E-05 -2.812165E-04 +8.259418E-05 +5.577310E-04 +1.613643E-05 +5.577310E-04 +7.659592E-03 
 -1.919433E-06 +5.392037E-04 +3.106273E-04 +5.392037E-04 -3.255128E-04 -4.358467E-04 +3.106273E-04 -4.358467E-04 +7.721088E-03 
 +3.688591E-04 +5.103334E-05 -2.378324E-04 +5.103334E-05 -2.699662E-04 -4.221536E-04 -2.378324E-04 -4.221536E-04 +7.809813E-03 
 +5.062079E-05 -1.170458E-04 -2.812707E-04 -1.170458E-04 +1.306300E-04 -2.526430E-04 -2.812707E-04 -2.526430E-04 +7.496735E-03 
 -1.231719E-04 -3.090486E-04 +7.265511E-04 -3.090486E-04 -1.467391E-04 -1.539756E-04 +7.265511E-04 -1.539756E-04 +7.835607E-03 
 +1.725339E-04 +1.677639E-04 +4.123555E-04 +1.677639E-04 -1.700043E-04 +8.199072E-04 +4.123555E-04 +8.199072E-04 +7.155359E-03 
 +1.243477E-04 -9.688934E-05 -2.808120E-04 -9.688934E-05 +3.510673E-04 -5.405252E-04 -2.808120E-04 -5.405252E-04 +7.113509E-03 
 -1.938877E-04 -5.656967E-06 -1.376343E-05 -5.656967E-06 -8.977158E-05 +4.488917E-04 -1.376343E-05 +4.488917E-04 +7.440242E-03 
 +1.008462E-04 -2.455624E-05 -2.716774E-04 -2.455624E-05 +2.619817E-04 +1.595537E-04 -2.716774E-04 +1.595537E-04 +7.191333E-03 
 +2.074185E-04 -9.121491E-05 +6.556401E-04 -9.121491E-05 -4.639939E-05 -2.579562E-04 +6.556401E-04 -2.579562E-04 +7.065712E-03 
 -3.400266E-04 +2.176711E-04 +5.305698E-04 +2.176711E-04 +2.641794E-04 -1.454743E-04 +5.305698E-04 -1.454743E-04 +7.507378E-03 
 -2.485565E-04 -1.036404E-03 -1.331711E-04 -1.036404E-03 -1.024872E-04 +3.672239E-05 -1.331711E-04 +3.672239E-05 +7.700901E-03 
 +6.025880E-05 +6.845480E-04 +6.734919E-04 +6.845480E-04 -1.900055E-04 -2.383965E-04 +6.734919E-04 -2.383965E-04 +7.957933E-03 
 -1.622379E-04 +2.336640E-04 +4.994247E-05 +2.336640E-04 +4.668601E-05 +5.983827E-04 +4.994247E-05 +5.983827E-04 +7.506065E-03 
 +1.959541E-04 +6.181553E-04 -6.495704E-04 +6.181553E-04 -9.129307E-05 -2.594718E-04 -6.495704E-04 -2.594718E-04 +7.603485E-03 
 +1.962890E-04 -8.564584E-04 -2.131783E-05 -8.564584E-04 -2.411067E-04 -1.074924E-04 -2.131783E-05 -1.074924E-04 +8.067478E-03 
 -1.258213E-04 -3.421196E-04 +1.162887E-04 -3.421196E-04 +6.655054E-04 +2.149136E-06 +1.162887E-04 +2.149136E-06 +7.724108E-03 
 +1.737472E-04 -1.271541E-03 +5.889463E-04 -1.271541E-03 -2.359167E-04 +3.297756E-04 +5.889463E-04 +3.297756E-04 +7.525355E-03 
 -4.524063E-05 -4.110514E-04 +6.293505E-04 -4.110514E-04 +2.287791E-04 -4.871363E-05 +6.293505E-04 -4.871363E-05 +7.561761E-03 
 -1.649726E-04 +5.891710E-05 +3.849530E-04 +5.891710E-05 -2.210046E-04 -3.358872E-04 +3.849530E-04 -3.358872E-04 +7.768662E-03 
 -8.354728E-05 -3.119997E-04 +6.491474E-05 -3.119997E-04 +1.325455E-04 +3.373543E-04 +6.491474E-05 +3.373543E-04 +7.635879E-03 
 -3.008186E-04 +7.947653E-04 +5.558471E-04 +7.947653E-04 +1.306025E-04 -1.648186E-04 +5.558471E-04 -1.648186E-04 +7.762097E-03 
 +2.024058E-04 -4.555386E-04 +2.729046E-04 -4.555386E-04 -4.615289E-04 -4.398215E-04 +2.729046E-04 -4.398215E-04 +7.630044E-03 
 -3.390475E-04 +4.505517E-04 +6.177573E-05 +4.505517E-04 -1.034011E-04 +3.290597E-04 +6.177573E-05 +3.290597E-04 +7.980693E-03 
 -7.737023E-04 -1.836664E-04 +9.691289E-06 -1.836664E-04 +2.174531E-04 -2.471507E-04 +9.691289E-06 -2.471507E-04 +8.077056E-03 
 -3.334576E-04 -1.048731E-03 +2.995817E-04 -1.048731E-03 -8.770612E-05 -2.619582E-05 +2.995817E-04 -2.619582E-05 +7.553520E-03 
 -3.581421E-04 -8.911447E-04 +5.414512E-04 -8.911447E-04 +6.359031E-05 -1.401626E-04 +5.414512E-04 -1.401626E-04 +7.493400E-03 
 +5.496872E-05 +1.620740E-04 -2.113048E-04 +1.620740E-04 -1.410086E-04 -1.920169E-04 -2.113048E-04 -1.920169E-04 +7.330765E-03 
 -4.739002E-04 -8.861070E-04 -4.443947E-04 -8.861070E-04 +2.908325E-04 -1.685133E-04 -4.443947E-04 -1.685133E-04 +7.802994E-03 
 -1.394662E-04 -8.491901E-04 -7.210954E-04 -8.491901E-04 -3.316427E-04 -8.613742E-04 -7.210954E-04 -8.613742E-04 +8.017330E-03 
 -2.781466E-04 +8.280334E-04 -9.993991E-05 +8.280334E-04 +1.175482E-04 -3.761538E-04 -9.993991E-05 -3.761538E-04 +7.639380E-03 
 -3.321508E-04 -8.342359E-04 +1.936567E-04 -8.342359E-04 +2.256709E-05 -1.460626E-04 +1.936567E-04 -1.460626E-04 +7.358205E-03 
 +1.652952E-04 +5.345989E-05 -9.967967E-05 +5.345989E-05 +1.217859E-04 -4.493715E-04 -9.967967E-05 -4.493715E-04 +7.482723E-03 
 +3.523283E-05 +5.430707E-06 +4.770172E-04 +5.430707E-06 +3.183814E-04 -1.507392E-04 +4.770172E-04 -1.507392E-04 +7.076549E-03 
 +1.953442E-04 -2.151913E-04 +1.401432E-05 -2.151913E-04 -5.876079E-05 +3.557379E-04 +1.401432E-05 +3.557379E-04 +6.955822E-03 
 +2.150196E-04 +7.120703E-04 -5.009918E-04 +7.120703E-04 -1.408818E-04 +8.857299E-05 -5.009918E-04 +8.857299E-05 +7.195402E-03 
 -2.359655E-04 -4.598499E-05 -2.101150E-04 -4.598499E-05 +4.636794E-06 +6.812544E-04 -2.101150E-04 +6.812544E-04 +7.432608E-03 
 +9.084486E-05 -1.112232E-04 +4.764448E-04 -1.112232E-04 +1.621203E-04 -1.246045E-04 +4.764448E-04 -1.246045E-04 +7.449354E-03 
 +2.642282E-04 -4.696562E-04 +8.338905E-05 -4.696562E-04 -1.750781E-04 -6.646801E-05 +8.338905E-05 -6.646801E-05 +7.022823E-03 
 -1.219247E-04 -2.578601E-04 -3.542110E-04 -2.578601E-04 +1.990861E-04 +3.878032E-04 -3.542110E-04 +3.878032E-04 +7.232075E-03 
 -1.169092E-04 +3.555471E-04 -1.184626E-04 +3.555471E-04 -4.910323E-06 -5.948294E-04 -1.184626E-04 -5.948294E-04 +7.474627E-03 
 -1.671976E-04 -2.484736E-04 -4.044808E-05 -2.484736E-04 -9.069977E-05 +2.894335E-04 -4.044808E-05 +2.894335E-04 +7.516599E-03 
 +1.502714E-04 +9.584322E-04 -9.609007E-05 +9.584322E-04 +1.307454E-04 +2.581852E-05 -9.609007E-05 +2.581852E-05 +7.188573E-03 
 +3.615939E-04 +1.757260E-04 -8.419751E-05 +1.757260E-04 -4.002553E-04 +1.786364E-04 -8.419751E-05 +1.786364E-04 +7.299395E-03 
 +1.733342E-04 +3.768797E-04 -1.469184E-04 +3.768797E-04 +1.823844E-04 +2.173163E-04 -1.469184E-04 +2.173163E-04 +7.124631E-03 
 +3.590213E-04 -2.871798E-05 +3.207236E-04 -2.871798E-05 +1.992935E-04 -1.588753E-04 +3.207236E-04 -1.588753E-04 +7.011671E-03 
 +1.105908E-04 -1.040637E-03 -2.529311E-05 -1.040637E-03 -5.192263E-05 +1.212073E-04 -2.529311E-05 +1.212073E-04 +7.238095E-03 
 -3.537810E-04 -2.665533E-04 -2.873075E-04 -2.665533E-04 +9.384446E-05 +4.490204E-04 -2.873075E-04 +4.490204E-04 +7.445248E-03 
 +3.429000E-04 +1.514586E-04 -2.715508E-04 +1.514586E-04 -5.885082E-04 -1.079333E-04 -2.715508E-04 -1.079333E-04 +7.761095E-03 
 +6.979963E-05 +1.287398E-04 +2.398885E-04 +1.287398E-04 +6.864766E-05 +8.981595E-05 +2.398885E-04 +8.981595E-05 +7.322569E-03 
 -3.949860E-04 +9.220617E-04 +5.844827E-04 +9.220617E-04 +1.438748E-04 -3.525735E-04 +5.844827E-04 -3.525735E-04 +7.768518E-03 
 +3.386702E-04 +1.028712E-03 +5.009537E-04 +1.028712E-03 -2.740694E-04 +6.497281E-04 +5.009537E-04 +6.497281E-04 +7.754641E-03 
 -1.141287E-04 +2.139253E-04 -1.004115E-04 +2.139253E-04 +2.478842E-05 -6.222675E-04 -1.004115E-04 -6.222675E-04 +7.674403E-03 
 +8.212325E-05 +6.869232E-04 -4.881088E-04 +6.869232E-04 +3.168836E-04 +9.710384E-05 -4.881088E-04 +9.710384E-05 +7.105606E-03 
 +6.120346E-04 -9.608458E-05 -2.164140E-04 -9.608458E-05 +1.933360E-04 +3.473793E-04 -2.164140E-04 +3.473793E-04 +6.922979E-03 
 +3.120191E-04 -4.524257E-05 +3.518484E-05 -4.524257E-05 -3.681025E-04 +1.959422E-04 +3.518484E-05 +1.959422E-04 +7.382020E-03 
 +2.762389E-04 +1.003616E-04 +5.782094E-04 +1.003616E-04 -1.187724E-04 +2.544571E-04 +5.782094E-04 +2.544571E-04 +7.277429E-03 
 -1.166207E-04 -6.305345E-04 +6.472052E-04 -6.305345E-04 +1.478034E-04 +1.797208E-04 +6.472052E-04 +1.797208E-04 +7.798897E-03 
 -4.255887E-04 +1.653970E-04 -8.104817E-05 +1.653970E-04 +4.660676E-04 +1.061596E-04 -8.104817E-05 +1.061596E-04 +7.621535E-03 
 -1.704326E-04 -6.336955E-04 -3.133922E-04 -6.336955E-04 +1.360446E-06 +4.762764E-04 -3.133922E-04 +4.762764E-04 +7.731420E-03 
 +3.815181E-04 +3.714962E-04 +3.172570E-05 +3.714962E-04 -4.455179E-04 -8.563193E-05 +3.172570E-05 -8.563193E-05 +7.621136E-03 
 -1.949327E-04 +4.332891E-04 +8.785337E-05 +4.332891E-04 +3.999927E-04 -7.127046E-05 +8.785337E-05 -7.127046E-05 +7.018624E-03 
 -4.986457E-05 -3.181054E-04 -1.147792E-04 -3.181054E-04 -1.722073E-05 -2.019513E-04 -1.147792E-04 -2.019513E-04 +7.683485E-03 
 +4.664436E-04 +3.204256E-04 +2.056568E-04 +3.204256E-04 +1.901231E-04 +2.432490E-04 +2.056568E-04 +2.432490E-04 +7.284039E-03 
 +3.460510E-04 -5.473219E-04 +3.299496E-04 -5.473219E-04 -1.535023E-04 -1.192862E-04 +3.299496E-04 -1.192862E-04 +7.222779E-03 
 +3.863274E-04 -1.068941E-04 -3.302974E-04 -1.068941E-04 -2.827986E-04 +3.644114E-04 -3.302974E-04 +3.644114E-04 +7.417566E-03 
 +1.746327E-04 -1.869442E-04 -1.770478E-04 -1.869442E-04 +5.416298E-05 -8.165253E-05 -1.770478E-04 -8.165253E-05 +7.224156E-03 
 +2.480461E-04 +2.060815E-04 -1.931707E-04 +2.060815E-04 +2.916703E-04 -8.585579E-04 -1.931707E-04 -8.585579E-04 +7.323596E-03 
 -6.275551E-05 +1.073179E-04 +5.616255E-05 +1.073179E-04 -6.632781E-04 -5.673015E-05 +5.616255E-05 -5.673015E-05 +7.659513E-03 
 +1.063943E-04 +1.501086E-04 +1.958193E-04 +1.501086E-04 +2.390201E-05 +3.312419E-04 +1.958193E-04 +3.312419E-04 +7.624848E-03 
 -8.385692E-05 +6.495400E-04 +8.028733E-05 +6.495400E-04 -1.742531E-04 +5.910990E-04 +8.028733E-05 +5.910990E-04 +7.719931E-03 
 -2.127730E-04 -5.694067E-04 -2.444400E-04 -5.694067E-04 -6.043553E-05 -4.485860E-04 -2.444400E-04 -4.485860E-04 +7.910862E-03 
 +1.563760E-04 +4.142529E-04 -4.431115E-04 +4.142529E-04 -3.197053E-04 +9.405713E-05 -4.431115E-04 +9.405713E-05 +7.560594E-03 
 -3.941896E-04 -9.723120E-05 +3.237977E-04 -9.723120E-05 +4.195663E-04 +4.912174E-04 +3.237977E-04 +4.912174E-04 +7.354549E-03 
 -4.108505E-06 +5.170290E-04 +1.233150E-04 +5.170290E-04 +1.143690E-04 +4.020724E-05 +1.233150E-04 +4.020724E-05 +7.666418E-03 
 +2.205060E-04 -3.679288E-04 +8.905145E-06 -3.679288E-04 +6.924814E-05 +1.729223E-04 +8.905145E-06 +1.729223E-04 +7.312991E-03 
 +1.471277E-04 +5.950148E-04 -3.873935E-05 +5.950148E-04 -5.544228E-04 +1.898371E-04 -3.873935E-05 +1.898371E-04 +7.598258E-03 
 -3.553689E-04 +3.230280E-04 +8.416999E-05 +3.230280E-04 +1.695945E-04 -1.523111E-04 +8.416999E-05 -1.523111E-04 +7.838250E-03 
 -4.498251E-04 +4.408400E-04 +7.662831E-04 +4.408400E-04 +4.333826E-04 +7.235764E-04 +7.662831E-04 +7.235764E-04 +7.225545E-03 
 -1.440144E-05 -7.235940E-04 +5.504913E-04 -7.235940E-04 -8.528137E-05 -4.432461E-04 +5.504913E-04 -4.432461E-04 +7.719825E-03 
 -1.877865E-04 -2.760738E-04 +1.798530E-04 -2.760738E-04 +2.219143E-04 +5.127971E-04 +1.798530E-04 +5.127971E-04 +7.904696E-03 
 +2.534516E-04 -2.154183E-04 +2.278800E-04 -2.154183E-04 -2.822638E-04 -1.594640E-04 +2.278800E-04 -1.594640E-04 +7.643471E-03 
 -3.386156E-04 +1.010092E-03 -2.529417E-04 +1.010092E-03 +1.751157E-04 +1.774010E-04 -2.529417E-04 +1.774010E-04 +7.933078E-03 
 -3.015943E-04 -5.288529E-04 -1.194127E-04 -5.288529E-04 +1.490053E-04 +3.993391E-04 -1.194127E-04 +3.993391E-04 +8.064801E-03 
 +5.452547E-05 -4.978772E-04 -3.135017E-04 -4.978772E-04 -8.896826E-05 -1.192748E-04 -3.135017E-04 -1.192748E-04 +7.834989E-03 
 +8.026558E-05 +3.477190E-04 -6.576507E-04 +3.477190E-04 +9.867507E-05 +1.508959E-04 -6.576507E-04 +1.508959E-04 +7.431933E-03 
 +3.453352E-04 -2.359508E-04 -4.801771E-04 -2.359508E-04 -1.960299E-04 +2.963952E-04 -4.801771E-04 +2.963952E-04 +7.344467E-03 
 +6.089107E-04 +3.933586E-04 +2.356742E-04 +3.933586E-04 +1.167180E-05 +2.654285E-04 +2.356742E-04 +2.654285E-04 +6.964387E-03 
 +1.525724E-04 -4.100289E-04 +1.333813E-04 -4.100289E-04 -1.655719E-04 +5.202516E-05 +1.333813E-04 +5.202516E-05 +7.492332E-03 
 -4.129744E-04 +1.001289E-03 -4.115321E-04 +1.001289E-03 -2.039813E-04 -1.735238E-04 -4.115321E-04 -1.735238E-04 +7.454780E-03 
 +2.028753E-04 -3.245797E-04 -3.049789E-04 -3.245797E-04 +2.686053E-04 +6.834403E-04 -3.049789E-04 +6.834403E-04 +7.109520E-03 
 +3.274929E-04 -3.203145E-04 +9.081318E-05 -3.203145E-04 -3.497565E-05 +3.930151E-04 +9.081318E-05 +3.930151E-04 +7.192413E-03 
 +1.275032E-04 -1.625483E-04 +2.603161E-04 -1.625483E-04 -3.268676E-04 +2.179852E-04 +2.603161E-04 +2.179852E-04 +7.708542E-03 
 -2.745404E-04 +3.814236E-04 +4.951339E-05 +3.814236E-04 +5.467271E-05 -2.059742E-04 +4.951339E-05 -2.059742E-04 +7.930042E-03 
 -5.458367E-04 -2.822464E-04 +6.332849E-04 -2.822464E-04 +3.390040E-04 -4.384763E-05 +6.332849E-04 -4.384763E-05 +7.636160E-03 
 -5.862897E-04 -4.878860E-04 +5.878983E-04 -4.878860E-04 +7.633741E-05 -3.491320E-04 +5.878983E-04 -3.491320E-04 +7.570849E-03 
 +1.187098E-04 +2.118715E-04 -5.163263E-05 +2.118715E-04 -5.115324E-04 -9.885469E-05 -5.163263E-05 -9.885469E-05 +8.026641E-03 
 +1.413037E-04 +8.438621E-04 +2.674694E-04 +8.438621E-04 -8.245526E-05 +5.017478E-04 +2.674694E-04 +5.017478E-04 +7.405513E-03 
 -1.015807E-04 -7.967976E-05 +6.429122E-04 -7.967976E-05 +2.117262E-04 +1.463758E-04 +6.429122E-04 +1.463758E-04 +7.161365E-03 
 -3.161108E-04 +2.037083E-04 -5.559707E-05 +2.037083E-04 +1.778924E-04 -3.252162E-04 -5.559707E-05 -3.252162E-04 +7.561376E-03 
 +2.101296E-05 -2.022326E-04 -3.823656E-04 -2.022326E-04 +1.143018E-04 +3.936177E-04 -3.823656E-04 +3.936177E-04 +7.418451E-03 
 +5.344033E-04 -1.011934E-04 +4.767459E-06 -1.011934E-04 -1.339890E-04 -2.632715E-04 +4.767459E-06 -2.632715E-04 +6.989442E-03 
 +2.455461E-04 -2.503510E-04 -1.652371E-06 -2.503510E-04 +3.263904E-04 -1.982942E-04 -1.652371E-06 -1.982942E-04 +7.227656E-03 
 +2.148049E-04 +2.846074E-04 -3.041733E-05 +2.846074E-04 -3.899682E-04 -8.543119E-05 -3.041733E-05 -8.543119E-05 +7.605688E-03 
 +5.441632E-05 -1.651267E-04 -3.137091E-04 -1.651267E-04 +4.734824E-04 -3.584796E-04 -3.137091E-04 -3.584796E-04 +7.065487E-03 
 +1.480646E-04 +2.622392E-05 +1.791599E-04 +2.622392E-05 -4.904440E-05 -7.134129E-04 +1.791599E-04 -7.134129E-04 +7.076518E-03 
 +2.674583E-04 -9.725452E-05 -4.972296E-04 -9.725452E-05 +7.941409E-05 +5.738707E-04 -4.972296E-04 +5.738707E-04 +7.419742E-03 
 -3.465726E-05 +4.450747E-04 -2.603889E-04 +4.450747E-04 +7.466721E-05 -1.453624E-04 -2.603889E-04 -1.453624E-04 +7.362474E-03 
 -8.476023E-06 +3.926877E-04 +1.401815E-04 +3.926877E-04 -2.335290E-04 +1.279064E-04 +1.401815E-04 +1.279064E-04 +7.899509E-03 
 +3.841807E-04 -9.058182E-04 -6.569219E-04 -9.058182E-04 -6.679438E-05 +3.825327E-04 -6.569219E-04 +3.825327E-04 +7.743457E-03 
 -3.180655E-04 +5.720248E-04 -3.524337E-04 +5.720248E-04 -1.893914E-04 -2.050336E-04 -3.524337E-04 -2.050336E-04 +7.659016E-03 
 -4.713462E-04 -6.733850E-04 -1.279516E-04 -6.733850E-04 +8.997648E-05 -1.767559E-04 -1.279516E-04 -1.767559E-04 +7.566853E-03 
 +4.500889E-04 +2.786841E-04 +5.563672E-04 +2.786841E-04 -2.646114E-04 +2.971590E-04 +5.563672E-04 +2.971590E-04 +7.359530E-03 
 +4.528903E-04 +6.089329E-05 +1.227946E-04 +6.089329E-05 +1.361490E-04 -1.577044E-04 +1.227946E-04 -1.577044E-04 +7.056867E-03 
 +7.083498E-05 -2.161227E-04 +2.156649E-04 -2.161227E-04 +1.307755E-04 -3.496049E-05 +2.156649E-04 -3.496049E-05 +7.258123E-03 
 -1.220532E-04 -6.341768E-05 +1.486982E-04 -6.341768E-05 -2.036170E-04 -4.690214E-04 +1.486982E-04 -4.690214E-04 +7.425028E-03 
 -2.951407E-04 -5.515728E-04 +2.599965E-04 -5.515728E-04 +1.974802E-04 -2.711296E-04 +2.599965E-04 -2.711296E-04 +7.497220E-03 
 +3.646272E-04 +2.800556E-04 +2.034515E-04 +2.800556E-04 -1.235516E-04 +1.175433E-04 +2.034515E-04 +1.175433E-04 +7.273194E-03 
 +3.745370E-04 +4.947366E-04 -1.039628E-04 +4.947366E-04 -3.439921E-04 +2.615335E-05 -1.039628E-04 +2.615335E-05 +7.350458E-03 
 +1.132261E-04 -1.237047E-04 -2.845182E-04 -1.237047E-04 +2.763924E-04 -2.148187E-04 -2.845182E-04 -2.148187E-04 +7.186887E-03 
 +1.910765E-04 +2.649619E-04 -3.961152E-04 +2.649619E-04 +3.155971E-05 +3.813976E-04 -3.961152E-04 +3.813976E-04 +6.989776E-03 
 +1.881140E-04 -8.963982E-05 +3.754115E-04 -8.963982E-05 +1.147262E-04 -5.089245E-05 +3.754115E-04 -5.089245E-05 +7.184038E-03 
 +2.907671E-04 +1.946507E-04 +2.617555E-05 +1.946507E-04 -1.352557E-04 -6.956595E-04 +2.617555E-05 -6.956595E-04 +7.329308E-03 
 -4.903717E-05 -3.040790E-05 -7.324029E-04 -3.040790E-05 +1.555777E-04 +4.162118E-04 -7.324029E-04 +4.162118E-04 +7.038778E-03 
 +4.304218E-04 -9.350407E-05 -1.573936E-04 -9.350407E-05 +1.819393E-04 -3.193263E-04 -1.573936E-04 -3.193263E-04 +6.695923E-03 
 +3.842571E-04 +4.063216E-04 -3.655786E-05 +4.063216E-04 -1.199494E-04 +9.792034E-05 -3.655786E-05 +9.792034E-05 +6.894400E-03 
 +1.794363E-04 +6.721892E-04 -3.435157E-04 +6.721892E-04 +2.567006E-05 -3.104944E-04 -3.435157E-04 -3.104944E-04 +7.322748E-03 
 -6.107959E-05 -3.452175E-04 +6.260407E-05 -3.452175E-04 +3.996331E-04 -5.864182E-04 +6.260407E-05 -5.864182E-04 +7.333411E-03 
 -1.620602E-04 -4.170871E-04 -1.174747E-04 -4.170871E-04 -9.290393E-05 +1.826181E-04 -1.174747E-04 +1.826181E-04 +7.632043E-03 
 +3.002814E-04 +1.179065E-04 -3.444154E-04 +1.179065E-04 -7.195021E-05 -3.226265E-04 -3.444154E-04 -3.226265E-04 +7.313822E-03 
 +1.085395E-04 -1.170983E-04 -1.587129E-04 -1.170983E-04 -6.805761E-05 -5.088021E-05 -1.587129E-04 -5.088021E-05 +7.210990E-03 
 +1.777083E-05 +3.778373E-05 -7.739509E-06 +3.778373E-05 +3.327330E-05 -1.632103E-04 -7.739509E-06 -1.632103E-04 +7.715055E-03 
 -3.407878E-04 -9.676481E-04 +4.125178E-04 -9.676481E-04 -2.585210E-04 -1.815915E-04 +4.125178E-04 -1.815915E-04 +7.634407E-03 
 +4.193084E-04 +1.204949E-03 +1.794873E-04 +1.204949E-03 -4.936834E-04 +1.186191E-04 +1.794873E-04 +1.186191E-04 +7.837929E-03 
 +4.924607E-04 -1.446973E-05 +3.104170E-05 -1.446973E-05 +2.219480E-04 +3.344660E-04 +3.104170E-05 +3.344660E-04 +7.015183E-03 
 +1.027431E-04 -9.052096E-05 -3.874099E-04 -9.052096E-05 -1.003452E-04 +1.186687E-04 -3.874099E-04 +1.186687E-04 +7.139924E-03 
 -6.672675E-05 +3.596034E-04 -3.888951E-04 +3.596034E-04 -5.697585E-05 -2.158216E-04 -3.888951E-04 -2.158216E-04 +7.861995E-03 
 -4.386526E-04 +2.198991E-04 +4.093664E-04 +2.198991E-04 +2.235380E-05 -1.215225E-04 +4.093664E-04 -1.215225E-04 +7.672734E-03 
 -5.486168E-04 -6.336343E-04 +3.974206E-04 -6.336343E-04 +2.001107E-04 -4.303613E-04 +3.974206E-04 -4.303613E-04 +7.362709E-03 
 +2.347667E-04 +2.619867E-05 -1.092610E-04 +2.619867E-05 -3.047453E-04 +4.164429E-04 -1.092610E-04 +4.164429E-04 +7.338811E-03 
 -2.565633E-04 +5.992610E-04 +2.863825E-04 +5.992610E-04 +5.091967E-05 +2.143721E-04 +2.863825E-04 +2.143721E-04 +7.571155E-03 
 +6.174788E-06 +8.045995E-04 +3.496063E-04 +8.045995E-04 +1.643515E-04 +2.583294E-04 +3.496063E-04 +2.583294E-04 +7.896385E-03 
 +1.970860E-04 -4.812304E-04 -1.982781E-04 -4.812304E-04 -1.148916E-04 +3.281075E-04 -1.982781E-04 +3.281075E-04 +7.809214E-03 
 -9.537971E-05 -9.502215E-05 +3.628416E-04 -9.502215E-05 -3.531614E-06 -2.911371E-04 +3.628416E-04 -2.911371E-04 +7.542250E-03 
 -4.530825E-05 +3.760539E-05 +1.355598E-04 +3.760539E-05 -1.392503E-06 -1.340759E-04 +1.355598E-04 -1.340759E-04 +7.560553E-03 
 +2.967663E-05 -1.505708E-04 -1.119549E-04 -1.505708E-04 +3.263552E-04 -3.990159E-04 -1.119549E-04 -3.990159E-04 +7.524658E-03 
 +2.151998E-04 +5.439932E-04 -6.115411E-04 +5.439932E-04 -1.509569E-04 -1.216220E-04 -6.115411E-04 -1.216220E-04 +7.776982E-03 
 -5.739898E-05 +5.636142E-04 +2.723132E-04 +5.636142E-04 -1.600054E-04 -1.301959E-05 +2.723132E-04 -1.301959E-05 +7.593861E-03 
 +8.833800E-05 -4.197915E-05 +1.030603E-03 -4.197915E-05 +2.232714E-04 -2.142321E-05 +1.030603E-03 -2.142321E-05 +7.534367E-03 
 +1.051446E-04 -5.708095E-05 -3.451582E-04 -5.708095E-05 +1.156380E-04 -5.623181E-04 -3.451582E-04 -5.623181E-04 +7.059356E-03 
 +2.397743E-04 -1.493040E-05 -6.371477E-05 -1.493040E-05 +3.930666E-05 -2.262141E-04 -6.371477E-05 -2.262141E-04 +7.258482E-03 
 +2.309438E-04 +3.452604E-04 +6.086115E-04 +3.452604E-04 -1.839803E-04 -1.031103E-04 +6.086115E-04 -1.031103E-04 +7.489549E-03 
 +3.460049E-04 -5.331251E-04 +3.858918E-04 -5.331251E-04 +5.597248E-04 +1.928765E-04 +3.858918E-04 +1.928765E-04 +7.162116E-03 
 -2.013273E-04 +3.804700E-04 +5.430387E-04 +3.804700E-04 -3.534837E-04 -1.852973E-05 +5.430387E-04 -1.852973E-05 +7.907748E-03 
 -9.643379E-05 +4.677730E-06 -7.553468E-05 +4.677730E-06 -7.987160E-05 -8.446294E-04 -7.553468E-05 -8.446294E-04 +7.681493E-03 
 -4.920929E-05 +5.160409E-04 -7.287887E-05 +5.160409E-04 -3.906002E-04 +9.742460E-05 -7.287887E-05 +9.742460E-05 +8.015509E-03 
 -1.017701E-04 -8.572196E-04 +3.441528E-05 -8.572196E-04 -1.378405E-04 +3.805029E-05 +3.441528E-05 +3.805029E-05 +7.725566E-03 
 +2.735321E-04 +3.496914E-04 +2.972630E-04 +3.496914E-04 +2.794983E-04 +4.104708E-04 +2.972630E-04 +4.104708E-04 +7.018734E-03 
 -7.029775E-04 +5.202004E-04 +6.901653E-05 +5.202004E-04 +8.513050E-06 -3.958919E-05 +6.901653E-05 -3.958919E-05 +7.653346E-03 
 -9.556702E-04 -7.726836E-04 +3.051928E-05 -7.726836E-04 -3.501229E-05 +2.495220E-04 +3.051928E-05 +2.495220E-04 +8.124193E-03 
 -3.751706E-04 +1.183300E-03 +7.543678E-05 +1.183300E-03 -2.812094E-05 -2.476614E-04 +7.543678E-05 -2.476614E-04 +7.935753E-03 
 -3.443723E-04 +1.051385E-06 +3.934017E-04 +1.051385E-06 +1.678773E-04 +2.971287E-04 +3.934017E-04 +2.971287E-04 +7.596354E-03 
 +1.035457E-04 +1.484277E-04 -1.962771E-04 +1.484277E-04 -2.409317E-04 +7.583110E-04 -1.962771E-04 +7.583110E-04 +7.371865E-03 
 -8.462871E-05 -1.532971E-04 -6.982545E-04 -1.532971E-04 +2.726399E-04 +1.252137E-04 -6.982545E-04 +1.252137E-04 +7.361382E-03 
 +1.110966E-04 -3.120500E-04 -1.900590E-04 -3.120500E-04 -3.387266E-04 -3.201361E-04 -1.900590E-04 -3.201361E-04 +7.529980E-03 
 +4.517671E-04 +5.664615E-04 +1.996946E-04 +5.664615E-04 +8.815331E-05 +1.511059E-04 +1.996946E-04 +1.511059E-04 +7.192447E-03 
 +1.931537E-04 -3.096259E-04 -6.507490E-05 -3.096259E-04 +4.319239E-05 -1.564492E-04 -6.507490E-05 -1.564492E-04 +7.203819E-03 
 +8.292127E-05 +4.921966E-04 -3.571800E-04 +4.921966E-04 +2.139505E-04 +5.919784E-04 -3.571800E-04 +5.919784E-04 +7.069826E-03 
 -6.301358E-05 +1.108598E-03 -8.561842E-05 +1.108598E-03 -2.452542E-04 +4.856535E-05 -8.561842E-05 +4.856535E-05 +7.308962E-03 
 +4.174626E-05 -4.653076E-04 -5.249526E-04 -4.653076E-04 +2.194030E-04 +3.056515E-04 -5.249526E-04 +3.056515E-04 +7.347551E-03 
 -1.364980E-04 +1.354486E-03 -3.126079E-04 +1.354486E-03 -1.882571E-04 +1.876495E-04 -3.126079E-04 +1.876495E-04 +7.641957E-03 
 -3.505480E-04 -6.742657E-04 +8.609335E-05 -6.742657E-04 +1.244604E-04 +6.094269E-05 +8.609335E-05 +6.094269E-05 +7.574178E-03 
 +1.542765E-04 +1.362623E-04 -5.440108E-04 +1.362623E-04 +2.820952E-04 +2.258087E-04 -5.440108E-04 +2.258087E-04 +7.481384E-03 
 +9.675229E-06 +5.818456E-04 +6.809278E-05 +5.818456E-04 -2.623954E-04 -3.457048E-04 +6.809278E-05 -3.457048E-04 +7.545010E-03 
 -5.808915E-04 +1.024700E-04 -1.500947E-04 +1.024700E-04 +2.463853E-04 +1.478408E-04 -1.500947E-04 +1.478408E-04 +7.522481E-03 
 +1.991157E-05 +2.465092E-05 +5.630787E-04 +2.465092E-05 +1.503775E-04 -2.345508E-04 +5.630787E-04 -2.345508E-04 +7.409063E-03 
 +1.388403E-04 +4.936729E-04 +3.825916E-04 +4.936729E-04 -4.477275E-04 -1.644780E-04 +3.825916E-04 -1.644780E-04 +7.582400E-03 
 +2.518819E-06 +7.087384E-05 +6.437976E-04 +7.087384E-05 +8.971638E-05 -5.882850E-05 +6.437976E-04 -5.882850E-05 +7.041501E-03 
 +1.471349E-04 +3.311075E-05 +9.891019E-04 +3.311075E-05 +1.713848E-04 +4.162594E-04 +9.891019E-04 +4.162594E-04 +7.227432E-03 
 -1.715847E-04 +9.538461E-05 -2.873293E-04 +9.538461E-05 +1.018884E-04 +8.633035E-04 -2.873293E-04 +8.633035E-04 +7.321761E-03 
 -3.636816E-04 +2.301447E-04 -2.384550E-04 +2.301447E-04 -1.963874E-04 -2.569515E-04 -2.384550E-04 -2.569515E-04 +7.560750E-03 
 +2.682110E-04 +9.846775E-04 +3.239717E-05 +9.846775E-04 +1.663867E-04 +1.530810E-04 +3.239717E-05 +1.530810E-04 +7.413382E-03 
 -2.056805E-04 +8.242770E-05 -5.409406E-04 +8.242770E-05 -1.157221E-04 +1.676573E-04 -5.409406E-04 +1.676573E-04 +7.582052E-03 
 +2.382695E-04 -4.287671E-04 -1.129442E-04 -4.287671E-04 -1.346251E-04 -3.979673E-04 -1.129442E-04 -3.979673E-04 +7.407382E-03 
 +2.600249E-04 -3.016612E-05 +1.535324E-04 -3.016612E-05 +1.393260E-04 +4.722854E-04 +1.535324E-04 +4.722854E-04 +7.305483E-03 
 +1.267901E-04 -5.393111E-04 -7.543873E-05 -5.393111E-04 +3.229971E-05 -4.205372E-04 -7.543873E-05 -4.205372E-04 +7.376780E-03 
 -4.107875E-06 +5.836109E-04 +1.484171E-04 +5.836109E-04 -4.438040E-04 -1.236848E-04 +1.484171E-04 -1.236848E-04 +7.769763E-03 
 -6.369830E-04 -3.384319E-04 +4.126809E-04 -3.384319E-04 +4.559317E-04 -2.592095E-04 +4.126809E-04 -2.592095E-04 +7.628487E-03 
 -4.677162E-04 +7.374121E-04 +3.727862E-04 +7.374121E-04 +1.490818E-04 +3.002056E-04 +3.727862E-04 +3.002056E-04 +7.559816E-03 
 -6.865363E-05 +2.328831E-05 -6.579655E-04 +2.328831E-05 -5.250656E-04 +3.720898E-04 -6.579655E-04 +3.720898E-04 +7.784771E-03 
 -6.286213E-04 +6.081105E-05 -5.666215E-04 +6.081105E-05 +5.399139E-04 -5.678361E-04 -5.666215E-04 -5.678361E-04 +7.813002E-03 
 +1.023819E-04 -1.647540E-05 -2.309182E-04 -1.647540E-05 -3.055637E-04 +2.543563E-04 -2.309182E-04 +2.543563E-04 +7.536978E-03 
 +1.161985E-04 +5.885314E-04 -6.471366E-06 +5.885314E-04 -1.330324E-04 -1.660482E-04 -6.471366E-06 -1.660482E-04 +7.564325E-03 
 -4.534045E-04 -2.008395E-04 +6.987295E-04 -2.008395E-04 +3.791101E-04 -3.103237E-04 +6.987295E-04 -3.103237E-04 +7.453523E-03 
 +1.457192E-04 +1.024958E-03 -5.763320E-05 +1.024958E-03 -2.802924E-04 -1.079654E-04 -5.763320E-05 -1.079654E-04 +7.504815E-03 
 +2.702863E-04 -7.685159E-04 -1.732743E-04 -7.685159E-04 +2.054060E-04 +6.456936E-04 -1.732743E-04 +6.456936E-04 +6.926440E-03 
 +3.408084E-04 +5.357807E-04 -3.687874E-04 +5.357807E-04 +2.122343E-04 -4.072799E-05 -3.687874E-04 -4.072799E-05 +7.026734E-03 
 +2.512704E-04 -1.311163E-03 -1.136401E-04 -1.311163E-03 -5.660219E-06 +8.888684E-05 -1.136401E-04 +8.888684E-05 +7.143112E-03 
 -3.233022E-04 +1.171978E-03 -1.710188E-04 +1.171978E-03 -1.582440E-04 -1.208598E-04 -1.710188E-04 -1.208598E-04 +7.993976E-03 
 -4.636192E-04 +4.055815E-04 +5.649294E-04 +4.055815E-04 -6.282333E-05 -1.076295E-04 +5.649294E-04 -1.076295E-04 +7.876180E-03 
 +2.236054E-04 -7.493150E-04 +1.425633E-04 -7.493150E-04 -2.194992E-04 -3.233215E-04 +1.425633E-04 -3.233215E-04 +7.619979E-03 
 +2.351053E-04 +4.119620E-04 -4.271107E-04 +4.119620E-04 +5.619425E-04 -7.027350E-04 -4.271107E-04 -7.027350E-04 +6.839172E-03 
 -4.771685E-05 +1.546604E-04 +9.097826E-05 +1.546604E-04 -4.169790E-05 +3.459487E-04 +9.097826E-05 +3.459487E-04 +7.346513E-03 
 -1.999988E-04 +4.408986E-04 +2.445939E-04 +4.408986E-04 -8.438434E-05 +2.341185E-04 +2.445939E-04 +2.341185E-04 +7.829793E-03 
 +5.326747E-04 -3.944458E-04 +3.202691E-04 -3.944458E-04 -6.513214E-04 -3.355029E-04 +3.202691E-04 -3.355029E-04 +7.593379E-03 
 +3.983149E-04 +6.968068E-05 -6.119507E-05 +6.968068E-05 +5.219496E-04 -2.970211E-05 -6.119507E-05 -2.970211E-05 +7.319114E-03 
 -1.773621E-04 +1.882851E-04 +5.250158E-04 +1.882851E-04 +5.548877E-05 -4.333132E-04 +5.250158E-04 -4.333132E-04 +7.438370E-03 
 -4.514036E-05 -7.665402E-04 +2.132791E-04 -7.665402E-04 -3.660056E-04 +4.478246E-04 +2.132791E-04 +4.478246E-04 +7.441564E-03 
 -5.103536E-04 -2.650113E-04 +1.734467E-04 -2.650113E-04 +3.562929E-04 -2.336110E-04 +1.734467E-04 -2.336110E-04 +7.842441E-03 
 -1.063460E-04 -6.323293E-04 -1.665131E-04 -6.323293E-04 -1.278116E-04 +1.174414E-04 -1.665131E-04 +1.174414E-04 +8.101122E-03 
 +6.030573E-04 +6.408837E-04 -1.788960E-04 +6.408837E-04 -8.441634E-05 -6.440855E-05 -1.788960E-04 -6.440855E-05 +7.581508E-03 
 +5.313693E-05 +1.087829E-05 +3.747023E-04 +1.087829E-05 +3.339031E-04 +2.553977E-04 +3.747023E-04 +2.553977E-04 +7.376944E-03 
 +6.835866E-05 -2.140554E-06 +4.950091E-04 -2.140554E-06 -2.676925E-04 -2.291477E-04 +4.950091E-04 -2.291477E-04 +7.399355E-03 
 -2.697263E-05 +8.090854E-04 +2.921300E-04 +8.090854E-04 +2.379652E-04 +4.853325E-04 +2.921300E-04 +4.853325E-04 +7.239087E-03 
 +6.728509E-05 -2.285766E-04 -8.419489E-04 -2.285766E-04 -3.497617E-04 +5.281027E-04 -8.419489E-04 +5.281027E-04 +7.511614E-03 
 +1.837134E-04 -1.081801E-05 -2.771378E-04 -1.081801E-05 +4.864416E-04 -3.055543E-04 -2.771378E-04 -3.055543E-04 +7.159632E-03 
 -2.844119E-04 -8.580602E-04 -3.197235E-04 -8.580602E-04 -3.481400E-04 +1.859548E-04 -3.197235E-04 +1.859548E-04 +7.657309E-03 
 +1.331619E-04 +1.960384E-04 +1.382589E-04 +1.960384E-04 -2.883342E-04 +8.099710E-05 +1.382589E-04 +8.099710E-05 +7.808363E-03 
 -2.454089E-04 -1.589471E-03 +5.669866E-05 -1.589471E-03 +4.492202E-05 -6.717646E-05 +5.669866E-05 -6.717646E-05 +7.602985E-03 
 -1.226067E-04 +2.898878E-04 +4.084765E-04 +2.898878E-04 +2.581438E-04 +2.954410E-04 +4.084765E-04 +2.954410E-04 +7.364023E-03 
 +1.261538E-04 -5.876709E-05 +8.352016E-05 -5.876709E-05 -7.568406E-04 +3.441538E-04 +8.352016E-05 +3.441538E-04 +7.688554E-03 
 +2.939866E-04 -3.571877E-05 +1.222712E-04 -3.571877E-05 +1.555367E-04 +2.493473E-04 +1.222712E-04 +2.493473E-04 +6.972312E-03 
 +4.465676E-05 -3.525973E-04 +1.764312E-04 -3.525973E-04 +1.416060E-04 -7.446314E-05 +1.764312E-04 -7.446314E-05 +7.660563E-03 
 -8.634377E-04 -6.768439E-04 -1.674837E-04 -6.768439E-04 +2.134510E-04 +9.545663E-05 -1.674837E-04 +9.545663E-05 +7.915124E-03 
 -3.108821E-04 -1.091593E-04 -4.207058E-04 -1.091593E-04 +3.295685E-05 -7.457841E-05 -4.207058E-04 -7.457841E-05 +7.642191E-03 
 +3.324687E-04 +4.059173E-04 -3.440404E-04 +4.059173E-04 -5.281113E-04 -4.861606E-04 -3.440404E-04 -4.861606E-04 +7.848057E-03 
 -1.829844E-05 +1.537042E-04 -2.802601E-04 +1.537042E-04 +2.876699E-04 +3.910288E-04 -2.802601E-04 +3.910288E-04 +7.470646E-03 
 -2.199839E-04 +1.078027E-04 +7.443116E-05 +1.078027E-04 +9.316174E-05 +5.875470E-05 +7.443116E-05 +5.875470E-05 +7.280952E-03 
 -2.755233E-04 -7.992352E-04 +2.326911E-04 -7.992352E-04 -1.261646E-04 +1.099075E-04 +2.326911E-04 +1.099075E-04 +7.743604E-03 
 -3.048270E-04 +7.909068E-04 -2.504583E-04 +7.909068E-04 +1.359166E-04 +6.581758E-05 -2.504583E-04 +6.581758E-05 +7.572745E-03 
 +1.200867E-04 -1.452667E-04 +4.440017E-04 -1.452667E-04 +7.779146E-05 +5.958391E-04 +4.440017E-04 +5.958391E-04 +7.270201E-03 
 +5.806757E-04 +7.775960E-04 +1.098030E-04 +7.775960E-04 +7.491481E-05 -5.398556E-06 +1.098030E-04 -5.398556E-06 +6.965102E-03 
 +3.591641E-04 +1.338235E-04 -2.958048E-04 +1.338235E-04 -6.039863E-05 +5.209639E-04 -2.958048E-04 +5.209639E-04 +7.287464E-03 
 -7.873281E-05 +2.263889E-04 -9.973832E-06 +2.263889E-04 +9.548352E-05 -2.326285E-04 -9.973832E-06 -2.326285E-04 +7.682833E-03 
 -5.343240E-05 +5.288375E-04 +5.030076E-04 +5.288375E-04 +8.775825E-05 +3.744266E-04 +5.030076E-04 +3.744266E-04 +7.650551E-03 
 +8.106240E-05 -1.046387E-04 +7.616164E-04 -1.046387E-04 -3.566100E-04 -3.121386E-04 +7.616164E-04 -3.121386E-04 +7.371457E-03 
 -4.875728E-04 -2.349345E-04 -5.269869E-04 -2.349345E-04 +2.485254E-06 -1.628142E-04 -5.269869E-04 -1.628142E-04 +7.912930E-03 
 -5.645924E-04 -8.576735E-04 +1.878541E-05 -8.576735E-04 +4.147900E-04 +2.852500E-04 +1.878541E-05 +2.852500E-04 +7.487375E-03 
 -1.635926E-04 -8.416151E-04 +1.643387E-04 -8.416151E-04 +3.216101E-05 -2.079952E-04 +1.643387E-04 -2.079952E-04 +7.631427E-03 
 -2.443895E-04 +1.541380E-04 +8.281960E-04 +1.541380E-04 -5.805563E-05 -9.292999E-05 +8.281960E-04 -9.292999E-05 +7.725800E-03 
 +1.381706E-04 +2.052861E-04 +2.210341E-04 +2.052861E-04 +1.316251E-04 +1.915747E-04 +2.210341E-04 +1.915747E-04 +7.661266E-03 
 +1.411313E-04 +4.169823E-04 -1.235236E-04 +4.169823E-04 +3.255485E-05 -2.773768E-04 -1.235236E-04 -2.773768E-04 +7.206561E-03 
 +1.841725E-04 -9.121495E-06 +3.944027E-04 -9.121495E-06 -3.022207E-04 +3.700181E-04 +3.944027E-04 +3.700181E-04 +7.761283E-03 
 -7.064682E-06 +1.757447E-05 -4.311383E-04 +1.757447E-05 -1.164916E-04 +6.197388E-04 -4.311383E-04 +6.197388E-04 +7.542927E-03 
 -2.622860E-04 -5.950957E-04 -3.933771E-05 -5.950957E-04 +3.038202E-04 +7.006310E-04 -3.933771E-05 +7.006310E-04 +7.238330E-03 
 +5.104318E-04 +2.999710E-04 +3.925624E-04 +2.999710E-04 +8.328059E-06 +2.224914E-04 +3.925624E-04 +2.224914E-04 +6.985652E-03 
 +1.724998E-04 -3.592897E-04 -4.184578E-04 -3.592897E-04 -2.531216E-04 +3.509389E-04 -4.184578E-04 +3.509389E-04 +7.124560E-03 
 -5.614213E-04 +3.630265E-04 -2.436344E-04 +3.630265E-04 +2.453348E-04 -3.184929E-04 -2.436344E-04 -3.184929E-04 +7.837544E-03 
 +1.574245E-04 -1.145827E-04 -2.407411E-04 -1.145827E-04 -2.592606E-04 +1.244760E-04 -2.407411E-04 +1.244760E-04 +7.505833E-03 
 +2.308247E-04 -1.447169E-04 +1.835319E-04 -1.447169E-04 +1.933130E-04 +5.385563E-04 +1.835319E-04 +5.385563E-04 +6.872607E-03 
 -1.502606E-04 +4.512504E-04 +2.017219E-04 +4.512504E-04 +1.571193E-04 +3.892532E-04 +2.017219E-04 +3.892532E-04 +7.163257E-03 
 +3.244169E-04 +9.990163E-05 -6.587693E-04 +9.990163E-05 +2.455114E-04 +1.418063E-04 -6.587693E-04 +1.418063E-04 +7.268505E-03 
 +3.197803E-04 +7.715394E-04 +4.564487E-05 +7.715394E-04 -2.193402E-04 +8.666623E-05 +4.564487E-05 +8.666623E-05 +7.973951E-03 
 +7.743339E-05 +5.777964E-05 -5.650714E-05 +5.777964E-05 +5.337118E-05 +4.426347E-04 -5.650714E-05 +4.426347E-04 +7.708134E-03 
 +3.730153E-04 -7.673155E-05 +7.287731E-04 -7.673155E-05 -1.345608E-05 +1.791941E-04 +7.287731E-04 +1.791941E-04 +7.236203E-03 
 +3.183569E-04 +5.318079E-04 +5.520390E-04 +5.318079E-04 -3.855347E-04 -3.091756E-04 +5.520390E-04 -3.091756E-04 +7.578948E-03 
 +2.564467E-04 -1.220007E-04 -1.727817E-04 -1.220007E-04 -2.551877E-04 -3.452648E-04 -1.727817E-04 -3.452648E-04 +7.711092E-03 
 -6.308435E-05 -5.528720E-04 +4.565134E-04 -5.528720E-04 +4.162719E-04 +1.902890E-04 +4.565134E-04 +1.902890E-04 +7.324733E-03 
 +8.838466E-05 +1.909293E-05 -3.789831E-05 +1.909293E-05 +4.339993E-05 -2.236222E-04 -3.789831E-05 -2.236222E-04 +7.716715E-03 
 +2.421089E-05 -3.911872E-04 -3.917324E-05 -3.911872E-04 +8.920179E-05 -3.463638E-04 -3.917324E-05 -3.463638E-04 +6.960562E-03 
 +4.313218E-04 +3.212702E-04 -7.796914E-06 +3.212702E-04 -7.404557E-05 -2.936550E-04 -7.796914E-06 -2.936550E-04 +6.860963E-03 
 +2.851041E-04 +4.758606E-04 -4.327272E-04 +4.758606E-04 +8.604897E-05 -1.752720E-04 -4.327272E-04 -1.752720E-04 +7.076134E-03 
 -3.301956E-04 +4.680582E-04 +9.023331E-06 +4.680582E-04 +4.159414E-04 +4.092626E-05 +9.023331E-06 +4.092626E-05 +7.588176E-03 
 -3.062819E-05 +2.777628E-04 -4.972508E-04 +2.777628E-04 -2.580157E-04 -2.893859E-05 -4.972508E-04 -2.893859E-05 +7.543150E-03 
 +2.702467E-04 +5.077916E-06 +2.683486E-04 +5.077916E-06 -7.160744E-05 +4.310122E-04 +2.683486E-04 +4.310122E-04 +7.546698E-03 
 -3.763338E-05 +6.831921E-05 +4.999660E-04 +6.831921E-05 -1.325022E-05 -5.098834E-04 +4.999660E-04 -5.098834E-04 +7.130039E-03 
 +2.503182E-04 +6.295536E-04 +1.343821E-04 +6.295536E-04 +2.118646E-04 +3.786785E-04 +1.343821E-04 +3.786785E-04 +7.369085E-03 
 +3.158956E-04 -7.809982E-04 +3.417970E-04 -7.809982E-04 -3.712580E-04 -6.811885E-05 +3.417970E-04 -6.811885E-05 +7.713362E-03 
 -2.922138E-04 +1.554421E-04 +2.527576E-04 +1.554421E-04 +4.174101E-04 +1.039139E-04 +2.527576E-04 +1.039139E-04 +7.095632E-03 
 -3.676719E-04 +1.089602E-04 +1.246718E-05 +1.089602E-04 +5.659583E-05 +3.703975E-04 +1.246718E-05 +3.703975E-04 +7.568712E-03 
 +3.681651E-04 +1.939373E-04 -1.281698E-04 +1.939373E-04 -6.161093E-04 +9.948884E-05 -1.281698E-04 +9.948884E-05 +7.846728E-03 
 +1.815408E-05 -5.356534E-04 -4.628039E-04 -5.356534E-04 +3.090561E-04 -5.102473E-04 -4.628039E-04 -5.102473E-04 +7.481418E-03 
 +2.778478E-04 +1.417556E-04 +7.851151E-05 +1.417556E-04 +1.283142E-04 -8.707832E-04 +7.851151E-05 -8.707832E-04 +7.315244E-03 
 +4.384074E-04 +4.038208E-05 +6.917009E-06 +4.038208E-05 +6.979951E-05 +4.224728E-04 +6.917009E-06 +4.224728E-04 +6.810450E-03 
 +1.912331E-05 +1.398590E-04 +2.606486E-04 +1.398590E-04 -1.559092E-04 -6.186699E-04 +2.606486E-04 -6.186699E-04 +7.388603E-03 
 -7.510466E-05 +1.362930E-04 -4.750286E-04 +1.362930E-04 -3.066544E-04 -6.954991E-04 -4.750286E-04 -6.954991E-04 +7.664189E-03 
 -3.109359E-04 -6.163677E-04 -9.065737E-04 -6.163677E-04 +8.774053E-05 +1.084082E-04 -9.065737E-04 +1.084082E-04 +7.356804E-03 
 +1.444574E-04 +4.145742E-04 +2.367642E-04 +4.145742E-04 +5.226273E-05 +5.378434E-04 +2.367642E-04 +5.378434E-04 +7.116974E-03 
 +5.993446E-04 -1.130517E-04 +4.300492E-04 -1.130517E-04 -1.135505E-04 -1.300907E-04 +4.300492E-04 -1.300907E-04 +6.976973E-03 
 +2.309465E-04 +1.281598E-04 -2.446530E-04 +1.281598E-04 +5.617368E-05 +4.658014E-04 -2.446530E-04 +4.658014E-04 +6.875691E-03 
 -5.846487E-05 +2.041159E-04 -1.548008E-04 +2.041159E-04 +1.152049E-04 +4.142884E-04 -1.548008E-04 +4.142884E-04 +7.562702E-03 
 +1.041839E-04 +1.446417E-04 -3.996204E-04 +1.446417E-04 -3.466957E-04 +3.401457E-04 -3.996204E-04 +3.401457E-04 +8.049103E-03 
 +3.861207E-06 +2.598015E-04 +1.686726E-04 +2.598015E-04 +4.264588E-04 +3.616589E-04 +1.686726E-04 +3.616589E-04 +7.771152E-03 
 -5.191976E-04 -8.709441E-04 +1.444313E-04 -8.709441E-04 -1.825430E-04 +6.417025E-05 +1.444313E-04 +6.417025E-05 +7.663652E-03 
 -3.659272E-04 +8.007876E-04 +1.831359E-04 +8.007876E-04 +3.010081E-04 -2.677637E-04 +1.831359E-04 -2.677637E-04 +7.915474E-03 
 +1.591357E-04 -2.459724E-04 +2.103276E-04 -2.459724E-04 -3.470533E-05 -2.792351E-04 +2.103276E-04 -2.792351E-04 +7.562856E-03 
 +1.047852E-04 -4.173035E-04 -3.130655E-05 -4.173035E-04 -5.914696E-04 -9.786001E-05 -3.130655E-05 -9.786001E-05 +7.738321E-03 
 -2.426383E-04 +4.458926E-04 -3.645704E-04 +4.458926E-04 +2.246993E-04 -2.718631E-04 -3.645704E-04 -2.718631E-04 +7.676097E-03 
 -7.814687E-05 +6.028602E-04 -3.930573E-04 +6.028602E-04 +2.590910E-04 -2.336609E-04 -3.930573E-04 -2.336609E-04 +7.119449E-03 
 -2.631974E-04 -5.093270E-04 -1.951955E-04 -5.093270E-04 +9.159025E-05 -2.883433E-04 -1.951955E-04 -2.883433E-04 +7.630847E-03 
 -5.283130E-04 -4.862484E-04 -2.890643E-04 -4.862484E-04 +1.763472E-04 -1.116628E-04 -2.890643E-04 -1.116628E-04 +7.797061E-03 
 +4.346573E-05 +8.167154E-04 -3.072423E-04 +8.167154E-04 -7.548495E-04 -2.493150E-04 -3.072423E-04 -2.493150E-04 +8.056041E-03 
 -2.075453E-04 -7.951731E-04 -3.047948E-05 -7.951731E-04 +1.054339E-04 +1.263188E-04 -3.047948E-05 +1.263188E-04 +7.860402E-03 
 -4.197166E-04 -2.524242E-04 +2.489714E-04 -2.524242E-04 +4.056940E-04 -4.236334E-04 +2.489714E-04 -4.236334E-04 +7.319368E-03 
 +1.609818E-04 -4.580105E-04 +2.684137E-04 -4.580105E-04 -2.686500E-04 +5.322445E-04 +2.684137E-04 +5.322445E-04 +7.759576E-03 
 +6.438028E-05 +7.992704E-04 +8.693310E-05 +7.992704E-04 -1.685990E-04 +6.927177E-05 +8.693310E-05 +6.927177E-05 +7.861194E-03 
 -2.533766E-04 +8.421901E-05 -4.368772E-04 +8.421901E-05 +5.067418E-05 -1.885819E-06 -4.368772E-04 -1.885819E-06 +7.729914E-03 
 +3.846897E-05 -1.732220E-04 +1.142940E-04 -1.732220E-04 +1.130481E-04 -7.089922E-05 +1.142940E-04 -7.089922E-05 +7.511327E-03 
 -2.780257E-05 -4.931829E-04 +1.623718E-04 -4.931829E-04 +1.077585E-04 -8.979417E-04 +1.623718E-04 -8.979417E-04 +7.494555E-03 
 -1.063528E-04 -6.795058E-04 -1.903434E-04 -6.795058E-04 -2.912238E-04 -2.210010E-04 -1.903434E-04 -2.210010E-04 +7.745626E-03 
 +1.077830E-04 -8.897884E-05 +5.061041E-05 -8.897884E-05 +2.607049E-04 +1.651952E-04 +5.061041E-05 +1.651952E-04 +7.437622E-03 
 +2.145270E-04 -1.814296E-04 +4.078641E-04 -1.814296E-04 +1.508826E-04 +2.297000E-04 +4.078641E-04 +2.297000E-04 +7.208786E-03 
 +5.023532E-04 +3.213371E-04 +1.783586E-04 +3.213371E-04 +7.209848E-05 +8.457335E-05 +1.783586E-04 +8.457335E-05 +7.114639E-03 
 +1.699055E-04 +1.678633E-04 +1.372118E-04 +1.678633E-04 -2.088060E-04 -4.571204E-05 +1.372118E-04 -4.571204E-05 +7.372010E-03 
 -8.045963E-05 +6.011526E-04 +3.154987E-04 +6.011526E-04 -1.552708E-04 +5.633538E-06 +3.154987E-04 +5.633538E-06 +7.212819E-03 
 +9.729590E-05 +1.173566E-04 +8.644866E-05 +1.173566E-04 +3.501124E-04 -2.678770E-06 +8.644866E-05 -2.678770E-06 +7.024624E-03 
 +5.521753E-05 -2.196099E-04 +1.636646E-04 -2.196099E-04 -2.694171E-04 -9.175479E-04 +1.636646E-04 -9.175479E-04 +7.350354E-03 
 -4.684269E-04 -1.249222E-03 -1.887182E-04 -1.249222E-03 -2.048108E-04 -1.637158E-05 -1.887182E-04 -1.637158E-05 +7.596293E-03 
 +8.382343E-05 +9.915455E-05 +1.038069E-04 +9.915455E-05 +1.967618E-04 -4.784398E-05 +1.038069E-04 -4.784398E-05 +6.967628E-03 
 +1.044386E-04 +1.789868E-04 -3.457019E-04 +1.789868E-04 +2.277321E-04 +5.172946E-04 -3.457019E-04 +5.172946E-04 +7.092131E-03 
 +7.732215E-05 -1.068560E-04 -9.936556E-04 -1.068560E-04 -6.071574E-05 -3.349136E-04 -9.936556E-04 -3.349136E-04 +7.220933E-03 
 +1.914900E-04 +2.288449E-04 -2.833302E-04 +2.288449E-04 -1.333049E-04 +3.278441E-04 -2.833302E-04 +3.278441E-04 +7.065395E-03 
 +1.757435E-04 -6.749470E-05 -1.343441E-04 -6.749470E-05 +1.982974E-04 +2.442081E-04 -1.343441E-04 +2.442081E-04 +7.096224E-03 
 +3.220375E-04 +1.848253E-04 -3.416140E-04 +1.848253E-04 -2.791745E-04 -4.168113E-04 -3.416140E-04 -4.168113E-04 +7.244154E-03 
 -3.796886E-04 -7.965735E-04 -2.145912E-04 -7.965735E-04 -6.384567E-05 -6.483406E-04 -2.145912E-04 -6.483406E-04 +7.978090E-03 
 +6.441388E-06 +1.337436E-03 -4.742375E-05 +1.337436E-03 -2.152786E-04 -1.464079E-04 -4.742375E-05 -1.464079E-04 +7.710147E-03 
 +4.315854E-04 +8.428946E-05 -6.537363E-05 +8.428946E-05 +2.591409E-04 +3.448686E-05 -6.537363E-05 +3.448686E-05 +6.988537E-03 
 +3.688594E-05 +1.207125E-04 +1.776003E-04 +1.207125E-04 +4.407830E-04 +3.247804E-04 +1.776003E-04 +3.247804E-04 +7.318736E-03 
 +3.206543E-04 -9.386871E-05 -4.372545E-04 -9.386871E-05 -3.934991E-04 +1.178968E-04 -4.372545E-04 +1.178968E-04 +7.788015E-03 
 -2.274364E-04 -7.295159E-05 -8.046125E-04 -7.295159E-05 -2.225078E-05 +2.183197E-04 -8.046125E-04 +2.183197E-04 +7.662036E-03 
 -2.722669E-04 -7.609879E-04 -3.640486E-05 -7.609879E-04 -6.448104E-05 +6.788470E-05 -3.640486E-05 +6.788470E-05 +7.589392E-03 
 -2.258087E-04 +6.306897E-04 +6.027505E-04 +6.306897E-04 +1.748907E-04 -4.656280E-04 +6.027505E-04 -4.656280E-04 +7.653398E-03 
 -1.021841E-05 -5.324672E-05 +2.707217E-04 -5.324672E-05 -8.693386E-05 +3.882457E-04 +2.707217E-04 +3.882457E-04 +7.297975E-03 
 +5.542744E-04 -1.742849E-04 +1.643757E-04 -1.742849E-04 +8.706247E-05 +1.782211E-04 +1.643757E-04 +1.782211E-04 +7.070982E-03 
 +5.471093E-04 +1.346561E-04 -3.844615E-04 +1.346561E-04 -3.145728E-04 +1.533351E-04 -3.844615E-04 +1.533351E-04 +7.275216E-03 
 -2.066580E-04 +7.416852E-04 -5.406713E-05 +7.416852E-04 -1.239593E-04 +6.302523E-05 -5.406713E-05 +6.302523E-05 +7.642448E-03 
 +5.816850E-05 +2.218734E-04 +2.375933E-04 +2.218734E-04 +1.984172E-04 -1.279071E-04 +2.375933E-04 -1.279071E-04 +7.719160E-03 
 +4.460414E-05 -2.545594E-04 +1.114868E-04 -2.545594E-04 -6.097759E-04 -2.046822E-04 +1.114868E-04 -2.046822E-04 +7.950577E-03 
 -4.112964E-04 -1.152940E-03 +1.035841E-04 -1.152940E-03 +6.075217E-04 -1.724138E-04 +1.035841E-04 -1.724138E-04 +7.586397E-03 
 -2.347406E-04 +4.369592E-04 +2.653273E-06 +4.369592E-04 -4.528276E-05 -8.470523E-04 +2.653273E-06 -8.470523E-04 +8.026160E-03 
 -3.169245E-04 -9.924400E-05 -5.281991E-04 -9.924400E-05 +1.493213E-04 -7.931901E-05 -5.281991E-04 -7.931901E-05 +7.730337E-03 
 +1.274557E-04 +2.858622E-04 +2.232782E-04 +2.858622E-04 +1.886374E-05 +2.797745E-04 +2.232782E-04 +2.797745E-04 +7.577707E-03 
 +1.057796E-04 -5.987385E-05 +6.520953E-05 -5.987385E-05 -3.888950E-04 -1.032520E-04 +6.520953E-05 -1.032520E-04 +7.723447E-03 
 +6.598453E-05 +4.300097E-04 +1.779972E-04 +4.300097E-04 +5.472580E-04 +3.993411E-05 +1.779972E-04 +3.993411E-05 +7.387990E-03 
 +2.271396E-04 +5.875048E-04 +4.188209E-04 +5.875048E-04 -1.941891E-04 -1.892002E-04 +4.188209E-04 -1.892002E-04 +7.633584E-03 
 +1.650799E-04 -2.036873E-04 -1.999444E-04 -2.036873E-04 -5.794044E-04 +5.497796E-04 -1.999444E-04 +5.497796E-04 +7.446317E-03 
 +4.437987E-04 -6.525161E-05 -4.391535E-04 -6.525161E-05 -1.580792E-05 -3.780054E-04 -4.391535E-04 -3.780054E-04 +7.165696E-03 
 +5.174791E-05 +2.779746E-04 -2.488417E-04 +2.779746E-04 +5.275307E-04 +6.443545E-06 -2.488417E-04 +6.443545E-06 +7.007305E-03 
 +2.578216E-04 -4.839851E-05 +3.963436E-04 -4.839851E-05 +1.843047E-04 +4.681032E-04 +3.963436E-04 +4.681032E-04 +7.178247E-03 
 +4.436870E-04 -3.394697E-04 +4.525180E-04 -3.394697E-04 +5.873409E-05 -6.197201E-04 +4.525180E-04 -6.197201E-04 +7.165686E-03 
 -7.383559E-05 +3.772069E-04 +2.895062E-04 +3.772069E-04 -1.576184E-04 +9.541347E-05 +2.895062E-04 +9.541347E-05 +7.399631E-03 
 +3.959268E-05 +4.789446E-05 +4.095380E-04 +4.789446E-05 -9.032114E-05 +3.470787E-04 +4.095380E-04 +3.470787E-04 +7.679510E-03 
 -9.366048E-05 -3.296362E-04 -7.392337E-05 -3.296362E-04 +2.273561E-04 -9.016720E-05 -7.392337E-05 -9.016720E-05 +7.368793E-03 
 -1.599532E-04 +5.997231E-04 +3.204957E-04 +5.997231E-04 -1.844362E-04 +1.525130E-04 +3.204957E-04 +1.525130E-04 +7.744018E-03 
 +3.062469E-04 +2.306047E-04 +6.051262E-04 +2.306047E-04 -4.170213E-04 -8.474982E-05 +6.051262E-04 -8.474982E-05 +7.825119E-03 
 +7.896510E-04 -2.459980E-04 -1.216111E-04 -2.459980E-04 -4.890054E-04 -2.717713E-04 -1.216111E-04 -2.717713E-04 +7.510892E-03 
 -8.666356E-06 +4.113280E-04 -1.739420E-04 +4.113280E-04 +2.741786E-04 -1.371073E-04 -1.739420E-04 -1.371073E-04 +7.602791E-03 
 -1.029179E-04 -5.067079E-04 -3.843319E-05 -5.067079E-04 -2.681376E-05 -2.528685E-04 -3.843319E-05 -2.528685E-04 +7.689513E-03 
 +2.734284E-04 +2.523641E-04 +3.390180E-04 +2.523641E-04 -4.866884E-05 +2.605764E-04 +3.390180E-04 +2.605764E-04 +7.151135E-03 
 -1.008716E-04 +8.209401E-05 +5.517859E-04 +8.209401E-05 +8.591548E-05 -3.979885E-04 +5.517859E-04 -3.979885E-04 +7.358365E-03 
 +2.037060E-04 +3.981742E-04 -2.424906E-04 +3.981742E-04 +5.231785E-04 +5.384996E-04 -2.424906E-04 +5.384996E-04 +7.196710E-03 
 -1.055684E-04 +1.674583E-04 +2.309816E-04 +1.674583E-04 -3.310862E-04 +1.164872E-04 +2.309816E-04 +1.164872E-04 +7.850638E-03 
 -4.645328E-04 -2.307841E-04 +5.015885E-05 -2.307841E-04 +1.642990E-04 -4.613121E-05 +5.015885E-05 -4.613121E-05 +7.843926E-03 
 +2.394715E-04 -1.012459E-03 -2.065525E-04 -1.012459E-03 -2.476560E-04 +8.741148E-05 -2.065525E-04 +8.741148E-05 +7.557819E-03 
 +3.744570E-04 +1.420487E-04 -5.628288E-04 +1.420487E-04 +1.279122E-04 -1.982202E-05 -5.628288E-04 -1.982202E-05 +7.403698E-03 
 -3.131852E-04 -2.153959E-05 +1.796402E-04 -2.153959E-05 +9.930143E-05 -1.785045E-04 +1.796402E-04 -1.785045E-04 +7.381283E-03 
 -3.159361E-04 -9.987120E-04 +2.533002E-04 -9.987120E-04 -3.167983E-04 -2.800605E-04 +2.533002E-04 -2.800605E-04 +7.842103E-03 
 -2.239804E-04 -9.682777E-04 -1.368140E-04 -9.682777E-04 +1.581909E-04 -4.322074E-06 -1.368140E-04 -4.322074E-06 +7.656032E-03 
 -1.113753E-04 +6.829212E-04 +5.844242E-04 +6.829212E-04 +2.479845E-05 +5.147441E-04 +5.844242E-04 +5.147441E-04 +7.834341E-03 
 +2.776328E-04 -4.594769E-05 +2.115150E-04 -4.594769E-05 +6.114244E-05 -1.842994E-05 +2.115150E-04 -1.842994E-05 +7.252923E-03 
 +9.290953E-05 -3.950401E-04 -1.689187E-04 -3.950401E-04 +4.141924E-04 +1.528146E-04 -1.689187E-04 +1.528146E-04 +7.054717E-03 
 +3.197441E-04 +8.989627E-05 -3.958772E-05 +8.989627E-05 -5.207373E-04 +1.378694E-04 -3.958772E-05 +1.378694E-04 +7.510912E-03 
 +5.761480E-06 -1.889844E-04 +1.457111E-04 -1.889844E-04 +6.860451E-04 -2.686348E-04 +1.457111E-04 -2.686348E-04 +7.200025E-03 
 -1.168084E-05 -1.310286E-03 +1.778155E-04 -1.310286E-03 -3.797673E-05 +6.292072E-05 +1.778155E-04 +6.292072E-05 +7.482314E-03 
 -2.785872E-04 +1.015497E-03 +1.993032E-04 +1.015497E-03 -5.446496E-04 -7.713368E-04 +1.993032E-04 -7.713368E-04 +7.924386E-03 
 +2.946000E-04 +1.050568E-04 -4.921099E-04 +1.050568E-04 -1.882731E-04 -2.464459E-04 -4.921099E-04 -2.464459E-04 +7.783432E-03 
 +7.539288E-05 +3.445968E-04 +4.441018E-05 +3.445968E-04 -5.302342E-04 +4.291940E-06 +4.441018E-05 +4.291940E-06 +7.676434E-03 
 -2.839740E-04 +6.831886E-04 +2.233989E-04 +6.831886E-04 +1.789493E-04 +7.865201E-04 +2.233989E-04 +7.865201E-04 +7.234830E-03 
 +2.202474E-04 -7.378319E-04 -1.128004E-04 -7.378319E-04 +3.330194E-04 -5.075716E-04 -1.128004E-04 -5.075716E-04 +7.131325E-03 
 +2.067254E-04 +3.548277E-05 -5.013037E-04 +3.548277E-05 +6.441720E-05 -1.809371E-05 -5.013037E-04 -1.809371E-05 +7.356185E-03 
 -4.120003E-04 +2.067862E-04 -6.116978E-05 +2.067862E-04 +2.588462E-04 +2.593304E-04 -6.116978E-05 +2.593304E-04 +7.114252E-03 
 +4.455980E-04 -2.483899E-04 +3.149482E-04 -2.483899E-04 +6.154969E-06 -2.800474E-04 +3.149482E-04 -2.800474E-04 +7.329514E-03 
 +3.437007E-04 -4.300094E-04 -2.550615E-04 -4.300094E-04 +3.592362E-05 +2.638887E-04 -2.550615E-04 +2.638887E-04 +7.191210E-03 
 +1.081755E-04 +1.367438E-04 +8.758024E-05 +1.367438E-04 -2.413050E-05 +2.864393E-04 +8.758024E-05 +2.864393E-04 +7.396643E-03 
 +4.466019E-04 -7.763929E-04 -3.433747E-04 -7.763929E-04 -2.140936E-04 -3.440508E-04 -3.433747E-04 -3.440508E-04 +7.207118E-03 
 -1.019165E-04 +4.701325E-04 +8.538696E-05 +4.701325E-04 +2.492270E-04 +4.451199E-04 +8.538696E-05 +4.451199E-04 +7.641240E-03 
 +3.660038E-05 +9.192805E-04 +4.811625E-05 +9.192805E-04 -4.262827E-04 +3.614172E-04 +4.811625E-05 +3.614172E-04 +7.867924E-03 
 +1.055065E-04 -7.581957E-05 -1.078283E-04 -7.581957E-05 +5.842719E-04 +1.678271E-04 -1.078283E-04 +1.678271E-04 +7.231238E-03 
 -3.564487E-04 -8.197779E-04 +3.604163E-04 -8.197779E-04 -1.624457E-04 -3.021881E-04 +3.604163E-04 -3.021881E-04 +7.543976E-03 
 -1.653033E-05 +3.534443E-04 -2.056140E-04 +3.534443E-04 -2.365916E-05 +2.857534E-04 -2.056140E-04 +2.857534E-04 +7.562262E-03 
 -7.465891E-05 -6.869378E-04 -2.517373E-04 -6.869378E-04 +8.751338E-06 -3.382513E-05 -2.517373E-04 -3.382513E-05 +7.709878E-03 
 -3.808328E-04 -5.567464E-05 +6.407111E-04 -5.567464E-05 -6.621450E-05 -1.436808E-04 +6.407111E-04 -1.436808E-04 +7.711100E-03 
 +2.153662E-05 +3.957888E-04 +5.194544E-04 +3.957888E-04 +1.503278E-04 -2.045093E-05 +5.194544E-04 -2.045093E-05 +7.110449E-03 
 +2.119066E-04 -3.664362E-04 -3.930179E-05 -3.664362E-04 +3.676399E-04 +1.178339E-04 -3.930179E-05 +1.178339E-04 +7.155682E-03 
 -2.895031E-04 -8.843573E-04 +1.810374E-04 -8.843573E-04 -5.860471E-05 -5.340085E-05 +1.810374E-04 -5.340085E-05 +7.670115E-03 
 -1.553889E-05 +3.375174E-04 +2.735300E-04 +3.375174E-04 -1.847463E-04 +2.186009E-05 +2.735300E-04 +2.186009E-05 +7.676137E-03 
 -6.428932E-05 -8.412200E-04 -4.906379E-04 -8.412200E-04 -1.622641E-04 -2.024319E-06 -4.906379E-04 -2.024319E-06 +7.601138E-03 
 -2.973414E-04 +9.730005E-04 -2.271833E-04 +9.730005E-04 -4.091804E-04 +4.793854E-05 -2.271833E-04 +4.793854E-05 +7.826922E-03 
 -7.254324E-04 +1.824665E-04 +2.556464E-04 +1.824665E-04 +3.676979E-04 -4.193984E-06 +2.556464E-04 -4.193984E-06 +7.960477E-03 
 +2.720822E-04 +2.439518E-04 -2.304367E-04 +2.439518E-04 -6.092596E-05 +1.420919E-04 -2.304367E-04 +1.420919E-04 +7.523602E-03 
 -2.189550E-04 +3.366924E-04 -1.033086E-04 +3.366924E-04 +3.359317E-04 -4.122776E-04 -1.033086E-04 -4.122776E-04 +7.315357E-03 
 -4.811875E-04 +1.291693E-04 +3.158633E-04 +1.291693E-04 +1.429173E-04 -4.667036E-04 +3.158633E-04 -4.667036E-04 +7.558487E-03 
 -1.038494E-04 +3.471937E-04 -1.273643E-04 +3.471937E-04 -3.404883E-04 -4.191339E-05 -1.273643E-04 -4.191339E-05 +7.595242E-03 
 +1.523912E-04 -7.829350E-06 +2.047682E-04 -7.829350E-06 +1.916281E-04 -3.780258E-04 +2.047682E-04 -3.780258E-04 +7.256549E-03 
 +3.572466E-04 -1.524812E-04 -1.875569E-04 -1.524812E-04 +2.392699E-04 -1.699027E-04 -1.875569E-04 -1.699027E-04 +7.145916E-03 
 -4.811678E-05 -6.380027E-04 +2.244329E-06 -6.380027E-04 -2.834019E-04 -2.903951E-04 +2.244329E-06 -2.903951E-04 +7.631226E-03 
 -1.621859E-04 +9.724469E-04 +3.790602E-04 +9.724469E-04 +4.675632E-05 +3.308659E-04 +3.790602E-04 +3.308659E-04 +7.289543E-03 
 +2.784453E-04 +4.245437E-04 +3.739328E-05 +4.245437E-04 +2.456584E-04 -1.800635E-04 +3.739328E-05 -1.800635E-04 +7.162464E-03 
 +1.804957E-04 -3.167088E-04 -7.101224E-06 -3.167088E-04 +1.069054E-04 -2.720463E-04 -7.101224E-06 -2.720463E-04 +7.245227E-03 
 +1.979902E-05 -1.027171E-03 -4.733760E-05 -1.027171E-03 -2.937093E-04 +7.462675E-05 -4.733760E-05 +7.462675E-05 +7.527404E-03 
 -1.301892E-04 -8.737527E-05 -1.928329E-04 -8.737527E-05 -6.531148E-05 -1.014694E-03 -1.928329E-04 -1.014694E-03 +7.488480E-03 
 -2.814761E-04 -2.320374E-04 +3.429952E-04 -2.320374E-04 +2.423449E-04 -1.636748E-04 +3.429952E-04 -1.636748E-04 +7.237633E-03 
 +4.067890E-04 -9.264162E-06 +2.453413E-04 -9.264162E-06 -8.878196E-05 +2.134807E-04 +2.453413E-04 +2.134807E-04 +7.450069E-03 
 +1.625409E-05 -4.899044E-04 -5.358786E-04 -4.899044E-04 +5.286724E-05 -3.651641E-04 -5.358786E-04 -3.651641E-04 +7.420707E-03 
 -5.478265E-04 -4.125411E-04 -3.850459E-05 -4.125411E-04 +2.158102E-04 -2.412033E-04 -3.850459E-05 -2.412033E-04 +7.746783E-03 
 -3.055100E-05 +1.843220E-04 +7.128971E-04 +1.843220E-04 -2.989268E-04 +1.072798E-04 +7.128971E-04 +1.072798E-04 +7.744136E-03 
 +1.181602E-04 +5.823080E-04 +1.162356E-04 +5.823080E-04 +7.419442E-05 -4.425007E-04 +1.162356E-04 -4.425007E-04 +7.134006E-03 
 +3.878147E-04 -3.239474E-04 +4.419547E-04 -3.239474E-04 -2.517938E-04 +3.307543E-04 +4.419547E-04 +3.307543E-04 +7.585149E-03 
 +3.760393E-04 +8.866891E-05 +8.570763E-06 +8.866891E-05 -4.900718E-04 -2.432424E-04 +8.570763E-06 -2.432424E-04 +7.358342E-03 
 -2.576202E-04 +2.637224E-04 -3.929970E-04 +2.637224E-04 +4.112988E-04 -1.229804E-04 -3.929970E-04 -1.229804E-04 +6.828619E-03 
 +2.817890E-04 +6.873742E-04 -2.831552E-04 +6.873742E-04 +9.425080E-05 -4.038391E-04 -2.831552E-04 -4.038391E-04 +7.395639E-03 
 -3.338442E-04 +3.296108E-04 -2.358231E-04 +3.296108E-04 +1.181392E-04 +1.093404E-04 -2.358231E-04 +1.093404E-04 +7.748796E-03 
 -6.981582E-04 +5.790623E-04 -2.085680E-05 +5.790623E-04 +1.876503E-04 +2.960076E-04 -2.085680E-05 +2.960076E-04 +7.869579E-03 
 +4.993006E-05 +1.241381E-03 -1.103128E-04 +1.241381E-03 -3.248318E-04 -2.913655E-04 -1.103128E-04 -2.913655E-04 +7.612531E-03 
 +2.282012E-04 -1.334735E-04 -4.077633E-04 -1.334735E-04 -4.566251E-05 -6.009818E-05 -4.077633E-04 -6.009818E-05 +7.607681E-03 
 -4.298466E-04 -1.089739E-03 -3.825408E-04 -1.089739E-03 +2.900618E-04 +3.710110E-04 -3.825408E-04 +3.710110E-04 +7.536252E-03 
 -6.514787E-04 -4.548232E-04 -1.224880E-04 -4.548232E-04 +2.792568E-04 +3.116217E-04 -1.224880E-04 +3.116217E-04 +7.834234E-03 
 +3.458346E-04 -3.096449E-04 +2.117529E-04 -3.096449E-04 -4.780289E-04 +5.063366E-05 +2.117529E-04 +5.063366E-05 +7.954084E-03 
 +2.018630E-04 -4.694343E-04 +1.577008E-05 -4.694343E-04 +4.309584E-04 -1.220911E-04 +1.577008E-05 -1.220911E-04 +7.213329E-03 
 -2.350675E-04 -7.276142E-04 +2.698156E-04 -7.276142E-04 -2.486216E-05 -4.451417E-04 +2.698156E-04 -4.451417E-04 +7.648884E-03 
 -3.382094E-04 -7.021890E-05 -2.269502E-04 -7.021890E-05 -5.602747E-05 +8.736775E-04 -2.269502E-04 +8.736775E-04 +7.820071E-03 
 -9.122265E-05 -3.566729E-05 +2.050552E-04 -3.566729E-05 -4.244593E-04 -3.780407E-04 +2.050552E-04 -3.780407E-04 +8.109814E-03 
 -5.332548E-04 -3.988411E-05 +3.999747E-04 -3.988411E-05 +3.551838E-04 -2.251203E-04 +3.999747E-04 -2.251203E-04 +7.713527E-03 
 -4.877737E-05 -2.922081E-04 -4.411751E-04 -2.922081E-04 +3.598163E-04 -2.212044E-04 -4.411751E-04 -2.212044E-04 +7.210717E-03 
 +1.899587E-04 +3.296446E-04 -5.158014E-04 +3.296446E-04 -7.269668E-04 -1.095425E-04 -5.158014E-04 -1.095425E-04 +7.754783E-03 
 -5.846177E-04 +2.724810E-06 -1.419983E-04 +2.724810E-06 +1.306878E-04 +3.790517E-05 -1.419983E-04 +3.790517E-05 +7.766166E-03 
 -4.204552E-04 +7.244023E-04 -1.594310E-04 +7.244023E-04 +9.128399E-05 -3.614203E-04 -1.594310E-04 -3.614203E-04 +7.664089E-03 
 +7.930073E-05 +6.154979E-04 +3.107296E-04 +6.154979E-04 -2.768878E-04 -2.747569E-05 +3.107296E-04 -2.747569E-05 +7.503432E-03 
 +3.578666E-04 -2.898463E-04 -2.094521E-04 -2.898463E-04 -1.233580E-04 +1.264493E-05 -2.094521E-04 +1.264493E-05 +6.967186E-03 
 +4.970669E-04 +1.771879E-06 -7.159792E-05 +1.771879E-06 -2.562098E-04 -4.491426E-05 -7.159792E-05 -4.491426E-05 +7.301629E-03 
 -4.319007E-05 -5.053243E-04 +2.763144E-04 -5.053243E-04 +1.978114E-04 +8.031544E-05 +2.763144E-04 +8.031544E-05 +7.813138E-03 
 +5.857534E-06 -2.143204E-04 +7.715059E-05 -2.143204E-04 +2.173102E-04 +3.469583E-04 +7.715059E-05 +3.469583E-04 +7.233111E-03 
 -3.121525E-06 -5.563445E-04 -9.371311E-05 -5.563445E-04 +3.069462E-04 +2.584665E-04 -9.371311E-05 +2.584665E-04 +7.352190E-03 
 +1.093553E-04 +6.070852E-04 -1.253216E-04 +6.070852E-04 +4.253763E-05 +3.185668E-04 -1.253216E-04 +3.185668E-04 +7.473459E-03 
 +4.835932E-04 +7.878226E-04 +3.323101E-04 +7.878226E-04 -6.454127E-04 -7.740067E-04 +3.323101E-04 -7.740067E-04 +7.462181E-03 
 -2.361163E-04 +1.621430E-04 +3.864409E-04 +1.621430E-04 +3.154945E-04 +3.812767E-04 +3.864409E-04 +3.812767E-04 +7.558531E-03 
 -2.896586E-04 -9.813992E-04 +1.100218E-04 -9.813992E-04 -6.022238E-05 -2.320301E-04 +1.100218E-04 -2.320301E-04 +7.769795E-03 
 +1.363955E-04 -5.791787E-04 +4.199383E-05 -5.791787E-04 +1.586614E-04 -4.856660E-05 +4.199383E-05 -4.856660E-05 +7.015368E-03 
 +3.991073E-04 +8.360871E-04 +2.355902E-05 +8.360871E-04 +2.459376E-04 -5.068514E-04 +2.355902E-05 -5.068514E-04 +7.186227E-03 
 +2.487186E-04 +6.637475E-04 +2.073357E-05 +6.637475E-04 -3.232379E-04 -7.069312E-05 +2.073357E-05 -7.069312E-05 +7.854073E-03 
 +1.150712E-04 -4.572652E-04 +1.259305E-04 -4.572652E-04 +1.309340E-04 -5.504111E-05 +1.259305E-04 -5.504111E-05 +7.356018E-03 
 +4.252817E-05 +2.070774E-04 +6.923610E-05 +2.070774E-04 +1.718444E-04 +1.932515E-04 +6.923610E-05 +1.932515E-04 +7.570569E-03 
 -2.036583E-05 -4.909619E-05 -2.101740E-04 -4.909619E-05 -1.369321E-04 -4.289871E-04 -2.101740E-04 -4.289871E-04 +7.324516E-03 
 -5.108805E-05 +6.465895E-05 -8.360355E-05 +6.465895E-05 +5.210467E-05 -1.016004E-04 -8.360355E-05 -1.016004E-04 +7.739841E-03 
 +2.191346E-05 -1.863591E-04 -1.504043E-04 -1.863591E-04 -2.760839E-04 -5.463836E-04 -1.504043E-04 -5.463836E-04 +7.828932E-03 
 +2.480499E-04 +7.200420E-04 -7.017679E-05 +7.200420E-04 -1.176224E-04 +2.762362E-05 -7.017679E-05 +2.762362E-05 +7.593765E-03 
 +1.696887E-04 -2.767802E-04 +9.792709E-05 -2.767802E-04 -3.950678E-04 +2.338812E-05 +9.792709E-05 +2.338812E-05 +7.840293E-03 
 -5.180261E-05 +1.478192E-04 +2.438058E-04 +1.478192E-04 +7.708367E-04 -2.129638E-04 +2.438058E-04 -2.129638E-04 +7.131787E-03 
 +5.303416E-04 +1.903816E-04 -5.370991E-05 +1.903816E-04 -3.362329E-04 +2.812743E-04 -5.370991E-05 +2.812743E-04 +7.006216E-03 
 +5.141401E-04 -3.788123E-04 +5.764333E-04 -3.788123E-04 -3.483034E-04 -6.092564E-04 +5.764333E-04 -6.092564E-04 +7.563185E-03 
 +4.222023E-04 -2.143843E-04 +2.620552E-04 -2.143843E-04 +2.954977E-04 +3.668209E-04 +2.620552E-04 +3.668209E-04 +7.039883E-03 
 -1.239912E-04 +1.314119E-04 -2.010116E-05 +1.314119E-04 +3.918801E-04 +1.252396E-04 -2.010116E-05 +1.252396E-04 +6.962584E-03 
 +2.813415E-05 -3.152006E-04 +2.150610E-04 -3.152006E-04 -1.112611E-06 +4.456953E-04 +2.150610E-04 +4.456953E-04 +7.420379E-03 
 +3.242218E-04 +4.147047E-05 -3.266637E-04 +4.147047E-05 -1.045175E-04 -1.495787E-04 -3.266637E-04 -1.495787E-04 +7.060495E-03 
 +3.529263E-04 -8.206312E-05 -6.674689E-04 -8.206312E-05 +1.634518E-04 -1.413112E-04 -6.674689E-04 -1.413112E-04 +6.917620E-03 
 +2.636929E-04 +8.740688E-04 -1.473714E-04 +8.740688E-04 -3.619355E-04 -3.678204E-05 -1.473714E-04 -3.678204E-05 +7.397219E-03 
 +1.339621E-04 +3.480509E-04 -4.478915E-04 +3.480509E-04 -2.174618E-04 +2.535085E-04 -4.478915E-04 +2.535085E-04 +7.580549E-03 
 +3.238356E-04 +1.076786E-05 -3.147789E-04 +1.076786E-05 +2.411203E-04 -4.412603E-04 -3.147789E-04 -4.412603E-04 +7.066908E-03 
 +3.399380E-04 +3.065939E-04 +7.530766E-04 +3.065939E-04 -1.707837E-04 +1.265763E-04 +7.530766E-04 +1.265763E-04 +7.417008E-03 
 +2.705354E-04 +4.248407E-04 -1.895981E-04 +4.248407E-04 +3.452563E-04 +2.806211E-05 -1.895981E-04 +2.806211E-05 +7.276122E-03 
 +2.243970E-05 +5.823747E-04 -3.874586E-04 +5.823747E-04 -3.250889E-05 -4.585197E-04 -3.874586E-04 -4.585197E-04 +7.264510E-03 
 +5.238577E-05 -1.341446E-03 +4.544010E-04 -1.341446E-03 -1.994402E-04 +1.182288E-04 +4.544010E-04 +1.182288E-04 +8.015894E-03 
 +2.520048E-04 -2.142672E-04 +2.347747E-04 -2.142672E-04 +3.703239E-04 +6.354047E-05 +2.347747E-04 +6.354047E-05 +7.088353E-03 
 +2.123194E-04 +5.498214E-04 +3.390765E-04 +5.498214E-04 +7.478947E-05 -1.161814E-04 +3.390765E-04 -1.161814E-04 +7.282570E-03 
 +3.071159E-04 -2.089207E-04 -6.664979E-04 -2.089207E-04 -2.046884E-04 -2.310422E-04 -6.664979E-04 -2.310422E-04 +7.779194E-03 
 +1.845320E-04 +8.085800E-04 -4.038307E-04 +8.085800E-04 -4.666772E-04 -7.606929E-04 -4.038307E-04 -7.606929E-04 +7.769816E-03 
 -2.085387E-04 -1.094360E-04 -3.973596E-05 -1.094360E-04 -2.577506E-04 +5.358266E-04 -3.973596E-05 +5.358266E-04 +7.826409E-03 
 +2.204697E-04 +3.086801E-04 -2.670363E-04 +3.086801E-04 +6.103307E-04 -4.284566E-04 -2.670363E-04 -4.284566E-04 +7.045093E-03 
 +3.668086E-04 +5.710643E-04 +4.111500E-04 +5.710643E-04 +2.074395E-04 +3.040298E-05 +4.111500E-04 +3.040298E-05 +6.964698E-03 
 +5.404010E-04 -7.595874E-06 +1.533704E-04 -7.595874E-06 -3.805512E-04 -9.934902E-05 +1.533704E-04 -9.934902E-05 +7.904552E-03 
 +4.144950E-04 +9.177056E-04 -2.813204E-04 +9.177056E-04 +5.450544E-05 -2.530683E-04 -2.813204E-04 -2.530683E-04 +6.961435E-03 
 +1.255879E-04 +7.455435E-04 +6.611338E-05 +7.455435E-04 +1.930890E-04 +4.652403E-04 +6.611338E-05 +4.652403E-04 +7.274459E-03 
 -4.284790E-04 +6.395940E-04 -6.541601E-05 +6.395940E-04 +2.246941E-04 -3.143176E-04 -6.541601E-05 -3.143176E-04 +7.432652E-03 
 -2.585213E-04 +5.941655E-04 +1.316595E-08 +5.941655E-04 +1.672904E-04 -2.718639E-04 +1.316595E-08 -2.718639E-04 +7.475103E-03 
 +7.915887E-05 -2.194352E-04 -1.919945E-04 -2.194352E-04 -4.558863E-04 -2.273696E-04 -1.919945E-04 -2.273696E-04 +7.889867E-03 
 -1.820666E-04 -9.131983E-04 -2.764233E-05 -9.131983E-04 +3.162146E-04 +1.653778E-05 -2.764233E-05 +1.653778E-05 +7.645738E-03 
 +7.352912E-05 +1.894646E-04 +2.381547E-04 +1.894646E-04 -2.387315E-04 +2.136383E-05 +2.381547E-04 +2.136383E-05 +7.608357E-03 
 +2.523803E-04 -6.577587E-04 +2.627098E-05 -6.577587E-04 -2.625608E-04 -3.825001E-04 +2.627098E-05 -3.825001E-04 +7.394215E-03 
 -1.241954E-04 +7.589600E-04 +4.400440E-04 +7.589600E-04 +3.808808E-04 +3.380838E-04 +4.400440E-04 +3.380838E-04 +7.579901E-03 
 +3.231286E-05 +3.009949E-05 -9.908317E-05 +3.009949E-05 +1.522968E-04 +4.671628E-04 -9.908317E-05 +4.671628E-04 +7.466250E-03 
 +5.132256E-05 -5.531000E-06 -1.591259E-04 -5.531000E-06 -2.664649E-04 +7.495762E-04 -1.591259E-04 +7.495762E-04 +7.662709E-03 
 -3.152328E-04 +5.920717E-05 +2.037207E-04 +5.920717E-05 +7.965017E-05 +1.541888E-04 +2.037207E-04 +1.541888E-04 +7.759855E-03 
 +1.215999E-04 -5.375892E-04 +2.805174E-04 -5.375892E-04 +3.359613E-04 +2.600397E-04 +2.805174E-04 +2.600397E-04 +6.758041E-03 
 +2.483903E-04 +3.789669E-05 -5.958378E-04 +3.789669E-05 +6.016402E-06 +5.405521E-04 -5.958378E-04 +5.405521E-04 +7.534336E-03 
 +1.205268E-04 -4.142976E-06 -7.901663E-04 -4.142976E-06 -8.475171E-05 +3.152492E-04 -7.901663E-04 +3.152492E-04 +7.588787E-03 
 +7.868066E-05 -1.308899E-04 +4.436951E-04 -1.308899E-04 -1.746846E-04 +1.246002E-04 +4.436951E-04 +1.246002E-04 +7.275257E-03 
 -4.620363E-04 +3.360073E-04 -1.900710E-04 +3.360073E-04 -2.512663E-04 +3.018027E-04 -1.900710E-04 +3.018027E-04 +7.797154E-03 
 -9.186779E-05 -2.152997E-04 +1.283940E-05 -2.152997E-04 +1.272236E-04 +5.959682E-04 +1.283940E-05 +5.959682E-04 +7.232709E-03 
 +3.273461E-04 -8.734276E-06 -3.642265E-06 -8.734276E-06 +5.351816E-05 -2.877483E-05 -3.642265E-06 -2.877483E-05 +7.068900E-03 
 -1.893100E-04 +5.940156E-04 -2.394563E-04 +5.940156E-04 +2.440974E-05 -5.581194E-04 -2.394563E-04 -5.581194E-04 +7.765848E-03 
 -2.269383E-04 -4.593878E-04 +4.835291E-06 -4.593878E-04 +2.983508E-04 +9.862986E-06 +4.835291E-06 +9.862986E-06 +7.684415E-03 
 +1.811812E-04 +3.048662E-04 +8.289664E-04 +3.048662E-04 -1.239627E-04 -4.468529E-04 +8.289664E-04 -4.468529E-04 +7.515010E-03 
 -6.088535E-04 +1.171432E-04 +2.567276E-04 +1.171432E-04 +1.939306E-04 -1.968369E-04 +2.567276E-04 -1.968369E-04 +7.962792E-03 
 -2.444458E-04 -2.421923E-04 -3.077278E-04 -2.421923E-04 -1.535621E-04 +7.691743E-05 -3.077278E-04 +7.691743E-05 +7.854795E-03 
 -1.282887E-04 +2.886892E-04 +1.825684E-04 +2.886892E-04 +1.083715E-04 +1.000342E-04 +1.825684E-04 +1.000342E-04 +7.417719E-03 
 -4.956981E-04 +3.987262E-04 -1.443826E-04 +3.987262E-04 +2.881879E-04 -1.553981E-05 -1.443826E-04 -1.553981E-05 +8.065675E-03 
 -2.810651E-05 +4.277855E-04 -2.550423E-04 +4.277855E-04 -3.686509E-04 +5.628646E-04 -2.550423E-04 +5.628646E-04 +7.942292E-03 
 -9.922669E-05 +1.005518E-03 -1.873143E-04 +1.005518E-03 -5.910171E-05 +6.653707E-04 -1.873143E-04 +6.653707E-04 +7.774727E-03 
 +1.178001E-04 +4.151189E-04 +1.290358E-04 +4.151189E-04 -3.936193E-04 +8.491088E-05 +1.290358E-04 +8.491088E-05 +8.039278E-03 
 -2.353465E-05 -1.807916E-04 +4.608563E-04 -1.807916E-04 +1.797536E-04 -5.753066E-04 +4.608563E-04 -5.753066E-04 +7.539435E-03 
 -1.559172E-04 -5.087431E-04 -5.084216E-04 -5.087431E-04 +6.785113E-05 +8.577449E-05 -5.084216E-04 +8.577449E-05 +7.674409E-03 
 -2.765802E-04 -4.649301E-04 -1.013157E-05 -4.649301E-04 +2.213419E-04 +2.972379E-04 -1.013157E-05 +2.972379E-04 +7.703122E-03 
 -2.399800E-05 +1.363675E-04 +7.800150E-04 +1.363675E-04 +3.569556E-05 +6.780802E-05 +7.800150E-04 +6.780802E-05 +7.344821E-03 
 +9.558860E-05 -7.331415E-05 +2.798686E-04 -7.331415E-05 -7.313349E-05 -1.548639E-04 +2.798686E-04 -1.548639E-04 +7.694422E-03 
 -9.381252E-05 -7.646917E-04 -1.486197E-04 -7.646917E-04 -2.985031E-04 -2.550202E-04 -1.486197E-04 -2.550202E-04 +7.711514E-03 
 +9.569770E-05 -9.197962E-04 -3.385454E-04 -9.197962E-04 -1.033905E-05 +4.206977E-04 -3.385454E-04 +4.206977E-04 +7.659617E-03 
 -1.109049E-04 -5.069606E-04 -3.823749E-04 -5.069606E-04 +4.128676E-04 +3.117054E-04 -3.823749E-04 +3.117054E-04 +7.307661E-03 
 +3.696841E-05 +1.251785E-04 +3.065504E-05 +1.251785E-04 -9.058369E-05 -7.570005E-05 +3.065504E-05 -7.570005E-05 +7.238918E-03 
 +2.645407E-05 +7.664323E-05 +4.097037E-04 +7.664323E-05 +1.534151E-04 -2.753079E-04 +4.097037E-04 -2.753079E-04 +7.419477E-03 
 -1.282602E-04 +1.106971E-04 +4.370513E-04 +1.106971E-04 -1.647516E-04 +9.560889E-05 +4.370513E-04 +9.560889E-05 +7.589407E-03 
 -1.985793E-04 +8.098044E-04 +1.664763E-04 +8.098044E-04 -2.227881E-04 +4.295729E-04 +1.664763E-04 +4.295729E-04 +7.855797E-03 
 +8.598791E-05 -3.017117E-04 +1.770893E-04 -3.017117E-04 +1.374899E-04 -6.654509E-06 +1.770893E-04 -6.654509E-06 +7.290766E-03 
 -4.338731E-04 +8.422484E-04 +4.850262E-04 +8.422484E-04 -8.844047E-05 -9.663757E-05 +4.850262E-04 -9.663757E-05 +8.051508E-03 
 -3.691344E-04 +6.480355E-04 +2.759197E-04 +6.480355E-04 +2.097247E-04 +5.593423E-05 +2.759197E-04 +5.593423E-05 +7.926608E-03 
 -5.801584E-05 -5.279172E-04 -4.735590E-04 -5.279172E-04 +1.765822E-04 +2.014998E-04 -4.735590E-04 +2.014998E-04 +7.809243E-03 
 -1.394532E-04 +6.876180E-04 -1.873908E-04 +6.876180E-04 -7.758180E-05 +7.539399E-05 -1.873908E-04 +7.539399E-05 +7.637298E-03 
 +3.077251E-04 +3.755839E-04 +3.936958E-04 +3.755839E-04 -1.271019E-04 +2.214776E-04 +3.936958E-04 +2.214776E-04 +7.044643E-03 
 -1.368870E-04 +8.075845E-05 +1.761361E-04 +8.075845E-05 -7.196252E-05 -9.005888E-04 +1.761361E-04 -9.005888E-04 +7.343680E-03 
 -1.291103E-04 +1.720374E-04 -2.859308E-04 +1.720374E-04 -5.386813E-05 +6.172320E-04 -2.859308E-04 +6.172320E-04 +7.478598E-03 
 +6.442658E-04 +4.713561E-04 -2.821334E-05 +4.713561E-04 -1.109635E-04 +1.406386E-04 -2.821334E-05 +1.406386E-04 +7.035370E-03 
 +1.125450E-04 -3.381250E-04 -3.503560E-04 -3.381250E-04 -8.491096E-06 -2.581457E-04 -3.503560E-04 -2.581457E-04 +7.376819E-03 
 +5.856919E-07 +5.563565E-04 +1.650809E-04 +5.563565E-04 -8.274334E-05 +5.122509E-04 +1.650809E-04 +5.122509E-04 +7.713051E-03 
 -1.607384E-04 -1.485399E-03 -6.314993E-05 -1.485399E-03 +1.554343E-04 +3.024315E-05 -6.314993E-05 +3.024315E-05 +7.266358E-03 
 +1.893899E-04 -4.933218E-04 -2.564700E-04 -4.933218E-04 +1.147989E-04 -4.177741E-04 -2.564700E-04 -4.177741E-04 +7.358559E-03 
 +2.072415E-05 -5.991241E-04 +2.534556E-05 -5.991241E-04 -8.386105E-05 -2.874911E-06 +2.534556E-05 -2.874911E-06 +7.696663E-03 
 +1.919842E-04 +2.058836E-04 -5.991442E-04 +2.058836E-04 -3.594585E-05 +6.146453E-05 -5.991442E-04 +6.146453E-05 +7.394693E-03 
 +2.299442E-04 -1.031152E-03 -4.544033E-04 -1.031152E-03 +3.573399E-04 +4.419208E-04 -4.544033E-04 +4.419208E-04 +6.802313E-03 
 +2.501462E-04 -4.550367E-04 -3.649472E-04 -4.550367E-04 -5.430574E-05 +5.284097E-04 -3.649472E-04 +5.284097E-04 +7.140407E-03 
 +2.572176E-04 +1.023613E-03 -1.150433E-04 +1.023613E-03 -1.768504E-04 +2.939177E-04 -1.150433E-04 +2.939177E-04 +7.143264E-03 
 +2.088885E-04 -1.931835E-04 +4.146960E-04 -1.931835E-04 +2.492403E-04 -4.623384E-04 +4.146960E-04 -4.623384E-04 +7.096063E-03 
 +1.444509E-04 +1.325288E-04 +4.964045E-04 +1.325288E-04 -1.320358E-04 +5.690883E-04 +4.964045E-04 +5.690883E-04 +7.360903E-03 
 +1.287285E-05 -1.877547E-04 +4.069984E-04 -1.877547E-04 -2.962353E-04 +7.734590E-05 +4.069984E-04 +7.734590E-05 +7.163901E-03 
 +2.311969E-04 -1.387104E-05 +1.990333E-04 -1.387104E-05 +1.033359E-04 +1.887935E-04 +1.990333E-04 +1.887935E-04 +7.470986E-03 
 +1.227353E-04 -3.434248E-04 -6.158109E-04 -3.434248E-04 +2.493000E-04 -3.189481E-04 -6.158109E-04 -3.189481E-04 +6.865492E-03 
 +5.130577E-04 +3.763109E-04 -3.459821E-04 +3.763109E-04 +1.868103E-04 +2.420904E-04 -3.459821E-04 +2.420904E-04 +6.981132E-03 
 +2.351147E-04 +2.999812E-04 +8.356674E-05 +2.999812E-04 -2.147238E-05 -5.965593E-04 +8.356674E-05 -5.965593E-04 +7.140233E-03 
 +1.379363E-04 +2.765935E-04 +3.720300E-04 +2.765935E-04 +3.107838E-05 -5.371000E-04 +3.720300E-04 -5.371000E-04 +7.463458E-03 
 +1.081711E-04 +1.076545E-04 +6.013303E-04 +1.076545E-04 -4.810030E-04 -1.296912E-04 +6.013303E-04 -1.296912E-04 +7.979634E-03 
 -1.944643E-04 -1.684118E-04 +2.884889E-04 -1.684118E-04 -2.643642E-05 +5.581337E-05 +2.884889E-04 +5.581337E-05 +7.446782E-03 
 -1.868736E-04 +2.244348E-04 +8.873725E-04 +2.244348E-04 +2.097756E-04 +1.416202E-04 +8.873725E-04 +1.416202E-04 +7.060558E-03 
 +5.002638E-04 -9.077843E-05 +1.856028E-04 -9.077843E-05 +1.567340E-05 -7.778163E-04 +1.856028E-04 -7.778163E-04 +6.932120E-03 
 +2.225238E-04 -1.221216E-04 -3.976293E-04 -1.221216E-04 -5.978354E-05 +3.686015E-04 -3.976293E-04 +3.686015E-04 +7.384404E-03 
 -1.036094E-04 +8.539289E-04 -5.106491E-04 +8.539289E-04 +2.486904E-05 -1.645304E-05 -5.106491E-04 -1.645304E-05 +7.594477E-03 
 +3.593375E-05 -1.370428E-03 -7.501654E-05 -1.370428E-03 -1.794158E-05 +4.950605E-05 -7.501654E-05 +4.950605E-05 +7.739345E-03 
 -2.026884E-04 -4.459614E-04 +2.442139E-04 -4.459614E-04 +1.929464E-04 +3.601979E-04 +2.442139E-04 +3.601979E-04 +7.545219E-03 
 +3.864679E-04 +5.577170E-05 -1.748597E-05 +5.577170E-05 +1.720945E-04 +6.709967E-04 -1.748597E-05 +6.709967E-04 +7.066261E-03 
 +1.333307E-04 -1.748034E-04 +4.544858E-04 -1.748034E-04 +7.465128E-05 -4.349401E-04 +4.544858E-04 -4.349401E-04 +7.348006E-03 
 -2.403453E-04 -4.990323E-04 +3.596715E-05 -4.990323E-04 +7.413151E-05 +1.815391E-05 +3.596715E-05 +1.815391E-05 +7.738377E-03 
 -1.284184E-05 -7.294465E-04 +1.371712E-04 -7.294465E-04 -8.870562E-05 +1.923472E-04 +1.371712E-04 +1.923472E-04 +7.651397E-03 
 -3.763235E-04 +7.352331E-04 +4.043231E-05 +7.352331E-04 -2.082586E-04 -4.430175E-04 +4.043231E-05 -4.430175E-04 +7.716107E-03 
 -4.872344E-04 -2.211199E-04 -3.367347E-04 -2.211199E-04 +1.699072E-04 +2.677038E-04 -3.367347E-04 +2.677038E-04 +7.925767E-03 
 +1.510134E-06 -5.081223E-04 -9.078655E-05 -5.081223E-04 -2.984552E-04 -5.213100E-04 -9.078655E-05 -5.213100E-04 +7.768195E-03 
 +4.556256E-04 +8.873939E-05 +5.298000E-04 +8.873939E-05 -3.031499E-04 -6.156066E-04 +5.298000E-04 -6.156066E-04 +7.356680E-03 
 -1.161936E-04 -1.986747E-05 +2.507106E-04 -1.986747E-05 +7.586937E-04 +3.165418E-04 +2.507106E-04 +3.165418E-04 +7.144133E-03 
 -1.540001E-04 -6.094734E-04 -2.121891E-04 -6.094734E-04 -1.724922E-04 +4.626630E-04 -2.121891E-04 +4.626630E-04 +7.512704E-03 
 +3.507838E-04 +3.901870E-04 -5.255269E-04 +3.901870E-04 -1.636092E-04 -7.342525E-04 -5.255269E-04 -7.342525E-04 +7.368721E-03 
 +8.074116E-05 -3.104768E-04 -1.436477E-04 -3.104768E-04 +1.873912E-04 +3.348942E-05 -1.436477E-04 +3.348942E-05 +7.411403E-03 
 +2.241734E-05 +2.403906E-04 +3.193910E-04 +2.403906E-04 -2.836394E-04 -4.603013E-05 +3.193910E-04 -4.603013E-05 +7.784525E-03 
 -1.459815E-04 -4.588724E-04 +6.022844E-04 -4.588724E-04 +2.668497E-04 -3.148543E-04 +6.022844E-04 -3.148543E-04 +7.161766E-03 
 -2.517814E-04 +3.277022E-04 +3.575647E-04 +3.277022E-04 -4.038906E-04 +2.363357E-04 +3.575647E-04 +2.363357E-04 +7.646302E-03 
 -2.238213E-04 +1.199987E-04 -4.593764E-04 +1.199987E-04 +2.954466E-04 -2.016135E-04 -4.593764E-04 -2.016135E-04 +7.640898E-03 
 -2.501914E-04 +1.394311E-04 +4.414463E-04 +1.394311E-04 +1.656772E-04 +3.113541E-04 +4.414463E-04 +3.113541E-04 +7.487562E-03 
 -1.650418E-04 -4.235625E-04 -3.839754E-04 -4.235625E-04 -2.077809E-04 +6.006096E-04 -3.839754E-04 +6.006096E-04 +7.295367E-03 
 -7.686139E-05 -3.886149E-05 -6.245732E-04 -3.886149E-05 -1.142063E-04 -2.049307E-04 -6.245732E-04 -2.049307E-04 +7.119228E-03 
 +2.171853E-04 -5.206416E-05 +2.753292E-05 -5.206416E-05 +4.081255E-04 +5.112174E-05 +2.753292E-05 +5.112174E-05 +7.011300E-03 
 +2.882524E-05 +3.620282E-04 -6.889037E-04 +3.620282E-04 +2.087739E-04 -2.314632E-04 -6.889037E-04 -2.314632E-04 +7.058706E-03 
 +4.295914E-04 +5.832373E-05 +1.373419E-04 +5.832373E-05 -1.507426E-04 -3.198258E-04 +1.373419E-04 -3.198258E-04 +7.195184E-03 
 +8.627366E-05 -3.239301E-04 -1.051710E-04 -3.239301E-04 +2.246072E-04 +1.083411E-05 -1.051710E-04 +1.083411E-05 +7.395967E-03 
 -1.250525E-04 -8.373127E-04 -2.126710E-04 -8.373127E-04 -6.150001E-04 -6.457171E-04 -2.126710E-04 -6.457171E-04 +7.804552E-03 
 -1.344850E-04 +7.469456E-05 +1.114253E-04 +7.469456E-05 +2.629500E-04 -5.700756E-04 +1.114253E-04 -5.700756E-04 +7.577630E-03 
 -2.222287E-04 -3.644250E-04 -1.785490E-04 -3.644250E-04 +4.082682E-05 -3.943230E-05 -1.785490E-04 -3.943230E-05 +7.489305E-03 
 +2.121349E-04 -6.974440E-04 -2.661830E-04 -6.974440E-04 +1.097263E-04 -3.152002E-04 -2.661830E-04 -3.152002E-04 +7.442779E-03 
 -8.131619E-05 +2.548046E-04 +2.510651E-04 +2.548046E-04 +2.486758E-06 +6.527744E-04 +2.510651E-04 +6.527744E-04 +7.450525E-03 
 +3.126044E-04 +4.753914E-04 +4.214697E-04 +4.753914E-04 -8.203979E-04 +1.741069E-04 +4.214697E-04 +1.741069E-04 +7.933756E-03 
 -6.157749E-04 -9.501230E-04 -2.701277E-04 -9.501230E-04 -5.101068E-05 -4.209773E-04 -2.701277E-04 -4.209773E-04 +8.132270E-03 
 -1.356214E-04 -4.593754E-04 +1.405093E-04 -4.593754E-04 +4.970694E-05 -1.361081E-04 +1.405093E-04 -1.361081E-04 +7.647789E-03 
 +1.579282E-05 -3.149724E-04 -1.237759E-04 -3.149724E-04 -4.830214E-04 -1.872637E-04 -1.237759E-04 -1.872637E-04 +7.792742E-03 
 -9.667934E-07 -6.465372E-04 +1.167973E-04 -6.465372E-04 +2.296332E-04 +5.879793E-04 +1.167973E-04 +5.879793E-04 +7.983571E-03 
 -1.225525E-04 -2.430261E-04 +4.254561E-04 -2.430261E-04 +2.077149E-04 -3.521403E-04 +4.254561E-04 -3.521403E-04 +7.459652E-03 
 +8.867091E-05 +4.803842E-04 -5.747502E-05 +4.803842E-04 -3.486155E-04 -7.648408E-07 -5.747502E-05 -7.648408E-07 +7.597054E-03 
 -1.122869E-04 -3.056506E-04 +2.384412E-04 -3.056506E-04 +2.934175E-04 -1.063752E-05 +2.384412E-04 -1.063752E-05 +7.163511E-03 
 -2.779130E-05 +1.972957E-04 +9.602700E-05 +1.972957E-04 +2.650222E-04 +5.868839E-04 +9.602700E-05 +5.868839E-04 +7.209500E-03 
 +1.628261E-04 +1.050227E-03 -2.488772E-04 +1.050227E-03 -1.687790E-04 -2.823827E-05 -2.488772E-04 -2.823827E-05 +7.751695E-03 
 -5.427107E-04 -1.061951E-03 +2.912181E-04 -1.061951E-03 -2.791504E-04 +1.617652E-04 +2.912181E-04 +1.617652E-04 +8.147355E-03 
 -3.296295E-04 +7.845120E-04 +4.240170E-04 +7.845120E-04 +5.507858E-05 -2.811169E-04 +4.240170E-04 -2.811169E-04 +7.759544E-03 
 +1.341435E-04 -4.651129E-04 +4.146992E-05 -4.651129E-04 +3.982929E-04 -2.660087E-05 +4.146992E-05 -2.660087E-05 +7.173847E-03 
 +1.871743E-04 +1.001486E-03 +1.657769E-04 +1.001486E-03 -1.483006E-04 +7.857347E-05 +1.657769E-04 +7.857347E-05 +7.535641E-03 
 +1.159654E-04 -4.811460E-04 +3.977451E-04 -4.811460E-04 +1.026792E-05 -2.863176E-04 +3.977451E-04 -2.863176E-04 +7.819523E-03 
 +1.175834E-04 +1.534239E-04 +3.851816E-05 +1.534239E-04 +2.170119E-04 -1.386768E-04 +3.851816E-05 -1.386768E-04 +7.353477E-03 
 +1.824699E-04 -3.494275E-05 -3.662314E-05 -3.494275E-05 -4.088638E-04 +8.165237E-04 -3.662314E-05 +8.165237E-04 +7.052740E-03 
 +2.290587E-04 -2.261178E-04 +5.192069E-04 -2.261178E-04 +3.020317E-05 +3.930113E-05 +5.192069E-04 +3.930113E-05 +7.005058E-03 
 -5.899341E-05 -7.705956E-04 -1.420623E-04 -7.705956E-04 +8.608852E-05 +5.609551E-04 -1.420623E-04 +5.609551E-04 +7.210265E-03 
 -4.847717E-04 +2.359514E-04 -8.409943E-05 +2.359514E-04 +1.076389E-04 -5.190903E-04 -8.409943E-05 -5.190903E-04 +7.484684E-03 
 -4.741366E-04 +1.397346E-04 -3.973293E-05 +1.397346E-04 +1.616477E-04 -1.575396E-04 -3.973293E-05 -1.575396E-04 +7.605275E-03 
 -1.850073E-05 -3.465653E-04 -1.405793E-04 -3.465653E-04 -2.246491E-04 +1.093717E-04 -1.405793E-04 +1.093717E-04 +7.654251E-03 
 +2.707226E-04 -5.497745E-04 -5.457167E-04 -5.497745E-04 -2.304394E-04 +3.732611E-05 -5.457167E-04 +3.732611E-05 +7.514675E-03 
 +4.057779E-04 -6.977123E-04 +1.027754E-04 -6.977123E-04 -2.260179E-04 -3.606328E-04 +1.027754E-04 -3.606328E-04 +7.457017E-03 
 +5.604058E-05 +2.322082E-04 +3.870825E-04 +2.322082E-04 +3.840885E-05 +1.804165E-04 +3.870825E-04 +1.804165E-04 +7.369981E-03 
 +2.088856E-04 +3.251023E-04 +5.908228E-05 +3.251023E-04 +2.574031E-04 +7.602681E-04 +5.908228E-05 +7.602681E-04 +7.386687E-03 
 +3.384148E-04 -1.395950E-04 +3.727472E-04 -1.395950E-04 +4.535036E-05 +7.651734E-06 +3.727472E-04 +7.651734E-06 +7.484948E-03 
 +1.374956E-05 +3.283621E-05 +8.339816E-05 +3.283621E-05 -5.628722E-05 +3.483897E-04 +8.339816E-05 +3.483897E-04 +7.607958E-03 
 -5.017263E-05 -1.848263E-04 -3.757709E-06 -1.848263E-04 -1.402514E-04 +8.110193E-05 -3.757709E-06 +8.110193E-05 +7.526771E-03 
 -2.372355E-05 +1.603184E-04 +1.447405E-04 +1.603184E-04 +4.527768E-04 -1.702911E-04 +1.447405E-04 -1.702911E-04 +7.480565E-03 
 +1.744311E-04 +2.151425E-04 -8.787449E-04 +2.151425E-04 -3.174384E-04 +4.769241E-04 -8.787449E-04 +4.769241E-04 +7.419277E-03 
 +3.240573E-04 +1.383792E-04 -3.391764E-04 +1.383792E-04 -1.447111E-04 +6.210252E-04 -3.391764E-04 +6.210252E-04 +6.884824E-03 
 -1.814688E-04 +6.359778E-04 +2.125371E-05 +6.359778E-04 +7.418827E-05 -2.842052E-04 +2.125371E-05 -2.842052E-04 +7.211367E-03 
 -6.295014E-04 -4.241593E-04 -1.330123E-05 -4.241593E-04 +2.104586E-04 -1.313478E-04 -1.330123E-05 -1.313478E-04 +7.935777E-03 
 -3.104715E-04 +3.273585E-04 +5.622013E-04 +3.273585E-04 -2.201606E-04 +3.441919E-04 +5.622013E-04 +3.441919E-04 +7.486481E-03 
 +4.390207E-04 +1.770575E-04 +6.047450E-04 +1.770575E-04 +3.525752E-04 +8.527421E-05 +6.047450E-04 +8.527421E-05 +7.118293E-03 
 +2.146249E-04 +1.408525E-04 +6.304512E-05 +1.408525E-04 -1.755935E-04 +2.751938E-04 +6.304512E-05 +2.751938E-04 +7.612679E-03 
 -1.231608E-05 -2.943093E-04 -4.646378E-04 -2.943093E-04 +2.796027E-04 -3.436686E-04 -4.646378E-04 -3.436686E-04 +7.570936E-03 
 +3.564633E-05 -6.452618E-05 -3.347626E-04 -6.452618E-05 -4.394290E-04 +2.734883E-04 -3.347626E-04 +2.734883E-04 +7.896877E-03 
 -3.297403E-04 +3.630745E-05 +3.316941E-04 +3.630745E-05 +4.356378E-05 +2.598235E-04 +3.316941E-04 +2.598235E-04 +7.655843E-03 
 -4.275948E-04 +2.876024E-04 +2.087587E-04 +2.876024E-04 +6.561703E-05 +4.935022E-04 +2.087587E-04 +4.935022E-04 +7.651821E-03 
 +6.607439E-05 -4.631465E-04 +2.053092E-04 -4.631465E-04 -9.458220E-05 -7.546652E-05 +2.053092E-04 -7.546652E-05 +7.456036E-03 
 +3.582656E-04 -4.375561E-04 -1.812392E-04 -4.375561E-04 +2.255667E-04 +5.582889E-05 -1.812392E-04 +5.582889E-05 +7.016958E-03 
 +3.142394E-04 +6.040858E-04 -1.477333E-04 +6.040858E-04 +5.718941E-04 +1.409815E-04 -1.477333E-04 +1.409815E-04 +6.845247E-03 
 +3.769788E-05 -9.775319E-04 +2.937205E-04 -9.775319E-04 -6.894016E-04 +3.733740E-04 +2.937205E-04 +3.733740E-04 +7.737468E-03 
 -2.339528E-04 -8.816180E-05 -4.367492E-04 -8.816180E-05 +4.369567E-04 +4.967809E-04 -4.367492E-04 +4.967809E-04 +7.695153E-03 
 -3.195483E-05 +8.914560E-04 -1.377080E-04 +8.914560E-04 +6.735117E-05 -3.987992E-05 -1.377080E-04 -3.987992E-05 +6.911403E-03 
 +3.071913E-04 +2.270373E-04 +2.278452E-04 +2.270373E-04 -2.073405E-05 +4.712750E-04 +2.278452E-04 +4.712750E-04 +7.279686E-03 
 -5.908411E-05 -7.469660E-04 -1.735520E-05 -7.469660E-04 +1.252266E-04 -2.496120E-04 -1.735520E-05 -2.496120E-04 +7.451490E-03 
 -4.707034E-04 +7.578618E-04 +1.876739E-04 +7.578618E-04 -9.560067E-05 +3.909960E-04 +1.876739E-04 +3.909960E-04 +7.825561E-03 
 +2.983222E-04 -7.886169E-04 +1.286834E-04 -7.886169E-04 -3.296511E-04 +3.239215E-04 +1.286834E-04 +3.239215E-04 +7.759335E-03 
 +1.038757E-04 +1.914099E-04 +3.025162E-04 +1.914099E-04 +3.694256E-04 -1.831636E-04 +3.025162E-04 -1.831636E-04 +7.296096E-03 
 +2.778849E-04 +7.785920E-04 -1.164045E-04 +7.785920E-04 -4.092974E-04 -9.121157E-06 -1.164045E-04 -9.121157E-06 +7.716051E-03 
 +1.955655E-04 +2.277272E-04 -3.009697E-04 +2.277272E-04 -1.725428E-05 -2.073355E-04 -3.009697E-04 -2.073355E-04 +7.500238E-03 
 -1.847725E-04 +3.755962E-05 +1.693562E-04 +3.755962E-05 +1.586135E-04 -1.007256E-04 +1.693562E-04 -1.007256E-04 +7.265866E-03 
 +1.981759E-04 -2.895831E-04 +1.947890E-04 -2.895831E-04 -1.352264E-04 -6.119790E-04 +1.947890E-04 -6.119790E-04 +7.349568E-03 
 +4.173426E-04 +1.167939E-04 +2.036832E-04 +1.167939E-04 +1.916648E-04 -5.844408E-04 +2.036832E-04 -5.844408E-04 +7.177804E-03 
 +1.545522E-04 -1.673098E-04 +1.650853E-04 -1.673098E-04 +9.656614E-05 +4.706647E-05 +1.650853E-04 +4.706647E-05 +7.091992E-03 
 +4.698330E-04 -1.254655E-04 +6.037902E-04 -1.254655E-04 -1.130092E-04 -3.286425E-04 +6.037902E-04 -3.286425E-04 +7.320138E-03 
 -1.139236E-04 +2.689558E-04 +3.007581E-04 +2.689558E-04 +4.434841E-04 +7.781833E-04 +3.007581E-04 +7.781833E-04 +7.258619E-03 
 -2.710019E-04 +1.011431E-03 -3.149360E-04 +1.011431E-03 -4.257372E-04 +1.328467E-04 -3.149360E-04 +1.328467E-04 +7.598487E-03 
 +2.297732E-04 -7.079702E-05 +2.920940E-04 -7.079702E-05 -6.890289E-05 +2.640483E-04 +2.920940E-04 +2.640483E-04 +7.033235E-03 
 +1.871518E-04 -8.562407E-06 +6.460249E-06 -8.562407E-06 +2.151748E-04 -2.273733E-04 +6.460249E-06 -2.273733E-04 +7.409558E-03 
 -1.448389E-05 +1.366279E-04 -3.932807E-04 +1.366279E-04 -3.719886E-04 +2.284107E-04 -3.932807E-04 +2.284107E-04 +7.689243E-03 
 -3.251798E-04 +1.354526E-03 +5.788460E-05 +1.354526E-03 -4.192774E-04 +1.062761E-04 +5.788460E-05 +1.062761E-04 +8.033684E-03 
 -1.480011E-04 -1.100800E-03 -1.510022E-04 -1.100800E-03 +1.243217E-04 +1.010151E-04 -1.510022E-04 +1.010151E-04 +7.438774E-03 
 +3.905731E-04 -8.352331E-05 +2.486042E-04 -8.352331E-05 +3.894386E-04 -6.525550E-04 +2.486042E-04 -6.525550E-04 +7.527133E-03 
 +2.079967E-05 +1.226445E-03 +5.314568E-05 +1.226445E-03 -5.160408E-04 +4.215923E-04 +5.314568E-05 +4.215923E-04 +8.203137E-03 
 -1.843410E-04 +8.361982E-05 -1.963642E-04 +8.361982E-05 -1.309334E-05 -9.164308E-04 -1.963642E-04 -9.164308E-04 +7.562361E-03 
 -4.536018E-05 -2.793156E-04 -1.685175E-04 -2.793156E-04 +1.437672E-04 -5.972483E-04 -1.685175E-04 -5.972483E-04 +7.092346E-03 
 +3.700063E-05 -3.805049E-05 -6.159753E-04 -3.805049E-05 +2.886865E-04 -7.165740E-05 -6.159753E-04 -7.165740E-05 +7.105368E-03 
 +3.582882E-05 -1.934443E-04 -3.722818E-04 -1.934443E-04 -4.006062E-04 -2.106135E-04 -3.722818E-04 -2.106135E-04 +7.644187E-03 
 -4.577113E-04 +4.133866E-04 +3.815904E-04 +4.133866E-04 -2.375459E-04 -3.509954E-04 +3.815904E-04 -3.509954E-04 +7.848369E-03 
 -1.371460E-04 -2.460555E-04 +3.137361E-04 -2.460555E-04 +1.712854E-04 -1.644001E-04 +3.137361E-04 -1.644001E-04 +7.043813E-03 
 +9.334446E-06 +5.967105E-05 -2.617671E-04 +5.967105E-05 +1.648211E-04 +3.762867E-04 -2.617671E-04 +3.762867E-04 +7.468535E-03 
 -8.195847E-05 +7.335680E-04 -3.077532E-04 +7.335680E-04 -3.764268E-04 +8.299280E-05 -3.077532E-04 +8.299280E-05 +7.622560E-03 
 -3.452380E-04 +3.349775E-04 +6.255037E-05 +3.349775E-04 +1.213571E-04 -1.333915E-04 +6.255037E-05 -1.333915E-04 +7.697893E-03 
 -5.526735E-04 +7.530151E-04 -1.093971E-05 +7.530151E-04 +2.620191E-05 +9.924190E-05 -1.093971E-05 +9.924190E-05 +8.146474E-03 
 -5.586589E-04 -2.563708E-05 -1.393931E-04 -2.563708E-05 +4.823458E-04 +2.314514E-04 -1.393931E-04 +2.314514E-04 +7.718445E-03 
 -2.779952E-04 +5.519635E-04 -2.305410E-04 +5.519635E-04 +1.580336E-04 +9.127315E-04 -2.305410E-04 +9.127315E-04 +7.554896E-03 
 +2.278228E-04 -1.360607E-04 -1.641515E-04 -1.360607E-04 -2.118450E-04 +6.803193E-06 -1.641515E-04 +6.803193E-06 +7.477932E-03 
 +5.395839E-05 -8.027466E-05 +1.365711E-04 -8.027466E-05 -1.763745E-04 +6.243695E-06 +1.365711E-04 +6.243695E-06 +7.349781E-03 
 -1.024748E-04 +7.451660E-04 -1.162646E-05 +7.451660E-04 -1.589530E-04 -7.378000E-04 -1.162646E-05 -7.378000E-04 +7.885314E-03 
 +2.094818E-05 +1.753103E-04 +5.708159E-04 +1.753103E-04 +2.616930E-04 +5.643812E-04 +5.708159E-04 +5.643812E-04 +7.076606E-03 
 +4.618307E-04 +7.575941E-04 +5.515907E-04 +7.575941E-04 +1.775581E-04 +8.924121E-05 +5.515907E-04 +8.924121E-05 +7.304744E-03 
 -2.236501E-04 +4.642287E-04 -5.475805E-05 +4.642287E-04 -1.554467E-04 +3.386863E-05 -5.475805E-05 +3.386863E-05 +7.506812E-03 
 +1.397066E-04 -1.650113E-04 +2.032721E-04 -1.650113E-04 -1.726895E-04 -3.129093E-04 +2.032721E-04 -3.129093E-04 +7.312229E-03 
 +2.942559E-04 +3.732614E-04 +3.247772E-04 +3.732614E-04 +2.880794E-04 -1.816569E-04 +3.247772E-04 -1.816569E-04 +7.134155E-03 
 +1.920490E-04 +7.621786E-04 -1.858308E-04 +7.621786E-04 +1.252076E-04 -4.056107E-05 -1.858308E-04 -4.056107E-05 +7.202197E-03 
 +1.452925E-04 +2.768174E-04 -3.521728E-04 +2.768174E-04 -6.202846E-04 +3.379985E-04 -3.521728E-04 +3.379985E-04 +7.518735E-03 
 -2.219241E-04 +2.864737E-04 -2.404405E-05 +2.864737E-04 +3.844615E-04 -5.917201E-05 -2.404405E-05 -5.917201E-05 +7.664349E-03 
 +4.888726E-04 +3.151213E-04 -9.218517E-05 +3.151213E-04 -3.830217E-04 +3.738259E-05 -9.218517E-05 +3.738259E-05 +7.647014E-03 
 +2.474168E-04 +8.207293E-05 -2.551752E-04 +8.207293E-05 +3.942275E-04 -1.402431E-04 -2.551752E-04 -1.402431E-04 +7.388837E-03 
 -2.053321E-04 -1.746569E-04 -1.193655E-04 -1.746569E-04 -1.998669E-04 +1.080947E-04 -1.193655E-04 +1.080947E-04 +7.521716E-03 
 -3.006360E-04 -6.699848E-04 +3.381494E-04 -6.699848E-04 +1.582896E-05 +2.821073E-04 +3.381494E-04 +2.821073E-04 +8.124526E-03 
 +1.009778E-04 +9.230198E-04 +3.253839E-04 +9.230198E-04 +2.682851E-04 -1.858767E-04 +3.253839E-04 -1.858767E-04 +7.541625E-03 
 +6.263179E-04 -1.973123E-04 -4.595622E-05 -1.973123E-04 -3.363700E-04 -4.435470E-05 -4.595622E-05 -4.435470E-05 +7.602599E-03 
 -1.054764E-04 +6.848929E-04 +1.884114E-04 +6.848929E-04 +1.972774E-05 +1.299310E-04 +1.884114E-04 +1.299310E-04 +7.508981E-03 
 -2.400065E-04 -5.910497E-05 +2.086888E-04 -5.910497E-05 +4.848636E-04 +2.563946E-04 +2.086888E-04 +2.563946E-04 +7.225327E-03 
 -7.790021E-04 -2.682594E-05 -1.236234E-04 -2.682594E-05 -6.944573E-05 -1.471890E-04 -1.236234E-04 -1.471890E-04 +7.720956E-03 
 -7.628435E-04 -2.635197E-04 -3.805625E-04 -2.635197E-04 +4.256301E-04 -5.332797E-04 -3.805625E-04 -5.332797E-04 +7.581935E-03 
 +2.979311E-04 -3.495394E-04 -4.030152E-04 -3.495394E-04 -6.902930E-04 -2.091643E-06 -4.030152E-04 -2.091643E-06 +7.740191E-03 
 -9.414339E-06 -8.152680E-04 +3.395355E-04 -8.152680E-04 -1.994473E-04 -1.028653E-04 +3.395355E-04 -1.028653E-04 +7.489419E-03 
 -5.169166E-05 -3.950671E-04 -8.132317E-05 -3.950671E-04 +5.401577E-04 -1.079070E-04 -8.132317E-05 -1.079070E-04 +6.802769E-03 
 +2.562698E-04 +7.213097E-04 -8.711363E-04 +7.213097E-04 -5.041685E-04 -2.985363E-04 -8.711363E-04 -2.985363E-04 +7.535427E-03 
 +3.248622E-04 +3.247362E-04 -4.526592E-04 +3.247362E-04 +3.849790E-04 -2.573549E-04 -4.526592E-04 -2.573549E-04 +7.357719E-03 
 +1.298754E-04 +2.212730E-04 -6.535182E-05 +2.212730E-04 +6.509536E-04 +3.494312E-04 -6.535182E-05 +3.494312E-04 +7.067855E-03 
 +5.149458E-04 +2.560469E-04 -2.666876E-04 +2.560469E-04 -6.362823E-04 +1.103638E-04 -2.666876E-04 +1.103638E-04 +7.633540E-03 
 -4.802650E-05 -7.672691E-04 -3.201205E-04 -7.672691E-04 +3.573325E-04 +2.212503E-04 -3.201205E-04 +2.212503E-04 +7.730324E-03 
 +2.842756E-04 -4.593140E-04 -6.752779E-04 -4.593140E-04 +2.779089E-04 +4.174182E-04 -6.752779E-04 +4.174182E-04 +7.046951E-03 
 +3.793814E-04 +5.443664E-04 -2.978187E-04 +5.443664E-04 -3.972266E-04 -1.767433E-04 -2.978187E-04 -1.767433E-04 +7.026364E-03 
 -1.419868E-04 +2.726617E-04 +3.566599E-04 +2.726617E-04 -8.251372E-05 +2.894193E-04 +3.566599E-04 +2.894193E-04 +7.602896E-03 
 -8.328314E-05 +1.915842E-04 -2.511509E-04 +1.915842E-04 -3.091535E-04 +2.891429E-04 -2.511509E-04 +2.891429E-04 +7.482323E-03 
 -3.131739E-04 +2.312759E-04 -1.046564E-04 +2.312759E-04 +5.727924E-04 +4.859158E-04 -1.046564E-04 +4.859158E-04 +6.959434E-03 
 +2.762027E-04 -6.584884E-04 +3.349415E-04 -6.584884E-04 +2.860929E-06 +8.084896E-04 +3.349415E-04 +8.084896E-04 +7.107945E-03 
 +5.596865E-04 -1.279258E-04 +8.693783E-05 -1.279258E-04 -3.164299E-04 -5.505281E-05 +8.693783E-05 -5.505281E-05 +7.199323E-03 
 +3.372721E-05 +4.258456E-04 +1.964378E-04 +4.258456E-04 -2.973168E-05 -2.998088E-04 +1.964378E-04 -2.998088E-04 +7.188247E-03 
 +4.026541E-04 +1.105773E-04 +1.787245E-04 +1.105773E-04 +1.479148E-04 +3.424276E-04 +1.787245E-04 +3.424276E-04 +6.845491E-03 
 +4.181063E-04 +1.352696E-04 +2.224054E-04 +1.352696E-04 -3.667089E-06 +1.232574E-04 +2.224054E-04 +1.232574E-04 +7.257811E-03 
 -1.635464E-04 -9.171303E-04 -5.194030E-04 -9.171303E-04 +1.925524E-04 +2.350192E-04 -5.194030E-04 +2.350192E-04 +7.705386E-03 
 -6.209979E-04 -7.422969E-04 -2.994216E-04 -7.422969E-04 +1.887210E-04 +1.812379E-04 -2.994216E-04 +1.812379E-04 +7.778314E-03 
 -3.246495E-04 -4.783123E-04 +2.123956E-05 -4.783123E-04 -2.892351E-04 -1.430940E-04 +2.123956E-05 -1.430940E-04 +7.777556E-03 
 -1.421178E-04 +1.938814E-04 +4.746367E-04 +1.938814E-04 +5.254868E-05 +3.761741E-04 +4.746367E-04 +3.761741E-04 +7.450875E-03 
 -1.014468E-04 +2.641647E-04 +1.046958E-03 +2.641647E-04 -1.798676E-04 +4.039707E-05 +1.046958E-03 +4.039707E-05 +7.581518E-03 
 -5.127285E-04 -4.103002E-04 +7.961921E-04 -4.103002E-04 +9.686883E-05 -5.376629E-05 +7.961921E-04 -5.376629E-05 +8.069756E-03 
 -2.242344E-04 +2.067714E-04 +5.102327E-04 +2.067714E-04 -2.841952E-04 -6.722596E-05 +5.102327E-04 -6.722596E-05 +7.655174E-03 
 -3.118574E-04 -2.640216E-04 +3.616958E-04 -2.640216E-04 -1.273401E-05 +6.357012E-04 +3.616958E-04 +6.357012E-04 +7.662171E-03 
 +2.241033E-05 +4.302470E-05 -1.925728E-04 +4.302470E-05 -1.530020E-04 -6.854542E-04 -1.925728E-04 -6.854542E-04 +7.477447E-03 
 +9.461945E-05 -3.269678E-04 -4.834619E-05 -3.269678E-04 -9.129195E-06 -3.106986E-05 -4.834619E-05 -3.106986E-05 +7.046400E-03 
 +3.160793E-05 -4.544922E-04 +4.327482E-05 -4.544922E-04 +4.887725E-04 -7.281087E-04 +4.327482E-05 -7.281087E-04 +7.076775E-03 
 +1.475589E-04 -8.644120E-04 -7.107239E-04 -8.644120E-04 -1.425853E-04 +1.190788E-04 -7.107239E-04 +1.190788E-04 +7.656823E-03 
 +1.537345E-05 +1.396699E-05 -1.555660E-04 +1.396699E-05 -3.992044E-04 -1.751999E-04 -1.555660E-04 -1.751999E-04 +8.005096E-03 
 -3.083644E-04 -4.608516E-04 -1.495360E-04 -4.608516E-04 -2.768871E-05 -1.905088E-04 -1.495360E-04 -1.905088E-04 +7.540685E-03 
 -2.035961E-04 -1.495372E-04 -1.240728E-04 -1.495372E-04 +1.659694E-04 -3.848229E-04 -1.240728E-04 -3.848229E-04 +7.504092E-03 
 -5.298494E-04 +3.382947E-04 -3.628787E-04 +3.382947E-04 +3.633448E-04 +2.764137E-04 -3.628787E-04 +2.764137E-04 +8.125011E-03 
 -1.260635E-04 -2.873671E-04 +4.041810E-04 -2.873671E-04 -2.522878E-04 -1.543009E-04 +4.041810E-04 -1.543009E-04 +8.007788E-03 
 +4.906320E-04 -5.621694E-04 +8.031870E-04 -5.621694E-04 +1.282844E-04 -1.157607E-04 +8.031870E-04 -1.157607E-04 +7.248166E-03 
 +6.944184E-05 -2.161996E-04 +1.036242E-04 -2.161996E-04 -1.863199E-04 +3.398471E-04 +1.036242E-04 +3.398471E-04 +7.430661E-03 
 -5.079241E-04 +7.882426E-04 +4.676069E-04 +7.882426E-04 +2.280244E-05 +1.630387E-04 +4.676069E-04 +1.630387E-04 +7.786282E-03 
 -4.153770E-05 -4.380165E-04 -1.462235E-04 -4.380165E-04 -7.525767E-05 +2.727095E-04 -1.462235E-04 +2.727095E-04 +7.528402E-03 
 -6.248503E-05 -2.112036E-04 +3.784692E-04 -2.112036E-04 +8.234382E-05 +9.987293E-06 +3.784692E-04 +9.987293E-06 +7.459540E-03 
 -4.876363E-06 -2.213891E-04 +1.775078E-04 -2.213891E-04 +2.544248E-04 -1.829353E-04 +1.775078E-04 -1.829353E-04 +7.057546E-03 
 +1.080569E-04 +1.293496E-04 -3.439209E-04 +1.293496E-04 -2.394166E-04 -6.228353E-05 -3.439209E-04 -6.228353E-05 +7.593055E-03 
 -8.250713E-05 +9.402289E-04 +5.127547E-04 +9.402289E-04 -2.517611E-04 -5.950442E-04 +5.127547E-04 -5.950442E-04 +7.635488E-03 
 +4.466618E-04 +7.587142E-05 -4.747565E-04 +7.587142E-05 -3.687159E-06 -7.465841E-04 -4.747565E-04 -7.465841E-04 +7.228863E-03 
 -1.292170E-04 +2.690991E-05 -5.983690E-04 +2.690991E-05 +1.023585E-04 -2.166840E-04 -5.983690E-04 -2.166840E-04 +7.312750E-03 
 -4.119441E-04 -6.611273E-04 +3.444084E-04 -6.611273E-04 +1.531470E-04 +2.804233E-04 +3.444084E-04 +2.804233E-04 +7.735514E-03 
 +7.896187E-06 +4.059012E-05 +4.056227E-04 +4.059012E-05 -2.117468E-05 +1.899864E-04 +4.056227E-04 +1.899864E-04 +7.510240E-03 
 +2.177549E-04 -9.825689E-04 +3.020338E-04 -9.825689E-04 -1.742104E-04 +3.126705E-04 +3.020338E-04 +3.126705E-04 +7.463533E-03 
 +2.339672E-04 -6.427359E-05 +2.665326E-04 -6.427359E-05 +2.055649E-04 +3.479288E-04 +2.665326E-04 +3.479288E-04 +7.443450E-03 
 -6.680547E-05 +9.515217E-05 -1.461747E-04 +9.515217E-05 +2.430555E-04 +3.196218E-04 -1.461747E-04 +3.196218E-04 +7.522902E-03 
 +2.649579E-04 +1.377278E-04 -3.007252E-04 +1.377278E-04 -2.346908E-04 +6.927881E-06 -3.007252E-04 +6.927881E-06 +7.473567E-03 
 +3.404113E-04 +1.107809E-04 +2.307051E-04 +1.107809E-04 -1.182676E-04 +4.022682E-04 +2.307051E-04 +4.022682E-04 +7.143418E-03 
 -2.244472E-04 -5.179293E-04 +3.710169E-04 -5.179293E-04 -1.441463E-04 +2.481511E-04 +3.710169E-04 +2.481511E-04 +7.488209E-03 
 +6.565377E-05 -2.341469E-04 -1.805730E-05 -2.341469E-04 -1.252629E-04 -4.193057E-04 -1.805730E-05 -4.193057E-04 +7.213218E-03 
 +3.060543E-04 +1.950714E-05 -3.165862E-04 +1.950714E-05 +2.434020E-04 -3.581042E-04 -3.165862E-04 -3.581042E-04 +6.836168E-03 
 -3.759054E-05 -3.453644E-04 -2.202804E-04 -3.453644E-04 +2.747199E-04 -1.250028E-04 -2.202804E-04 -1.250028E-04 +6.846121E-03 
 +7.685497E-05 -1.463433E-04 +3.341283E-04 -1.463433E-04 +1.929369E-04 -3.909347E-04 +3.341283E-04 -3.909347E-04 +7.432932E-03 
 +2.569346E-04 +3.175210E-04 +3.150409E-04 +3.175210E-04 -1.952541E-04 +3.122517E-04 +3.150409E-04 +3.122517E-04 +7.613097E-03 
 -2.765214E-04 +5.325908E-04 -1.664699E-04 +5.325908E-04 -1.000394E-04 -1.770486E-04 -1.664699E-04 -1.770486E-04 +7.677610E-03 
 +8.461322E-05 -6.573253E-04 +6.849903E-04 -6.573253E-04 -4.691215E-04 +3.549495E-05 +6.849903E-04 +3.549495E-05 +7.684600E-03 
 +2.874256E-04 +1.190054E-04 +9.497930E-05 +1.190054E-04 +4.874952E-04 -6.358160E-04 +9.497930E-05 -6.358160E-04 +7.052907E-03 
 +4.452450E-04 +3.794333E-04 +3.636861E-04 +3.794333E-04 -3.008104E-04 +2.074721E-04 +3.636861E-04 +2.074721E-04 +7.487794E-03 
 +2.103185E-04 -3.589508E-04 +1.265489E-04 -3.589508E-04 +3.301977E-04 -2.010986E-04 +1.265489E-04 -2.010986E-04 +7.140845E-03 
 +2.756995E-04 +4.166455E-04 -1.536590E-04 +4.166455E-04 -5.959677E-04 +1.409572E-04 -1.536590E-04 +1.409572E-04 +7.466746E-03 
 +8.872962E-05 -2.544399E-04 +3.934970E-04 -2.544399E-04 +3.600372E-05 -1.226938E-04 +3.934970E-04 -1.226938E-04 +7.823830E-03 
 -1.706913E-04 +5.829937E-04 +1.269281E-04 +5.829937E-04 +3.215687E-04 -1.770868E-05 +1.269281E-04 -1.770868E-05 +7.214058E-03 
 +1.932758E-04 -2.107083E-04 +2.769775E-04 -2.107083E-04 +5.709333E-05 -3.319471E-04 +2.769775E-04 -3.319471E-04 +6.968618E-03 
 +5.219913E-05 +2.793339E-04 +5.027920E-04 +2.793339E-04 +6.570249E-05 -4.686249E-04 +5.027920E-04 -4.686249E-04 +7.214323E-03 
 -1.157118E-04 -7.433855E-04 -6.090727E-05 -7.433855E-04 +2.291797E-04 -3.805554E-04 -6.090727E-05 -3.805554E-04 +7.172088E-03 
 -1.823097E-05 +6.619747E-04 -2.173408E-04 +6.619747E-04 +1.790777E-04 +4.316180E-06 -2.173408E-04 +4.316180E-06 +7.284561E-03 
 -7.934118E-05 -7.063643E-04 +1.474398E-04 -7.063643E-04 -4.423069E-04 +3.193272E-05 +1.474398E-04 +3.193272E-05 +7.688668E-03 
 -7.368948E-05 -3.108065E-04 +3.121908E-04 -3.108065E-04 +3.810982E-04 -3.556201E-04 +3.121908E-04 -3.556201E-04 +7.701423E-03 
 +8.435627E-05 +5.543709E-04 -2.539765E-05 +5.543709E-04 -2.145616E-04 +5.143597E-04 -2.539765E-05 +5.143597E-04 +7.837335E-03 
 +2.481378E-04 -6.496605E-05 -1.924527E-04 -6.496605E-05 -3.514313E-04 -5.916514E-04 -1.924527E-04 -5.916514E-04 +7.646693E-03 
 +4.506861E-04 -2.070656E-04 -3.188977E-04 -2.070656E-04 -3.593760E-04 -5.507475E-04 -3.188977E-04 -5.507475E-04 +7.912757E-03 
 -2.194970E-04 +3.705771E-04 -1.269185E-04 +3.705771E-04 +3.460979E-04 +1.651715E-04 -1.269185E-04 +1.651715E-04 +7.768136E-03 
 -1.545594E-04 -6.919584E-04 +4.700198E-04 -6.919584E-04 +5.229946E-04 -2.772142E-04 +4.700198E-04 -2.772142E-04 +7.405994E-03 
 +2.552351E-04 -1.096465E-04 -1.430260E-04 -1.096465E-04 -1.624882E-04 -2.907105E-04 -1.430260E-04 -2.907105E-04 +7.223162E-03 
 +1.035237E-05 +1.216436E-04 -2.019752E-04 +1.216436E-04 +3.219808E-05 -2.038022E-04 -2.019752E-04 -2.038022E-04 +7.373482E-03 
 +2.341039E-04 +1.812640E-04 -8.081240E-04 +1.812640E-04 -2.255005E-04 -1.234665E-04 -8.081240E-04 -1.234665E-04 +7.419460E-03 
 +6.905637E-05 -5.842643E-04 -5.317224E-04 -5.842643E-04 +1.486546E-04 -4.755816E-05 -5.317224E-04 -4.755816E-05 +7.174834E-03 
 +1.258540E-04 -4.792431E-04 +3.931219E-04 -4.792431E-04 -1.848894E-04 +1.651736E-04 +3.931219E-04 +1.651736E-04 +7.519118E-03 
 +3.434396E-04 +1.026967E-03 +1.986209E-04 +1.026967E-03 +3.987464E-05 +3.531647E-04 +1.986209E-04 +3.531647E-04 +7.168331E-03 
 -1.063521E-04 -9.585620E-04 +6.208438E-04 -9.585620E-04 +8.196948E-05 +1.970487E-04 +6.208438E-04 +1.970487E-04 +7.650297E-03 
 +2.902236E-04 -4.253188E-05 -2.464695E-05 -4.253188E-05 +1.060326E-05 +3.332898E-04 -2.464695E-05 +3.332898E-04 +7.462133E-03 
 +3.269230E-04 +1.409772E-04 -5.752628E-04 +1.409772E-04 +1.150729E-04 +9.496731E-05 -5.752628E-04 +9.496731E-05 +7.119024E-03 
 +7.054510E-05 +7.068056E-04 +1.847965E-04 +7.068056E-04 -3.834645E-04 +3.891645E-04 +1.847965E-04 +3.891645E-04 +7.792206E-03 
 +4.248237E-05 -5.695860E-05 +7.177137E-04 -5.695860E-05 +5.872817E-05 -1.479232E-04 +7.177137E-04 -1.479232E-04 +7.839555E-03 
 +1.314981E-04 -7.898304E-04 +3.152500E-04 -7.898304E-04 +1.775777E-04 +6.366645E-05 +3.152500E-04 +6.366645E-05 +7.525470E-03 
 -1.759821E-04 -3.841474E-04 -1.876737E-04 -3.841474E-04 +8.855287E-05 +2.602393E-05 -1.876737E-04 +2.602393E-05 +7.578852E-03 
 -7.951802E-05 +3.944174E-04 -1.453916E-04 +3.944174E-04 -2.591614E-05 -2.117299E-04 -1.453916E-04 -2.117299E-04 +7.740772E-03 
 +2.392768E-04 -6.530417E-04 +3.083372E-04 -6.530417E-04 -2.421808E-04 +1.754377E-04 +3.083372E-04 +1.754377E-04 +7.378555E-03 
 +2.116603E-04 -5.280798E-04 -2.168740E-04 -5.280798E-04 +2.562777E-04 -3.421159E-04 -2.168740E-04 -3.421159E-04 +7.287055E-03 
 +1.591851E-04 +3.743166E-04 +5.147562E-05 +3.743166E-04 -6.287440E-05 -1.276465E-05 +5.147562E-05 -1.276465E-05 +7.308917E-03 
 +1.653129E-04 -4.579644E-04 -2.831121E-05 -4.579644E-04 -4.622210E-04 +1.258912E-04 -2.831121E-05 +1.258912E-04 +7.684926E-03 
 +8.113024E-05 +7.776049E-04 -4.510919E-04 +7.776049E-04 +6.666181E-05 -2.355881E-05 -4.510919E-04 -2.355881E-05 +7.478212E-03 
 -2.142655E-04 +8.840154E-05 -2.650663E-04 +8.840154E-05 +3.335352E-04 -3.714375E-05 -2.650663E-04 -3.714375E-05 +7.338423E-03 
 -7.590640E-05 -8.961272E-04 -2.548037E-04 -8.961272E-04 -1.052098E-04 -9.827365E-06 -2.548037E-04 -9.827365E-06 +7.413692E-03 
 -2.650632E-04 -2.734096E-04 +5.794648E-05 -2.734096E-04 +2.317837E-05 -2.666203E-04 +5.794648E-05 -2.666203E-04 +7.684323E-03 
 -3.405033E-04 -6.567357E-04 -2.897309E-04 -6.567357E-04 -2.430798E-04 -8.327532E-05 -2.897309E-04 -8.327532E-05 +7.482436E-03 
 -8.408252E-05 -1.688536E-04 -3.379697E-04 -1.688536E-04 +4.191058E-04 +1.731031E-04 -3.379697E-04 +1.731031E-04 +7.524024E-03 
 -2.661508E-04 -1.618474E-03 -5.321089E-04 -1.618474E-03 -2.705159E-06 -3.262313E-04 -5.321089E-04 -3.262313E-04 +7.969486E-03 
 -1.090416E-04 +3.637602E-04 -2.529882E-04 +3.637602E-04 -1.531331E-04 -4.499286E-04 -2.529882E-04 -4.499286E-04 +7.775935E-03 
 +8.115455E-05 +1.087589E-03 -1.925147E-04 +1.087589E-03 -2.471147E-04 -1.082107E-04 -1.925147E-04 -1.082107E-04 +7.939978E-03 
 +4.454523E-04 -6.656711E-05 -2.394595E-04 -6.656711E-05 +1.785776E-04 -4.330127E-04 -2.394595E-04 -4.330127E-04 +7.009474E-03 
 +2.718780E-04 -2.324276E-04 +9.198931E-05 -2.324276E-04 +3.286431E-04 -2.411784E-04 +9.198931E-05 -2.411784E-04 +6.908459E-03 
 +1.486284E-04 -9.029460E-05 -2.162972E-04 -9.029460E-05 -5.086580E-05 -5.859790E-04 -2.162972E-04 -5.859790E-04 +7.331440E-03 
 +1.761971E-04 +2.141149E-04 +4.097135E-04 +2.141149E-04 -3.215986E-04 +2.503224E-04 +4.097135E-04 +2.503224E-04 +7.350305E-03 
 -1.782834E-04 -4.012637E-04 +2.393148E-04 -4.012637E-04 +2.136153E-04 -5.847384E-05 +2.393148E-04 -5.847384E-05 +7.550085E-03 
 +5.055461E-06 -1.131569E-03 +3.698665E-05 -1.131569E-03 +8.941160E-06 -5.796276E-05 +3.698665E-05 -5.796276E-05 +7.331282E-03 
 +1.734978E-04 -3.996090E-04 +1.002935E-05 -3.996090E-04 -9.785658E-05 -1.110058E-04 +1.002935E-05 -1.110058E-04 +7.540614E-03 
 -1.441018E-04 -6.575470E-04 +2.795760E-04 -6.575470E-04 +1.289260E-04 +4.377256E-04 +2.795760E-04 +4.377256E-04 +7.448853E-03 
 +1.826192E-04 +9.676320E-04 +3.816061E-04 +9.676320E-04 -2.808263E-04 -1.962495E-06 +3.816061E-04 -1.962495E-06 +7.375706E-03 
 +3.334557E-04 +9.519130E-05 +1.072817E-04 +9.519130E-05 +1.021120E-04 +4.151220E-04 +1.072817E-04 +4.151220E-04 +7.635858E-03 
 -5.865149E-05 +1.078779E-03 -5.406833E-04 +1.078779E-03 -2.462582E-04 -9.753085E-05 -5.406833E-04 -9.753085E-05 +7.601274E-03 
 -1.239612E-04 -1.016669E-03 -1.948715E-04 -1.016669E-03 +1.914939E-04 +1.415836E-04 -1.948715E-04 +1.415836E-04 +7.080057E-03 
 -8.175542E-05 +6.674000E-04 +1.358351E-04 +6.674000E-04 +2.234636E-04 -1.913359E-05 +1.358351E-04 -1.913359E-05 +7.486803E-03 
 -1.872233E-04 -4.776223E-04 -2.316824E-04 -4.776223E-04 -1.339135E-04 +1.318075E-04 -2.316824E-04 +1.318075E-04 +7.631788E-03 
 -1.441747E-04 -4.939727E-04 -2.389900E-04 -4.939727E-04 -1.959209E-04 +4.569816E-05 -2.389900E-04 +4.569816E-05 +7.995883E-03 
 -1.441251E-04 +2.438188E-04 -5.025115E-04 +2.438188E-04 -1.429210E-04 -1.623734E-04 -5.025115E-04 -1.623734E-04 +7.683124E-03 
 -6.482922E-04 -1.173378E-04 -1.140753E-04 -1.173378E-04 +2.433387E-04 +3.770333E-04 -1.140753E-04 +3.770333E-04 +7.644069E-03 
 -4.052139E-04 +1.579393E-04 +3.911972E-04 +1.579393E-04 +5.583530E-05 +6.034785E-04 +3.911972E-04 +6.034785E-04 +7.657365E-03 
 +6.140250E-05 +9.568346E-05 +3.085525E-04 +9.568346E-05 +9.545096E-06 -4.042807E-04 +3.085525E-04 -4.042807E-04 +7.305958E-03 
 +9.427401E-05 -1.146072E-04 +9.944580E-05 -1.146072E-04 -3.276066E-04 -2.818322E-04 +9.944580E-05 -2.818322E-04 +7.357195E-03 
 +3.410520E-04 -2.809700E-04 -5.412062E-04 -2.809700E-04 +5.080042E-05 -5.763481E-05 -5.412062E-04 -5.763481E-05 +6.997603E-03 
 +4.386342E-04 +7.883308E-04 -2.434434E-04 +7.883308E-04 -1.478142E-04 -2.327253E-04 -2.434434E-04 -2.327253E-04 +7.469906E-03 
 -3.898617E-04 -1.148425E-03 -3.560305E-04 -1.148425E-03 +2.989448E-04 +1.911219E-05 -3.560305E-04 +1.911219E-05 +7.658184E-03 
 -2.445442E-04 -2.514762E-04 -1.098733E-04 -2.514762E-04 +1.233187E-04 -1.053928E-04 -1.098733E-04 -1.053928E-04 +7.961743E-03 
 -6.627115E-05 +4.175704E-04 -1.665018E-04 +4.175704E-04 -9.381404E-05 +4.526002E-05 -1.665018E-04 +4.526002E-05 +7.529495E-03 
 -9.290625E-05 -3.175098E-04 -4.586401E-04 -3.175098E-04 +5.008120E-04 +1.790104E-04 -4.586401E-04 +1.790104E-04 +7.084444E-03 
 -2.445407E-04 -1.323516E-03 -4.163788E-04 -1.323516E-03 -2.617137E-04 -6.008440E-05 -4.163788E-04 -6.008440E-05 +7.729038E-03 
 +2.760334E-04 -3.939017E-06 -2.897300E-04 -3.939017E-06 -2.848633E-04 -1.345083E-04 -2.897300E-04 -1.345083E-04 +7.482144E-03 
 -2.558175E-04 +1.966669E-05 +2.180975E-04 +1.966669E-05 +7.344198E-05 +2.978281E-05 +2.180975E-04 +2.978281E-05 +7.383533E-03 
 +3.805057E-06 +1.448467E-04 -1.088556E-04 +1.448467E-04 -3.381503E-04 -4.566982E-04 -1.088556E-04 -4.566982E-04 +7.741177E-03 
 -1.078004E-04 +3.127061E-04 -8.569370E-04 +3.127061E-04 -1.811577E-05 -7.062113E-05 -8.569370E-04 -7.062113E-05 +7.404685E-03 
 -1.058232E-04 +6.462905E-04 -4.291049E-04 +6.462905E-04 -1.377588E-05 -3.373742E-04 -4.291049E-04 -3.373742E-04 +7.387910E-03 
 -2.281323E-04 -2.069051E-04 -2.738554E-04 -2.069051E-04 +4.309752E-04 +2.944676E-04 -2.738554E-04 +2.944676E-04 +7.436381E-03 
 -4.854471E-05 +9.241674E-04 +2.987421E-04 +9.241674E-04 +3.038294E-04 +2.900836E-04 +2.987421E-04 +2.900836E-04 +7.340800E-03 
 -8.807925E-06 -3.073929E-04 +6.623081E-04 -3.073929E-04 -4.771262E-04 -3.547246E-04 +6.623081E-04 -3.547246E-04 +7.656439E-03 
 +2.196434E-04 +3.717663E-04 -6.052162E-04 +3.717663E-04 +1.339799E-04 +3.470986E-04 -6.052162E-04 +3.470986E-04 +6.768763E-03 
 -2.752618E-04 +2.266289E-04 -7.991312E-04 +2.266289E-04 -6.185308E-05 +9.110597E-04 -7.991312E-04 +9.110597E-04 +7.322735E-03 
 -2.693770E-04 +1.547001E-04 -3.907242E-04 +1.547001E-04 +1.809167E-04 +3.565525E-04 -3.907242E-04 +3.565525E-04 +7.517892E-03 
 +4.252783E-04 -3.213380E-04 -5.691852E-04 -3.213380E-04 -2.157217E-04 +4.928776E-04 -5.691852E-04 +4.928776E-04 +7.265982E-03 
 -2.702972E-05 +9.686117E-04 -2.024652E-04 +9.686117E-04 -1.320397E-04 -1.346822E-04 -2.024652E-04 -1.346822E-04 +7.609779E-03 
 -6.677937E-04 -1.683076E-03 +1.258933E-04 -1.683076E-03 +9.586473E-05 +1.767987E-04 +1.258933E-04 +1.767987E-04 +7.710719E-03 
 -1.625673E-04 -6.127541E-04 +7.776845E-04 -6.127541E-04 -2.439714E-04 -8.958861E-06 +7.776845E-04 -8.958861E-06 +7.732356E-03 
 +2.971654E-04 +3.072746E-04 +4.115996E-04 +3.072746E-04 -1.673890E-04 +4.116598E-04 +4.115996E-04 +4.116598E-04 +7.684377E-03 
 -1.997339E-04 -1.555443E-03 +1.789833E-04 -1.555443E-03 +8.913978E-05 +3.279775E-05 +1.789833E-04 +3.279775E-05 +7.709223E-03 
 +1.991914E-04 +2.455273E-04 +2.874616E-05 +2.455273E-04 +4.712812E-04 +3.047811E-04 +2.874616E-05 +3.047811E-04 +6.904013E-03 
 -2.693570E-04 -8.433706E-05 -2.714165E-04 -8.433706E-05 -8.564314E-05 +4.323347E-05 -2.714165E-04 +4.323347E-05 +7.544010E-03 
 -8.403863E-04 -4.417553E-04 -3.302424E-04 -4.417553E-04 +4.269480E-04 +1.189295E-04 -3.302424E-04 +1.189295E-04 +7.942212E-03 
 +8.506827E-05 -7.543527E-04 -3.758271E-05 -7.543527E-04 -1.690893E-04 +3.876109E-05 -3.758271E-05 +3.876109E-05 +7.463587E-03 
 -1.808067E-05 +2.554676E-04 +1.033934E-04 +2.554676E-04 -2.369740E-04 -4.399228E-04 +1.033934E-04 -4.399228E-04 +7.875419E-03 
 -2.448086E-05 +1.014523E-03 -1.636751E-04 +1.014523E-03 -2.511967E-04 +2.353573E-04 -1.636751E-04 +2.353573E-04 +7.720074E-03 
 -2.575157E-05 -4.555567E-04 +1.375035E-05 -4.555567E-04 +9.528727E-05 +7.005850E-04 +1.375035E-05 +7.005850E-04 +7.478518E-03 
 +7.267695E-05 +5.609785E-04 -2.367347E-04 +5.609785E-04 -3.361642E-04 +2.147600E-04 -2.367347E-04 +2.147600E-04 +7.778604E-03 
 -4.394048E-05 -3.498849E-04 -2.469616E-04 -3.498849E-04 +4.417571E-04 +4.357755E-04 -2.469616E-04 +4.357755E-04 +7.246304E-03 
 +4.694942E-05 +4.058481E-04 +5.789567E-04 +4.058481E-04 +2.321226E-04 +4.155898E-05 +5.789567E-04 +4.155898E-05 +7.359574E-03 
 +1.782898E-04 +6.354426E-04 +5.121590E-04 +6.354426E-04 -8.064007E-05 +2.431122E-04 +5.121590E-04 +2.431122E-04 +7.680708E-03 
 +1.876235E-04 -2.926816E-04 +1.146211E-04 -2.926816E-04 -9.945223E-05 -9.317821E-04 +1.146211E-04 -9.317821E-04 +7.125258E-03 
 -1.394998E-04 +2.743458E-04 +1.000770E-04 +2.743458E-04 -1.210471E-04 -2.924633E-04 +1.000770E-04 -2.924633E-04 +7.765163E-03 
 -5.235648E-04 +3.734914E-04 +3.433984E-05 +3.734914E-04 +1.681403E-04 -5.921316E-05 +3.433984E-05 -5.921316E-05 +7.666463E-03 
 +1.072706E-04 -4.478002E-04 +1.654270E-04 -4.478002E-04 -7.410953E-05 -7.542223E-04 +1.654270E-04 -7.542223E-04 +7.699210E-03 
 +1.898386E-04 +4.376117E-04 +4.045059E-04 +4.376117E-04 -1.504304E-04 -9.249877E-05 +4.045059E-04 -9.249877E-05 +7.675477E-03 
 -1.182015E-04 -1.997974E-04 -3.899022E-05 -1.997974E-04 -1.680130E-04 -2.864352E-04 -3.899022E-05 -2.864352E-04 +7.488479E-03 
 -7.062861E-04 -1.246518E-03 -3.707666E-04 -1.246518E-03 +1.572929E-04 -5.592794E-04 -3.707666E-04 -5.592794E-04 +7.618864E-03 
 -5.341255E-04 +7.467718E-04 +2.001097E-04 +7.467718E-04 -3.001348E-05 -3.520592E-04 +2.001097E-04 -3.520592E-04 +8.020253E-03 
 -3.303334E-05 -6.593866E-04 +4.117144E-04 -6.593866E-04 -1.767195E-04 +1.921335E-04 +4.117144E-04 +1.921335E-04 +7.765685E-03 
 -8.258827E-05 +9.307844E-05 -2.663457E-04 +9.307844E-05 +3.907105E-04 +8.457671E-05 -2.663457E-04 +8.457671E-05 +6.967658E-03 
 -1.531357E-04 -6.325790E-05 -1.875699E-04 -6.325790E-05 -1.189059E-04 +2.973687E-04 -1.875699E-04 +2.973687E-04 +7.598899E-03 
 +5.972438E-05 +7.823721E-05 +4.029776E-04 +7.823721E-05 +1.702068E-04 -5.165306E-05 +4.029776E-04 -5.165306E-05 +7.032176E-03 
 +7.650757E-05 -1.519424E-04 +3.812305E-05 -1.519424E-04 +2.303827E-04 +1.008421E-04 +3.812305E-05 +1.008421E-04 +7.047135E-03 
 +1.506833E-04 +8.030779E-04 -1.042744E-04 +8.030779E-04 -4.188902E-05 -8.856981E-05 -1.042744E-04 -8.856981E-05 +7.757994E-03 
 -6.958545E-06 -2.493397E-04 -7.916946E-04 -2.493397E-04 +1.100463E-04 -4.052488E-05 -7.916946E-04 -4.052488E-05 +7.493191E-03 
 -2.415294E-04 +1.275120E-03 -8.371838E-05 +1.275120E-03 -2.317628E-04 -1.426840E-04 -8.371838E-05 -1.426840E-04 +7.735217E-03 
 -1.979154E-04 -1.682411E-04 +1.811359E-04 -1.682411E-04 -1.379215E-04 -4.101599E-05 +1.811359E-04 -4.101599E-05 +7.694582E-03 
 +8.051333E-05 +6.563309E-04 -3.844221E-04 +6.563309E-04 +1.256866E-04 -5.397997E-04 -3.844221E-04 -5.397997E-04 +7.178065E-03 
 -3.239159E-04 +2.491129E-04 +4.817193E-04 +2.491129E-04 +2.796078E-05 -3.811945E-05 +4.817193E-04 -3.811945E-05 +7.866028E-03 
 -5.432036E-05 -4.368936E-04 +4.229973E-04 -4.368936E-04 +1.336072E-05 -4.920642E-04 +4.229973E-04 -4.920642E-04 +7.858055E-03 
 +6.593502E-04 -2.242098E-04 -3.180153E-04 -2.242098E-04 +1.837559E-04 -1.174085E-04 -3.180153E-04 -1.174085E-04 +7.130544E-03 
 +1.922078E-04 -8.070238E-04 +2.600847E-04 -8.070238E-04 -2.894507E-04 -4.923852E-04 +2.600847E-04 -4.923852E-04 +7.683603E-03 
 -3.660358E-04 +9.292907E-05 +1.913522E-04 +9.292907E-05 -1.628537E-04 +3.592905E-04 +1.913522E-04 +3.592905E-04 +7.742237E-03 
 +9.193135E-05 +3.165065E-04 -1.663872E-04 +3.165065E-04 -2.951424E-05 -3.257756E-04 -1.663872E-04 -3.257756E-04 +7.307086E-03 
 +4.609263E-04 +8.557148E-05 -3.272850E-04 +8.557148E-05 +3.969790E-04 +6.831729E-04 -3.272850E-04 +6.831729E-04 +7.196722E-03 
 +8.784912E-06 +7.356884E-04 -2.760765E-04 +7.356884E-04 -5.115347E-04 -7.574727E-05 -2.760765E-04 -7.574727E-05 +7.715689E-03 
 +1.378841E-04 +1.820694E-04 -4.120224E-04 +1.820694E-04 +1.056042E-04 -3.444337E-04 -4.120224E-04 -3.444337E-04 +7.244611E-03 
 -7.393026E-05 -1.104702E-03 -1.303764E-04 -1.104702E-03 +9.985683E-05 +6.883231E-04 -1.303764E-04 +6.883231E-04 +7.384354E-03 
 -1.757749E-04 -4.911379E-05 -2.695853E-04 -4.911379E-05 +7.097990E-06 +1.038451E-04 -2.695853E-04 +1.038451E-04 +7.490116E-03 
 -5.112332E-04 +5.369948E-04 -3.336939E-04 +5.369948E-04 +4.939482E-04 -3.127467E-04 -3.336939E-04 -3.127467E-04 +7.534472E-03 
 -8.619657E-05 +9.541718E-04 +4.320965E-05 +9.541718E-04 -1.371496E-04 -1.312056E-04 +4.320965E-05 -1.312056E-04 +7.960303E-03 
 +1.524415E-04 -5.224283E-04 +6.024199E-05 -5.224283E-04 -1.748090E-04 +1.722978E-04 +6.024199E-05 +1.722978E-04 +7.394530E-03 
 +3.968372E-04 -4.354396E-04 +2.742715E-04 -4.354396E-04 -2.444904E-05 -6.707635E-04 +2.742715E-04 -6.707635E-04 +7.439210E-03 
 +1.856485E-04 -4.566992E-04 -2.223731E-04 -4.566992E-04 -6.931847E-05 +2.851366E-04 -2.223731E-04 +2.851366E-04 +7.330110E-03 
 +1.379861E-04 +8.929668E-04 -6.863271E-04 +8.929668E-04 +2.040859E-04 -5.991989E-04 -6.863271E-04 -5.991989E-04 +7.318963E-03 
 -4.409594E-05 -1.429026E-04 -4.553511E-05 -1.429026E-04 +4.739953E-04 +9.245991E-05 -4.553511E-05 +9.245991E-05 +7.162996E-03 
 +4.880966E-04 +1.615349E-03 -4.544981E-05 +1.615349E-03 -5.810196E-04 -9.026618E-05 -4.544981E-05 -9.026618E-05 +7.503238E-03 
 -8.792325E-05 -6.367158E-04 -1.752979E-04 -6.367158E-04 +7.625317E-05 -2.218335E-04 -1.752979E-04 -2.218335E-04 +7.312370E-03 
 -1.175096E-04 +1.047953E-03 +3.879882E-04 +1.047953E-03 +5.984248E-05 +3.934440E-05 +3.879882E-04 +3.934440E-05 +7.682627E-03 
 +3.105018E-04 +8.344159E-04 -2.039484E-04 +8.344159E-04 -7.357902E-05 +1.109481E-04 -2.039484E-04 +1.109481E-04 +7.369547E-03 
 +1.879553E-04 +3.540877E-05 +4.509425E-05 +3.540877E-05 +3.724079E-04 +5.645496E-05 +4.509425E-05 +5.645496E-05 +7.321279E-03 
 +3.058963E-04 -2.966931E-04 +3.260309E-04 -2.966931E-04 -1.484303E-04 +1.010040E-04 +3.260309E-04 +1.010040E-04 +7.817367E-03 
 -1.355422E-04 -1.939495E-04 -3.139661E-04 -1.939495E-04 +3.221866E-04 +8.795888E-05 -3.139661E-04 +8.795888E-05 +7.447282E-03 
 +1.471462E-04 +2.558108E-04 +4.452904E-04 +2.558108E-04 -5.847613E-04 +7.565506E-04 +4.452904E-04 +7.565506E-04 +7.433937E-03 
 -8.706327E-05 +3.087575E-04 +5.531122E-04 +3.087575E-04 +6.367496E-05 -1.465814E-04 +5.531122E-04 -1.465814E-04 +7.706946E-03 
 -2.693481E-05 +2.045084E-04 -5.377362E-04 +2.045084E-04 -1.117042E-04 -2.889077E-04 -5.377362E-04 -2.889077E-04 +7.394421E-03 
 +2.676719E-04 -3.783675E-04 -3.598862E-05 -3.783675E-04 +1.250920E-04 +1.625684E-04 -3.598862E-05 +1.625684E-04 +6.893780E-03 
 -2.762667E-04 -1.030758E-03 +7.060244E-04 -1.030758E-03 -8.211441E-05 -1.015834E-04 +7.060244E-04 -1.015834E-04 +7.704002E-03 
 -3.800244E-04 -8.490275E-04 +2.239695E-04 -8.490275E-04 +5.565979E-05 +3.000682E-04 +2.239695E-04 +3.000682E-04 +7.493282E-03 
 -1.892362E-04 -2.690458E-04 +1.993376E-04 -2.690458E-04 +1.962687E-04 -4.871603E-05 +1.993376E-04 -4.871603E-05 +7.481655E-03 
 -2.036667E-04 +1.115005E-03 -1.674464E-04 +1.115005E-03 +2.789068E-04 -1.624979E-04 -1.674464E-04 -1.624979E-04 +7.603246E-03 
 -7.940859E-05 -2.902920E-05 +7.730265E-06 -2.902920E-05 -3.496278E-05 -3.958861E-04 +7.730265E-06 -3.958861E-04 +7.708306E-03 
 -3.249444E-04 -4.236935E-04 +1.312133E-05 -4.236935E-04 -1.228000E-04 -1.366597E-05 +1.312133E-05 -1.366597E-05 +7.929258E-03 
 -1.412596E-04 +1.035794E-03 -4.891450E-04 +1.035794E-03 -2.553202E-04 +1.333893E-04 -4.891450E-04 +1.333893E-04 +7.982791E-03 
 -4.914709E-04 -4.704456E-04 -6.840957E-05 -4.704456E-04 -5.050492E-04 +1.456830E-04 -6.840957E-05 +1.456830E-04 +8.220283E-03 
 -4.035993E-04 +4.044005E-04 -7.409898E-05 +4.044005E-04 +4.751460E-04 -4.470785E-04 -7.409898E-05 -4.470785E-04 +7.302576E-03 
 -1.666046E-04 -3.185522E-04 +1.833094E-04 -3.185522E-04 -1.862124E-05 +1.394011E-04 +1.833094E-04 +1.394011E-04 +7.688624E-03 
 +2.426531E-04 +1.063718E-03 +4.010781E-05 +1.063718E-03 -1.437927E-04 -4.180940E-04 +4.010781E-05 -4.180940E-04 +7.366489E-03 
 +7.931783E-05 +4.896744E-04 +7.686687E-05 +4.896744E-04 +2.519400E-04 -1.983817E-04 +7.686687E-05 -1.983817E-04 +7.375763E-03 
 +3.843598E-04 -1.187180E-04 -1.340511E-04 -1.187180E-04 +1.466326E-04 +4.350233E-04 -1.340511E-04 +4.350233E-04 +7.127981E-03 
 +5.562245E-04 +5.299183E-05 +4.005632E-05 +5.299183E-05 -1.617839E-04 +1.074276E-05 +4.005632E-05 +1.074276E-05 +6.968643E-03 
 +6.378862E-04 +9.537883E-05 +3.325002E-04 +9.537883E-05 +2.086643E-04 +1.466662E-04 +3.325002E-04 +1.466662E-04 +6.981215E-03 
 +2.540553E-04 -2.850780E-04 -5.033862E-04 -2.850780E-04 +1.123408E-05 -2.257868E-04 -5.033862E-04 -2.257868E-04 +7.006147E-03 
 -4.388793E-04 +3.704881E-04 -5.279186E-04 +3.704881E-04 -1.725198E-05 -1.520426E-04 -5.279186E-04 -1.520426E-04 +7.674575E-03 
 -1.661888E-04 +1.736871E-04 +2.420141E-04 +1.736871E-04 -1.319937E-04 -6.781272E-04 +2.420141E-04 -6.781272E-04 +7.730874E-03 
 +1.249042E-04 +4.158542E-04 +5.020217E-04 +4.158542E-04 -2.506841E-04 +1.790652E-04 +5.020217E-04 +1.790652E-04 +7.482107E-03 
 -2.369324E-04 -6.846326E-04 +7.133218E-04 -6.846326E-04 -9.733241E-05 +1.055898E-05 +7.133218E-04 +1.055898E-05 +7.861794E-03 
 -1.779989E-05 -9.803226E-05 +1.090313E-04 -9.803226E-05 +1.768142E-04 +1.606629E-04 +1.090313E-04 +1.606629E-04 +7.664395E-03 
 +1.859046E-05 -6.906219E-04 -2.820182E-04 -6.906219E-04 -1.768555E-04 -1.038872E-04 -2.820182E-04 -1.038872E-04 +7.300454E-03 
 -1.393967E-04 +1.248547E-05 -1.487979E-04 +1.248547E-05 -1.319548E-04 -4.470851E-04 -1.487979E-04 -4.470851E-04 +7.537167E-03 
 -1.580571E-05 +7.590944E-04 +8.507629E-05 +7.590944E-04 +5.363380E-04 -3.027624E-04 +8.507629E-05 -3.027624E-04 +6.804185E-03 
 -4.777002E-04 -4.836743E-04 -6.814822E-05 -4.836743E-04 +3.493345E-04 +3.261911E-04 -6.814822E-05 +3.261911E-04 +7.197915E-03 
 +4.183591E-06 +8.652076E-05 +7.155676E-05 +8.652076E-05 -2.057191E-04 +2.407142E-04 +7.155676E-05 +2.407142E-04 +7.572757E-03 
 +1.369979E-05 -8.434185E-06 +1.108336E-03 -8.434185E-06 -8.714823E-05 -6.785437E-04 +1.108336E-03 -6.785437E-04 +7.495231E-03 
 +1.999486E-04 +1.222018E-03 +2.107126E-04 +1.222018E-03 -5.292273E-04 -2.928715E-04 +2.107126E-04 -2.928715E-04 +7.496202E-03 
 +2.928872E-04 +2.085574E-04 -3.678359E-04 +2.085574E-04 +1.359027E-04 +1.350375E-04 -3.678359E-04 +1.350375E-04 +7.011349E-03 
 -1.934980E-04 -8.390987E-04 +2.500083E-04 -8.390987E-04 +1.356197E-04 +9.297950E-05 +2.500083E-04 +9.297950E-05 +7.554149E-03 
 -1.297098E-04 -7.159748E-04 -1.139673E-05 -7.159748E-04 -2.328492E-04 +3.427466E-04 -1.139673E-05 +3.427466E-04 +7.286208E-03 
 +2.263976E-04 +2.604208E-04 -1.589136E-04 +2.604208E-04 +2.716331E-04 +2.116669E-04 -1.589136E-04 +2.116669E-04 +7.068927E-03 
 +5.295345E-05 +2.000501E-06 -2.250673E-04 +2.000501E-06 +1.205688E-04 +1.606026E-05 -2.250673E-04 +1.606026E-05 +6.778484E-03 
 +4.353728E-04 -4.038903E-04 +1.148851E-04 -4.038903E-04 +1.006654E-04 +1.676486E-04 +1.148851E-04 +1.676486E-04 +7.035004E-03 
 +3.517382E-04 -2.964723E-04 -3.064603E-04 -2.964723E-04 -4.508714E-05 -2.744192E-04 -3.064603E-04 -2.744192E-04 +7.542937E-03 
 +1.216039E-04 +2.944022E-04 -3.726672E-04 +2.944022E-04 -9.184328E-05 +1.303841E-04 -3.726672E-04 +1.303841E-04 +7.247250E-03 
 +4.982887E-04 +5.115867E-04 +3.561857E-04 +5.115867E-04 +5.054795E-05 +3.550720E-04 +3.561857E-04 +3.550720E-04 +7.211533E-03 
 +1.657595E-04 +1.083434E-03 +8.381013E-05 +1.083434E-03 -2.935642E-04 +3.202521E-04 +8.381013E-05 +3.202521E-04 +7.228467E-03 
 +1.276018E-04 +3.835462E-04 +1.075379E-04 +3.835462E-04 +5.750890E-05 +1.751329E-06 +1.075379E-04 +1.751329E-06 +7.361326E-03 
 +2.839745E-06 +2.352929E-04 -1.083700E-04 +2.352929E-04 -2.208787E-04 -4.084277E-04 -1.083700E-04 -4.084277E-04 +7.443281E-03 
 -1.743648E-04 -2.982648E-04 +1.589525E-04 -2.982648E-04 +4.143773E-04 -4.744362E-05 +1.589525E-04 -4.744362E-05 +6.927513E-03 
 +3.560313E-05 -7.870164E-04 +1.207898E-04 -7.870164E-04 -2.076645E-04 +5.132495E-04 +1.207898E-04 +5.132495E-04 +7.465899E-03 
 +1.655227E-04 +6.277155E-04 -1.710528E-04 +6.277155E-04 -2.576335E-04 +5.110261E-04 -1.710528E-04 +5.110261E-04 +7.757952E-03 
 +7.543719E-05 -1.660014E-04 -1.063191E-04 -1.660014E-04 +3.611881E-04 +2.113220E-04 -1.063191E-04 +2.113220E-04 +7.157344E-03 
 -9.144968E-05 -3.653342E-04 +1.868860E-05 -3.653342E-04 -1.608010E-04 +2.119996E-04 +1.868860E-05 +2.119996E-04 +7.606199E-03 
 -2.857889E-05 -6.077687E-04 +1.859175E-04 -6.077687E-04 +2.370713E-04 -9.897495E-05 +1.859175E-04 -9.897495E-05 +7.398929E-03 
 +1.438292E-04 -3.201402E-04 +1.598116E-04 -3.201402E-04 +2.425416E-04 -8.085384E-04 +1.598116E-04 -8.085384E-04 +7.356029E-03 
 +3.169980E-04 +3.891684E-04 -1.802200E-04 +3.891684E-04 -4.339020E-04 +2.721073E-04 -1.802200E-04 +2.721073E-04 +7.653095E-03 
 -7.232527E-05 +1.034684E-04 -4.496766E-04 +1.034684E-04 +1.151075E-05 -1.640222E-04 -4.496766E-04 -1.640222E-04 +7.407010E-03 
 +5.768754E-05 +3.382371E-04 -3.492754E-05 +3.382371E-04 +1.194741E-04 +3.467897E-04 -3.492754E-05 +3.467897E-04 +7.275447E-03 
 +4.543726E-04 +8.997566E-05 +2.829183E-04 +8.997566E-05 -4.224246E-05 -1.166616E-04 +2.829183E-04 -1.166616E-04 +7.209924E-03 
 +2.920606E-04 +8.503828E-05 -2.051488E-04 +8.503828E-05 -2.799188E-04 -2.616989E-04 -2.051488E-04 -2.616989E-04 +7.158389E-03 
 -9.955709E-06 +6.332454E-05 -4.751066E-04 +6.332454E-05 +2.647933E-05 +3.362501E-04 -4.751066E-04 +3.362501E-04 +7.501046E-03 
 +2.169677E-05 -6.298785E-04 +4.144968E-04 -6.298785E-04 -1.165390E-04 -1.492706E-05 +4.144968E-04 -1.492706E-05 +7.300568E-03 
 -6.786801E-06 -1.780632E-04 -9.409504E-05 -1.780632E-04 +2.116487E-04 +3.471083E-06 -9.409504E-05 +3.471083E-06 +7.084487E-03 
 +1.702028E-04 -5.571511E-05 -2.163504E-04 -5.571511E-05 +1.478741E-04 -3.818397E-04 -2.163504E-04 -3.818397E-04 +7.359179E-03 
 +6.015212E-05 -3.476205E-04 +7.888487E-04 -3.476205E-04 +4.050232E-04 +6.806807E-07 +7.888487E-04 +6.806807E-07 +7.362867E-03 
 +6.210191E-05 +5.685037E-04 -1.645156E-04 +5.685037E-04 -2.567593E-04 +2.570165E-04 -1.645156E-04 +2.570165E-04 +7.590010E-03 
 -3.867505E-05 -1.435522E-03 -2.942740E-04 -1.435522E-03 -6.163398E-04 +5.921253E-05 -2.942740E-04 +5.921253E-05 +7.938914E-03 
 +1.016431E-05 +2.250728E-04 -2.951695E-04 +2.250728E-04 +5.947952E-05 -3.319777E-05 -2.951695E-04 -3.319777E-05 +7.197954E-03 
 +7.657564E-04 -2.289267E-05 +2.753082E-04 -2.289267E-05 -2.068829E-04 +9.055721E-06 +2.753082E-04 +9.055721E-06 +7.057037E-03 
 +3.145584E-04 +4.490355E-04 +4.648824E-04 +4.490355E-04 +1.922090E-04 -2.743958E-05 +4.648824E-04 -2.743958E-05 +7.079066E-03 
 +2.218177E-04 +2.973304E-05 -5.635858E-04 +2.973304E-05 +4.052466E-05 +1.919870E-04 -5.635858E-04 +1.919870E-04 +7.329625E-03 
 -2.951671E-04 -4.871467E-04 -4.506063E-04 -4.871467E-04 +1.115097E-04 +2.872907E-05 -4.506063E-04 +2.872907E-05 +7.443498E-03 
 -2.043875E-04 +7.089601E-04 -6.295585E-04 +7.089601E-04 +1.435402E-04 -1.620230E-06 -6.295585E-04 -1.620230E-06 +7.484972E-03 
 +2.714110E-04 +1.004870E-03 +1.314132E-04 +1.004870E-03 -3.080659E-04 +7.315868E-05 +1.314132E-04 +7.315868E-05 +8.009766E-03 
 -8.052845E-05 +8.772731E-04 +4.304512E-04 +8.772731E-04 +6.175729E-06 +2.475211E-04 +4.304512E-04 +2.475211E-04 +7.508135E-03 
 +4.198014E-05 +2.174186E-04 -3.346013E-04 +2.174186E-04 +6.809594E-04 -5.984734E-04 -3.346013E-04 -5.984734E-04 +7.071984E-03 
 +1.799742E-04 +7.696405E-04 -8.373393E-05 +7.696405E-04 -1.941632E-04 +3.928182E-05 -8.373393E-05 +3.928182E-05 +7.561028E-03 
 -1.958622E-04 -3.814122E-04 +2.108539E-04 -3.814122E-04 -8.138843E-06 -1.534904E-04 +2.108539E-04 -1.534904E-04 +7.560031E-03 
 +5.406014E-05 +5.034697E-04 +1.415542E-04 +5.034697E-04 -1.747275E-04 +2.432307E-04 +1.415542E-04 +2.432307E-04 +7.446995E-03 
 +2.791650E-04 -2.463980E-04 +4.622502E-05 -2.463980E-04 +1.366047E-04 +1.948859E-04 +4.622502E-05 +1.948859E-04 +7.105766E-03 
 +1.423601E-04 -4.834943E-04 +5.503123E-04 -4.834943E-04 +1.581984E-04 -4.747732E-04 +5.503123E-04 -4.747732E-04 +7.410503E-03 
 +2.398540E-04 -7.931119E-04 -2.425962E-04 -7.931119E-04 +1.968828E-04 +1.431371E-04 -2.425962E-04 +1.431371E-04 +7.319674E-03 
 -2.479319E-04 +6.452909E-05 -1.746353E-04 +6.452909E-05 +1.053961E-04 -2.445698E-04 -1.746353E-04 -2.445698E-04 +7.834111E-03 
 -2.461958E-04 -1.307104E-03 +1.902035E-04 -1.307104E-03 -1.609438E-04 +4.485669E-04 +1.902035E-04 +4.485669E-04 +7.821109E-03 
 +3.720028E-04 +7.387343E-04 -1.294402E-04 +7.387343E-04 +3.518172E-04 +6.469547E-04 -1.294402E-04 +6.469547E-04 +7.508722E-03 
 +7.934827E-06 -2.765362E-04 -2.827168E-04 -2.765362E-04 -7.995698E-05 -2.993923E-04 -2.827168E-04 -2.993923E-04 +7.837718E-03 
 -8.886097E-06 -5.909108E-04 -4.216155E-04 -5.909108E-04 -3.707473E-04 -6.489558E-04 -4.216155E-04 -6.489558E-04 +7.610425E-03 
 +2.268582E-04 -1.575393E-04 +5.877388E-05 -1.575393E-04 -2.588744E-04 +6.197874E-04 +5.877388E-05 +6.197874E-04 +7.318648E-03 
 -3.843336E-04 +5.980700E-04 +2.973476E-04 +5.980700E-04 +3.381635E-04 -2.966841E-04 +2.973476E-04 -2.966841E-04 +7.371943E-03 
 +8.501222E-06 -2.119212E-04 -5.772609E-05 -2.119212E-04 +1.308256E-04 +4.978523E-04 -5.772609E-05 +4.978523E-04 +7.258877E-03 
 +9.391589E-05 +8.830233E-04 +2.085922E-04 +8.830233E-04 -4.269155E-04 -6.155379E-05 +2.085922E-04 -6.155379E-05 +7.722544E-03 
 +2.811471E-04 +2.475611E-04 +5.084501E-04 +2.475611E-04 -5.777297E-05 +5.847557E-04 +5.084501E-04 +5.847557E-04 +7.630587E-03 
 -2.580345E-04 +1.408286E-04 -6.885859E-05 +1.408286E-04 +1.068043E-04 -2.094491E-04 -6.885859E-05 -2.094491E-04 +7.347395E-03 
 -1.434149E-04 +3.612368E-04 -3.606387E-04 +3.612368E-04 +4.090011E-04 -3.025805E-04 -3.606387E-04 -3.025805E-04 +7.162353E-03 
 +5.231790E-05 +1.000266E-03 -4.082505E-05 +1.000266E-03 -1.996813E-04 +2.796870E-04 -4.082505E-05 +2.796870E-04 +7.221444E-03 
 +2.724475E-05 +2.844389E-04 +1.599617E-04 +2.844389E-04 +1.874518E-04 +2.879174E-04 +1.599617E-04 +2.879174E-04 +7.252518E-03 
 -2.110067E-04 -7.418746E-05 -4.785070E-05 -7.418746E-05 -1.632404E-04 +5.683623E-07 -4.785070E-05 +5.683623E-07 +7.634357E-03 
 -4.922107E-04 -1.478412E-04 +2.083751E-04 -1.478412E-04 +1.564151E-04 +2.558994E-04 +2.083751E-04 +2.558994E-04 +7.733880E-03 
 -4.779068E-04 -4.317424E-04 +4.737220E-04 -4.317424E-04 +2.228508E-04 -3.805086E-04 +4.737220E-04 -3.805086E-04 +7.430398E-03 
 -7.779436E-05 +3.552163E-04 -4.782148E-05 +3.552163E-04 -4.792610E-05 +2.582378E-04 -4.782148E-05 +2.582378E-04 +7.500778E-03 
 +1.524626E-04 +3.766247E-04 -4.126642E-05 +3.766247E-04 -5.984914E-04 -7.451604E-05 -4.126642E-05 -7.451604E-05 +7.708809E-03 
 +2.198824E-04 -2.137357E-04 +2.101302E-04 -2.137357E-04 +4.546652E-06 +1.666390E-04 +2.101302E-04 +1.666390E-04 +7.646706E-03 
 +6.782129E-06 -3.815249E-04 +1.103418E-03 -3.815249E-04 +6.824423E-05 -4.360885E-04 +1.103418E-03 -4.360885E-04 +7.412104E-03 
 -2.494577E-04 -2.567691E-04 +4.222646E-04 -2.567691E-04 +5.736136E-04 -6.617753E-05 +4.222646E-04 -6.617753E-05 +6.974840E-03 
 -1.384613E-04 -1.265288E-03 +6.635205E-05 -1.265288E-03 -5.831889E-05 -4.891179E-04 +6.635205E-05 -4.891179E-04 +7.218288E-03 
 +2.515258E-04 +5.761943E-04 +9.888992E-05 +5.761943E-04 -8.810951E-05 -4.752486E-05 +9.888992E-05 -4.752486E-05 +7.404040E-03 
 +2.236193E-04 +4.244030E-05 -6.021744E-04 +4.244030E-05 -2.771084E-04 -4.931614E-05 -6.021744E-04 -4.931614E-05 +7.546715E-03 
 -1.790557E-04 +5.309565E-04 +4.502664E-04 +5.309565E-04 -1.759928E-05 -9.471533E-06 +4.502664E-04 -9.471533E-06 +7.579244E-03 
 +2.165261E-04 +6.323074E-04 +4.731966E-04 +6.323074E-04 -1.417428E-04 +4.134322E-04 +4.731966E-04 +4.134322E-04 +7.041594E-03 
 -1.812594E-04 +3.248368E-05 -5.134644E-04 +3.248368E-05 +1.448873E-04 -5.953431E-04 -5.134644E-04 -5.953431E-04 +7.092902E-03 
 -1.264330E-04 +2.857617E-04 +5.942571E-04 +2.857617E-04 +2.352201E-04 -2.073341E-04 +5.942571E-04 -2.073341E-04 +7.724038E-03 
 -2.401597E-04 +4.017373E-04 +2.781610E-04 +4.017373E-04 -2.838431E-04 -8.162712E-05 +2.781610E-04 -8.162712E-05 +7.724165E-03 
 -5.645066E-05 +5.537496E-04 -1.225673E-04 +5.537496E-04 -6.215913E-06 +6.234564E-04 -1.225673E-04 +6.234564E-04 +7.813458E-03 
 +3.106696E-04 +7.325418E-05 +3.558296E-04 +7.325418E-05 +1.363371E-04 +1.400210E-04 +3.558296E-04 +1.400210E-04 +7.491876E-03 
 -3.201428E-04 +5.483580E-04 +4.311673E-04 +5.483580E-04 +1.739654E-04 +7.298910E-04 +4.311673E-04 +7.298910E-04 +7.628646E-03 
 -1.155950E-04 -1.061723E-03 +7.844389E-05 -1.061723E-03 -4.978052E-05 -2.162255E-04 +7.844389E-05 -2.162255E-04 +7.319327E-03 
 +5.504618E-05 +1.366299E-04 -3.957717E-04 +1.366299E-04 +3.106755E-05 -5.436377E-04 -3.957717E-04 -5.436377E-04 +7.324665E-03 
 +2.310548E-04 -1.549193E-04 -1.991498E-04 -1.549193E-04 -2.262222E-04 +3.265937E-04 -1.991498E-04 +3.265937E-04 +7.627715E-03 
 +2.466836E-04 -2.387622E-05 -5.052109E-04 -2.387622E-05 +1.675989E-04 -4.246610E-04 -5.052109E-04 -4.246610E-04 +7.011916E-03 
 +3.483012E-04 +8.119520E-05 -3.743321E-05 +8.119520E-05 +3.093810E-04 +1.778100E-04 -3.743321E-05 +1.778100E-04 +7.139937E-03 
 +2.647344E-04 +2.408711E-04 +3.511646E-05 +2.408711E-04 -3.969820E-04 -2.612545E-04 +3.511646E-05 -2.612545E-04 +7.696700E-03 
 +1.040029E-04 +1.037826E-03 -2.576779E-04 +1.037826E-03 -2.998854E-04 -3.473464E-04 -2.576779E-04 -3.473464E-04 +7.395590E-03 
 -7.902723E-05 +5.256271E-04 -3.013761E-05 +5.256271E-04 -5.608199E-05 -2.904554E-04 -3.013761E-05 -2.904554E-04 +7.178755E-03 
 -5.419188E-06 -7.120523E-04 -1.788141E-04 -7.120523E-04 +2.452008E-05 +4.443784E-04 -1.788141E-04 +4.443784E-04 +7.218936E-03 
 -3.502140E-04 +1.998123E-04 +3.539942E-04 +1.998123E-04 +2.543999E-04 -3.086729E-04 +3.539942E-04 -3.086729E-04 +7.335726E-03 
 -2.451210E-04 -2.470324E-04 +3.852190E-04 -2.470324E-04 +1.498892E-04 +3.442411E-04 +3.852190E-04 +3.442411E-04 +7.598840E-03 
 +3.945496E-05 +3.888959E-04 -2.048437E-05 +3.888959E-04 -7.201970E-04 -4.108122E-04 -2.048437E-05 -4.108122E-04 +8.051567E-03 
 +1.937181E-05 +7.746082E-05 +2.601432E-04 +7.746082E-05 +6.699971E-04 -1.962081E-04 +2.601432E-04 -1.962081E-04 +7.289756E-03 
 -2.321678E-04 +1.060587E-03 +8.370487E-05 +1.060587E-03 -1.535022E-04 +5.026349E-05 +8.370487E-05 +5.026349E-05 +7.452101E-03 
 -4.723195E-05 +3.556041E-04 -4.208802E-04 +3.556041E-04 -6.932356E-05 -1.035800E-04 -4.208802E-04 -1.035800E-04 +7.870831E-03 
 +9.235038E-05 +6.562017E-05 -4.422056E-05 +6.562017E-05 -1.938128E-04 +3.806110E-04 -4.422056E-05 +3.806110E-04 +7.469016E-03 
 -1.836640E-05 -3.316326E-04 -1.134389E-04 -3.316326E-04 +2.284079E-04 +4.251558E-04 -1.134389E-04 +4.251558E-04 +7.172054E-03 
 -1.731710E-05 +1.050085E-03 -3.063675E-04 +1.050085E-03 -2.873997E-04 -1.496455E-05 -3.063675E-04 -1.496455E-05 +7.445110E-03 
 -2.590410E-05 -7.298976E-05 -3.092735E-04 -7.298976E-05 +5.307647E-04 -2.900359E-04 -3.092735E-04 -2.900359E-04 +7.211008E-03 
 -6.228632E-05 -2.569653E-04 +7.274497E-04 -2.569653E-04 -1.559870E-04 -7.497695E-05 +7.274497E-04 -7.497695E-05 +7.575904E-03 
 -4.092080E-04 +2.456185E-04 +1.836540E-04 +2.456185E-04 +2.714646E-04 -3.443221E-04 +1.836540E-04 -3.443221E-04 +7.583434E-03 
 -1.988403E-04 -7.359976E-04 -8.426032E-05 -7.359976E-04 -2.470856E-04 -8.618564E-05 -8.426032E-05 -8.618564E-05 +7.742770E-03 
 +2.548266E-04 +4.294039E-04 +7.216290E-04 +4.294039E-04 -2.779168E-04 +1.064960E-04 +7.216290E-04 +1.064960E-04 +7.675927E-03 
 +3.131842E-04 +1.062945E-04 +1.232278E-04 +1.062945E-04 +3.719934E-04 +6.429504E-05 +1.232278E-04 +6.429504E-05 +7.084317E-03 
 -3.441997E-04 +1.091062E-03 +2.212325E-04 +1.091062E-03 -1.985757E-04 -2.940928E-05 +2.212325E-04 -2.940928E-05 +7.716488E-03 
 -6.102758E-04 +2.223921E-04 -2.272996E-04 +2.223921E-04 +2.731531E-04 +1.752195E-04 -2.272996E-04 +1.752195E-04 +7.973239E-03 
 +1.126875E-04 -1.102153E-04 +3.141471E-04 -1.102153E-04 -4.025318E-04 +1.004701E-04 +3.141471E-04 +1.004701E-04 +7.406108E-03 
 -1.668420E-04 +8.299041E-05 +4.687445E-04 +8.299041E-05 -1.320004E-05 +2.437354E-04 +4.687445E-04 +2.437354E-04 +7.626318E-03 
 +5.718977E-05 +5.008788E-04 +5.725675E-05 +5.008788E-04 -5.877073E-05 -7.087288E-04 +5.725675E-05 -7.087288E-04 +7.808984E-03 
 -8.251513E-04 +2.871527E-05 -2.531153E-04 +2.871527E-05 +3.781884E-04 +9.620244E-05 -2.531153E-04 +9.620244E-05 +7.762700E-03 
 -2.093202E-04 +7.684270E-04 -3.199502E-04 +7.684270E-04 -2.325698E-04 -1.214616E-04 -3.199502E-04 -1.214616E-04 +7.902117E-03 
 -2.808761E-05 +8.840906E-04 -2.349560E-04 +8.840906E-04 -2.179841E-04 +2.077793E-04 -2.349560E-04 +2.077793E-04 +7.748655E-03 
 +3.459471E-04 -2.140188E-04 -2.874270E-04 -2.140188E-04 +1.585352E-04 -1.779514E-04 -2.874270E-04 -1.779514E-04 +7.006938E-03 
 +3.520403E-04 +2.145409E-04 -3.253453E-04 +2.145409E-04 +7.159965E-05 +1.884297E-05 -3.253453E-04 +1.884297E-05 +7.211091E-03 
 -1.441469E-04 +8.841661E-05 -5.489937E-04 +8.841661E-05 +1.184537E-04 +1.025206E-04 -5.489937E-04 +1.025206E-04 +7.093834E-03 
 -2.368560E-04 +2.017063E-04 +4.979970E-05 +2.017063E-04 +1.108528E-04 +1.644481E-05 +4.979970E-05 +1.644481E-05 +7.191492E-03 
 -5.383196E-04 +7.277102E-04 +6.058848E-04 +7.277102E-04 +1.113532E-04 +2.760309E-04 +6.058848E-04 +2.760309E-04 +7.833462E-03 
 +2.522558E-04 -9.309525E-04 +3.073264E-04 -9.309525E-04 -5.797890E-04 +3.891713E-04 +3.073264E-04 +3.891713E-04 +8.084685E-03 
 +1.612040E-04 +6.769095E-04 -1.797291E-05 +6.769095E-04 +1.488236E-04 -8.328220E-05 -1.797291E-05 -8.328220E-05 +7.472947E-03 
 -4.082534E-05 -2.958186E-04 +5.442862E-04 -2.958186E-04 +2.489787E-04 +2.694846E-04 +5.442862E-04 +2.694846E-04 +7.575954E-03 
 +8.147635E-05 -4.777416E-04 +1.594556E-04 -4.777416E-04 -1.871055E-04 -3.299623E-04 +1.594556E-04 -3.299623E-04 +7.361262E-03 
 +1.123041E-04 +2.305475E-04 -2.896553E-04 +2.305475E-04 +9.958253E-05 -2.901078E-04 -2.896553E-04 -2.901078E-04 +7.303409E-03 
 +3.676732E-06 -4.847220E-04 +6.199981E-04 -4.847220E-04 +3.318844E-05 -7.345238E-04 +6.199981E-04 -7.345238E-04 +7.139103E-03 
 +7.664312E-06 +3.587877E-04 +1.858249E-04 +3.587877E-04 +2.098074E-04 -5.129302E-05 +1.858249E-04 -5.129302E-05 +7.143243E-03 
 -1.455040E-04 +4.723660E-04 +1.042188E-04 +4.723660E-04 -9.444406E-05 +6.185804E-04 +1.042188E-04 +6.185804E-04 +7.704020E-03 
 -3.212790E-04 +6.488548E-04 -3.916433E-04 +6.488548E-04 -2.015530E-04 -5.610872E-06 -3.916433E-04 -5.610872E-06 +7.633041E-03 
 +1.409376E-05 -1.470722E-04 -7.356858E-05 -1.470722E-04 -5.648077E-06 -3.215199E-04 -7.356858E-05 -3.215199E-04 +7.359487E-03 
 +1.673624E-04 +6.503538E-05 -1.547755E-04 +6.503538E-05 +2.704374E-05 -5.522290E-04 -1.547755E-04 -5.522290E-04 +7.281481E-03 
 +1.613792E-04 +3.748775E-05 -4.397592E-04 +3.748775E-05 -1.369251E-04 +1.663968E-04 -4.397592E-04 +1.663968E-04 +7.281376E-03 
 -1.868647E-04 +6.255718E-05 +2.786703E-04 +6.255718E-05 +1.453357E-04 +4.802301E-04 +2.786703E-04 +4.802301E-04 +7.371856E-03 
 -7.081449E-04 +8.691683E-04 +1.139668E-04 +8.691683E-04 +6.266076E-05 +1.141998E-04 +1.139668E-04 +1.141998E-04 +7.770127E-03 
 -2.700172E-04 -6.169445E-04 +5.119661E-05 -6.169445E-04 -2.669627E-04 -1.263177E-04 +5.119661E-05 -1.263177E-04 +7.810736E-03 
 -5.454785E-04 +6.459189E-04 +1.439675E-04 +6.459189E-04 +2.959824E-04 +5.886987E-04 +1.439675E-04 +5.886987E-04 +7.745690E-03 
 -4.249298E-04 -3.439605E-04 -2.883629E-04 -3.439605E-04 +3.402497E-04 +3.534844E-04 -2.883629E-04 +3.534844E-04 +7.725686E-03 
 +4.011595E-04 +3.439003E-04 -6.991735E-04 +3.439003E-04 -3.568810E-04 +3.808239E-04 -6.991735E-04 +3.808239E-04 +7.701694E-03 
 +1.440342E-04 +4.113284E-04 +1.140339E-04 +4.113284E-04 -1.319976E-04 +2.105368E-04 +1.140339E-04 +2.105368E-04 +7.671788E-03 
 -3.165964E-04 +1.017917E-04 +6.219212E-04 +1.017917E-04 +3.330196E-04 -5.501365E-05 +6.219212E-04 -5.501365E-05 +7.258710E-03 
 -1.118222E-04 +3.883843E-04 +2.724118E-04 +3.883843E-04 -1.193596E-04 +9.954274E-05 +2.724118E-04 +9.954274E-05 +7.110844E-03 
 +1.984424E-04 +2.254950E-04 +4.268125E-04 +2.254950E-04 +1.999932E-04 +5.752800E-04 +4.268125E-04 +5.752800E-04 +7.182957E-03 
 +1.473487E-04 -5.670632E-04 +8.338090E-04 -5.670632E-04 -5.188237E-04 +3.455784E-04 +8.338090E-04 +3.455784E-04 +7.518100E-03 
 +3.588766E-04 +2.419064E-04 +7.954682E-04 +2.419064E-04 +3.563747E-04 +1.976197E-04 +7.954682E-04 +1.976197E-04 +7.499896E-03 
 +6.766893E-04 -5.628719E-04 -3.140002E-05 -5.628719E-04 -5.622464E-04 -4.715381E-04 -3.140002E-05 -4.715381E-04 +7.429011E-03 
 -2.423581E-06 -1.852010E-04 -3.587495E-04 -1.852010E-04 +2.599411E-04 +7.485009E-05 -3.587495E-04 +7.485009E-05 +7.301112E-03 
 -3.265397E-04 -9.234328E-04 +6.243937E-05 -9.234328E-04 +2.847717E-04 +2.246828E-04 +6.243937E-05 +2.246828E-04 +7.649577E-03 
 -5.184218E-05 +3.016736E-05 -4.047165E-04 +3.016736E-05 +1.184684E-04 +5.933948E-05 -4.047165E-04 +5.933948E-05 +7.725839E-03 
 +8.846504E-05 -2.237405E-04 -6.139407E-04 -2.237405E-04 -3.181586E-04 -3.087147E-04 -6.139407E-04 -3.087147E-04 +7.472892E-03 
 +5.459614E-04 +8.430102E-05 +6.421255E-04 +8.430102E-05 +2.478388E-04 +3.098829E-04 +6.421255E-04 +3.098829E-04 +7.286129E-03 
 +5.731704E-04 +1.563689E-04 +2.269394E-04 +1.563689E-04 -3.181789E-04 +3.962632E-04 +2.269394E-04 +3.962632E-04 +7.358930E-03 
 -2.966666E-04 +7.543587E-04 +2.803681E-04 +7.543587E-04 -1.012824E-04 +2.921549E-04 +2.803681E-04 +2.921549E-04 +7.888886E-03 
 -5.445471E-06 -2.368587E-04 +6.221702E-04 -2.368587E-04 +4.998480E-05 -1.788209E-04 +6.221702E-04 -1.788209E-04 +7.670169E-03 
 +1.430746E-04 +5.230728E-07 +4.031331E-04 +5.230728E-07 -8.466247E-05 +1.265083E-04 +4.031331E-04 +1.265083E-04 +7.292943E-03 
 -1.167078E-04 -9.232252E-04 +3.094514E-04 -9.232252E-04 -1.954729E-04 -1.442490E-04 +3.094514E-04 -1.442490E-04 +7.492403E-03 
 -8.312392E-05 -1.659440E-04 +5.013859E-04 -1.659440E-04 +1.320168E-04 -1.998550E-04 +5.013859E-04 -1.998550E-04 +7.193987E-03 
 -7.085275E-05 -2.792329E-04 +7.273617E-04 -2.792329E-04 +4.303535E-04 +4.118146E-05 +7.273617E-04 +4.118146E-05 +6.928844E-03 
 -3.029961E-04 -1.133224E-05 +6.531862E-04 -1.133224E-05 +1.387400E-04 -5.379288E-04 +6.531862E-04 -5.379288E-04 +7.591255E-03 
 +1.800332E-04 -4.208171E-04 +5.014444E-04 -4.208171E-04 -3.543248E-04 -7.068122E-04 +5.014444E-04 -7.068122E-04 +7.471241E-03 
 +1.871544E-04 +1.249558E-04 -1.460280E-04 +1.249558E-04 -4.884213E-05 +1.138543E-04 -1.460280E-04 +1.138543E-04 +7.243424E-03 
 -4.960073E-04 +2.931298E-04 -1.937126E-05 +2.931298E-04 -6.311054E-05 +5.004641E-06 -1.937126E-05 +5.004641E-06 +7.799599E-03 
 +1.137150E-05 -7.223347E-04 -3.487158E-04 -7.223347E-04 -9.886004E-06 +5.172769E-05 -3.487158E-04 +5.172769E-05 +7.608806E-03 
 -8.253735E-06 -7.674863E-05 -5.025411E-04 -7.674863E-05 +2.825779E-04 -4.543826E-04 -5.025411E-04 -4.543826E-04 +7.170893E-03 
 +1.031020E-04 -5.216393E-06 +1.358961E-04 -5.216393E-06 -2.997660E-04 -3.127270E-04 +1.358961E-04 -3.127270E-04 +7.232757E-03 
 +2.949771E-04 +1.254347E-04 +4.091015E-04 +1.254347E-04 +8.899091E-05 +2.565438E-05 +4.091015E-04 +2.565438E-05 +7.185831E-03 
 +2.000497E-04 -2.973247E-04 +1.900725E-04 -2.973247E-04 -3.804002E-04 +6.933068E-05 +1.900725E-04 +6.933068E-05 +7.495241E-03 
 -2.132854E-04 +4.240692E-04 +9.413645E-05 +4.240692E-04 +2.030563E-04 -8.390912E-05 +9.413645E-05 -8.390912E-05 +7.690276E-03 
 +3.335765E-05 -9.060781E-05 +1.740432E-04 -9.060781E-05 +3.520065E-04 -4.193977E-04 +1.740432E-04 -4.193977E-04 +7.015017E-03 
 -1.192789E-04 -3.939396E-04 +1.617496E-04 -3.939396E-04 +5.781924E-05 +1.264341E-04 +1.617496E-04 +1.264341E-04 +7.242864E-03 
 +1.256395E-04 -1.385897E-04 +5.947800E-05 -1.385897E-04 +1.336726E-05 +8.484297E-04 +5.947800E-05 +8.484297E-04 +7.054630E-03 
 +4.016426E-04 -3.605439E-04 -5.682897E-04 -3.605439E-04 +1.544249E-04 +5.288360E-04 -5.682897E-04 +5.288360E-04 +7.125152E-03 
 +1.810044E-04 +4.205552E-04 -2.423095E-04 +4.205552E-04 -5.750491E-04 +2.352539E-04 -2.423095E-04 +2.352539E-04 +7.682182E-03 
 -2.160734E-04 +1.490026E-04 -6.066405E-05 +1.490026E-04 +1.196096E-04 +1.680314E-04 -6.066405E-05 +1.680314E-04 +7.396576E-03 
 +3.518430E-05 -5.437788E-04 -2.407053E-04 -5.437788E-04 +3.911924E-05 -2.224158E-05 -2.407053E-04 -2.224158E-05 +7.230721E-03 
 +2.598394E-04 -9.104894E-04 -3.043546E-04 -9.104894E-04 -7.281416E-04 -1.902869E-04 -3.043546E-04 -1.902869E-04 +8.077898E-03 
 +7.248205E-05 -9.400955E-04 -3.314119E-04 -9.400955E-04 +4.053775E-04 +6.326503E-04 -3.314119E-04 +6.326503E-04 +7.372105E-03 
 -3.054298E-06 -1.968949E-04 +1.567874E-04 -1.968949E-04 +3.831352E-05 -4.108550E-04 +1.567874E-04 -4.108550E-04 +7.593925E-03 
 +2.040749E-04 -1.044618E-03 -5.267419E-05 -1.044618E-03 -4.291445E-05 +2.425100E-05 -5.267419E-05 +2.425100E-05 +7.504127E-03 
 +2.462858E-04 -2.744767E-05 -1.644682E-04 -2.744767E-05 +3.419432E-04 +3.185737E-04 -1.644682E-04 +3.185737E-04 +7.068790E-03 
 +1.247951E-04 +7.083640E-05 +1.288771E-04 +7.083640E-05 -2.394389E-04 -6.571856E-04 +1.288771E-04 -6.571856E-04 +7.414910E-03 
 -7.131613E-05 -8.320159E-06 -9.755797E-05 -8.320159E-06 -3.341581E-06 +2.588644E-04 -9.755797E-05 +2.588644E-04 +7.476369E-03 
 +1.100316E-04 -9.870075E-05 -4.649202E-04 -9.870075E-05 -4.558410E-05 +4.217805E-04 -4.649202E-04 +4.217805E-04 +7.417937E-03 
 +1.111809E-06 -3.706814E-04 +5.416354E-06 -3.706814E-04 +3.285012E-05 +6.515492E-05 +5.416354E-06 +6.515492E-05 +7.783105E-03 
 -3.732765E-04 +3.632546E-04 -1.361171E-04 +3.632546E-04 -2.271964E-04 +1.261488E-04 -1.361171E-04 +1.261488E-04 +7.807974E-03 
 +2.984334E-04 +8.510267E-05 -1.473395E-04 +8.510267E-05 +1.291000E-04 -1.340280E-04 -1.473395E-04 -1.340280E-04 +7.165892E-03 
 +3.890404E-04 -6.025395E-04 -3.204818E-04 -6.025395E-04 +1.693930E-04 -5.449174E-05 -3.204818E-04 -5.449174E-05 +7.115861E-03 
 +4.840233E-04 -4.822437E-04 -2.102424E-04 -4.822437E-04 -2.578408E-04 +5.030776E-04 -2.102424E-04 +5.030776E-04 +7.012436E-03 
 +2.944909E-04 +4.427435E-04 +8.345221E-05 +4.427435E-04 +1.270858E-04 -3.770970E-04 +8.345221E-05 -3.770970E-04 +6.785417E-03 
 -1.544596E-04 -1.820487E-04 -6.501931E-04 -1.820487E-04 +2.440948E-04 +5.534143E-04 -6.501931E-04 +5.534143E-04 +7.448401E-03 
 -1.096027E-04 -5.655566E-04 -2.368870E-04 -5.655566E-04 +1.863148E-04 +1.190495E-04 -2.368870E-04 +1.190495E-04 +7.271082E-03 
 -7.387097E-05 +2.722973E-04 +1.435384E-04 +2.722973E-04 +3.321758E-04 -4.800993E-04 +1.435384E-04 -4.800993E-04 +7.563466E-03 
 +3.451063E-04 -7.094329E-05 -7.300390E-05 -7.094329E-05 -9.891135E-04 +2.057105E-04 -7.300390E-05 +2.057105E-04 +7.994867E-03 
 +2.644300E-04 -4.874991E-04 +2.498443E-04 -4.874991E-04 +8.114142E-05 -8.897386E-04 +2.498443E-04 -8.897386E-04 +7.278681E-03 
 +1.519418E-04 -2.261554E-04 +4.481304E-04 -2.261554E-04 +4.512851E-04 +4.907910E-04 +4.481304E-04 +4.907910E-04 +7.205161E-03 
 -2.009798E-04 -1.138603E-03 +3.149920E-04 -1.138603E-03 -5.581099E-06 +7.531539E-05 +3.149920E-04 +7.531539E-05 +8.079800E-03 
 +4.153937E-04 -8.551032E-05 +1.908331E-04 -8.551032E-05 -3.396827E-04 -2.766471E-04 +1.908331E-04 -2.766471E-04 +7.341134E-03 
 +5.601640E-04 -7.571150E-04 -4.148360E-04 -7.571150E-04 +1.356337E-04 -3.870109E-04 -4.148360E-04 -3.870109E-04 +7.109637E-03 
 +1.432643E-04 +1.846579E-05 -6.669071E-04 +1.846579E-05 +7.199021E-05 +2.018405E-04 -6.669071E-04 +2.018405E-04 +6.907970E-03 
 -3.972826E-06 -3.155959E-04 -1.951343E-04 -3.155959E-04 +1.840035E-06 -1.287223E-04 -1.951343E-04 -1.287223E-04 +7.465338E-03 
 -4.685270E-05 -7.856972E-04 +1.899127E-04 -7.856972E-04 +2.485836E-04 +1.807503E-04 +1.899127E-04 +1.807503E-04 +7.236420E-03 
 +2.739792E-04 +2.934454E-04 -1.386656E-04 +2.934454E-04 -6.034719E-05 +1.955972E-04 -1.386656E-04 +1.955972E-04 +7.310251E-03 
 +6.996326E-05 +3.601632E-04 +4.176113E-05 +3.601632E-04 -4.351766E-04 -1.235285E-04 +4.176113E-05 -1.235285E-04 +7.749742E-03 
 -1.293570E-04 -1.678781E-04 +2.373301E-04 -1.678781E-04 +9.068379E-05 -4.997068E-06 +2.373301E-04 -4.997068E-06 +7.503979E-03 
 -5.540332E-05 +5.573684E-04 +3.239738E-04 +5.573684E-04 +8.530270E-05 -3.443235E-04 +3.239738E-04 -3.443235E-04 +7.228382E-03 
 +1.612153E-04 -3.945832E-04 -3.850042E-04 -3.945832E-04 +1.410979E-04 +3.010206E-05 -3.850042E-04 +3.010206E-05 +7.360588E-03 
 +3.852520E-05 +1.050159E-03 -2.129251E-04 +1.050159E-03 -3.206764E-04 -1.475267E-04 -2.129251E-04 -1.475267E-04 +7.999806E-03 
 -2.398857E-04 -1.241629E-03 +8.748683E-05 -1.241629E-03 +4.510892E-04 -2.171255E-05 +8.748683E-05 -2.171255E-05 +7.709492E-03 
 +1.786361E-04 +8.782604E-04 -2.786000E-05 +8.782604E-04 -3.922545E-04 -1.748569E-04 -2.786000E-05 -1.748569E-04 +7.492860E-03 
 -5.471371E-04 -4.010955E-04 +7.666739E-05 -4.010955E-04 +1.669650E-04 -3.774473E-05 +7.666739E-05 -3.774473E-05 +7.928806E-03 
 -9.725961E-04 -7.739188E-04 -9.309314E-05 -7.739188E-04 +3.640840E-04 +5.937585E-05 -9.309314E-05 +5.937585E-05 +7.976195E-03 
 -1.529322E-04 +9.869831E-04 +1.185012E-04 +9.869831E-04 -8.098335E-05 -4.799525E-04 +1.185012E-04 -4.799525E-04 +7.971967E-03 
 +2.259088E-04 -4.186197E-04 +8.700013E-05 -4.186197E-04 -5.941135E-04 -2.512643E-04 +8.700013E-05 -2.512643E-04 +7.671980E-03 
 +2.740827E-04 +1.877094E-05 -2.938319E-04 +1.877094E-05 -1.710262E-05 -4.796983E-04 -2.938319E-04 -4.796983E-04 +7.205008E-03 
 +6.993103E-05 +3.181054E-04 -1.522277E-04 +3.181054E-04 +2.967489E-04 +3.030614E-04 -1.522277E-04 +3.030614E-04 +7.170406E-03 
 +5.657166E-04 -1.014388E-03 +4.135732E-05 -1.014388E-03 -1.657408E-04 -1.645081E-04 +4.135732E-05 -1.645081E-04 +7.085165E-03 
 +2.732389E-04 -6.644261E-04 +4.450366E-04 -6.644261E-04 +3.517539E-04 +5.540309E-05 +4.450366E-04 +5.540309E-05 +6.929928E-03 
 +6.504114E-05 +3.238048E-04 -1.358928E-04 +3.238048E-04 +1.411728E-04 -1.928929E-04 -1.358928E-04 -1.928929E-04 +6.920751E-03 
 +1.353136E-04 -4.388523E-04 +2.059118E-04 -4.388523E-04 -2.045923E-04 +1.468791E-04 +2.059118E-04 +1.468791E-04 +7.562013E-03 
 -7.394785E-05 -1.426856E-04 +2.600751E-04 -1.426856E-04 -1.060946E-04 -1.231504E-04 +2.600751E-04 -1.231504E-04 +7.765242E-03 
 -1.140279E-04 +8.019589E-04 -5.142869E-04 +8.019589E-04 +2.896095E-04 -1.977206E-04 -5.142869E-04 -1.977206E-04 +7.277470E-03 
 -2.063762E-04 -1.446690E-03 -6.972222E-04 -1.446690E-03 +5.979035E-05 -8.458639E-05 -6.972222E-04 -8.458639E-05 +7.838458E-03 
 +9.642099E-06 -1.130307E-04 -3.111126E-04 -1.130307E-04 -2.756881E-04 -5.988584E-04 -3.111126E-04 -5.988584E-04 +7.635422E-03 
 +1.884762E-04 -3.430779E-05 +1.867869E-04 -3.430779E-05 -8.164013E-05 +2.148408E-04 +1.867869E-04 +2.148408E-04 +7.442946E-03 
 -2.412311E-04 +3.870206E-04 +5.651503E-04 +3.870206E-04 +6.034399E-05 +3.513469E-04 +5.651503E-04 +3.513469E-04 +7.602755E-03 
 -2.420706E-04 -1.272837E-04 -2.892738E-04 -1.272837E-04 +2.885959E-04 +6.468538E-04 -2.892738E-04 +6.468538E-04 +7.420131E-03 
 +2.681325E-04 -7.127791E-04 +2.934625E-04 -7.127791E-04 -5.258808E-04 -1.328926E-04 +2.934625E-04 -1.328926E-04 +7.475656E-03 
 +2.519556E-04 +1.679351E-04 -4.248407E-05 +1.679351E-04 +2.097497E-04 -5.736399E-04 -4.248407E-05 -5.736399E-04 +7.101296E-03 
 -2.402426E-04 -1.631757E-04 -3.198388E-04 -1.631757E-04 +1.182062E-04 -4.630785E-04 -3.198388E-04 -4.630785E-04 +7.537437E-03 
 -4.780401E-04 -4.309071E-05 +1.688452E-05 -4.309071E-05 -7.649929E-05 +2.132008E-04 +1.688452E-05 +2.132008E-04 +7.829485E-03 
 -4.882380E-04 +3.074344E-05 -1.452717E-04 +3.074344E-05 +8.108110E-06 +2.687142E-04 -1.452717E-04 +2.687142E-04 +7.908051E-03 
 -2.848413E-04 -4.275128E-04 +1.833694E-04 -4.275128E-04 +8.287135E-05 -3.818930E-04 +1.833694E-04 -3.818930E-04 +7.577809E-03 
 -7.862150E-05 +8.676674E-04 +7.025809E-05 +8.676674E-04 +1.340929E-04 -4.652090E-04 +7.025809E-05 -4.652090E-04 +7.481160E-03 
 +1.429253E-04 -8.512663E-04 -4.019086E-04 -8.512663E-04 -8.006576E-04 +2.943006E-04 -4.019086E-04 +2.943006E-04 +7.934589E-03 
 -5.964229E-04 -7.249545E-04 -5.092539E-05 -7.249545E-04 +6.256339E-04 +1.483564E-04 -5.092539E-05 +1.483564E-04 +7.516205E-03 
 -2.957771E-04 -8.971882E-04 -3.374826E-05 -8.971882E-04 +3.814491E-05 -2.884073E-04 -3.374826E-05 -2.884073E-04 +7.617953E-03 
 +8.741377E-05 -3.547768E-04 -1.904323E-04 -3.547768E-04 -5.317779E-04 +6.404495E-06 -1.904323E-04 +6.404495E-06 +7.777808E-03 
 +1.970714E-04 -2.002358E-04 +1.513636E-04 -2.002358E-04 +5.457050E-04 +6.599668E-04 +1.513636E-04 +6.599668E-04 +7.246986E-03 
 -6.380222E-05 +6.803797E-04 +2.279347E-04 +6.803797E-04 -1.406785E-04 -4.009408E-05 +2.279347E-04 -4.009408E-05 +7.455972E-03 
 +1.581675E-04 +5.391067E-04 -6.036463E-04 +5.391067E-04 -8.515208E-05 +1.950546E-05 -6.036463E-04 +1.950546E-05 +7.447720E-03 
 -8.544123E-05 -5.091911E-04 -2.928432E-04 -5.091911E-04 +1.513796E-04 +1.679149E-04 -2.928432E-04 +1.679149E-04 +7.421432E-03 
 +2.290480E-04 -1.686286E-04 +5.491535E-04 -1.686286E-04 -3.810146E-04 +1.362352E-04 +5.491535E-04 +1.362352E-04 +7.504704E-03 
 +4.675559E-05 -1.788056E-04 -2.057936E-04 -1.788056E-04 +1.685879E-04 +2.305381E-07 -2.057936E-04 +2.305381E-07 +7.315009E-03 
 -6.120023E-05 +3.439390E-04 -3.484874E-04 +3.439390E-04 -4.408885E-04 -5.894445E-04 -3.484874E-04 -5.894445E-04 +7.615147E-03 
 +2.844179E-05 -7.997491E-05 +2.757279E-04 -7.997491E-05 +4.127396E-04 +9.766385E-05 +2.757279E-04 +9.766385E-05 +7.392197E-03 
 +5.792820E-05 -3.350801E-05 +8.600574E-04 -3.350801E-05 +1.607207E-04 -2.508016E-04 +8.600574E-04 -2.508016E-04 +7.225748E-03 
 -1.518116E-04 -4.130535E-04 -1.104874E-04 -4.130535E-04 +2.715265E-05 -2.797570E-04 -1.104874E-04 -2.797570E-04 +7.678588E-03 
 +3.059896E-04 -1.828820E-04 -5.569670E-04 -1.828820E-04 -2.228105E-04 +1.081360E-04 -5.569670E-04 +1.081360E-04 +7.401172E-03 
 +4.404617E-04 -9.713307E-04 -4.287148E-04 -9.713307E-04 -4.675526E-05 +3.286062E-04 -4.287148E-04 +3.286062E-04 +7.200020E-03 
 +7.195141E-05 +1.771067E-04 -4.797377E-04 +1.771067E-04 +2.839187E-04 +9.064385E-04 -4.797377E-04 +9.064385E-04 +7.263897E-03 
 +5.456536E-05 -5.805508E-04 -7.743517E-05 -5.805508E-04 -4.032984E-04 -1.699456E-04 -7.743517E-05 -1.699456E-04 +7.500350E-03 
 +2.703198E-04 -1.495825E-04 -1.035239E-04 -1.495825E-04 +1.583861E-04 -8.600541E-05 -1.035239E-04 -8.600541E-05 +7.010848E-03 
 -3.256690E-04 -7.999379E-04 -9.610319E-05 -7.999379E-04 +9.641015E-05 -4.390638E-05 -9.610319E-05 -4.390638E-05 +7.348155E-03 
 -3.029229E-04 -3.191006E-04 -3.709231E-04 -3.191006E-04 -7.732565E-05 +1.488530E-04 -3.709231E-04 +1.488530E-04 +7.473853E-03 
 +2.016258E-04 -2.257206E-04 -2.752747E-04 -2.257206E-04 -6.626890E-05 +2.894883E-04 -2.752747E-04 +2.894883E-04 +7.055762E-03 
 -4.142284E-04 -3.960482E-04 +3.839020E-05 -3.960482E-04 -9.865780E-05 -5.419215E-04 +3.839020E-05 -5.419215E-04 +7.770202E-03 
 -4.798682E-04 -9.715263E-04 +4.683142E-04 -9.715263E-04 -2.622203E-05 -1.126439E-05 +4.683142E-04 -1.126439E-05 +7.755468E-03 
 -4.888008E-04 +2.849105E-04 +4.951282E-04 +2.849105E-04 +3.143053E-04 +8.146479E-05 +4.951282E-04 +8.146479E-05 +7.751166E-03 
 -5.483917E-04 -8.024023E-04 -4.518712E-04 -8.024023E-04 +2.154540E-04 +4.291919E-04 -4.518712E-04 +4.291919E-04 +7.796429E-03 
 +2.236762E-04 +1.240920E-03 -1.717163E-04 +1.240920E-03 -5.465741E-04 -1.795339E-04 -1.717163E-04 -1.795339E-04 +7.557245E-03 
 +1.931927E-04 +6.343370E-05 -1.101218E-04 +6.343370E-05 +2.441403E-04 +3.006067E-04 -1.101218E-04 +3.006067E-04 +7.168213E-03 
 +1.592232E-04 -6.543156E-04 +2.754314E-04 -6.543156E-04 +1.206482E-04 -1.376410E-04 +2.754314E-04 -1.376410E-04 +7.216807E-03 
 +1.099190E-04 -6.105911E-04 +4.152885E-04 -6.105911E-04 -3.823446E-04 +1.905417E-04 +4.152885E-04 +1.905417E-04 +7.668780E-03 
 +6.718830E-05 +5.146925E-04 +2.991818E-04 +5.146925E-04 +5.149843E-05 +4.190978E-04 +2.991818E-04 +4.190978E-04 +7.311734E-03 
 +2.680465E-04 +3.253512E-04 +7.649224E-04 +3.253512E-04 -3.629326E-04 +7.152537E-04 +7.649224E-04 +7.152537E-04 +7.202652E-03 
 -5.008644E-05 +2.823828E-06 +3.675029E-04 +2.823828E-06 +6.352327E-05 -6.578609E-04 +3.675029E-04 -6.578609E-04 +7.337451E-03 
 +2.355604E-05 -2.994427E-05 +1.699962E-04 -2.994427E-05 -1.202916E-04 +2.969015E-04 +1.699962E-04 +2.969015E-04 +7.463864E-03 
 +2.510857E-05 -6.516714E-04 +9.080736E-05 -6.516714E-04 +3.855907E-04 -5.896030E-04 +9.080736E-05 -5.896030E-04 +7.315694E-03 
 +2.697358E-04 -2.728903E-04 +4.960681E-05 -2.728903E-04 +3.874769E-04 -3.785272E-04 +4.960681E-05 -3.785272E-04 +7.032482E-03 
 +2.030796E-04 -1.682709E-03 +4.984373E-04 -1.682709E-03 -5.306274E-04 -9.674491E-05 +4.984373E-04 -9.674491E-05 +7.730808E-03 
 -1.805593E-05 +4.854407E-05 +5.746679E-04 +4.854407E-05 +1.304084E-04 -7.930214E-04 +5.746679E-04 -7.930214E-04 +7.470049E-03 
 +9.686130E-05 -5.606833E-04 -6.486346E-05 -5.606833E-04 -1.044504E-04 +4.864821E-04 -6.486346E-05 +4.864821E-04 +7.044898E-03 
 +6.499711E-04 -2.958303E-04 -3.669912E-04 -2.958303E-04 -3.201087E-04 -4.350437E-04 -3.669912E-04 -4.350437E-04 +7.608051E-03 
 -3.841467E-04 -9.668134E-04 -2.019838E-04 -9.668134E-04 +6.497370E-04 +1.437832E-04 -2.019838E-04 +1.437832E-04 +7.271814E-03 
 -3.225271E-04 +5.959941E-04 +1.524090E-05 +5.959941E-04 -4.143980E-05 -6.971908E-06 +1.524090E-05 -6.971908E-06 +7.588582E-03 
 +3.121179E-04 +5.715978E-04 -8.270373E-04 +5.715978E-04 -4.400213E-04 +1.621569E-04 -8.270373E-04 +1.621569E-04 +7.858140E-03 
 +2.698867E-04 -3.731321E-05 -5.981267E-04 -3.731321E-05 +1.353755E-04 -4.782218E-05 -5.981267E-04 -4.782218E-05 +7.089462E-03 
 +1.300429E-04 +6.251740E-05 +2.133329E-04 +6.251740E-05 +4.888371E-05 +5.464207E-04 +2.133329E-04 +5.464207E-04 +7.276936E-03 
 -3.879765E-04 -6.877400E-04 -4.624369E-04 -6.877400E-04 +2.022773E-04 +6.830830E-05 -4.624369E-04 +6.830830E-05 +7.365895E-03 
 -7.266890E-05 +2.492444E-04 -1.992244E-04 +2.492444E-04 +4.283800E-04 -5.797708E-04 -1.992244E-04 -5.797708E-04 +7.205271E-03 
 +2.277949E-04 +8.434788E-04 -3.566584E-04 +8.434788E-04 +1.170580E-04 -2.115184E-04 -3.566584E-04 -2.115184E-04 +7.241643E-03 
 +6.023390E-05 +3.051404E-04 +2.623261E-04 +3.051404E-04 +2.092327E-04 +4.990404E-04 +2.623261E-04 +4.990404E-04 +7.483848E-03 
 +3.059096E-05 -1.278306E-04 +5.002748E-04 -1.278306E-04 -8.529202E-04 +2.807980E-04 +5.002748E-04 +2.807980E-04 +7.754173E-03 
 +7.426381E-05 +6.070944E-05 +1.945143E-04 +6.070944E-05 +5.357211E-04 -6.412528E-04 +1.945143E-04 -6.412528E-04 +7.179914E-03 
 +7.247473E-05 +3.663402E-04 -4.301079E-04 +3.663402E-04 +1.949335E-05 +8.904582E-05 -4.301079E-04 +8.904582E-05 +7.491229E-03 
 +1.495264E-04 +9.385097E-05 -5.924026E-04 +9.385097E-05 -6.658201E-04 +3.328989E-04 -5.924026E-04 +3.328989E-04 +7.806798E-03 
 +1.121510E-05 -7.477761E-04 -2.583430E-04 -7.477761E-04 +2.344981E-05 -4.237393E-04 -2.583430E-04 -4.237393E-04 +7.915475E-03 
 +2.955885E-04 +2.056810E-04 -6.066437E-04 +2.056810E-04 -3.050357E-04 +4.734085E-04 -6.066437E-04 +4.734085E-04 +7.451534E-03 
 +1.527928E-04 +4.575403E-05 -2.454711E-04 +4.575403E-05 +7.338539E-04 +6.822054E-05 -2.454711E-04 +6.822054E-05 +7.294201E-03 
 +2.464390E-05 -4.262316E-04 -1.618226E-04 -4.262316E-04 -3.765469E-04 -6.201740E-04 -1.618226E-04 -6.201740E-04 +7.984460E-03 
 +3.028740E-04 -1.147805E-03 +5.254729E-05 -1.147805E-03 +2.402683E-05 -8.155571E-05 +5.254729E-05 -8.155571E-05 +7.598716E-03 
 -1.988529E-04 -2.749876E-04 +4.074761E-04 -2.749876E-04 -1.049933E-04 -2.385104E-04 +4.074761E-04 -2.385104E-04 +7.830183E-03 
 -4.157279E-04 -8.855635E-04 -2.931602E-04 -8.855635E-04 +2.984796E-04 +3.493045E-05 -2.931602E-04 +3.493045E-05 +7.854762E-03 
 +3.022485E-04 -4.039948E-04 -4.249097E-04 -4.039948E-04 -2.242601E-04 -1.645242E-04 -4.249097E-04 -1.645242E-04 +6.994137E-03 
 -2.310790E-04 +1.334464E-04 -1.838483E-04 +1.334464E-04 +1.181879E-04 +4.304759E-04 -1.838483E-04 +4.304759E-04 +7.208128E-03 
 -8.178912E-05 +6.747743E-05 +1.987018E-04 +6.747743E-05 +3.805566E-04 -1.440298E-05 +1.987018E-04 -1.440298E-05 +7.451687E-03 
 +2.027299E-04 +6.662861E-04 +4.103656E-04 +6.662861E-04 -4.518207E-04 -2.053676E-04 +4.103656E-04 -2.053676E-04 +7.316898E-03 
 +7.937749E-05 -5.674838E-04 +4.008818E-04 -5.674838E-04 +2.031256E-04 -3.714431E-04 +4.008818E-04 -3.714431E-04 +7.516011E-03 
 +3.544673E-05 -1.173947E-03 +6.286835E-05 -1.173947E-03 -1.781469E-04 +4.799582E-04 +6.286835E-05 +4.799582E-04 +7.791123E-03 
 -3.184948E-04 +1.036418E-04 +8.177216E-05 +1.036418E-04 +1.572533E-04 -1.164692E-03 +8.177216E-05 -1.164692E-03 +7.539887E-03 
 -2.149707E-04 +9.882394E-04 -2.423833E-04 +9.882394E-04 +3.380422E-04 +1.490305E-04 -2.423833E-04 +1.490305E-04 +7.438193E-03 
 +1.632874E-05 +3.313607E-04 +1.758117E-04 +3.313607E-04 +3.606850E-05 -8.562528E-04 +1.758117E-04 -8.562528E-04 +7.543213E-03 
 +1.881353E-05 +8.792820E-04 +4.883771E-04 +8.792820E-04 +1.785206E-05 -6.285532E-04 +4.883771E-04 -6.285532E-04 +7.927094E-03 
 -1.766683E-04 +8.646325E-05 +9.738782E-05 +8.646325E-05 -3.624826E-04 -6.060202E-04 +9.738782E-05 -6.060202E-04 +7.621447E-03 
 -1.063340E-04 +2.016465E-05 -1.106222E-04 +2.016465E-05 +2.641398E-04 -6.070889E-05 -1.106222E-04 -6.070889E-05 +7.700233E-03 
 -3.282759E-05 +5.563663E-04 +5.714574E-05 +5.563663E-04 +2.516730E-05 +1.855762E-04 +5.714574E-05 +1.855762E-04 +7.930654E-03 
 +2.962812E-04 -6.240613E-04 -1.141837E-04 -6.240613E-04 -3.842223E-04 -9.553563E-05 -1.141837E-04 -9.553563E-05 +7.874651E-03 
 +1.804814E-04 -1.110074E-03 -2.457873E-04 -1.110074E-03 +9.043521E-05 -1.972257E-04 -2.457873E-04 -1.972257E-04 +7.370909E-03 
 +1.437389E-04 +4.230295E-04 +5.492689E-04 +4.230295E-04 -2.797783E-04 -9.071815E-05 +5.492689E-04 -9.071815E-05 +7.435580E-03 
 +3.662757E-04 -6.843229E-05 +4.945622E-05 -6.843229E-05 +1.762914E-04 -2.430050E-04 +4.945622E-05 -2.430050E-04 +7.426457E-03 
 +1.843684E-04 -1.120120E-04 -2.578393E-04 -1.120120E-04 +9.666362E-05 +4.317809E-05 -2.578393E-04 +4.317809E-05 +7.032251E-03 
 +4.071179E-05 +3.840222E-04 -2.568561E-04 +3.840222E-04 -1.594801E-04 +6.430693E-04 -2.568561E-04 +6.430693E-04 +7.371068E-03 
 -4.194783E-04 +6.600899E-05 -5.161784E-04 +6.600899E-05 +5.045436E-05 +2.619147E-05 -5.161784E-04 +2.619147E-05 +7.678660E-03 
 -1.748130E-04 +6.320927E-04 -8.414614E-05 +6.320927E-04 +3.024323E-04 -3.805477E-04 -8.414614E-05 -3.805477E-04 +7.312822E-03 
 -5.632414E-05 -5.115378E-04 -5.876183E-05 -5.115378E-04 +1.705132E-05 +2.170930E-04 -5.876183E-05 +2.170930E-04 +7.824060E-03 
 -2.717201E-04 -7.879731E-05 -3.189050E-04 -7.879731E-05 -2.133904E-04 +2.894092E-04 -3.189050E-04 +2.894092E-04 +8.006459E-03 
 -3.517584E-04 +4.805913E-04 -6.202931E-05 +4.805913E-04 +2.531437E-04 +5.093932E-04 -6.202931E-05 +5.093932E-04 +7.343510E-03 
 -5.816696E-05 +4.373189E-04 +5.068764E-04 +4.373189E-04 -3.671702E-05 -2.988748E-04 +5.068764E-04 -2.988748E-04 +7.349082E-03 
 +1.818490E-04 -8.820770E-04 +3.429865E-04 -8.820770E-04 -3.363379E-04 +1.552215E-04 +3.429865E-04 +1.552215E-04 +7.715090E-03 
 -1.012131E-05 -2.238571E-04 +6.142532E-04 -2.238571E-04 +1.231038E-04 +2.149206E-04 +6.142532E-04 +2.149206E-04 +7.362840E-03 
 -1.198055E-04 +3.056150E-04 +3.887597E-04 +3.056150E-04 +3.270015E-04 -9.514533E-05 +3.887597E-04 -9.514533E-05 +7.130746E-03 
 -3.788917E-04 +1.784657E-04 -5.423637E-05 +1.784657E-04 -6.900876E-06 +1.777658E-04 -5.423637E-05 +1.777658E-04 +7.236302E-03 
 -1.022890E-04 +2.844832E-04 +4.005269E-04 +2.844832E-04 +5.267496E-05 +7.346014E-05 +4.005269E-04 +7.346014E-05 +7.721345E-03 
 +1.394548E-04 +2.733573E-04 +5.572084E-05 +2.733573E-04 +5.063760E-05 +5.101850E-04 +5.572084E-05 +5.101850E-04 +7.520185E-03 
 -2.222709E-04 -7.707928E-04 -1.925692E-04 -7.707928E-04 +1.999078E-04 +1.641113E-05 -1.925692E-04 +1.641113E-05 +7.500781E-03 
 -5.157694E-04 -1.181909E-03 +1.346212E-04 -1.181909E-03 -5.997047E-05 -6.623469E-05 +1.346212E-04 -6.623469E-05 +7.805295E-03 
 +3.582528E-04 +3.570589E-04 +6.224022E-05 +3.570589E-04 -1.553542E-04 +1.206173E-04 +6.224022E-05 +1.206173E-04 +7.436074E-03 
 +2.731156E-04 -7.463082E-04 +4.075353E-05 -7.463082E-04 +2.311417E-04 +2.184272E-04 +4.075353E-05 +2.184272E-04 +7.034864E-03 
 -3.721381E-06 -2.391613E-04 +5.920174E-04 -2.391613E-04 -5.763850E-06 -8.586130E-05 +5.920174E-04 -8.586130E-05 +7.725399E-03 
 +3.514728E-04 -1.415765E-04 +2.551344E-04 -1.415765E-04 -4.135561E-04 +1.717115E-05 +2.551344E-04 +1.717115E-05 +7.661927E-03 
 +3.978375E-04 -2.080339E-04 -1.978793E-04 -2.080339E-04 +1.217957E-04 +2.092354E-04 -1.978793E-04 +2.092354E-04 +7.220534E-03 
 -1.683141E-04 -2.511695E-04 +1.220634E-04 -2.511695E-04 +7.578579E-05 -3.412948E-05 +1.220634E-04 -3.412948E-05 +7.390986E-03 
 +1.483591E-04 -5.898214E-06 +7.024765E-04 -5.898214E-06 -5.633059E-05 +1.397760E-04 +7.024765E-04 +1.397760E-04 +7.450639E-03 
 +1.846382E-04 -1.321394E-04 +6.103728E-04 -1.321394E-04 +1.407709E-04 +5.852461E-04 +6.103728E-04 +5.852461E-04 +7.179596E-03 
 -1.203744E-05 +1.073985E-04 +2.678841E-04 +1.073985E-04 +1.271915E-04 -5.216603E-04 +2.678841E-04 -5.216603E-04 +7.708155E-03 
 -2.796342E-04 -8.466455E-04 -5.786974E-05 -8.466455E-04 -2.311952E-04 -2.044775E-04 -5.786974E-05 -2.044775E-04 +7.415075E-03 
 -2.085501E-04 +6.372840E-04 -3.694329E-04 +6.372840E-04 +1.356804E-04 -2.734880E-04 -3.694329E-04 -2.734880E-04 +7.035329E-03 
 -1.569742E-04 +1.361125E-03 +5.255739E-04 +1.361125E-03 +1.133508E-05 -1.976676E-04 +5.255739E-04 -1.976676E-04 +7.416838E-03 
 +4.812813E-05 +4.894219E-04 +2.399931E-05 +4.894219E-04 +3.197880E-05 -9.684588E-06 +2.399931E-05 -9.684588E-06 +7.633316E-03 
 +1.387968E-04 +6.207122E-04 -1.586505E-04 +6.207122E-04 -4.094671E-04 -1.042100E-04 -1.586505E-04 -1.042100E-04 +7.587458E-03 
 -3.489342E-05 +3.709049E-04 +6.510062E-05 +3.709049E-04 +8.523274E-04 +1.570781E-05 +6.510062E-05 +1.570781E-05 +7.228281E-03 
 -4.424550E-04 +2.628222E-04 -2.876691E-04 +2.628222E-04 +1.393226E-04 +7.161201E-04 -2.876691E-04 +7.161201E-04 +7.801465E-03 
 +2.061475E-04 -1.141316E-04 -1.681601E-04 -1.141316E-04 -8.390820E-04 -5.405102E-04 -1.681601E-04 -5.405102E-04 +8.096749E-03 
 +5.858288E-05 +4.483986E-04 +8.531450E-04 +4.483986E-04 -1.584083E-04 +7.103397E-04 +8.531450E-04 +7.103397E-04 +7.519216E-03 
 -3.608571E-06 -1.519973E-04 +4.526419E-04 -1.519973E-04 +9.466516E-05 +4.593059E-04 +4.526419E-04 +4.593059E-04 +7.315282E-03 
 -1.257739E-04 -1.014040E-04 -4.499001E-05 -1.014040E-04 -1.400777E-04 +4.934308E-05 -4.499001E-05 +4.934308E-05 +7.634904E-03 
 +3.038305E-04 -1.277074E-04 +6.166627E-04 -1.277074E-04 -2.114227E-04 -1.626906E-04 +6.166627E-04 -1.626906E-04 +7.353464E-03 
 +1.408468E-04 -1.440722E-05 +3.973469E-04 -1.440722E-05 +2.958239E-04 -1.112496E-04 +3.973469E-04 -1.112496E-04 +7.240399E-03 
 +1.310388E-04 -7.513113E-04 -4.164875E-04 -7.513113E-04 +1.165341E-04 +3.965169E-04 -4.164875E-04 +3.965169E-04 +7.363372E-03 
 -3.614983E-05 -3.572400E-04 -7.041795E-04 -3.572400E-04 -7.549622E-05 +8.173914E-05 -7.041795E-04 +8.173914E-05 +7.128038E-03 
 -9.347255E-05 -4.015073E-04 -1.485882E-04 -4.015073E-04 -1.010583E-04 -1.176101E-04 -1.485882E-04 -1.176101E-04 +7.543983E-03 
 -2.764327E-04 -4.651094E-04 +6.189210E-04 -4.651094E-04 +1.755324E-04 +3.231339E-05 +6.189210E-04 +3.231339E-05 +7.758481E-03 
 -7.053759E-05 -8.861808E-04 +3.820896E-04 -8.861808E-04 -5.234760E-04 +8.994390E-04 +3.820896E-04 +8.994390E-04 +7.933727E-03 
 +4.473995E-05 -6.108250E-04 -1.303685E-04 -6.108250E-04 +1.997470E-04 -1.477997E-05 -1.303685E-04 -1.477997E-05 +7.559698E-03 
 +2.967844E-04 -7.327894E-04 -3.785239E-04 -7.327894E-04 -3.109979E-04 -2.733664E-04 -3.785239E-04 -2.733664E-04 +7.537193E-03 
 +3.114542E-04 -1.880704E-04 +2.847802E-05 -1.880704E-04 +3.733967E-04 -4.867286E-04 +2.847802E-05 -4.867286E-04 +7.653464E-03 
 -2.179094E-05 -1.108291E-03 -2.174512E-05 -1.108291E-03 -2.202159E-04 -1.798611E-04 -2.174512E-05 -1.798611E-04 +7.877486E-03 
 -1.050564E-04 +8.722272E-04 +2.260928E-04 +8.722272E-04 -8.932682E-05 -1.216012E-04 +2.260928E-04 -1.216012E-04 +7.934224E-03 
 -6.102102E-04 +7.769830E-04 +1.407239E-04 +7.769830E-04 +2.097524E-04 +1.714532E-05 +1.407239E-04 +1.714532E-05 +7.669434E-03 
 -5.488177E-05 +6.598833E-04 +7.297889E-04 +6.598833E-04 -2.039690E-04 -1.650127E-04 +7.297889E-04 -1.650127E-04 +7.607082E-03 
 -7.494351E-05 +6.689631E-04 +5.420853E-04 +6.689631E-04 +5.714618E-04 -8.758498E-05 +5.420853E-04 -8.758498E-05 +7.071699E-03 
 -1.282018E-05 -5.608562E-05 -8.853020E-04 -5.608562E-05 +7.272143E-05 +1.540291E-04 -8.853020E-04 +1.540291E-04 +7.392320E-03 
 +2.508445E-04 +1.891962E-04 -4.273993E-04 +1.891962E-04 +1.813637E-04 -4.043192E-04 -4.273993E-04 -4.043192E-04 +7.396530E-03 
 +4.278769E-05 +3.007060E-04 +5.444696E-04 +3.007060E-04 -2.551600E-04 +2.278129E-04 +5.444696E-04 +2.278129E-04 +7.365055E-03 
 -1.207896E-04 -4.311613E-04 +4.469834E-04 -4.311613E-04 -8.197399E-05 -6.825068E-04 +4.469834E-04 -6.825068E-04 +7.576569E-03 
 +1.073586E-04 -9.735236E-05 +3.462153E-04 -9.735236E-05 -2.678185E-04 +2.049161E-04 +3.462153E-04 +2.049161E-04 +7.522535E-03 
 +2.423313E-04 -1.277602E-04 +4.191808E-04 -1.277602E-04 +1.850187E-04 +1.784580E-04 +4.191808E-04 +1.784580E-04 +7.017248E-03 
 +3.784849E-04 +9.954991E-04 +2.334779E-04 +9.954991E-04 -2.208757E-04 +5.426158E-04 +2.334779E-04 +5.426158E-04 +7.238386E-03 
 -8.426801E-05 -2.022179E-04 -5.108818E-04 -2.022179E-04 -2.002063E-05 +2.004844E-04 -5.108818E-04 +2.004844E-04 +7.534053E-03 
 +9.232391E-06 -3.920006E-04 -2.345726E-04 -3.920006E-04 +2.124064E-04 -3.140597E-04 -2.345726E-04 -3.140597E-04 +7.430632E-03 
 -7.326117E-05 -8.320188E-04 -1.169007E-04 -8.320188E-04 -1.570786E-04 +1.564298E-04 -1.169007E-04 +1.564298E-04 +7.472936E-03 
 -7.207796E-05 +6.317833E-04 -5.964938E-04 +6.317833E-04 +2.980765E-04 +5.246588E-05 -5.964938E-04 +5.246588E-05 +7.261101E-03 
 +2.828751E-05 -1.196117E-03 +2.763063E-05 -1.196117E-03 -4.260234E-04 -1.401500E-04 +2.763063E-05 -1.401500E-04 +7.731114E-03 
 +2.894174E-06 +1.487654E-05 -2.745333E-04 +1.487654E-05 +9.760766E-05 -2.946605E-04 -2.745333E-04 -2.946605E-04 +7.374927E-03 
 +9.412997E-06 -9.118131E-04 -6.806473E-04 -9.118131E-04 -4.101128E-04 +1.141496E-04 -6.806473E-04 +1.141496E-04 +7.632077E-03 
 +2.310103E-04 -2.459084E-04 -2.129854E-04 -2.459084E-04 -5.318448E-05 +6.377258E-04 -2.129854E-04 +6.377258E-04 +7.628593E-03 
 +6.257727E-05 +4.328026E-04 -1.924664E-04 +4.328026E-04 +2.722304E-04 +2.121439E-04 -1.924664E-04 +2.121439E-04 +7.099745E-03 
 +3.281718E-04 -2.688699E-04 +1.240953E-04 -2.688699E-04 +1.343786E-04 +3.572005E-04 +1.240953E-04 +3.572005E-04 +7.326256E-03 
 -3.334312E-04 -4.322155E-04 +1.526962E-04 -4.322155E-04 -4.147100E-04 +5.056508E-04 +1.526962E-04 +5.056508E-04 +7.780599E-03 
 -4.815120E-04 +2.046160E-04 -3.775564E-04 +2.046160E-04 +1.447253E-04 +9.270230E-06 -3.775564E-04 +9.270230E-06 +7.883580E-03 
 +3.039096E-04 +1.955203E-05 -9.715179E-06 +1.955203E-05 +1.467182E-04 -3.123680E-04 -9.715179E-06 -3.123680E-04 +6.706148E-03 
 +1.079113E-04 +2.523173E-04 +3.170041E-04 +2.523173E-04 +3.560586E-04 +1.556249E-04 +3.170041E-04 +1.556249E-04 +7.076149E-03 
 -2.174867E-04 -6.322936E-04 +8.044427E-06 -6.322936E-04 -8.254425E-05 -7.235877E-05 +8.044427E-06 -7.235877E-05 +7.443088E-03 
 +4.121174E-05 -4.469872E-04 +1.336165E-04 -4.469872E-04 +1.652306E-04 +7.856850E-04 +1.336165E-04 +7.856850E-04 +7.325141E-03 
 -1.961649E-04 +1.194772E-04 +4.879520E-04 +1.194772E-04 +1.220914E-04 -2.595980E-04 +4.879520E-04 -2.595980E-04 +7.622535E-03 
 -7.004840E-04 -1.653090E-04 -7.991859E-06 -1.653090E-04 +2.852271E-04 -1.752772E-04 -7.991859E-06 -1.752772E-04 +7.509168E-03 
 -1.132485E-04 +3.329228E-04 +6.787941E-07 +3.329228E-04 +6.089659E-05 -1.907949E-04 +6.787941E-07 -1.907949E-04 +7.218162E-03 
 +1.419158E-04 -2.902198E-04 -7.133949E-04 -2.902198E-04 -4.327041E-05 +4.798997E-04 -7.133949E-04 +4.798997E-04 +7.502844E-03 
 +1.797156E-04 +3.787590E-04 -3.257624E-04 +3.787590E-04 -9.246638E-05 -1.788545E-04 -3.257624E-04 -1.788545E-04 +7.847176E-03 
 +1.826174E-04 -2.999347E-04 +2.725632E-05 -2.999347E-04 -2.959111E-04 -1.495146E-04 +2.725632E-05 -1.495146E-04 +7.643244E-03 
 +1.584700E-04 +1.866779E-04 -7.772308E-04 +1.866779E-04 -6.572710E-05 -1.649761E-04 -7.772308E-04 -1.649761E-04 +7.611256E-03 
 -2.390954E-04 +4.325992E-04 -3.636508E-04 +4.325992E-04 +4.618594E-04 -5.102774E-05 -3.636508E-04 -5.102774E-05 +7.558539E-03 
 +1.395799E-04 +1.189785E-03 +7.062948E-04 +1.189785E-03 -2.790509E-04 -2.395263E-04 +7.062948E-04 -2.395263E-04 +7.751625E-03 
 +1.322114E-04 -9.113789E-04 +8.099743E-04 -9.113789E-04 -3.731421E-06 +4.507423E-04 +8.099743E-04 +4.507423E-04 +7.563298E-03 
 -2.047982E-04 +4.706327E-04 +1.274820E-04 +4.706327E-04 -1.339429E-04 -2.480952E-04 +1.274820E-04 -2.480952E-04 +7.822739E-03 
 +2.534197E-04 -4.277755E-05 +3.597391E-04 -4.277755E-05 -5.632345E-05 +5.233206E-04 +3.597391E-04 +5.233206E-04 +7.242608E-03 
 +1.637885E-04 -3.741569E-05 +9.316584E-05 -3.741569E-05 +6.618472E-05 +4.837020E-05 +9.316584E-05 +4.837020E-05 +7.365103E-03 
 -5.166965E-04 +6.848207E-05 -4.946759E-04 +6.848207E-05 -1.748209E-04 -1.410287E-04 -4.946759E-04 -1.410287E-04 +7.866756E-03 
 -1.247753E-04 +1.492245E-04 -6.391947E-04 +1.492245E-04 +3.231283E-05 -1.702529E-04 -6.391947E-04 -1.702529E-04 +7.724269E-03 
 -2.086759E-04 +1.857446E-04 -3.003170E-04 +1.857446E-04 +5.242051E-05 +5.868804E-05 -3.003170E-04 +5.868804E-05 +7.595347E-03 
 -1.098974E-04 -2.903274E-04 +2.235373E-04 -2.903274E-04 +4.423080E-04 +1.043061E-05 +2.235373E-04 +1.043061E-05 +6.985202E-03 
 -3.248284E-04 -7.426821E-04 -2.960248E-04 -7.426821E-04 -1.475319E-04 +3.969087E-05 -2.960248E-04 +3.969087E-05 +7.886216E-03 
 -3.629242E-04 +7.106831E-04 -9.278937E-04 +7.106831E-04 -1.755683E-04 +6.365684E-04 -9.278937E-04 +6.365684E-04 +8.138488E-03 
 -5.213625E-04 +3.466435E-04 -3.274467E-04 +3.466435E-04 +2.016020E-04 -4.143853E-04 -3.274467E-04 -4.143853E-04 +7.606208E-03 
 +9.640267E-05 -5.581580E-04 +1.807397E-04 -5.581580E-04 -2.643449E-04 -2.824717E-04 +1.807397E-04 -2.824717E-04 +7.609881E-03 
 -2.322792E-04 +4.099478E-04 -1.818124E-04 +4.099478E-04 +1.305454E-04 -5.336806E-04 -1.818124E-04 -5.336806E-04 +7.382130E-03 
 -5.912409E-04 +2.836806E-04 +1.745208E-04 +2.836806E-04 +6.326168E-04 -1.265580E-05 +1.745208E-04 -1.265580E-05 +7.278377E-03 
 -9.406641E-04 +1.071657E-03 -1.935784E-04 +1.071657E-03 +3.627256E-04 -1.147209E-04 -1.935784E-04 -1.147209E-04 +8.062795E-03 
 +2.336974E-04 -1.802403E-05 +6.369162E-05 -1.802403E-05 -6.544667E-04 +2.179829E-05 +6.369162E-05 +2.179829E-05 +7.776740E-03 
 +5.356947E-04 -1.838130E-04 +5.829338E-05 -1.838130E-04 +6.161255E-05 -2.257725E-06 +5.829338E-05 -2.257725E-06 +7.184988E-03 
 +1.937215E-05 -1.461550E-04 +5.739485E-05 -1.461550E-04 -1.768570E-04 -2.934278E-05 +5.739485E-05 -2.934278E-05 +7.478044E-03 
 +2.306077E-04 -4.890175E-04 +3.420960E-04 -4.890175E-04 +9.890059E-05 +6.177660E-05 +3.420960E-04 +6.177660E-05 +7.489034E-03 
 -5.665781E-04 +3.491004E-04 +5.527805E-05 +3.491004E-04 +2.294955E-04 +5.384650E-04 +5.527805E-05 +5.384650E-04 +7.579236E-03 
 -3.940520E-04 +4.237502E-04 -4.753057E-04 +4.237502E-04 -5.321558E-05 +1.666984E-04 -4.753057E-04 +1.666984E-04 +7.626373E-03 
 -2.200947E-04 -3.035584E-04 -2.432747E-04 -3.035584E-04 +6.830472E-05 +4.344665E-04 -2.432747E-04 +4.344665E-04 +7.542450E-03 
 +1.950386E-04 +1.962345E-04 +8.267513E-05 +1.962345E-04 +9.064112E-05 +6.814493E-05 +8.267513E-05 +6.814493E-05 +7.079781E-03 
 +5.512630E-04 +8.429197E-04 +4.347690E-05 +8.429197E-04 -8.634412E-04 -1.296094E-04 +4.347690E-05 -1.296094E-04 +7.464034E-03 
 +1.268267E-04 +5.344416E-04 +1.956505E-04 +5.344416E-04 +5.847490E-05 -1.298522E-04 +1.956505E-04 -1.298522E-04 +7.567403E-03 
 -4.367193E-05 -2.368024E-04 +2.487818E-05 -2.368024E-04 +4.261294E-05 -7.360540E-04 +2.487818E-05 -7.360540E-04 +7.485014E-03 
 +2.650853E-04 +4.413486E-04 +2.469980E-04 +4.413486E-04 -1.610487E-05 +2.552756E-04 +2.469980E-04 +2.552756E-04 +7.346680E-03 
 +1.574540E-04 -2.620961E-04 +7.713023E-05 -2.620961E-04 +5.278160E-04 +2.105287E-04 +7.713023E-05 +2.105287E-04 +6.826000E-03 
 -6.255460E-04 -3.692008E-06 +1.562457E-04 -3.692008E-06 +2.997205E-04 -2.566079E-04 +1.562457E-04 -2.566079E-04 +7.823206E-03 
 -7.591164E-04 +1.301048E-04 +1.021580E-04 +1.301048E-04 -6.189731E-05 -2.726207E-04 +1.021580E-04 -2.726207E-04 +7.900987E-03 
 +1.230973E-04 -2.863443E-04 -2.744903E-04 -2.863443E-04 -2.191601E-04 +4.380415E-04 -2.744903E-04 +4.380415E-04 +7.467373E-03 
 -2.247036E-05 +4.946111E-04 +6.287100E-04 +4.946111E-04 -2.288163E-04 -1.712934E-04 +6.287100E-04 -1.712934E-04 +7.828517E-03 
 +6.937799E-04 -6.960433E-04 +1.201706E-03 -6.960433E-04 -5.021945E-04 +7.805090E-05 +1.201706E-03 +7.805090E-05 +7.361182E-03 
 +3.384811E-04 +9.609785E-05 +5.849914E-04 +9.609785E-05 +3.021300E-04 -4.024410E-04 +5.849914E-04 -4.024410E-04 +7.063063E-03 
 -2.283311E-04 +1.101724E-03 -1.773621E-05 +1.101724E-03 +3.437292E-05 +2.960816E-04 -1.773621E-05 +2.960816E-04 +7.390165E-03 
 +9.897920E-06 +5.287348E-04 -4.237807E-04 +5.287348E-04 +5.659543E-04 -5.672846E-04 -4.237807E-04 -5.672846E-04 +7.216706E-03 
 +3.984599E-04 -3.685125E-04 -2.361453E-04 -3.685125E-04 -5.324709E-04 -5.075284E-04 -2.361453E-04 -5.075284E-04 +7.561924E-03 
 -3.120549E-05 -2.826800E-04 +2.128961E-04 -2.826800E-04 -1.103134E-04 -2.822229E-04 +2.128961E-04 -2.822229E-04 +7.692875E-03 
 -1.874357E-04 -7.842859E-05 -2.293160E-05 -7.842859E-05 +1.266569E-04 -2.353287E-04 -2.293160E-05 -2.353287E-04 +7.240056E-03 
 +8.418103E-06 +6.699928E-04 -2.676365E-04 +6.699928E-04 +3.620109E-04 +3.546354E-05 -2.676365E-04 +3.546354E-05 +7.341914E-03 
 -6.336014E-05 -1.326710E-03 +1.626929E-04 -1.326710E-03 -2.842867E-04 +5.319756E-05 +1.626929E-04 +5.319756E-05 +7.395276E-03 
 -1.424343E-04 +2.023611E-04 +6.084237E-04 +2.023611E-04 +2.125657E-04 -4.257135E-04 +6.084237E-04 -4.257135E-04 +7.324835E-03 
 -1.993925E-04 +7.261557E-04 +7.055220E-05 +7.261557E-04 +3.664715E-05 -1.742183E-04 +7.055220E-05 -1.742183E-04 +7.474530E-03 
 -3.403615E-04 +2.579468E-04 +3.462695E-04 +2.579468E-04 -1.475092E-04 -8.856988E-04 +3.462695E-04 -8.856988E-04 +8.111919E-03 
 +3.274280E-04 +3.890054E-04 +4.681282E-04 +3.890054E-04 -9.225028E-04 -2.531960E-04 +4.681282E-04 -2.531960E-04 +8.024177E-03 
 +3.859943E-04 +3.969508E-04 +1.698336E-04 +3.969508E-04 +4.683851E-04 +7.515475E-04 +1.698336E-04 +7.515475E-04 +7.685690E-03 
 +2.070746E-05 +2.364741E-05 +2.523723E-04 +2.364741E-05 -1.719047E-05 +3.501503E-04 +2.523723E-04 +3.501503E-04 +7.298374E-03 
 +2.788003E-04 +4.007538E-04 +6.063966E-06 +4.007538E-04 +1.245104E-04 +9.577536E-05 +6.063966E-06 +9.577536E-05 +7.177704E-03 
 +9.265134E-05 -4.212482E-04 +3.855038E-04 -4.212482E-04 +8.429046E-05 -4.053824E-04 +3.855038E-04 -4.053824E-04 +7.671317E-03 
 +2.996195E-05 -1.183578E-04 +3.225515E-04 -1.183578E-04 +5.481794E-04 +4.072275E-04 +3.225515E-04 +4.072275E-04 +7.000004E-03 
 -1.745888E-04 +7.953809E-04 -1.174594E-04 +7.953809E-04 -1.049593E-04 +8.769336E-05 -1.174594E-04 +8.769336E-05 +7.435462E-03 
 +2.092746E-04 -8.748354E-04 +4.347645E-04 -8.748354E-04 -2.773624E-04 -6.059122E-04 +4.347645E-04 -6.059122E-04 +7.784486E-03 
 +2.322048E-04 +2.980111E-04 +5.697899E-04 +2.980111E-04 -8.320343E-05 -8.734094E-05 +5.697899E-04 -8.734094E-05 +7.190729E-03 
 -3.225926E-05 -2.510493E-04 -6.262371E-06 -2.510493E-04 -4.272569E-04 -1.072753E-05 -6.262371E-06 -1.072753E-05 +7.780888E-03 
 -2.418704E-04 +4.122584E-04 -3.723998E-05 +4.122584E-04 +3.427641E-04 +3.256981E-04 -3.723998E-05 +3.256981E-04 +7.727436E-03 
 +2.065725E-04 +1.071931E-03 -2.958413E-04 +1.071931E-03 -5.841198E-04 +1.391381E-04 -2.958413E-04 +1.391381E-04 +7.911026E-03 
 +1.219094E-04 +5.528915E-05 -4.536082E-04 +5.528915E-05 +1.882490E-04 +8.422887E-05 -4.536082E-04 +8.422887E-05 +7.508877E-03 
 +1.160830E-04 -4.710197E-04 +3.006567E-04 -4.710197E-04 -6.515356E-06 -4.588458E-04 +3.006567E-04 -4.588458E-04 +7.285390E-03 
 +1.028146E-04 +2.289604E-04 +4.302876E-04 +2.289604E-04 -1.020778E-06 +2.525017E-04 +4.302876E-04 +2.525017E-04 +7.343371E-03 
 -1.587473E-04 -5.374489E-04 +3.145744E-04 -5.374489E-04 +2.952342E-04 +1.383239E-04 +3.145744E-04 +1.383239E-04 +7.500908E-03 
 -9.899452E-05 +5.436536E-04 -3.144279E-04 +5.436536E-04 +1.223050E-04 +3.544375E-04 -3.144279E-04 +3.544375E-04 +7.359708E-03 
 +3.011396E-04 -7.054860E-04 +2.000730E-04 -7.054860E-04 -8.526344E-05 +1.685291E-04 +2.000730E-04 +1.685291E-04 +7.127240E-03 
 -5.673325E-05 -4.938121E-04 +4.233245E-04 -4.938121E-04 -2.457978E-04 +6.933081E-04 +4.233245E-04 +6.933081E-04 +7.221298E-03 
 -1.944557E-04 +2.617555E-04 +2.237366E-04 +2.617555E-04 +2.103838E-05 +1.272237E-04 +2.237366E-04 +1.272237E-04 +7.789736E-03 
 +5.883679E-04 -1.655132E-04 +1.577851E-04 -1.655132E-04 -6.456278E-04 -6.652399E-04 +1.577851E-04 -6.652399E-04 +7.452101E-03 
 +1.747208E-04 -1.590324E-04 -8.019050E-05 -1.590324E-04 +3.363382E-04 -1.654468E-04 -8.019050E-05 -1.654468E-04 +7.176052E-03 
 +1.070925E-04 -6.865063E-05 +1.221887E-04 -6.865063E-05 +2.326733E-04 +2.801399E-04 +1.221887E-04 +2.801399E-04 +7.096730E-03 
 +6.461504E-05 +5.282937E-04 -5.113779E-04 +5.282937E-04 +1.615233E-04 -1.988234E-04 -5.113779E-04 -1.988234E-04 +7.608841E-03 
 -2.133034E-05 +7.292376E-04 +3.970223E-04 +7.292376E-04 -4.980542E-04 -7.925124E-05 +3.970223E-04 -7.925124E-05 +7.830259E-03 
 +4.462244E-04 +1.808816E-04 +3.110894E-04 +1.808816E-04 +2.685206E-04 +1.815783E-05 +3.110894E-04 +1.815783E-05 +7.134432E-03 
 -1.298860E-04 +4.979675E-04 +6.800843E-05 +4.979675E-04 +3.244593E-04 -1.421377E-04 +6.800843E-05 -1.421377E-04 +7.679497E-03 
 -3.811855E-05 +5.525650E-04 -2.562258E-05 +5.525650E-04 +1.005348E-04 -1.214414E-04 -2.562258E-05 -1.214414E-04 +7.343387E-03 
 +4.633084E-04 +2.767307E-05 -1.059188E-03 +2.767307E-05 +1.360623E-05 +1.460068E-04 -1.059188E-03 +1.460068E-04 +6.911341E-03 
 +5.221164E-04 +2.186943E-04 -5.193391E-04 +2.186943E-04 -3.969731E-04 +3.605886E-04 -5.193391E-04 +3.605886E-04 +7.465022E-03 
 -5.335317E-05 +2.356077E-05 -1.288417E-04 +2.356077E-05 +2.898812E-05 +2.820617E-04 -1.288417E-04 +2.820617E-04 +7.163416E-03 
 -6.543278E-04 +4.728990E-04 -2.297323E-05 +4.728990E-04 +3.695972E-04 +1.422583E-04 -2.297323E-05 +1.422583E-04 +7.703367E-03 
 +2.455777E-04 +5.533229E-04 -2.797150E-04 +5.533229E-04 -1.782055E-04 +4.246458E-06 -2.797150E-04 +4.246458E-06 +7.447802E-03 
 +6.217061E-04 -8.447401E-05 +2.859624E-04 -8.447401E-05 -5.044822E-04 -1.674745E-04 +2.859624E-04 -1.674745E-04 +7.182152E-03 
 +5.051102E-04 +8.366913E-05 -4.359692E-04 +8.366913E-05 +2.326985E-04 +2.677747E-04 -4.359692E-04 +2.677747E-04 +6.925023E-03 
 +2.319976E-04 +4.270098E-04 -1.023724E-03 +4.270098E-04 +1.196629E-04 -6.735431E-04 -1.023724E-03 -6.735431E-04 +7.147506E-03 
 -1.486887E-04 -7.324637E-05 -3.376313E-04 -7.324637E-05 +5.675563E-05 -6.296759E-05 -3.376313E-04 -6.296759E-05 +7.513284E-03 
 +1.730738E-04 -4.745589E-04 +3.380864E-05 -4.745589E-04 +5.270767E-05 -5.977661E-04 +3.380864E-05 -5.977661E-04 +6.911667E-03 
 +1.526893E-04 -9.998434E-05 -2.332185E-04 -9.998434E-05 +4.312252E-05 -6.444100E-04 -2.332185E-04 -6.444100E-04 +6.805731E-03 
 +2.494236E-04 +5.213165E-04 -5.477408E-04 +5.213165E-04 -6.367705E-05 +1.168014E-04 -5.477408E-04 +1.168014E-04 +7.454474E-03 
 +1.822226E-04 +1.405859E-03 -4.019919E-04 +1.405859E-03 -7.972379E-04 +1.182999E-04 -4.019919E-04 +1.182999E-04 +7.414709E-03 
 -2.589641E-04 -2.214159E-04 -5.366701E-04 -2.214159E-04 +6.763653E-04 +1.765064E-04 -5.366701E-04 +1.765064E-04 +6.968615E-03 
 +4.109688E-04 -4.361505E-05 +4.211544E-04 -4.361505E-05 -1.453199E-04 -6.233359E-04 +4.211544E-04 -6.233359E-04 +7.177114E-03 
 +1.995410E-04 -4.565842E-05 +5.595013E-04 -4.565842E-05 +1.257511E-04 -1.097433E-04 +5.595013E-04 -1.097433E-04 +7.531642E-03 
 +3.554855E-04 +3.381357E-04 -1.928157E-04 +3.381357E-04 -3.897871E-05 +2.918403E-04 -1.928157E-04 +2.918403E-04 +7.207644E-03 
 +4.189295E-05 +6.701134E-04 -1.501814E-04 +6.701134E-04 +2.584246E-04 -1.625961E-04 -1.501814E-04 -1.625961E-04 +7.187916E-03 
 -3.328141E-04 +7.128844E-06 +8.167353E-05 +7.128844E-06 +2.811337E-04 +1.364932E-04 +8.167353E-05 +1.364932E-04 +7.689035E-03 
 -2.634620E-04 -1.513778E-04 -2.234214E-04 -1.513778E-04 -2.145457E-04 -3.697774E-04 -2.234214E-04 -3.697774E-04 +7.731883E-03 
 -1.477677E-04 +4.878357E-05 -2.260013E-04 +4.878357E-05 +9.583359E-06 +4.593187E-05 -2.260013E-04 +4.593187E-05 +7.282504E-03 
 -3.275383E-04 -1.043306E-03 -8.755867E-05 -1.043306E-03 -2.093714E-04 -9.478188E-05 -8.755867E-05 -9.478188E-05 +7.709188E-03 
 +1.537618E-04 -4.408353E-04 -5.290159E-04 -4.408353E-04 +4.532838E-05 +6.927191E-05 -5.290159E-04 +6.927191E-05 +7.336677E-03 
 +2.363405E-05 +2.882373E-04 -1.251154E-04 +2.882373E-04 +1.470212E-04 -7.994406E-04 -1.251154E-04 -7.994406E-04 +6.850506E-03 
 -3.614628E-04 +5.581229E-04 -6.618995E-05 +5.581229E-04 +1.029326E-04 +2.632164E-04 -6.618995E-05 +2.632164E-04 +7.504493E-03 
 +1.802559E-04 +5.116009E-04 +3.892613E-04 +5.116009E-04 -3.751558E-05 -2.854528E-04 +3.892613E-04 -2.854528E-04 +7.469545E-03 
 +1.500700E-04 +1.806499E-04 -2.409064E-04 +1.806499E-04 -2.548049E-04 -1.240000E-04 -2.409064E-04 -1.240000E-04 +7.621964E-03 
 +9.702452E-05 -8.784395E-04 -6.542474E-05 -8.784395E-04 -3.788013E-05 -1.409840E-04 -6.542474E-05 -1.409840E-04 +7.412888E-03 
 -1.081919E-04 -1.426547E-04 +3.974396E-04 -1.426547E-04 +2.899369E-04 +5.394227E-05 +3.974396E-04 +5.394227E-05 +7.263445E-03 
 -2.705401E-04 +9.762724E-04 +6.273973E-04 +9.762724E-04 +1.765672E-04 +3.644954E-04 +6.273973E-04 +3.644954E-04 +7.193390E-03 
 -3.704254E-04 -9.682357E-04 +4.387930E-04 -9.682357E-04 +3.230584E-05 +1.877200E-04 +4.387930E-04 +1.877200E-04 +7.764160E-03 
 +2.169919E-04 +3.155585E-04 -2.955883E-04 +3.155585E-04 -7.366786E-04 +1.078300E-04 -2.955883E-04 +1.078300E-04 +7.784827E-03 
 +3.151769E-04 +3.772281E-04 -1.869891E-04 +3.772281E-04 +6.868296E-04 +1.886335E-04 -1.869891E-04 +1.886335E-04 +7.090849E-03 
 -3.727512E-05 +4.295997E-04 -1.629718E-06 +4.295997E-04 -3.454968E-04 +2.791512E-04 -1.629718E-06 +2.791512E-04 +7.611396E-03 
 +1.736047E-04 -2.692708E-04 -1.801416E-04 -2.692708E-04 -1.698573E-05 +7.399562E-05 -1.801416E-04 +7.399562E-05 +7.558869E-03 
 -8.190090E-05 -9.945533E-04 -4.729363E-04 -9.945533E-04 +8.956985E-05 +3.191179E-04 -4.729363E-04 +3.191179E-04 +7.303029E-03 
 -5.282342E-04 +4.408511E-04 -1.443666E-04 +4.408511E-04 +1.878418E-04 -1.879289E-05 -1.443666E-04 -1.879289E-05 +7.662580E-03 
 +1.456508E-04 -2.875504E-04 -1.347574E-04 -2.875504E-04 -1.006173E-04 +8.203233E-05 -1.347574E-04 +8.203233E-05 +7.694442E-03 
 +4.096768E-05 +5.110282E-04 -4.432029E-05 +5.110282E-04 +1.491084E-05 +1.093438E-04 -4.432029E-05 +1.093438E-04 +7.469828E-03 
 +1.127354E-04 -2.794997E-04 +1.731151E-05 -2.794997E-04 +2.407183E-04 +3.276511E-04 +1.731151E-05 +3.276511E-04 +7.370686E-03 
 -3.163893E-04 -5.076598E-04 -3.396899E-05 -5.076598E-04 +1.854911E-04 -8.087918E-04 -3.396899E-05 -8.087918E-04 +7.619099E-03 
 -2.642831E-05 +1.944111E-04 +1.321672E-04 +1.944111E-04 -3.538315E-04 -8.849118E-05 +1.321672E-04 -8.849118E-05 +7.583654E-03 
 +5.208277E-05 +6.715048E-04 -2.132392E-04 +6.715048E-04 -8.126230E-05 -4.362478E-05 -2.132392E-04 -4.362478E-05 +7.120817E-03 
 -3.332259E-05 -3.791000E-04 +1.372082E-04 -3.791000E-04 +2.129384E-04 -9.329445E-05 +1.372082E-04 -9.329445E-05 +7.169173E-03 
 -2.202575E-04 -3.193256E-04 +3.138123E-04 -3.193256E-04 -1.792037E-04 +3.358992E-04 +3.138123E-04 +3.358992E-04 +7.603928E-03 
 -7.922520E-05 +6.063578E-05 +2.144438E-04 +6.063578E-05 +2.744547E-05 -4.872269E-04 +2.144438E-04 -4.872269E-04 +7.457963E-03 
 -5.079709E-04 +3.248166E-04 -8.478556E-07 +3.248166E-04 +3.601178E-04 +4.325101E-04 -8.478556E-07 +4.325101E-04 +7.549443E-03 
 +8.638045E-05 +4.781162E-04 +9.869578E-04 +4.781162E-04 -2.854913E-04 +5.099920E-05 +9.869578E-04 +5.099920E-05 +7.727902E-03 
 -4.680331E-04 -8.378223E-04 +3.755962E-04 -8.378223E-04 +3.495323E-05 -1.554903E-04 +3.755962E-04 -1.554903E-04 +7.729411E-03 
 -2.771264E-04 +5.069749E-04 +2.716902E-04 +5.069749E-04 +5.048144E-04 +3.991558E-04 +2.716902E-04 +3.991558E-04 +7.534388E-03 
 +1.234360E-04 +2.333596E-04 +2.978627E-04 +2.333596E-04 -2.579762E-04 +1.445343E-04 +2.978627E-04 +1.445343E-04 +7.790829E-03 
 -4.615951E-04 -4.678069E-04 -1.725878E-04 -4.678069E-04 +3.998829E-04 -2.761522E-04 -1.725878E-04 -2.761522E-04 +7.658314E-03 
 +1.593505E-04 +1.567552E-04 -4.001956E-04 +1.567552E-04 -7.210944E-04 +3.381943E-04 -4.001956E-04 +3.381943E-04 +7.886788E-03 
 -1.369165E-04 +3.598058E-04 -6.472916E-04 +3.598058E-04 +1.809374E-04 +9.887767E-05 -6.472916E-04 +9.887767E-05 +7.731327E-03 
 -3.315954E-04 +1.753289E-04 +8.023434E-04 +1.753289E-04 +3.833209E-04 +9.121561E-04 +8.023434E-04 +9.121561E-04 +7.086711E-03 
 +1.055402E-04 +6.272731E-04 +2.927395E-04 +6.272731E-04 -3.182192E-04 -3.418527E-04 +2.927395E-04 -3.418527E-04 +7.803972E-03 
 -2.667427E-04 -1.126103E-03 +9.542104E-05 -1.126103E-03 -5.677788E-05 +4.539922E-04 +9.542104E-05 +4.539922E-04 +7.872625E-03 
 -6.143582E-04 +9.026016E-04 +1.426301E-04 +9.026016E-04 +2.177505E-04 +1.014778E-04 +1.426301E-04 +1.014778E-04 +7.695407E-03 
 -4.279246E-04 -1.026559E-03 +1.162643E-04 -1.026559E-03 -4.446887E-06 +3.643792E-05 +1.162643E-04 +3.643792E-05 +7.805782E-03 
 -5.044013E-04 +4.915571E-04 +1.029070E-04 +4.915571E-04 -2.762840E-04 -1.150021E-04 +1.029070E-04 -1.150021E-04 +7.724699E-03 
 +9.819498E-05 +1.383963E-04 -9.627526E-05 +1.383963E-04 +1.993893E-04 +2.570497E-04 -9.627526E-05 +2.570497E-04 +7.185720E-03 
 +2.902312E-04 -1.564801E-04 +5.079582E-05 -1.564801E-04 +1.984841E-04 -4.622933E-04 +5.079582E-05 -4.622933E-04 +6.705649E-03 
 -1.978052E-04 +5.787125E-04 -3.132188E-05 +5.787125E-04 -9.595782E-05 +1.758217E-04 -3.132188E-05 +1.758217E-04 +7.449498E-03 
 -3.189292E-04 +6.541140E-04 +9.315750E-05 +6.541140E-04 -8.057973E-05 +2.112094E-04 +9.315750E-05 +2.112094E-04 +7.842403E-03 
 -4.216132E-04 +3.065399E-04 -3.708329E-04 +3.065399E-04 +2.053722E-04 +5.609136E-05 -3.708329E-04 +5.609136E-05 +7.677644E-03 
 -4.698658E-05 -1.043251E-03 +5.354172E-05 -1.043251E-03 -5.449252E-04 +4.488629E-05 +5.354172E-05 +4.488629E-05 +7.909090E-03 
 -3.233117E-04 -3.144334E-04 +1.333916E-04 -3.144334E-04 -4.491739E-05 -3.097592E-04 +1.333916E-04 -3.097592E-04 +7.852778E-03 
 -2.532160E-05 +2.298587E-04 +1.810285E-04 +2.298587E-04 -3.350209E-04 +1.474740E-04 +1.810285E-04 +1.474740E-04 +7.613343E-03 
 +1.790215E-04 +1.269519E-04 -3.115594E-04 +1.269519E-04 +2.069501E-04 -4.192946E-04 -3.115594E-04 -4.192946E-04 +7.215306E-03 
 -1.835769E-05 +7.188669E-05 -2.128837E-04 +7.188669E-05 +2.918840E-04 -1.105398E-04 -2.128837E-04 -1.105398E-04 +6.993800E-03 
 +3.579528E-04 +1.599629E-04 +2.053834E-04 +1.599629E-04 -7.316386E-05 +1.824909E-04 +2.053834E-04 +1.824909E-04 +7.430213E-03 
 +3.580570E-04 +2.613995E-04 +4.947367E-06 +2.613995E-04 -2.613204E-04 -2.416395E-04 +4.947367E-06 -2.416395E-04 +7.219105E-03 
 +4.305545E-05 -3.682014E-04 +1.641750E-04 -3.682014E-04 +1.246769E-04 -3.926206E-04 +1.641750E-04 -3.926206E-04 +7.010901E-03 
 +1.789367E-04 -7.043706E-04 +3.009432E-04 -7.043706E-04 -5.092185E-06 -1.786003E-04 +3.009432E-04 -1.786003E-04 +7.103974E-03 
 -2.417568E-04 +7.230652E-05 +4.430373E-04 +7.230652E-05 +1.319227E-04 -1.663513E-04 +4.430373E-04 -1.663513E-04 +7.692608E-03 
 -1.262760E-04 +9.498004E-04 +3.672014E-04 +9.498004E-04 -1.334361E-04 +6.602982E-05 +3.672014E-04 +6.602982E-05 +7.748329E-03 
 +4.125288E-04 +4.614212E-04 -9.416782E-05 +4.614212E-04 +1.586854E-04 -2.829245E-04 -9.416782E-05 -2.829245E-04 +6.908850E-03 
 +1.333135E-04 -2.834242E-04 -7.940677E-05 -2.834242E-04 -3.320365E-04 +2.318462E-04 -7.940677E-05 +2.318462E-04 +7.515615E-03 
 -7.153413E-04 -2.378357E-04 +6.898326E-05 -2.378357E-04 +2.147493E-04 -3.440590E-04 +6.898326E-05 -3.440590E-04 +7.545521E-03 
 -2.084299E-04 +8.474516E-04 -4.390453E-04 +8.474516E-04 +1.402909E-04 +1.134842E-04 -4.390453E-04 +1.134842E-04 +7.594522E-03 
 -1.564857E-04 -5.515636E-04 +4.176343E-04 -5.515636E-04 -1.253269E-04 -3.284600E-04 +4.176343E-04 -3.284600E-04 +7.666450E-03 
 -1.274023E-04 +4.267120E-04 +4.406030E-05 +4.267120E-04 +1.758406E-04 +3.199773E-04 +4.406030E-05 +3.199773E-04 +7.540059E-03 
 -2.148737E-05 -1.200525E-04 +1.545667E-04 -1.200525E-04 -2.793345E-04 -2.331220E-04 +1.545667E-04 -2.331220E-04 +7.975416E-03 
 -2.881795E-04 -1.021038E-04 -4.995303E-05 -1.021038E-04 +2.971190E-04 +1.124035E-04 -4.995303E-05 +1.124035E-04 +7.284435E-03 
 +1.483601E-04 -6.515947E-04 -4.235573E-04 -6.515947E-04 +7.022719E-05 -2.949808E-04 -4.235573E-04 -2.949808E-04 +6.964587E-03 
 +3.857486E-04 -6.189672E-05 -3.225499E-04 -6.189672E-05 -6.870355E-04 +6.072426E-05 -3.225499E-04 +6.072426E-05 +7.651433E-03 
 +1.930715E-04 -7.566967E-05 -3.647791E-04 -7.566967E-05 +6.766953E-05 -4.559480E-04 -3.647791E-04 -4.559480E-04 +7.259874E-03 
 +1.255854E-05 -8.140050E-06 -4.325976E-04 -8.140050E-06 +3.518019E-04 +2.502683E-04 -4.325976E-04 +2.502683E-04 +7.067619E-03 
 -2.986366E-04 -7.496995E-04 -5.114014E-05 -7.496995E-04 +5.278044E-05 +2.139505E-04 -5.114014E-05 +2.139505E-04 +7.414307E-03 
 +3.045978E-04 -8.622136E-05 +1.006404E-04 -8.622136E-05 +3.014310E-04 +2.051491E-04 +1.006404E-04 +2.051491E-04 +7.170634E-03 
 -1.649933E-04 +6.067589E-04 +3.214797E-04 +6.067589E-04 -1.639284E-04 +3.280383E-04 +3.214797E-04 +3.280383E-04 +7.879566E-03 
 -8.701636E-06 -1.043373E-03 +3.742945E-05 -1.043373E-03 -2.591027E-04 -3.462417E-04 +3.742945E-05 -3.462417E-04 +7.999367E-03 
 -9.782671E-05 +1.302297E-03 +1.724460E-04 +1.302297E-03 +6.316705E-05 -1.222982E-04 +1.724460E-04 -1.222982E-04 +7.811309E-03 
 -2.667909E-04 -6.225719E-04 +2.964183E-04 -6.225719E-04 -4.856613E-05 -4.039470E-04 +2.964183E-04 -4.039470E-04 +7.473284E-03 
 +2.703607E-04 -4.702857E-04 -2.525249E-05 -4.702857E-04 +6.980567E-05 +8.238175E-04 -2.525249E-05 +8.238175E-04 +7.031374E-03 
 +4.947234E-04 -4.082438E-04 -2.619175E-04 -4.082438E-04 -4.032120E-05 -7.869417E-05 -2.619175E-04 -7.869417E-05 +7.235777E-03 
 +2.243834E-04 -1.505818E-05 -2.334093E-04 -1.505818E-05 +1.641913E-04 -2.843985E-04 -2.334093E-04 -2.843985E-04 +7.385403E-03 
 -6.069685E-05 +1.109168E-04 -3.150208E-04 +1.109168E-04 +7.782970E-05 +1.759905E-04 -3.150208E-04 +1.759905E-04 +7.710716E-03 
 +1.288488E-04 +6.106168E-04 -2.451527E-04 +6.106168E-04 -1.860162E-04 +7.610519E-04 -2.451527E-04 +7.610519E-04 +7.175171E-03 
 -1.115134E-04 +2.921131E-04 +1.327693E-04 +2.921131E-04 -1.380706E-05 +6.419984E-05 +1.327693E-04 +6.419984E-05 +7.424720E-03 
 +1.045101E-04 +1.107386E-03 +1.682731E-04 +1.107386E-03 +1.428619E-05 -4.100893E-04 +1.682731E-04 -4.100893E-04 +6.894853E-03 
 +1.215315E-04 +3.458884E-04 +2.104242E-04 +3.458884E-04 +3.994537E-04 -2.941872E-04 +2.104242E-04 -2.941872E-04 +6.760971E-03 
 +8.380615E-05 +3.356818E-04 +2.043466E-04 +3.356818E-04 -4.756922E-04 -6.273466E-05 +2.043466E-04 -6.273466E-05 +7.758549E-03 
 -9.457018E-05 +2.281853E-05 +2.212773E-04 +2.281853E-05 +3.505687E-04 -7.008252E-04 +2.212773E-04 -7.008252E-04 +7.287950E-03 
 -2.362139E-06 -1.123589E-03 +3.928569E-04 -1.123589E-03 +4.269828E-05 +3.832267E-04 +3.928569E-04 +3.832267E-04 +7.432910E-03 
 +1.225935E-04 -8.484317E-04 -2.558628E-05 -8.484317E-04 -3.262192E-04 -1.482356E-04 -2.558628E-05 -1.482356E-04 +7.800873E-03 
 +1.233222E-04 +6.766450E-04 +1.055924E-04 +6.766450E-04 -1.297568E-04 +3.963319E-04 +1.055924E-04 +3.963319E-04 +7.139732E-03 
 -1.576025E-04 +1.764562E-04 -9.436030E-05 +1.764562E-04 +7.327114E-05 +3.567036E-04 -9.436030E-05 +3.567036E-04 +7.164586E-03 
 -7.024437E-04 +3.915659E-04 +1.204888E-04 +3.915659E-04 +3.343027E-05 +1.637436E-04 +1.204888E-04 +1.637436E-04 +7.691610E-03 
 -2.854104E-04 -5.676221E-04 +3.141339E-04 -5.676221E-04 +4.427163E-04 -4.572795E-04 +3.141339E-04 -4.572795E-04 +6.990107E-03 
 +6.091890E-05 -4.703789E-05 +5.849035E-04 -4.703789E-05 +6.561886E-05 +6.138018E-05 +5.849035E-04 +6.138018E-05 +7.763627E-03 
 +1.614418E-05 +4.454361E-04 +1.244584E-05 +4.454361E-04 -7.327737E-04 -1.042918E-04 +1.244584E-05 -1.042918E-04 +7.836019E-03 
 +1.972763E-04 -2.709826E-04 -4.888730E-04 -2.709826E-04 +3.918144E-04 -2.882681E-04 -4.888730E-04 -2.882681E-04 +7.196705E-03 
 +5.385736E-06 -4.101216E-04 -3.115407E-04 -4.101216E-04 -1.965106E-04 +9.087516E-05 -3.115407E-04 +9.087516E-05 +7.172374E-03 
 -1.271127E-04 -1.267982E-04 -2.570100E-05 -1.267982E-04 +3.675477E-04 -3.892447E-04 -2.570100E-05 -3.892447E-04 +7.663513E-03 
 -7.814244E-05 -1.242866E-03 -1.489917E-04 -1.242866E-03 -4.057852E-04 +1.176163E-04 -1.489917E-04 +1.176163E-04 +7.982260E-03 
 +2.367691E-04 +3.113011E-04 +7.247020E-05 +3.113011E-04 +1.124167E-04 +4.493975E-04 +7.247020E-05 +4.493975E-04 +7.312728E-03 
 +1.233404E-04 -3.648422E-05 +2.096443E-04 -3.648422E-05 +2.936755E-04 +4.741518E-04 +2.096443E-04 +4.741518E-04 +7.465009E-03 
 -4.262822E-04 -2.136880E-04 +1.862746E-04 -2.136880E-04 -1.351604E-05 -7.524794E-05 +1.862746E-04 -7.524794E-05 +7.773838E-03 
 +1.168339E-05 -5.384408E-05 +1.989222E-04 -5.384408E-05 -2.582844E-04 -2.946897E-04 +1.989222E-04 -2.946897E-04 +7.830632E-03 
 +4.363473E-04 +5.609331E-04 -6.758603E-04 +5.609331E-04 +1.202054E-04 +1.211648E-04 -6.758603E-04 +1.211648E-04 +7.235991E-03 
 -1.835542E-04 +5.629430E-04 -9.572682E-05 +5.629430E-04 -1.854109E-06 -7.470030E-05 -9.572682E-05 -7.470030E-05 +7.901590E-03 
 -1.126325E-04 +1.181693E-03 -1.098481E-04 +1.181693E-03 -3.634540E-04 -3.267300E-04 -1.098481E-04 -3.267300E-04 +7.994710E-03 
 +3.100404E-04 -1.387919E-04 -4.980424E-04 -1.387919E-04 +3.005452E-04 -8.775280E-05 -4.980424E-04 -8.775280E-05 +6.843316E-03 
 +3.245918E-04 +6.182760E-04 -3.347428E-05 +6.182760E-04 +4.986792E-04 -1.693457E-04 -3.347428E-05 -1.693457E-04 +7.042781E-03 
 +5.496025E-04 +3.265413E-05 -2.734982E-04 +3.265413E-05 -6.759029E-04 -9.419280E-06 -2.734982E-04 -9.419280E-06 +7.424157E-03 
 -8.079863E-05 -4.694813E-04 +1.821465E-04 -4.694813E-04 +8.237716E-05 -3.987312E-04 +1.821465E-04 -3.987312E-04 +7.424612E-03 
 -3.816776E-04 -2.551981E-04 -1.243796E-04 -2.551981E-04 +1.397321E-04 -2.289103E-04 -1.243796E-04 -2.289103E-04 +7.449828E-03 
 +1.342797E-05 -3.751933E-04 -2.846255E-04 -3.751933E-04 -3.216890E-04 -1.963999E-04 -2.846255E-04 -1.963999E-04 +7.717650E-03 
 -6.128370E-04 +8.122695E-04 +7.013027E-05 +8.122695E-04 +1.539195E-04 +1.198118E-04 +7.013027E-05 +1.198118E-04 +7.591035E-03 
 -5.690560E-04 +4.621071E-04 -4.755493E-04 +4.621071E-04 +1.797188E-04 -6.673399E-04 -4.755493E-04 -6.673399E-04 +7.733579E-03 
 +8.752919E-05 -1.230838E-04 -6.334370E-04 -1.230838E-04 -6.179066E-05 +2.892569E-04 -6.334370E-04 +2.892569E-04 +7.400488E-03 
 +3.943610E-04 +1.016577E-04 -3.448597E-04 +1.016577E-04 -2.850446E-04 -5.502985E-04 -3.448597E-04 -5.502985E-04 +6.939912E-03 
 -5.220776E-05 +2.934542E-04 -1.644821E-04 +2.934542E-04 +2.480899E-04 -1.567809E-04 -1.644821E-04 -1.567809E-04 +7.251179E-03 
 -2.948728E-04 -9.217196E-04 +2.791019E-04 -9.217196E-04 +3.090984E-04 +1.991413E-04 +2.791019E-04 +1.991413E-04 +7.646759E-03 
 -3.838673E-05 -1.562621E-04 +4.017222E-04 -1.562621E-04 -3.455497E-04 -4.875663E-06 +4.017222E-04 -4.875663E-06 +7.763374E-03 
 +2.547490E-05 -3.802553E-04 +5.127845E-04 -3.802553E-04 +2.125520E-04 -1.496230E-04 +5.127845E-04 -1.496230E-04 +7.432885E-03 
 +3.686096E-04 +6.088036E-04 +4.912914E-04 +6.088036E-04 +1.323827E-05 +1.310443E-04 +4.912914E-04 +1.310443E-04 +7.438149E-03 
 +3.850513E-04 +1.512692E-04 +2.644309E-04 +1.512692E-04 -2.165285E-04 +2.347657E-04 +2.644309E-04 +2.347657E-04 +7.397970E-03 
 +7.044181E-05 +4.312661E-04 -1.653808E-04 +4.312661E-04 +9.116701E-05 -5.508134E-04 -1.653808E-04 -5.508134E-04 +7.267159E-03 
 +6.749479E-05 -5.382579E-04 -4.878229E-04 -5.382579E-04 -3.339074E-05 -6.579328E-05 -4.878229E-04 -6.579328E-05 +7.107000E-03 
 +2.717522E-04 -9.154122E-05 -2.580759E-04 -9.154122E-05 -4.735529E-05 -4.114390E-04 -2.580759E-04 -4.114390E-04 +7.228190E-03 
 +1.240665E-04 -2.191857E-04 -1.324154E-04 -2.191857E-04 -4.187631E-05 -8.778223E-05 -1.324154E-04 -8.778223E-05 +7.085508E-03 
 +1.232651E-04 +2.534701E-04 +7.184400E-05 +2.534701E-04 +3.440081E-05 -3.187889E-04 +7.184400E-05 -3.187889E-04 +7.330142E-03 
 -4.267426E-04 +2.938682E-05 +1.839799E-04 +2.938682E-05 +2.212392E-04 +1.516667E-04 +1.839799E-04 +1.516667E-04 +7.383720E-03 
 +1.565911E-04 -6.360453E-05 -2.060086E-04 -6.360453E-05 +1.959878E-04 -2.854811E-04 -2.060086E-04 -2.854811E-04 +7.645788E-03 
 +7.069520E-04 -3.435868E-04 -2.240337E-04 -3.435868E-04 -6.380939E-04 +8.392226E-05 -2.240337E-04 +8.392226E-05 +7.416405E-03 
 +3.140811E-04 -2.804041E-04 -2.100389E-04 -2.804041E-04 +3.088388E-04 +3.949774E-04 -2.100389E-04 +3.949774E-04 +6.973705E-03 
 -3.288554E-04 -1.398936E-03 -1.881419E-04 -1.398936E-03 -1.383872E-04 +1.628859E-04 -1.881419E-04 +1.628859E-04 +7.731898E-03 
 -1.279820E-04 -3.299555E-05 -5.240529E-04 -3.299555E-05 -1.162900E-04 +4.575015E-04 -5.240529E-04 +4.575015E-04 +7.552744E-03 
 -1.162595E-04 +7.952660E-05 -4.482614E-04 +7.952660E-05 +1.108035E-04 -1.722918E-04 -4.482614E-04 -1.722918E-04 +7.067431E-03 
 -4.249306E-04 +1.087209E-03 -6.295867E-04 +1.087209E-03 +1.417464E-04 -7.767474E-04 -6.295867E-04 -7.767474E-04 +7.509127E-03 
 +1.484715E-04 -4.187264E-05 -5.374686E-04 -4.187264E-05 +3.393266E-04 +3.733883E-05 -5.374686E-04 +3.733883E-05 +7.037078E-03 
 +2.620267E-04 +1.658670E-04 -1.560199E-04 +1.658670E-04 -4.074034E-04 +1.303934E-04 -1.560199E-04 +1.303934E-04 +7.361580E-03 
 +3.833818E-05 +9.682089E-04 +2.393843E-05 +9.682089E-04 +3.263450E-04 -1.690689E-04 +2.393843E-05 -1.690689E-04 +7.387613E-03 
 +2.754464E-05 -2.553399E-04 -4.746930E-04 -2.553399E-04 +3.624797E-04 +3.889079E-04 -4.746930E-04 +3.889079E-04 +7.270841E-03 
 +2.061537E-04 -8.185558E-04 +2.043113E-04 -8.185558E-04 -3.386137E-04 -1.957983E-04 +2.043113E-04 -1.957983E-04 +7.232467E-03 
 +1.532218E-04 -9.361107E-05 +6.728081E-04 -9.361107E-05 +1.924931E-04 -2.723128E-04 +6.728081E-04 -2.723128E-04 +7.222600E-03 
 -1.102516E-05 +5.058729E-04 -1.537004E-05 +5.058729E-04 -2.718097E-04 +4.568373E-05 -1.537004E-05 +4.568373E-05 +7.674165E-03 
 +1.277048E-04 -1.331217E-03 -2.373520E-04 -1.331217E-03 +5.746090E-05 +1.355633E-04 -2.373520E-04 +1.355633E-04 +7.672709E-03 
 +2.326315E-04 +3.572586E-04 -2.613744E-05 +3.572586E-04 +1.017610E-04 +2.659438E-04 -2.613744E-05 +2.659438E-04 +7.150035E-03 
 -1.422348E-04 +9.179726E-04 +1.145444E-04 +9.179726E-04 +4.800906E-05 +3.651212E-06 +1.145444E-04 +3.651212E-06 +7.122220E-03 
 +1.035381E-04 +5.204791E-04 +2.139868E-04 +5.204791E-04 +4.200215E-05 +5.606997E-04 +2.139868E-04 +5.606997E-04 +7.405306E-03 
 +4.302358E-04 +1.769366E-04 +3.000926E-04 +1.769366E-04 -1.779056E-04 +8.770700E-04 +3.000926E-04 +8.770700E-04 +7.335112E-03 
 +3.260859E-04 +9.605612E-05 -2.676643E-05 +9.605612E-05 +4.856463E-04 +6.676469E-05 -2.676643E-05 +6.676469E-05 +6.899531E-03 
 +1.559265E-04 -3.021277E-04 -3.287535E-04 -3.021277E-04 -7.014621E-04 -1.242440E-04 -3.287535E-04 -1.242440E-04 +7.933486E-03 
 -4.505800E-05 +2.875897E-05 -2.390316E-04 +2.875897E-05 +2.589170E-04 -7.062042E-04 -2.390316E-04 -7.062042E-04 +7.533950E-03 
 +1.325410E-04 -8.788638E-04 +4.020713E-04 -8.788638E-04 +4.412206E-04 +3.131535E-04 +4.020713E-04 +3.131535E-04 +7.362324E-03 
 -9.508700E-05 -7.822922E-04 +2.619072E-04 -7.822922E-04 -8.359375E-04 +2.715183E-04 +2.619072E-04 +2.715183E-04 +8.126657E-03 
 -1.549964E-04 +5.679731E-04 -4.595621E-04 +5.679731E-04 +2.055598E-04 -1.620306E-04 -4.595621E-04 -1.620306E-04 +7.289544E-03 
 -1.632506E-04 +1.087598E-04 +2.121344E-04 +1.087598E-04 +2.727339E-04 -2.167464E-04 +2.121344E-04 -2.167464E-04 +7.337065E-03 
 +5.609562E-05 -5.609377E-04 -1.412021E-04 -5.609377E-04 -5.440688E-04 +2.534104E-04 -1.412021E-04 +2.534104E-04 +8.080105E-03 
 -1.904977E-04 +3.205687E-04 -7.901467E-05 +3.205687E-04 -5.523197E-06 -1.063522E-04 -7.901467E-05 -1.063522E-04 +7.806845E-03 
 -6.433243E-04 -1.158028E-05 -6.149753E-05 -1.158028E-05 +2.524714E-04 +1.039084E-04 -6.149753E-05 +1.039084E-04 +7.735706E-03 
 -1.621517E-04 +4.310884E-05 +8.690359E-05 +4.310884E-05 -6.747105E-05 +7.688045E-04 +8.690359E-05 +7.688045E-04 +7.581090E-03 
 -6.719490E-05 +7.537598E-04 -5.330105E-05 +7.537598E-04 -1.432331E-04 -2.430253E-04 -5.330105E-05 -2.430253E-04 +7.463031E-03 
 +2.706880E-05 -5.626749E-04 -1.118773E-04 -5.626749E-04 +3.119347E-04 +4.302364E-04 -1.118773E-04 +4.302364E-04 +7.196032E-03 
 +1.848999E-04 -5.497373E-04 +7.223425E-05 -5.497373E-04 -1.707708E-04 -3.198579E-04 +7.223425E-05 -3.198579E-04 +7.418448E-03 
 -2.335314E-04 -8.502777E-04 +2.778061E-05 -8.502777E-04 -1.274763E-04 -1.364361E-04 +2.778061E-05 -1.364361E-04 +7.895746E-03 
 -2.992721E-04 -2.181938E-04 -5.518576E-04 -2.181938E-04 -1.400817E-04 +2.000102E-04 -5.518576E-04 +2.000102E-04 +7.520261E-03 
 -1.556698E-04 -1.988815E-04 -4.591078E-05 -1.988815E-04 +4.603705E-04 -2.203737E-04 -4.591078E-05 -2.203737E-04 +6.965858E-03 
 -9.077151E-05 -5.873776E-04 +4.513436E-04 -5.873776E-04 -1.665033E-04 -2.345255E-04 +4.513436E-04 -2.345255E-04 +7.397077E-03 
 -3.595880E-05 +8.544622E-04 -4.206309E-04 +8.544622E-04 +1.405422E-05 -3.751383E-04 -4.206309E-04 -3.751383E-04 +7.557864E-03 
 -5.736145E-05 -4.657884E-05 -2.129993E-04 -4.657884E-05 +1.584206E-04 -1.958392E-04 -2.129993E-04 -1.958392E-04 +7.197274E-03 
 +2.935072E-05 +8.483825E-04 -5.047600E-05 +8.483825E-04 +4.220411E-04 -3.207039E-04 -5.047600E-05 -3.207039E-04 +7.208134E-03 
 +2.403169E-04 -6.132791E-04 -2.920633E-04 -6.132791E-04 -6.602010E-04 +1.310958E-04 -2.920633E-04 +1.310958E-04 +7.893414E-03 
 +6.083972E-04 -4.058338E-05 -2.908581E-04 -4.058338E-05 +5.685889E-05 +2.962843E-04 -2.908581E-04 +2.962843E-04 +6.985119E-03 
 +7.643160E-05 +6.318370E-05 -4.737392E-04 +6.318370E-05 +1.442732E-04 +3.791909E-05 -4.737392E-04 +3.791909E-05 +7.024824E-03 
 -3.169804E-04 +1.001270E-03 +9.486308E-05 +1.001270E-03 -1.590144E-04 +5.539275E-04 +9.486308E-05 +5.539275E-04 +7.782168E-03 
 -1.165845E-04 -7.537660E-04 +4.166002E-04 -7.537660E-04 -7.336585E-05 -1.641579E-04 +4.166002E-04 -1.641579E-04 +7.627180E-03 
 +1.302408E-04 +1.786739E-04 +2.094849E-04 +1.786739E-04 -3.942627E-04 +8.424692E-05 +2.094849E-04 +8.424692E-05 +7.735749E-03 
 -3.899719E-04 +7.119292E-04 -1.153485E-04 +7.119292E-04 +2.516162E-04 -6.066845E-05 -1.153485E-04 -6.066845E-05 +7.443375E-03 
 -7.999808E-05 -6.597968E-04 -4.461556E-04 -6.597968E-04 +3.572620E-05 +4.740020E-04 -4.461556E-04 +4.740020E-04 +7.321083E-03 
 +1.894035E-04 +2.116546E-04 -4.929755E-04 +2.116546E-04 +3.334711E-04 -1.799765E-04 -4.929755E-04 -1.799765E-04 +6.997258E-03 
 -4.254631E-04 +8.059884E-04 +3.729708E-05 +8.059884E-04 -2.376819E-05 +1.825613E-04 +3.729708E-05 +1.825613E-04 +7.519318E-03 
 +2.017574E-04 -5.488036E-04 +4.343856E-05 -5.488036E-04 -2.761906E-04 +1.298938E-04 +4.343856E-05 +1.298938E-04 +7.255165E-03 
 +7.978530E-05 +5.466267E-04 -3.141127E-04 +5.466267E-04 -6.395977E-05 -4.999529E-04 -3.141127E-04 -4.999529E-04 +7.478084E-03 
 -1.194983E-04 -8.234035E-04 -2.154096E-04 -8.234035E-04 -2.139092E-04 +1.277518E-04 -2.154096E-04 +1.277518E-04 +7.806154E-03 
 -3.535446E-05 +3.714024E-04 -1.383986E-04 +3.714024E-04 +1.696428E-04 -6.819163E-04 -1.383986E-04 -6.819163E-04 +7.150378E-03 
 -2.204616E-05 -2.415939E-04 -2.256004E-04 -2.415939E-04 +9.872342E-05 +1.078118E-03 -2.256004E-04 +1.078118E-03 +7.149878E-03 
 +1.069408E-04 -1.608340E-04 -9.315564E-05 -1.608340E-04 -9.803518E-05 -2.211154E-04 -9.315564E-05 -2.211154E-04 +7.437582E-03 
 -1.929626E-04 +2.120461E-04 -1.800726E-04 +2.120461E-04 -3.233363E-05 +2.749607E-05 -1.800726E-04 +2.749607E-05 +7.605874E-03 
 -5.758680E-05 +4.730321E-04 +2.762332E-04 +4.730321E-04 -3.520406E-05 -2.323456E-04 +2.762332E-04 -2.323456E-04 +7.575417E-03 
 -9.991333E-05 -5.075414E-04 +1.116030E-04 -5.075414E-04 -1.076139E-04 -4.034247E-04 +1.116030E-04 -4.034247E-04 +7.476590E-03 
 -6.935969E-04 -1.761893E-04 -3.288079E-04 -1.761893E-04 +2.224361E-04 -8.565120E-05 -3.288079E-04 -8.565120E-05 +7.789987E-03 
 -2.997938E-04 +4.461403E-04 +1.833964E-04 +4.461403E-04 +2.413964E-04 -2.187252E-04 +1.833964E-04 -2.187252E-04 +7.998889E-03 
 +1.808176E-04 -3.523266E-04 +6.355057E-04 -3.523266E-04 -1.840471E-04 -1.044878E-04 +6.355057E-04 -1.044878E-04 +7.692256E-03 
 -2.689305E-04 -1.786444E-04 +3.133309E-04 -1.786444E-04 +2.333013E-04 -5.832659E-04 +3.133309E-04 -5.832659E-04 +7.859329E-03 
 -2.269369E-05 +1.156702E-03 -3.329045E-04 +1.156702E-03 -3.324939E-04 -3.157872E-04 -3.329045E-04 -3.157872E-04 +8.028338E-03 
 +1.261091E-04 +4.039683E-04 -2.181267E-04 +4.039683E-04 -3.050796E-04 -5.744247E-05 -2.181267E-04 -5.744247E-05 +7.473666E-03 
 +4.112800E-04 +6.362635E-04 +5.291092E-04 +6.362635E-04 +2.899778E-04 -1.344179E-05 +5.291092E-04 -1.344179E-05 +6.984018E-03 
 +2.046712E-04 -1.832556E-04 +4.408443E-04 -1.832556E-04 -2.053439E-04 -3.464196E-04 +4.408443E-04 -3.464196E-04 +7.312162E-03 
 +5.261204E-05 +7.751361E-04 -4.257025E-04 +7.751361E-04 +8.642858E-06 +4.346339E-04 -4.257025E-04 +4.346339E-04 +7.536534E-03 
 +3.533951E-04 +5.801751E-05 -2.869264E-04 +5.801751E-05 +2.801033E-04 +3.960413E-04 -2.869264E-04 +3.960413E-04 +7.042162E-03 
 +3.146004E-04 +3.472000E-04 +1.684827E-04 +3.472000E-04 +2.705637E-04 +3.695733E-04 +1.684827E-04 +3.695733E-04 +7.013480E-03 
 +1.155236E-05 -4.114593E-04 +2.538636E-04 -4.114593E-04 +3.340790E-05 -4.981831E-04 +2.538636E-04 -4.981831E-04 +7.210398E-03 
 +2.109900E-04 -2.165545E-04 -6.343606E-05 -2.165545E-04 -4.775125E-04 +6.327743E-05 -6.343606E-05 +6.327743E-05 +7.608552E-03 
 -4.480519E-05 +1.183322E-05 -1.675816E-04 +1.183322E-05 -1.115833E-04 +6.000715E-05 -1.675816E-04 +6.000715E-05 +7.681133E-03 
 +1.056094E-04 -3.571129E-04 -1.734208E-04 -3.571129E-04 +2.396968E-04 -1.934978E-05 -1.734208E-04 -1.934978E-05 +7.216339E-03 
 +1.897952E-04 +3.143988E-04 -7.363054E-05 +3.143988E-04 -3.609202E-04 +3.693601E-04 -7.363054E-05 +3.693601E-04 +7.656448E-03 
 +5.066442E-04 +4.996812E-04 +9.630171E-06 +4.996812E-04 +1.354543E-04 -5.248865E-04 +9.630171E-06 -5.248865E-04 +7.545066E-03 
 +4.144647E-04 -1.432101E-04 -2.080276E-04 -1.432101E-04 +2.176337E-04 -3.728301E-04 -2.080276E-04 -3.728301E-04 +7.426271E-03 
 -2.224798E-05 -3.280550E-04 +4.016912E-04 -3.280550E-04 -2.864385E-04 -1.184562E-04 +4.016912E-04 -1.184562E-04 +7.617566E-03 
 -5.817303E-05 +6.642037E-04 +7.257690E-05 +6.642037E-04 +1.095907E-04 +1.003441E-04 +7.257690E-05 +1.003441E-04 +7.364486E-03 
 +2.407391E-04 -8.943776E-04 +2.044691E-04 -8.943776E-04 +2.990156E-05 +6.894834E-05 +2.044691E-04 +6.894834E-05 +7.335917E-03 
 -4.016019E-05 +1.283557E-04 +4.511757E-04 +1.283557E-04 -1.583597E-04 +3.862855E-04 +4.511757E-04 +3.862855E-04 +7.162674E-03 
 -4.806625E-05 +2.535731E-04 +1.372713E-04 +2.535731E-04 +8.950704E-05 -2.134236E-04 +1.372713E-04 -2.134236E-04 +7.093047E-03 
 +5.020193E-05 +2.158047E-04 -1.317393E-05 +2.158047E-04 +2.977919E-04 -1.525741E-04 -1.317393E-05 -1.525741E-04 +6.894702E-03 
 +3.324927E-04 +5.648770E-05 -8.844215E-05 +5.648770E-05 -6.093494E-05 -2.844882E-05 -8.844215E-05 -2.844882E-05 +7.341338E-03 
 +5.299405E-04 +1.570755E-03 +2.623758E-04 +1.570755E-03 -1.723961E-04 +2.725282E-04 +2.623758E-04 +2.725282E-04 +7.653262E-03 
 -1.766754E-04 +3.736353E-04 +2.940649E-04 +3.736353E-04 +3.261768E-05 +2.540456E-04 +2.940649E-04 +2.540456E-04 +7.433977E-03 
 -1.221807E-04 +3.645194E-04 +4.896790E-04 +3.645194E-04 -1.578651E-04 +6.096328E-04 +4.896790E-04 +6.096328E-04 +7.741787E-03 
 -4.222414E-05 -3.170515E-04 +4.372067E-04 -3.170515E-04 +6.206195E-05 +1.404719E-04 +4.372067E-04 +1.404719E-04 +7.566978E-03 
 -1.913262E-04 -8.914120E-05 +3.001132E-04 -8.914120E-05 +1.132625E-04 -1.170086E-04 +3.001132E-04 -1.170086E-04 +7.474763E-03 
 +2.572153E-04 +8.998180E-05 -6.442175E-06 +8.998180E-05 +1.545298E-04 -3.827116E-04 -6.442175E-06 -3.827116E-04 +7.333988E-03 
 -5.976364E-05 -1.113851E-03 +5.447746E-05 -1.113851E-03 -2.001821E-05 +1.448734E-04 +5.447746E-05 +1.448734E-04 +7.814297E-03 
 -1.640103E-04 -3.128933E-04 -9.256451E-05 -3.128933E-04 -8.418912E-05 +1.972573E-04 -9.256451E-05 +1.972573E-04 +7.505550E-03 
 +1.985979E-04 -2.120140E-05 +1.691514E-04 -2.120140E-05 -2.957150E-04 +8.911867E-05 +1.691514E-04 +8.911867E-05 +7.409682E-03 
 +1.631307E-04 -2.421307E-04 -2.759153E-04 -2.421307E-04 +8.832182E-05 +1.154068E-04 -2.759153E-04 +1.154068E-04 +7.240119E-03 
 +7.104697E-05 +4.437115E-04 +6.207387E-04 +4.437115E-04 +2.876559E-05 -2.534382E-04 +6.207387E-04 -2.534382E-04 +7.484209E-03 
 -1.436726E-05 -7.488474E-04 +4.818482E-04 -7.488474E-04 -5.199246E-04 -1.912994E-04 +4.818482E-04 -1.912994E-04 +7.487203E-03 
 +4.337326E-04 +1.973033E-04 +1.785286E-04 +1.973033E-04 +7.017799E-05 +1.419599E-04 +1.785286E-04 +1.419599E-04 +7.405640E-03 
 +1.661548E-04 +1.824981E-05 +9.668055E-05 +1.824981E-05 +3.060320E-05 +1.557603E-04 +9.668055E-05 +1.557603E-04 +7.272102E-03 
 -2.137704E-05 -7.013536E-05 -3.021091E-04 -7.013536E-05 +1.418842E-04 -6.560106E-04 -3.021091E-04 -6.560106E-04 +7.313764E-03 
 -3.385546E-04 +2.141007E-04 -1.448394E-05 +2.141007E-04 +3.246318E-04 +5.571258E-05 -1.448394E-05 +5.571258E-05 +7.423091E-03 
 +1.917288E-04 +6.101672E-04 -1.401567E-04 +6.101672E-04 -2.700552E-04 -4.823623E-04 -1.401567E-04 -4.823623E-04 +7.372761E-03 
 -2.035281E-04 -7.838434E-04 -3.424378E-04 -7.838434E-04 -2.989503E-04 +1.101967E-04 -3.424378E-04 +1.101967E-04 +7.671082E-03 
 -3.859846E-04 +8.868863E-04 -2.051765E-04 +8.868863E-04 +4.538922E-04 +9.275114E-05 -2.051765E-04 +9.275114E-05 +7.700258E-03 
 -2.619027E-04 +4.555254E-04 +5.037042E-04 +4.555254E-04 -2.290389E-04 -2.846050E-04 +5.037042E-04 -2.846050E-04 +7.860627E-03 
 +4.098381E-04 -9.649196E-05 +3.014180E-04 -9.649196E-05 +2.628230E-04 -1.919421E-04 +3.014180E-04 -1.919421E-04 +7.220623E-03 
 +1.543580E-04 -4.181988E-04 -4.811896E-04 -4.181988E-04 +9.560684E-05 +1.873323E-04 -4.811896E-04 +1.873323E-04 +7.193625E-03 
 -6.594951E-04 +8.606096E-04 -3.689241E-05 +8.606096E-04 +6.730088E-05 -2.209847E-04 -3.689241E-05 -2.209847E-04 +7.865908E-03 
 +2.303480E-05 +3.756493E-04 +1.156984E-04 +3.756493E-04 -1.782663E-04 +4.244665E-04 +1.156984E-04 +4.244665E-04 +7.424035E-03 
 -2.437523E-04 -4.782862E-04 +2.018713E-04 -4.782862E-04 -3.677029E-05 +2.238779E-04 +2.018713E-04 +2.238779E-04 +7.679256E-03 
 -5.138366E-04 +1.799270E-04 +4.948564E-04 +1.799270E-04 +2.851612E-04 +5.593832E-04 +4.948564E-04 +5.593832E-04 +7.796755E-03 
 -1.799026E-04 +3.375850E-04 +9.206250E-04 +3.375850E-04 +8.384933E-05 -2.170301E-04 +9.206250E-04 -2.170301E-04 +7.724666E-03 
 +1.144774E-04 -1.134089E-03 -1.476971E-04 -1.134089E-03 -1.526000E-04 +2.176625E-05 -1.476971E-04 +2.176625E-05 +7.505830E-03 
 -1.101045E-04 -1.273923E-04 +9.739240E-05 -1.273923E-04 -1.203580E-05 +2.857987E-04 +9.739240E-05 +2.857987E-04 +7.606891E-03 
 +7.619018E-05 -5.185036E-04 -2.250252E-04 -5.185036E-04 -5.532407E-04 +2.158115E-04 -2.250252E-04 +2.158115E-04 +7.483713E-03 
 +2.198058E-04 -1.372803E-04 +1.501560E-04 -1.372803E-04 +3.150693E-04 -3.372127E-04 +1.501560E-04 -3.372127E-04 +7.314110E-03 
 +1.663353E-04 -1.218969E-04 +5.929506E-04 -1.218969E-04 -4.340259E-04 +3.036193E-04 +5.929506E-04 +3.036193E-04 +7.661603E-03 
 -2.144449E-04 -7.988167E-04 +1.930245E-04 -7.988167E-04 +2.711284E-05 +2.849804E-04 +1.930245E-04 +2.849804E-04 +7.672183E-03 
 +1.800951E-04 +3.960342E-04 +6.948366E-05 +3.960342E-04 -2.292670E-05 +3.327887E-04 +6.948366E-05 +3.327887E-04 +7.805438E-03 
 +2.355124E-04 +1.823751E-04 -2.704564E-04 +1.823751E-04 -1.917443E-04 -8.737640E-05 -2.704564E-04 -8.737640E-05 +7.804777E-03 
 -1.482295E-04 -2.658972E-04 -4.357505E-04 -2.658972E-04 +2.260819E-04 +5.391920E-04 -4.357505E-04 +5.391920E-04 +7.385126E-03 
 -3.267740E-04 +4.989224E-04 -7.169377E-05 +4.989224E-04 +3.014096E-04 -1.625923E-04 -7.169377E-05 -1.625923E-04 +7.688024E-03 
 -2.614810E-04 +1.461391E-03 -3.201431E-04 +1.461391E-03 -5.404190E-04 +2.054200E-04 -3.201431E-04 +2.054200E-04 +8.355017E-03 
 -7.549448E-04 -8.613633E-04 +4.341885E-05 -8.613633E-04 +2.373229E-04 +3.133322E-04 +4.341885E-05 +3.133322E-04 +8.159762E-03 
 -3.232516E-04 +1.386819E-03 +2.736723E-04 +1.386819E-03 +8.378341E-05 -1.329141E-04 +2.736723E-04 -1.329141E-04 +7.695485E-03 
 +2.604075E-04 +3.779207E-04 -4.985167E-04 +3.779207E-04 -1.001065E-04 -8.199205E-05 -4.985167E-04 -8.199205E-05 +7.374830E-03 
 -1.802891E-05 -5.048449E-04 -1.449391E-04 -5.048449E-04 -6.615757E-05 -2.623682E-04 -1.449391E-04 -2.623682E-04 +7.771696E-03 
 -5.947783E-04 -4.312435E-04 +1.122992E-04 -4.312435E-04 +3.090301E-04 +3.547255E-04 +1.122992E-04 +3.547255E-04 +7.794965E-03 
 -3.499408E-04 +4.526636E-04 -5.196431E-05 +4.526636E-04 +1.771001E-04 -4.550744E-04 -5.196431E-05 -4.550744E-04 +7.163688E-03 
 -1.916181E-04 +6.752146E-04 +1.351164E-04 +6.752146E-04 -2.524243E-04 +1.027199E-04 +1.351164E-04 +1.027199E-04 +7.603240E-03 
 -3.355741E-04 +6.901945E-04 -1.188305E-04 +6.901945E-04 -4.939091E-05 -2.268357E-04 -1.188305E-04 -2.268357E-04 +7.420785E-03 
 -1.381886E-04 +2.413466E-05 -5.815620E-05 +2.413466E-05 +5.521204E-04 -9.878088E-04 -5.815620E-05 -9.878088E-04 +6.853876E-03 
 +1.126571E-04 +4.419143E-04 -3.590175E-04 +4.419143E-04 +1.458415E-04 +1.946572E-04 -3.590175E-04 +1.946572E-04 +7.250233E-03 
 +2.428441E-04 +7.699170E-05 -1.032526E-04 +7.699170E-05 -3.212937E-04 -6.868302E-04 -1.032526E-04 -6.868302E-04 +7.491603E-03 
 -7.867756E-05 +3.918282E-04 -1.854479E-04 +3.918282E-04 +1.084964E-04 -2.307225E-05 -1.854479E-04 -2.307225E-05 +7.621140E-03 
 -3.302718E-04 -4.404440E-04 +1.921915E-04 -4.404440E-04 -4.182189E-04 -5.594533E-04 +1.921915E-04 -5.594533E-04 +7.716703E-03 
 -2.281118E-04 -2.221115E-04 +2.265203E-04 -2.221115E-04 -1.349347E-04 +8.700415E-05 +2.265203E-04 +8.700415E-05 +8.014102E-03 
 -1.961971E-04 -1.128510E-05 +1.560889E-04 -1.128510E-05 +3.529585E-04 +1.023029E-04 +1.560889E-04 +1.023029E-04 +7.578365E-03 
 -3.069546E-04 +4.222427E-04 -1.551705E-04 +4.222427E-04 -2.326483E-04 +5.034877E-04 -1.551705E-04 +5.034877E-04 +7.764743E-03 
 +2.358962E-04 -1.714807E-06 -3.488129E-04 -1.714807E-06 -3.387070E-04 -1.990027E-04 -3.488129E-04 -1.990027E-04 +7.679042E-03 
 +5.326474E-05 +2.886103E-04 -3.470283E-04 +2.886103E-04 +3.967150E-05 -7.764895E-04 -3.470283E-04 -7.764895E-04 +7.084649E-03 
 -4.730784E-04 +2.091107E-04 -2.565852E-04 +2.091107E-04 +3.207131E-04 -3.853576E-05 -2.565852E-04 -3.853576E-05 +7.416392E-03 
 -1.026588E-04 +1.826005E-04 -3.703889E-04 +1.826005E-04 +8.922180E-06 +3.955493E-04 -3.703889E-04 +3.955493E-04 +7.301995E-03 
 +2.826394E-04 +1.375507E-05 -4.389401E-04 +1.375507E-05 -2.563014E-04 +3.555384E-04 -4.389401E-04 +3.555384E-04 +6.812633E-03 
 +4.023882E-04 -3.496398E-04 -3.788285E-04 -3.496398E-04 +1.339371E-04 -1.276936E-04 -3.788285E-04 -1.276936E-04 +6.922075E-03 
 +1.624226E-04 -2.781848E-05 +2.185384E-04 -2.781848E-05 +1.911998E-04 -8.756694E-05 +2.185384E-04 -8.756694E-05 +7.070318E-03 
 +1.062011E-04 -5.148503E-04 +4.233283E-04 -5.148503E-04 -3.992363E-04 -3.497276E-05 +4.233283E-04 -3.497276E-05 +7.401622E-03 
 -2.848572E-04 +4.660452E-04 +2.452873E-04 +4.660452E-04 +1.668418E-04 +4.575219E-04 +2.452873E-04 +4.575219E-04 +7.745332E-03 
 -2.200923E-04 +1.715616E-04 +1.845695E-04 +1.715616E-04 +4.368266E-04 +3.196755E-04 +1.845695E-04 +3.196755E-04 +7.496346E-03 
 +2.341489E-04 +5.322985E-04 -1.877489E-04 +5.322985E-04 -1.788843E-04 +3.505788E-04 -1.877489E-04 +3.505788E-04 +7.852783E-03 
 -1.697931E-04 +1.934628E-04 -2.497931E-05 +1.934628E-04 -2.163581E-04 +1.823895E-04 -2.497931E-05 +1.823895E-04 +7.714427E-03 
 -7.164360E-04 +9.003826E-04 +5.987613E-05 +9.003826E-04 +3.105979E-04 +4.765893E-04 +5.987613E-05 +4.765893E-04 +7.676080E-03 
 -7.511429E-04 -1.072671E-04 -4.276644E-06 -1.072671E-04 +2.668851E-04 -1.340335E-04 -4.276644E-06 -1.340335E-04 +7.788313E-03 
 +7.872146E-05 +2.372271E-04 +3.716047E-04 +2.372271E-04 +1.599023E-04 +3.971418E-04 +3.716047E-04 +3.971418E-04 +7.306350E-03 
 +1.426309E-04 -1.938905E-06 +2.554743E-04 -1.938905E-06 -1.118154E-04 +2.063399E-04 +2.554743E-04 +2.063399E-04 +7.704928E-03 
 -1.587858E-04 +1.767399E-03 +5.809122E-05 +1.767399E-03 -1.836159E-04 +1.623469E-04 +5.809122E-05 +1.623469E-04 +7.906573E-03 
 -1.020095E-04 -4.371542E-04 +2.694959E-04 -4.371542E-04 -2.899287E-04 -5.175054E-04 +2.694959E-04 -5.175054E-04 +7.935738E-03 
 +1.389125E-04 +8.526024E-04 +2.825436E-05 +8.526024E-04 +6.142298E-05 -4.423799E-04 +2.825436E-05 -4.423799E-04 +7.405872E-03 
 -3.652908E-04 +5.854953E-04 -6.086624E-05 +5.854953E-04 +2.049102E-04 -2.343098E-04 -6.086624E-05 -2.343098E-04 +7.669091E-03 
 -9.381569E-05 -5.232109E-04 -4.688781E-04 -5.232109E-04 -2.084783E-06 -1.122929E-04 -4.688781E-04 -1.122929E-04 +7.465600E-03 
 +1.023627E-04 -2.918314E-04 -1.015186E-04 -2.918314E-04 -7.512059E-05 +4.504921E-05 -1.015186E-04 +4.504921E-05 +7.309580E-03 
 -2.951421E-04 +1.071148E-03 +2.030499E-04 +1.071148E-03 -2.072126E-04 +3.030994E-04 +2.030499E-04 +3.030994E-04 +7.921981E-03 
 -3.127618E-04 -4.677507E-04 +3.390544E-05 -4.677507E-04 +3.828601E-04 +2.343517E-04 +3.390544E-05 +2.343517E-04 +7.494387E-03 
 +1.149850E-04 +8.650701E-04 +2.495782E-04 +8.650701E-04 -1.829452E-04 -6.644828E-05 +2.495782E-04 -6.644828E-05 +7.384305E-03 
 +3.541771E-04 +2.603352E-05 +2.393462E-04 +2.603352E-05 -3.013413E-04 -1.400951E-04 +2.393462E-04 -1.400951E-04 +7.779481E-03 
 -5.255877E-05 -1.658349E-04 +1.898831E-04 -1.658349E-04 +1.085619E-04 -3.921213E-04 +1.898831E-04 -3.921213E-04 +7.518365E-03 
 -1.180280E-04 +1.937108E-04 +2.783908E-04 +1.937108E-04 +2.799252E-04 -5.724163E-04 +2.783908E-04 -5.724163E-04 +7.545426E-03 
 +8.713515E-05 -9.911974E-04 +7.311964E-05 -9.911974E-04 -3.359336E-04 +8.595386E-05 +7.311964E-05 +8.595386E-05 +7.531832E-03 
 -2.649089E-04 +2.230634E-05 +1.204872E-04 +2.230634E-05 +4.594944E-04 +4.842059E-04 +1.204872E-04 +4.842059E-04 +7.194932E-03 
 -1.344180E-04 +5.831340E-04 -1.681271E-04 +5.831340E-04 +2.710351E-04 -1.942707E-05 -1.681271E-04 -1.942707E-05 +7.686889E-03 
 +1.468883E-04 -8.280302E-04 -7.888661E-04 -8.280302E-04 -1.907213E-04 +1.499172E-04 -7.888661E-04 +1.499172E-04 +7.663963E-03 
 -1.529676E-05 +7.034830E-04 -6.571835E-04 +7.034830E-04 -2.737513E-04 -1.247048E-04 -6.571835E-04 -1.247048E-04 +7.405580E-03 
 -3.818193E-04 +1.784101E-04 +2.767589E-04 +1.784101E-04 +5.578425E-04 -1.118180E-04 +2.767589E-04 -1.118180E-04 +7.032499E-03 
 -4.508081E-04 -9.308849E-04 -9.420242E-05 -9.308849E-04 +3.982806E-04 -1.434666E-04 -9.420242E-05 -1.434666E-04 +7.715338E-03 
 -3.347550E-04 +1.457240E-03 -4.194076E-05 +1.457240E-03 -5.717434E-04 -4.649456E-05 -4.194076E-05 -4.649456E-05 +8.288842E-03 
 -4.946261E-05 -2.283063E-04 -5.023134E-05 -2.283063E-04 -3.988730E-04 -2.056555E-04 -5.023134E-05 -2.056555E-04 +7.900882E-03 
 +2.970349E-04 +1.814650E-04 +3.414713E-04 +1.814650E-04 -2.030931E-04 +3.133967E-06 +3.414713E-04 +3.133967E-06 +7.311541E-03 
 +2.452804E-04 -6.986950E-04 +2.363678E-05 -6.986950E-04 +1.707646E-04 +2.246835E-04 +2.363678E-05 +2.246835E-04 +7.023938E-03 
 -2.605161E-04 +1.087005E-03 -4.009179E-04 +1.087005E-03 +2.150875E-05 +5.834334E-04 -4.009179E-04 +5.834334E-04 +7.423828E-03 
 +1.985516E-04 -1.172345E-04 -9.224548E-04 -1.172345E-04 -1.710983E-04 +5.315113E-04 -9.224548E-04 +5.315113E-04 +6.983590E-03 
 +3.380825E-04 -4.734579E-04 +9.599592E-05 -4.734579E-04 +2.629351E-05 +2.179514E-04 +9.599592E-05 +2.179514E-04 +6.966809E-03 
 +2.487197E-04 +1.067702E-04 +5.487865E-04 +1.067702E-04 +6.027720E-05 -4.802074E-04 +5.487865E-04 -4.802074E-04 +7.177477E-03 
 +2.728058E-04 +7.151015E-04 -2.622992E-05 +7.151015E-04 +1.162466E-04 -2.592509E-04 -2.622992E-05 -2.592509E-04 +7.050548E-03 
 +6.849257E-05 -8.804387E-04 -3.020981E-04 -8.804387E-04 -1.250434E-04 -2.199167E-04 -3.020981E-04 -2.199167E-04 +7.735291E-03 
 +1.756460E-05 +1.024855E-03 -1.425009E-04 +1.024855E-03 -5.762705E-04 -2.873999E-04 -1.425009E-04 -2.873999E-04 +7.801724E-03 
 +3.954476E-04 -2.045265E-04 -3.172575E-05 -2.045265E-04 -1.131695E-04 -5.195601E-04 -3.172575E-05 -5.195601E-04 +7.277891E-03 
 -5.869463E-04 +5.889659E-04 +8.639250E-05 +5.889659E-04 +3.536202E-04 -4.762499E-05 +8.639250E-05 -4.762499E-05 +7.694809E-03 
 -4.569568E-04 +8.852505E-04 -1.036424E-04 +8.852505E-04 +4.727804E-04 +3.305811E-04 -1.036424E-04 +3.305811E-04 +7.910729E-03 
 +5.718954E-05 -8.998984E-04 +5.810177E-05 -8.998984E-04 -1.151061E-04 +3.229434E-04 +5.810177E-05 +3.229434E-04 +7.667511E-03 
 +7.341855E-06 +6.921954E-04 +2.801131E-04 +6.921954E-04 -6.682212E-05 +1.336693E-04 +2.801131E-04 +1.336693E-04 +7.715956E-03 
 +2.361880E-04 +2.006601E-04 -2.952110E-04 +2.006601E-04 +1.518052E-04 -2.539664E-04 -2.952110E-04 -2.539664E-04 +7.201936E-03 
 +2.062676E-04 +1.860216E-04 +2.069952E-04 +1.860216E-04 +3.680492E-05 -5.153020E-04 +2.069952E-04 -5.153020E-04 +7.056906E-03 
 +2.119980E-04 -7.457026E-05 +6.702489E-04 -7.457026E-05 +4.492675E-05 -2.492554E-04 +6.702489E-04 -2.492554E-04 +7.120281E-03 
 +1.647644E-04 -2.743254E-05 +3.840121E-04 -2.743254E-05 +2.229521E-05 -1.062100E-04 +3.840121E-04 -1.062100E-04 +7.388612E-03 
 -2.623752E-04 -1.541061E-03 +4.934903E-04 -1.541061E-03 +2.800980E-04 -4.091153E-05 +4.934903E-04 -4.091153E-05 +7.360942E-03 
 -3.947703E-04 +9.851462E-04 -1.674853E-04 +9.851462E-04 +1.098114E-05 -7.480463E-04 -1.674853E-04 -7.480463E-04 +7.552945E-03 
 -1.410674E-04 -9.747283E-06 +1.585351E-04 -9.747283E-06 -3.318294E-04 -1.172038E-04 +1.585351E-04 -1.172038E-04 +7.573497E-03 
 -6.455054E-05 +2.420436E-04 +3.114089E-04 +2.420436E-04 +2.796654E-04 -3.309433E-04 +3.114089E-04 -3.309433E-04 +7.544117E-03 
 +1.969727E-04 -9.357575E-05 +1.821050E-05 -9.357575E-05 +1.752375E-04 +5.402066E-05 +1.821050E-05 +5.402066E-05 +7.074933E-03 
 -3.887322E-04 -2.097424E-04 -6.164372E-04 -2.097424E-04 +2.745936E-04 +4.789503E-04 -6.164372E-04 +4.789503E-04 +7.321750E-03 
 +4.740449E-04 +5.590054E-04 +1.005576E-04 +5.590054E-04 -6.296617E-04 -3.619955E-04 +1.005576E-04 -3.619955E-04 +7.706818E-03 
 +5.481130E-04 -1.185672E-04 +2.648664E-04 -1.185672E-04 -1.793639E-04 +4.272025E-04 +2.648664E-04 +4.272025E-04 +7.435908E-03 
 -1.649444E-04 -1.591349E-04 -2.961767E-04 -1.591349E-04 +5.357862E-05 -2.378367E-04 -2.961767E-04 -2.378367E-04 +7.201298E-03 
 -3.708666E-04 -7.040987E-04 -2.920793E-04 -7.040987E-04 +5.384586E-05 +4.125611E-04 -2.920793E-04 +4.125611E-04 +7.348176E-03 
 -2.411891E-04 -7.256626E-04 -6.316245E-05 -7.256626E-04 -1.352887E-04 +3.152647E-04 -6.316245E-05 +3.152647E-04 +7.692448E-03 
 +1.072939E-04 -8.843390E-05 +2.659216E-04 -8.843390E-05 -4.818356E-04 -7.328427E-05 +2.659216E-04 -7.328427E-05 +7.743272E-03 
 +1.434644E-04 -4.303761E-04 +3.367735E-04 -4.303761E-04 -7.293987E-05 +4.596748E-04 +3.367735E-04 +4.596748E-04 +7.664432E-03 
 -7.887849E-05 +9.700187E-04 +1.711106E-04 +9.700187E-04 +5.780759E-04 +7.523586E-04 +1.711106E-04 +7.523586E-04 +7.341326E-03 
 -1.487517E-04 +1.733454E-04 -1.853403E-04 +1.733454E-04 +3.425235E-04 -3.844249E-04 -1.853403E-04 -3.844249E-04 +7.232937E-03 
 -4.262717E-04 -7.168958E-04 -3.177614E-05 -7.168958E-04 -6.805627E-05 -5.760349E-05 -3.177614E-05 -5.760349E-05 +7.637033E-03 
 +4.574821E-05 +4.939218E-04 -5.155847E-04 +4.939218E-04 -3.517820E-04 +1.089272E-04 -5.155847E-04 +1.089272E-04 +7.646780E-03 
 +3.687507E-05 +1.154464E-03 +6.214515E-06 +1.154464E-03 +1.600692E-04 +1.933640E-05 +6.214515E-06 +1.933640E-05 +7.698401E-03 
 -2.505817E-04 +9.800906E-04 -1.578994E-04 +9.800906E-04 +1.693012E-04 +1.442785E-04 -1.578994E-04 +1.442785E-04 +7.493873E-03 
 +4.768118E-05 -1.063613E-04 -5.767437E-04 -1.063613E-04 +1.444202E-04 -3.209385E-04 -5.767437E-04 -3.209385E-04 +7.153215E-03 
 +3.027900E-05 -1.963057E-04 -6.043549E-05 -1.963057E-04 -9.869902E-05 +3.962137E-04 -6.043549E-05 +3.962137E-04 +7.149226E-03 
 -2.139842E-04 +2.928267E-04 +1.735897E-04 +2.928267E-04 +5.657535E-05 +9.245179E-04 +1.735897E-04 +9.245179E-04 +7.439156E-03 
 -8.051706E-05 -1.036469E-04 +5.096085E-04 -1.036469E-04 +6.085109E-05 +1.044778E-04 +5.096085E-04 +1.044778E-04 +7.369925E-03 
 +3.232934E-04 +2.624751E-05 +1.471995E-04 +2.624751E-05 -2.778304E-04 +2.533852E-04 +1.471995E-04 +2.533852E-04 +7.227103E-03 
 -2.643333E-04 +4.491718E-04 +4.888162E-05 +4.491718E-04 +7.771164E-04 -6.540037E-04 +4.888162E-05 -6.540037E-04 +7.158713E-03 
 -3.142505E-05 +2.480925E-04 -7.696869E-05 +2.480925E-04 -3.525710E-04 +1.499300E-04 -7.696869E-05 +1.499300E-04 +7.647893E-03 
 +3.238300E-05 -5.502371E-04 -6.633651E-05 -5.502371E-04 +5.964048E-05 -4.271599E-04 -6.633651E-05 -4.271599E-04 +7.181530E-03 
 +2.971969E-04 +9.404551E-04 -4.159162E-04 +9.404551E-04 -1.295000E-04 -1.683404E-04 -4.159162E-04 -1.683404E-04 +7.164429E-03 
 +3.309392E-05 -5.627943E-04 +1.523082E-04 -5.627943E-04 -5.065239E-04 +2.368778E-04 +1.523082E-04 +2.368778E-04 +7.738191E-03 
 -5.723973E-04 -8.930146E-04 +2.983225E-04 -8.930146E-04 +2.550796E-04 -5.462587E-05 +2.983225E-04 -5.462587E-05 +8.213349E-03 
 -6.916333E-04 -1.444910E-03 +1.026446E-04 -1.444910E-03 -3.058120E-04 -1.903749E-04 +1.026446E-04 -1.903749E-04 +8.316329E-03 
 -1.600489E-04 -1.521115E-03 -3.006645E-04 -1.521115E-03 -1.291790E-05 +2.277674E-04 -3.006645E-04 +2.277674E-04 +7.489840E-03 
 +2.891780E-04 -6.602788E-05 +3.577204E-04 -6.602788E-05 +1.162028E-04 -3.792707E-04 +3.577204E-04 -3.792707E-04 +7.235683E-03 
 +2.731409E-05 -1.020088E-05 +5.702307E-04 -1.020088E-05 -3.218853E-04 +2.292606E-04 +5.702307E-04 +2.292606E-04 +7.280675E-03 
 +1.768662E-04 -6.079320E-04 -2.345010E-04 -6.079320E-04 +4.592664E-04 -2.357227E-04 -2.345010E-04 -2.357227E-04 +7.194839E-03 
 +1.499560E-04 -5.586850E-04 -4.887995E-04 -5.586850E-04 -1.427241E-04 +2.465843E-04 -4.887995E-04 +2.465843E-04 +7.378691E-03 
 -1.308286E-04 -2.484021E-04 -4.126003E-04 -2.484021E-04 +1.734253E-04 -5.437670E-04 -4.126003E-04 -5.437670E-04 +7.176977E-03 
 -9.285145E-07 -4.922002E-04 -1.308041E-04 -4.922002E-04 +9.522516E-05 +5.397745E-04 -1.308041E-04 +5.397745E-04 +7.195997E-03 
 -1.769334E-04 +1.048230E-03 -7.717503E-04 +1.048230E-03 +1.258265E-05 +1.292118E-04 -7.717503E-04 +1.292118E-04 +7.440521E-03 
 -1.284361E-04 +5.854775E-04 -3.183863E-04 +5.854775E-04 +3.166466E-04 -2.164573E-04 -3.183863E-04 -2.164573E-04 +7.287647E-03 
 -1.862051E-04 +7.410487E-04 -2.282807E-04 +7.410487E-04 -5.727300E-05 +9.940870E-05 -2.282807E-04 +9.940870E-05 +7.591925E-03 
 -8.919369E-05 -9.712458E-04 -5.763093E-04 -9.712458E-04 -3.726472E-04 +1.360127E-04 -5.763093E-04 +1.360127E-04 +7.703200E-03 
 -1.992707E-04 +8.205106E-04 -1.459568E-04 +8.205106E-04 +1.484769E-04 -2.361532E-04 -1.459568E-04 -2.361532E-04 +7.271062E-03 
 +3.194277E-04 -3.173585E-04 -4.180995E-04 -3.173585E-04 +6.611331E-05 -2.976897E-05 -4.180995E-04 -2.976897E-05 +7.379168E-03 
 +3.688165E-04 +8.767446E-05 +2.338770E-04 +8.767446E-05 +4.295469E-04 -2.259029E-04 +2.338770E-04 -2.259029E-04 +7.006638E-03 
 +3.076397E-04 +6.879748E-05 +7.917281E-04 +6.879748E-05 +8.855353E-05 -3.570517E-05 +7.917281E-04 -3.570517E-05 +7.345181E-03 
 +1.830790E-05 -4.554532E-04 +1.415314E-03 -4.554532E-04 -3.432910E-04 -5.556579E-04 +1.415314E-03 -5.556579E-04 +7.689587E-03 
 -1.499665E-04 -9.706755E-04 -3.423053E-04 -9.706755E-04 -1.978540E-04 -5.306150E-04 -3.423053E-04 -5.306150E-04 +8.081522E-03 
 -1.767477E-04 +9.062526E-04 -1.645809E-04 +9.062526E-04 +1.308478E-04 -4.812166E-05 -1.645809E-04 -4.812166E-05 +8.148188E-03 
 -4.030679E-04 -5.408548E-04 +6.688350E-04 -5.408548E-04 +1.930647E-06 -3.132712E-04 +6.688350E-04 -3.132712E-04 +7.643756E-03 
 +3.533745E-04 -1.004495E-03 -1.514915E-04 -1.004495E-03 -1.428099E-04 +7.154599E-04 -1.514915E-04 +7.154599E-04 +7.106388E-03 
 +3.447924E-04 -1.102134E-03 -6.068728E-04 -1.102134E-03 -5.048199E-05 +4.349945E-04 -6.068728E-04 +4.349945E-04 +7.442578E-03 
 -2.895069E-04 -9.762781E-04 +7.160439E-05 -9.762781E-04 +9.041321E-05 +5.843924E-05 +7.160439E-05 +5.843924E-05 +7.617573E-03 
 -1.045552E-04 -7.660903E-04 +1.196503E-04 -7.660903E-04 +5.107242E-05 +4.111701E-04 +1.196503E-04 +4.111701E-04 +7.487374E-03 
 +1.642543E-04 -1.557667E-04 -4.947089E-04 -1.557667E-04 -2.386131E-04 +1.019566E-04 -4.947089E-04 +1.019566E-04 +7.802394E-03 
 -1.272772E-04 -7.438755E-04 -5.118196E-04 -7.438755E-04 -9.525690E-05 +1.152728E-04 -5.118196E-04 +1.152728E-04 +7.937665E-03 
 -4.513054E-04 -5.338962E-04 +2.206069E-05 -5.338962E-04 +1.853885E-04 +1.063670E-04 +2.206069E-05 +1.063670E-04 +7.893685E-03 
 -4.306449E-04 +7.902584E-04 -5.117692E-05 +7.902584E-04 +2.233309E-04 -1.983889E-04 -5.117692E-05 -1.983889E-04 +7.605503E-03 
 -3.036243E-05 -4.306688E-05 -1.471541E-04 -4.306688E-05 +1.068118E-04 +6.387500E-04 -1.471541E-04 +6.387500E-04 +7.314440E-03 
 +3.833081E-04 -1.805603E-04 -9.423313E-05 -1.805603E-04 +1.211097E-04 -4.280039E-04 -9.423313E-05 -4.280039E-04 +7.030325E-03 
 +2.689747E-04 +3.705859E-04 -2.627698E-05 +3.705859E-04 +3.273868E-04 +9.339596E-05 -2.627698E-05 +9.339596E-05 +7.277213E-03 
 +1.722064E-04 +5.169415E-04 +1.726940E-04 +5.169415E-04 -3.918841E-04 +1.532053E-04 +1.726940E-04 +1.532053E-04 +7.815650E-03 
 +8.865557E-05 -2.625268E-04 -5.453944E-04 -2.625268E-04 -5.509436E-04 -4.634515E-04 -5.453944E-04 -4.634515E-04 +7.901123E-03 
 -6.292021E-04 +1.021581E-03 -4.388033E-04 +1.021581E-03 +2.677794E-04 +2.479244E-04 -4.388033E-04 +2.479244E-04 +7.543510E-03 
 +1.237005E-04 -8.637639E-05 +6.814044E-04 -8.637639E-05 -1.197679E-05 -2.669013E-05 +6.814044E-04 -2.669013E-05 +7.124466E-03 
 -3.618896E-05 +5.970292E-04 +2.920316E-04 +5.970292E-04 +4.128462E-04 +4.076044E-04 +2.920316E-04 +4.076044E-04 +7.361879E-03 
 -1.029033E-04 +8.237794E-04 +4.505195E-04 +8.237794E-04 -4.957150E-04 +9.027250E-05 +4.505195E-04 +9.027250E-05 +7.845606E-03 
 -1.620872E-04 -7.891518E-04 -9.162092E-04 -7.891518E-04 -2.896957E-05 +1.433443E-04 -9.162092E-04 +1.433443E-04 +7.805030E-03 
 -3.542907E-05 -2.839405E-04 +1.288410E-04 -2.839405E-04 -1.145699E-04 +3.453223E-04 +1.288410E-04 +3.453223E-04 +7.598392E-03 
 +2.116421E-05 +6.696766E-04 +2.204058E-04 +6.696766E-04 +1.740417E-04 +5.279313E-04 +2.204058E-04 +5.279313E-04 +7.525600E-03 
 -4.034573E-04 -4.827992E-04 +1.843142E-04 -4.827992E-04 +1.985714E-04 +2.106270E-05 +1.843142E-04 +2.106270E-05 +7.421854E-03 
 -5.614078E-05 -4.657601E-04 +3.536884E-04 -4.657601E-04 -2.704398E-04 +2.299046E-04 +3.536884E-04 +2.299046E-04 +7.640544E-03 
 +3.983394E-04 -3.915651E-04 -3.610650E-04 -3.915651E-04 +1.713681E-04 +2.198224E-04 -3.610650E-04 +2.198224E-04 +6.914581E-03 
 -1.321223E-04 -2.776384E-04 -6.315982E-05 -2.776384E-04 +1.448265E-04 +3.849078E-04 -6.315982E-05 +3.849078E-04 +7.160577E-03 
 +2.759892E-04 -5.588067E-04 +1.502164E-04 -5.588067E-04 -6.536642E-04 -5.764216E-04 +1.502164E-04 -5.764216E-04 +7.603934E-03 
 +3.486128E-05 -1.693364E-04 +2.049655E-04 -1.693364E-04 +1.823247E-04 -1.757945E-04 +2.049655E-04 -1.757945E-04 +7.282867E-03 
 -4.261920E-04 +5.199437E-04 -3.332617E-04 +5.199437E-04 -3.909961E-05 +3.579854E-04 -3.332617E-04 +3.579854E-04 +7.595381E-03 
 -6.543902E-05 +1.243624E-04 +5.972203E-04 +1.243624E-04 +3.203437E-04 +4.389703E-04 +5.972203E-04 +4.389703E-04 +7.228582E-03 
 -2.261220E-04 +2.422343E-04 +3.659682E-04 +2.422343E-04 -9.582681E-05 -4.382171E-04 +3.659682E-04 -4.382171E-04 +7.393575E-03 
 -3.083147E-04 +8.383464E-04 +1.400488E-05 +8.383464E-04 +2.002181E-04 +7.975863E-06 +1.400488E-05 +7.975863E-06 +7.468704E-03 
 -1.855661E-04 -2.534459E-04 -1.755756E-04 -2.534459E-04 +2.222614E-04 +2.405779E-04 -1.755756E-04 +2.405779E-04 +7.523236E-03 
 +2.707917E-05 +2.139711E-04 -6.899492E-04 +2.139711E-04 -2.251250E-04 -5.772336E-04 -6.899492E-04 -5.772336E-04 +7.580733E-03 
 +4.175742E-04 +5.611725E-04 +9.570744E-05 +5.611725E-04 -4.263303E-05 +2.804004E-04 +9.570744E-05 +2.804004E-04 +7.117317E-03 
 -1.118108E-04 +1.646439E-05 +3.147997E-04 +1.646439E-05 -1.340497E-04 +8.632973E-04 +3.147997E-04 +8.632973E-04 +7.441764E-03 
 -3.662831E-04 +6.726561E-04 +7.615690E-05 +6.726561E-04 -1.348871E-04 +5.086824E-05 +7.615690E-05 +5.086824E-05 +7.950472E-03 
 +3.015398E-04 -7.195986E-04 -4.559892E-04 -7.195986E-04 +2.080416E-04 +7.340139E-05 -4.559892E-04 +7.340139E-05 +7.568823E-03 
 -3.277508E-04 +1.098395E-03 +8.453568E-05 +1.098395E-03 -1.215865E-04 +1.563219E-04 +8.453568E-05 +1.563219E-04 +7.780794E-03 
 +2.493220E-04 +9.941062E-05 -1.922800E-04 +9.941062E-05 -5.637929E-04 +2.328627E-04 -1.922800E-04 +2.328627E-04 +7.483017E-03 
 -1.266483E-04 +4.651156E-04 -1.343754E-04 +4.651156E-04 +3.624670E-04 -2.074676E-04 -1.343754E-04 -2.074676E-04 +7.601085E-03 
 -8.741947E-05 +6.776877E-04 +9.183369E-05 +6.776877E-04 -1.388456E-04 -2.078158E-04 +9.183369E-05 -2.078158E-04 +7.498351E-03 
 +2.575705E-04 -3.109173E-04 +7.642185E-05 -3.109173E-04 +3.914942E-04 +3.715305E-05 +7.642185E-05 +3.715305E-05 +7.153650E-03 
 +6.539550E-05 +2.941490E-04 -4.511867E-04 +2.941490E-04 -1.799675E-04 -1.531738E-04 -4.511867E-04 -1.531738E-04 +7.613125E-03 
 -3.236640E-04 +7.627085E-04 +9.042762E-06 +7.627085E-04 +2.306904E-04 +5.232866E-04 +9.042762E-06 +5.232866E-04 +7.531060E-03 
 +2.585296E-04 +2.150399E-05 +2.168253E-04 +2.150399E-05 -3.893791E-04 -2.276875E-04 +2.168253E-04 -2.276875E-04 +7.742258E-03 
 +1.039874E-04 +4.519394E-04 -3.431346E-04 +4.519394E-04 -2.637060E-04 -7.055832E-05 -3.431346E-04 -7.055832E-05 +7.635912E-03 
 -4.419319E-04 +9.514667E-04 +1.476051E-05 +9.514667E-04 +3.265787E-05 -2.466181E-04 +1.476051E-05 -2.466181E-04 +7.763288E-03 
 +5.489590E-05 -6.684710E-05 -3.883854E-04 -6.684710E-05 -1.320597E-04 +3.891065E-04 -3.883854E-04 +3.891065E-04 +7.809575E-03 
 +9.300247E-05 +6.631067E-04 -5.317297E-04 +6.631067E-04 +4.643940E-04 +5.328491E-05 -5.317297E-04 +5.328491E-05 +6.996906E-03 
 +2.743510E-04 -5.432694E-04 -6.203921E-04 -5.432694E-04 -1.281793E-04 -3.152559E-04 -6.203921E-04 -3.152559E-04 +7.436096E-03 
 -1.122393E-04 +2.564157E-04 -3.250900E-04 +2.564157E-04 +1.161540E-04 +2.434943E-04 -3.250900E-04 +2.434943E-04 +7.747652E-03 
 -7.228818E-04 +1.014021E-03 +2.127478E-04 +1.014021E-03 +2.055187E-04 +1.142516E-04 +2.127478E-04 +1.142516E-04 +7.747470E-03 
 -1.039177E-04 -6.446324E-04 +6.950922E-05 -6.446324E-04 +9.301641E-05 -4.569345E-05 +6.950922E-05 -4.569345E-05 +7.597144E-03 
 +5.817954E-06 +4.624965E-04 -3.298595E-04 +4.624965E-04 -4.454001E-04 +1.872882E-04 -3.298595E-04 +1.872882E-04 +7.744650E-03 
 -3.164179E-04 -5.675222E-04 -3.216029E-04 -5.675222E-04 +2.779964E-04 -4.999850E-05 -3.216029E-04 -4.999850E-05 +7.650575E-03 
 -2.474088E-04 -4.400770E-05 +2.928057E-04 -4.400770E-05 +9.111297E-05 +7.401758E-04 +2.928057E-04 +7.401758E-04 +7.459747E-03 
 +2.500043E-04 +4.120956E-04 +4.722814E-04 +4.120956E-04 -3.216208E-04 -1.511768E-04 +4.722814E-04 -1.511768E-04 +7.343005E-03 
 -2.366841E-05 -5.980075E-04 +8.449885E-05 -5.980075E-04 +4.186877E-04 -3.250812E-04 +8.449885E-05 -3.250812E-04 +7.336747E-03 
 -3.251072E-04 -6.738971E-04 +2.691671E-05 -6.738971E-04 -4.231466E-04 +5.161260E-04 +2.691671E-05 +5.161260E-04 +7.864293E-03 
 -9.317097E-05 +2.257890E-04 -3.227281E-04 +2.257890E-04 +8.838660E-05 -4.935898E-04 -3.227281E-04 -4.935898E-04 +7.477246E-03 
 -1.782578E-04 -1.033422E-03 -6.204157E-05 -1.033422E-03 +5.775335E-06 -2.964143E-04 -6.204157E-05 -2.964143E-04 +7.533357E-03 
 +3.849064E-05 +4.170507E-06 -2.272563E-04 +4.170507E-06 +1.489959E-04 -3.655302E-04 -2.272563E-04 -3.655302E-04 +7.644102E-03 
 +1.995291E-04 -9.018372E-04 -2.612028E-04 -9.018372E-04 -7.921833E-05 -4.384944E-05 -2.612028E-04 -4.384944E-05 +7.463298E-03 
 -5.960925E-05 +7.601176E-04 -1.264645E-04 +7.601176E-04 -1.038435E-04 -6.403690E-04 -1.264645E-04 -6.403690E-04 +7.458032E-03 
 +3.409580E-05 -2.135266E-04 -1.509949E-04 -2.135266E-04 +2.799203E-04 -3.864131E-04 -1.509949E-04 -3.864131E-04 +6.953251E-03 
 +2.825732E-04 -1.524580E-04 +2.396530E-04 -1.524580E-04 +3.056162E-04 +1.748379E-04 +2.396530E-04 +1.748379E-04 +7.367076E-03 
 +3.565040E-04 -3.588635E-04 +1.889673E-04 -3.588635E-04 -6.751440E-04 -2.845260E-04 +1.889673E-04 -2.845260E-04 +7.782093E-03 
 -8.888104E-05 +7.801978E-04 -3.353515E-04 +7.801978E-04 -1.313351E-04 -6.542858E-04 -3.353515E-04 -6.542858E-04 +7.462522E-03 
 -7.540821E-04 -1.154719E-03 -4.589907E-04 -1.154719E-03 +1.074743E-04 -1.853946E-04 -4.589907E-04 -1.853946E-04 +7.755509E-03 
 -6.956256E-04 -3.786206E-04 -5.918671E-05 -3.786206E-04 +1.916293E-04 -1.516943E-04 -5.918671E-05 -1.516943E-04 +7.962170E-03 
 -1.521386E-04 -4.549461E-04 +1.709229E-04 -4.549461E-04 +9.841572E-05 -2.356463E-05 +1.709229E-04 -2.356463E-05 +7.426796E-03 
 -1.347386E-04 -3.742634E-04 -3.826601E-04 -3.742634E-04 -4.804825E-07 -2.858283E-04 -3.826601E-04 -2.858283E-04 +7.328224E-03 
 -7.850848E-04 -4.336901E-04 -1.474364E-04 -4.336901E-04 +2.642697E-04 -6.559962E-05 -1.474364E-04 -6.559962E-05 +7.788335E-03 
 -5.409654E-04 -5.066510E-04 +2.714103E-05 -5.066510E-04 -1.025783E-04 -7.445506E-06 +2.714103E-05 -7.445506E-06 +7.967853E-03 
 -1.316879E-04 +1.014484E-04 +2.850484E-04 +1.014484E-04 -1.308865E-04 -3.041227E-04 +2.850484E-04 -3.041227E-04 +7.553158E-03 
 +3.354251E-04 +5.762363E-04 +7.146114E-04 +5.762363E-04 +8.925446E-05 +1.341777E-04 +7.146114E-04 +1.341777E-04 +7.276347E-03 
 +4.693474E-04 +9.296719E-04 -4.718401E-04 +9.296719E-04 -1.054712E-04 -1.873070E-04 -4.718401E-04 -1.873070E-04 +7.304471E-03 
 +2.911135E-04 -8.258364E-04 -1.551277E-04 -8.258364E-04 +3.360864E-04 +1.537537E-04 -1.551277E-04 +1.537537E-04 +6.842970E-03 
 +1.113943E-04 -1.726030E-04 +8.612324E-04 -1.726030E-04 -1.631675E-04 -4.206504E-04 +8.612324E-04 -4.206504E-04 +7.310628E-03 
 -3.648355E-04 -7.992035E-04 +3.128233E-04 -7.992035E-04 -1.351886E-04 -1.778372E-04 +3.128233E-04 -1.778372E-04 +7.897193E-03 
 +1.237440E-04 -2.714321E-04 -1.827705E-04 -2.714321E-04 -6.678845E-05 +6.001848E-04 -1.827705E-04 +6.001848E-04 +7.258706E-03 
 +1.486861E-04 +8.503314E-05 -1.451429E-04 +8.503314E-05 -1.278323E-04 +3.317765E-04 -1.451429E-04 +3.317765E-04 +7.204477E-03 
 +4.321199E-04 -2.264378E-04 -9.007800E-05 -2.264378E-04 +1.089026E-04 +4.007050E-05 -9.007800E-05 +4.007050E-05 +7.224923E-03 
 +5.990776E-05 -5.782318E-05 -2.763735E-05 -5.782318E-05 +3.491534E-04 -2.540104E-04 -2.763735E-05 -2.540104E-04 +7.023103E-03 
 +1.080586E-04 +6.958015E-05 -1.436382E-04 +6.958015E-05 -2.175434E-04 +7.906146E-04 -1.436382E-04 +7.906146E-04 +7.261814E-03 
 -7.850406E-05 +6.036446E-04 +4.188757E-04 +6.036446E-04 -2.213950E-04 +4.442504E-05 +4.188757E-04 +4.442504E-05 +7.617436E-03 
 -6.853801E-05 +9.786289E-05 +5.095219E-04 +9.786289E-05 +6.708194E-04 +2.936602E-04 +5.095219E-04 +2.936602E-04 +7.107437E-03 
 +2.579269E-04 -1.342488E-04 -9.323183E-04 -1.342488E-04 -4.807736E-04 -7.653322E-05 -9.323183E-04 -7.653322E-05 +7.256391E-03 
 -1.377659E-04 +1.305563E-03 -1.526179E-04 +1.305563E-03 -4.472370E-04 +7.582875E-04 -1.526179E-04 +7.582875E-04 +7.852616E-03 
 +8.443912E-05 -9.366038E-04 +4.222907E-05 -9.366038E-04 +1.548118E-04 +5.225544E-04 +4.222907E-05 +5.225544E-04 +7.468497E-03 
 +9.592196E-05 -1.095399E-04 +2.621866E-04 -1.095399E-04 +2.332684E-04 -8.353950E-05 +2.621866E-04 -8.353950E-05 +7.097694E-03 
 -1.336154E-04 -8.475347E-04 +2.555494E-04 -8.475347E-04 +1.023110E-04 -6.083956E-04 +2.555494E-04 -6.083956E-04 +7.435111E-03 
 +7.073572E-05 +3.556595E-04 +2.791008E-06 +3.556595E-04 -1.796016E-04 +5.064514E-04 +2.791008E-06 +5.064514E-04 +7.825147E-03 
 -4.852672E-04 -1.056019E-04 +1.275955E-04 -1.056019E-04 +7.953768E-05 -1.076040E-04 +1.275955E-04 -1.076040E-04 +7.583380E-03 
 -2.976452E-04 -7.413428E-04 +2.711344E-04 -7.413428E-04 +6.467163E-04 -1.738135E-04 +2.711344E-04 -1.738135E-04 +7.008822E-03 
 +6.773548E-05 +6.444867E-04 -3.833924E-05 +6.444867E-04 -4.476168E-04 +3.308646E-04 -3.833924E-05 +3.308646E-04 +7.484409E-03 
 +3.900832E-04 -7.063241E-04 -2.353517E-04 -7.063241E-04 +6.792160E-07 +7.058296E-05 -2.353517E-04 +7.058296E-05 +7.345862E-03 
 +2.818232E-04 +3.457949E-04 +1.994406E-04 +3.457949E-04 -1.146622E-05 -3.431159E-04 +1.994406E-04 -3.431159E-04 +6.924690E-03 
 +4.042258E-04 +4.526314E-04 -1.237750E-04 +4.526314E-04 +4.017056E-05 +2.378420E-04 -1.237750E-04 +2.378420E-04 +7.094924E-03 
 -2.551477E-04 +6.409940E-04 +2.586209E-04 +6.409940E-04 -5.168129E-05 -1.724740E-05 +2.586209E-04 -1.724740E-05 +7.756521E-03 
 +1.514116E-04 +2.300200E-04 +2.222247E-04 +2.300200E-04 +3.829238E-04 -9.466436E-05 +2.222247E-04 -9.466436E-05 +6.831292E-03 
 -2.945667E-04 -3.786540E-04 -1.629536E-04 -3.786540E-04 -2.009687E-04 -3.268733E-04 -1.629536E-04 -3.268733E-04 +7.644446E-03 
 +3.120089E-04 -2.197807E-04 -5.121418E-05 -2.197807E-04 -1.668887E-04 -1.002524E-04 -5.121418E-05 -1.002524E-04 +7.286117E-03 
 +4.249485E-04 +2.682394E-04 +8.681756E-04 +2.682394E-04 +1.212996E-04 +3.671894E-04 +8.681756E-04 +3.671894E-04 +7.026227E-03 
 -6.994876E-05 -2.994267E-04 +1.888612E-05 -2.994267E-04 +1.261136E-04 -4.631867E-04 +1.888612E-05 -4.631867E-04 +7.338056E-03 
 +5.698569E-04 -5.973942E-04 -2.729762E-04 -5.973942E-04 -2.722714E-06 -1.475144E-05 -2.729762E-04 -1.475144E-05 +7.406988E-03 
 +2.060684E-04 +1.952741E-04 +2.957061E-04 +1.952741E-04 -3.122282E-04 -4.072776E-04 +2.957061E-04 -4.072776E-04 +7.724272E-03 
 -2.032937E-04 -9.375639E-05 +8.199106E-05 -9.375639E-05 +3.561308E-04 +1.224181E-04 +8.199106E-05 +1.224181E-04 +7.706257E-03 
 +9.984328E-05 -9.590185E-05 -3.168173E-04 -9.590185E-05 -1.128027E-04 -7.786981E-06 -3.168173E-04 -7.786981E-06 +7.441723E-03 
 +1.411743E-04 +2.319392E-04 -2.622281E-05 +2.319392E-04 -3.540371E-05 +2.218950E-05 -2.622281E-05 +2.218950E-05 +7.352802E-03 
 +1.461602E-04 -9.284164E-04 +2.526871E-04 -9.284164E-04 -1.445106E-04 +3.030375E-04 +2.526871E-04 +3.030375E-04 +7.542425E-03 
 -1.172977E-04 +5.447081E-04 -6.714071E-04 +5.447081E-04 +2.021785E-04 +3.009631E-04 -6.714071E-04 +3.009631E-04 +7.606808E-03 
 +3.322107E-05 -2.606398E-04 -2.528760E-04 -2.606398E-04 -1.752580E-05 +5.450401E-04 -2.528760E-04 +5.450401E-04 +7.694593E-03 
 +5.581722E-04 -4.236713E-04 -9.966951E-05 -4.236713E-04 -5.532614E-04 -3.407376E-05 -9.966951E-05 -3.407376E-05 +7.553788E-03 
 -2.419423E-04 +5.737975E-05 -5.128947E-04 +5.737975E-05 +5.598873E-04 -3.452783E-04 -5.128947E-04 -3.452783E-04 +7.118251E-03 
 +1.105500E-05 -4.689665E-04 -1.668957E-04 -4.689665E-04 +1.380823E-04 -1.526269E-04 -1.668957E-04 -1.526269E-04 +7.355407E-03 
 +2.543019E-04 -6.663541E-04 +4.739089E-04 -6.663541E-04 +1.124463E-04 -3.829742E-04 +4.739089E-04 -3.829742E-04 +7.264873E-03 
 +1.848215E-04 +2.786660E-05 -1.170549E-04 +2.786660E-05 +1.394409E-04 -3.773173E-05 -1.170549E-04 -3.773173E-05 +7.517020E-03 
 -3.043290E-05 +9.628738E-05 -3.697296E-04 +9.628738E-05 -3.641506E-04 +3.469695E-04 -3.697296E-04 +3.469695E-04 +7.759182E-03 
 +1.607782E-04 +1.221279E-03 -1.014367E-04 +1.221279E-03 -4.768144E-04 -2.511010E-04 -1.014367E-04 -2.511010E-04 +7.964432E-03 
 +6.356722E-04 -3.719982E-05 +2.544928E-04 -3.719982E-05 +2.489380E-04 +3.749629E-04 +2.544928E-04 +3.749629E-04 +7.218189E-03 
 -2.156183E-04 +1.956486E-04 -2.246006E-04 +1.956486E-04 -1.805950E-04 +8.773685E-05 -2.246006E-04 +8.773685E-05 +7.882278E-03 
 -5.405718E-04 -6.220915E-04 -6.101844E-04 -6.220915E-04 +2.688665E-04 -5.847741E-04 -6.101844E-04 -5.847741E-04 +7.479796E-03 
 -1.044797E-04 -7.414985E-04 +4.713390E-04 -7.414985E-04 -1.520527E-05 -3.520111E-04 +4.713390E-04 -3.520111E-04 +7.569924E-03 
 -3.581846E-04 +2.853810E-04 +2.206952E-04 +2.853810E-04 +4.817974E-05 +2.551452E-04 +2.206952E-04 +2.551452E-04 +7.888944E-03 
 -2.130398E-04 -7.029584E-04 -3.678733E-04 -7.029584E-04 -1.246454E-04 -3.370044E-04 -3.678733E-04 -3.370044E-04 +7.896218E-03 
 +2.386855E-04 -2.464914E-04 -1.852389E-05 -2.464914E-04 -3.478122E-04 -1.542972E-04 -1.852389E-05 -1.542972E-04 +7.489773E-03 
 +1.272788E-05 +2.658799E-04 -3.963405E-04 +2.658799E-04 +6.219056E-04 +2.941924E-04 -3.963405E-04 +2.941924E-04 +6.925405E-03 
 +1.999493E-05 +3.159322E-05 -4.687039E-04 +3.159322E-05 -2.530956E-04 +4.594655E-05 -4.687039E-04 +4.594655E-05 +7.399976E-03 
 +4.359286E-05 -2.808710E-04 -4.375724E-04 -2.808710E-04 +2.460566E-05 +2.360513E-04 -4.375724E-04 +2.360513E-04 +7.564832E-03 
 +4.498099E-05 -6.193059E-04 +2.236314E-04 -6.193059E-04 -5.673278E-05 -8.237473E-05 +2.236314E-04 -8.237473E-05 +7.527068E-03 
 -3.403318E-04 -8.668436E-04 +3.234535E-04 -8.668436E-04 +1.591962E-04 +4.739665E-06 +3.234535E-04 +4.739665E-06 +7.576508E-03 
 +2.885195E-04 +5.064236E-04 -4.456974E-04 +5.064236E-04 -2.619370E-05 -6.409201E-04 -4.456974E-04 -6.409201E-04 +7.569839E-03 
 -2.972887E-05 -4.736012E-05 -2.232538E-04 -4.736012E-05 +1.406526E-04 -6.791941E-05 -2.232538E-04 -6.791941E-05 +7.380455E-03 
 +3.834735E-05 -1.321012E-04 +4.727784E-04 -1.321012E-04 -1.282629E-04 +8.067145E-04 +4.727784E-04 +8.067145E-04 +7.295002E-03 
 +2.583080E-04 -5.619513E-06 +1.742764E-04 -5.619513E-06 -3.679938E-05 +1.116230E-04 +1.742764E-04 +1.116230E-04 +7.312353E-03 
 -1.214367E-04 -8.132759E-04 -5.924667E-04 -8.132759E-04 -6.501764E-05 +1.537224E-04 -5.924667E-04 +1.537224E-04 +7.394990E-03 
 +2.375244E-04 +1.064408E-04 -6.698698E-04 +1.064408E-04 +9.775409E-05 -4.282409E-04 -6.698698E-04 -4.282409E-04 +7.144385E-03 
 +2.834279E-05 +6.901457E-05 -5.773940E-04 +6.901457E-05 +4.719113E-04 -1.357690E-04 -5.773940E-04 -1.357690E-04 +6.936636E-03 
 -1.379958E-04 +1.343204E-03 +2.684986E-05 +1.343204E-03 -7.033441E-04 -3.649663E-04 +2.684986E-05 -3.649663E-04 +7.941390E-03 
 -1.325323E-04 +6.437232E-04 -6.493596E-04 +6.437232E-04 -7.382812E-06 +3.727684E-04 -6.493596E-04 +3.727684E-04 +7.564057E-03 
 +3.406620E-05 -3.644837E-04 -6.563460E-04 -3.644837E-04 +1.129985E-04 +1.853207E-04 -6.563460E-04 +1.853207E-04 +7.272538E-03 
 +2.544421E-04 -2.024605E-04 -8.770485E-04 -2.024605E-04 +2.527060E-04 +3.269876E-04 -8.770485E-04 +3.269876E-04 +7.264809E-03 
 +1.554785E-04 -4.478646E-04 -6.155493E-04 -4.478646E-04 +2.158747E-04 +1.822077E-04 -6.155493E-04 +1.822077E-04 +7.144095E-03 
 +5.245034E-04 -4.619606E-04 -6.419955E-04 -4.619606E-04 -5.133980E-04 -3.115210E-04 -6.419955E-04 -3.115210E-04 +7.275465E-03 
 -4.177593E-05 -4.568239E-05 -5.749326E-04 -4.568239E-05 +2.110226E-04 -3.033867E-04 -5.749326E-04 -3.033867E-04 +7.257924E-03 
 -1.762373E-04 -4.748326E-04 +1.062039E-04 -4.748326E-04 +2.021964E-04 +2.523543E-05 +1.062039E-04 +2.523543E-05 +7.592238E-03 
 -4.418209E-05 -7.483302E-05 +3.931362E-06 -7.483302E-05 -2.441794E-04 -2.172654E-04 +3.931362E-06 -2.172654E-04 +7.625845E-03 
 -3.565028E-04 +3.789125E-04 -6.214401E-05 +3.789125E-04 +2.566746E-05 -6.640335E-05 -6.214401E-05 -6.640335E-05 +7.633532E-03 
 -5.100759E-04 +1.836955E-04 +1.197396E-04 +1.836955E-04 +2.103401E-04 +1.615815E-04 +1.197396E-04 +1.615815E-04 +7.681643E-03 
 -2.670487E-04 +9.903907E-04 -1.656652E-04 +9.903907E-04 +1.836291E-04 -2.245732E-04 -1.656652E-04 -2.245732E-04 +7.401389E-03 
 +2.267230E-04 -1.773774E-04 -2.978619E-04 -1.773774E-04 -1.411088E-04 +1.006885E-03 -2.978619E-04 +1.006885E-03 +7.241239E-03 
 +3.582456E-04 -6.616896E-04 +1.101041E-04 -6.616896E-04 -4.412863E-05 +4.568298E-05 +1.101041E-04 +4.568298E-05 +7.198201E-03 
 +4.363320E-04 -2.515080E-04 +2.904770E-04 -2.515080E-04 -3.850956E-05 +8.621861E-05 +2.904770E-04 +8.621861E-05 +7.054059E-03 
 -3.531224E-04 -4.996269E-04 -2.710026E-05 -4.996269E-04 +2.087078E-04 +1.681063E-04 -2.710026E-05 +1.681063E-04 +7.297367E-03 
 -3.908567E-04 +4.727185E-04 -3.157965E-04 +4.727185E-04 +4.113684E-04 -3.222771E-04 -3.157965E-04 -3.222771E-04 +7.335864E-03 
 +1.142706E-05 -7.325922E-04 +8.375330E-05 -7.325922E-04 -8.189197E-04 -2.272875E-04 +8.375330E-05 -2.272875E-04 +8.003908E-03 
 -3.215327E-04 -4.782418E-04 +1.051113E-04 -4.782418E-04 +2.720616E-04 -3.723649E-04 +1.051113E-04 -3.723649E-04 +7.651320E-03 
 -2.443192E-05 +7.810562E-04 +2.611183E-04 +7.810562E-04 -4.910370E-06 -3.840549E-04 +2.611183E-04 -3.840549E-04 +7.366204E-03 
 +2.952724E-04 -4.450643E-04 +2.831646E-04 -4.450643E-04 -1.833766E-04 +3.791966E-04 +2.831646E-04 +3.791966E-04 +7.913255E-03 
 +3.231604E-04 +9.519060E-04 +2.136619E-04 +9.519060E-04 +2.172002E-04 +2.572949E-04 +2.136619E-04 +2.572949E-04 +6.759895E-03 
 +7.773743E-05 -7.122002E-04 +1.192466E-04 -7.122002E-04 +2.454345E-04 +2.612866E-04 +1.192466E-04 +2.612866E-04 +7.186603E-03 
 +2.632643E-04 +7.335523E-04 -1.676230E-04 +7.335523E-04 -6.685882E-04 +1.715128E-04 -1.676230E-04 +1.715128E-04 +8.096707E-03 
 +2.010174E-04 -1.570871E-04 +3.120152E-04 -1.570871E-04 +1.401784E-04 -4.637759E-04 +3.120152E-04 -4.637759E-04 +6.842471E-03 
 +1.227812E-04 -4.385278E-04 +1.320027E-04 -4.385278E-04 +2.145747E-04 +4.919018E-04 +1.320027E-04 +4.919018E-04 +7.337308E-03 
 +5.289717E-04 -3.797175E-06 -3.794399E-04 -3.797175E-06 -7.171675E-04 -1.563734E-04 -3.794399E-04 -1.563734E-04 +7.729085E-03 
 +3.805595E-04 -8.438648E-04 -3.601215E-04 -8.438648E-04 +1.286117E-05 +5.727224E-04 -3.601215E-04 +5.727224E-04 +7.151090E-03 
 +1.465533E-04 +5.637895E-04 -4.268106E-04 +5.637895E-04 +4.656438E-04 +2.280425E-04 -4.268106E-04 +2.280425E-04 +7.040104E-03 
 -2.176673E-04 +2.301839E-05 +2.935383E-04 +2.301839E-05 -3.573445E-04 -8.501082E-04 +2.935383E-04 -8.501082E-04 +7.634917E-03 
 -1.380140E-04 -1.704812E-04 +3.024655E-04 -1.704812E-04 -1.928234E-04 -1.436471E-04 +3.024655E-04 -1.436471E-04 +7.554545E-03 
 -7.221332E-05 +1.649238E-04 +4.191049E-06 +1.649238E-04 +4.395487E-04 +3.206628E-04 +4.191049E-06 +3.206628E-04 +7.020088E-03 
 -5.299225E-04 +9.040809E-05 +1.258034E-04 +9.040809E-05 +1.232755E-04 -5.633201E-04 +1.258034E-04 -5.633201E-04 +7.400041E-03 
 -3.536782E-04 -1.909740E-04 -1.015914E-05 -1.909740E-04 +4.565559E-05 -1.818704E-04 -1.015914E-05 -1.818704E-04 +7.770373E-03 
 -1.887456E-04 +6.828464E-04 -3.282241E-04 +6.828464E-04 -1.358392E-05 -6.744040E-04 -3.282241E-04 -6.744040E-04 +7.384178E-03 
 -1.855457E-04 +1.229407E-04 -2.309767E-05 +1.229407E-04 -1.353382E-04 +1.633711E-04 -2.309767E-05 +1.633711E-04 +7.504627E-03 
 +1.675458E-04 -1.224279E-03 -1.268549E-04 -1.224279E-03 +3.339905E-04 -2.613995E-05 -1.268549E-04 -2.613995E-05 +7.630965E-03 
 +1.793597E-04 -2.880970E-04 +1.148247E-04 -2.880970E-04 -5.475853E-04 -1.653865E-04 +1.148247E-04 -1.653865E-04 +7.755202E-03 
 +1.075033E-04 +1.806296E-05 +3.656290E-04 +1.806296E-05 +2.919932E-04 -3.990800E-04 +3.656290E-04 -3.990800E-04 +7.014574E-03 
 +1.255773E-04 -8.073131E-04 +2.972438E-04 -8.073131E-04 -1.202179E-04 -5.131937E-04 +2.972438E-04 -5.131937E-04 +6.999560E-03 
 -3.374610E-04 -5.278761E-04 +1.388307E-04 -5.278761E-04 -6.042253E-05 +3.685669E-05 +1.388307E-04 +3.685669E-05 +7.678253E-03 
 +1.048924E-04 -1.062168E-05 -1.513991E-05 -1.062168E-05 +2.022410E-04 +1.161355E-05 -1.513991E-05 +1.161355E-05 +7.059117E-03 
 +3.082263E-04 +4.674017E-04 -1.447916E-04 +4.674017E-04 -3.208851E-04 -2.094385E-04 -1.447916E-04 -2.094385E-04 +7.649233E-03 
 -2.032386E-04 -5.082209E-04 +1.586787E-04 -5.082209E-04 +6.322791E-05 -6.289945E-04 +1.586787E-04 -6.289945E-04 +7.625283E-03 
 +7.046983E-05 +1.452063E-04 +2.396428E-04 +1.452063E-04 +1.318316E-04 -1.499765E-04 +2.396428E-04 -1.499765E-04 +6.807369E-03 
 +9.929102E-05 +1.628150E-04 -2.782760E-04 +1.628150E-04 +3.008842E-04 -5.773262E-04 -2.782760E-04 -5.773262E-04 +7.779789E-03 
 +7.245872E-05 +1.446422E-04 +6.651350E-04 +1.446422E-04 +7.859884E-05 +3.393248E-04 +6.651350E-04 +3.393248E-04 +7.302210E-03 
 +2.447456E-04 +4.558324E-04 +1.022457E-05 +4.558324E-04 +9.392670E-05 +3.390495E-05 +1.022457E-05 +3.390495E-05 +7.010470E-03 
 +4.065546E-04 +2.217076E-04 -3.284506E-05 +2.217076E-04 -5.600575E-04 +2.126940E-05 -3.284506E-05 +2.126940E-05 +7.454790E-03 
 +4.749119E-04 -1.709875E-04 +3.355829E-04 -1.709875E-04 +8.437052E-05 +4.580984E-04 +3.355829E-04 +4.580984E-04 +7.080699E-03 
 -6.560420E-05 +1.073359E-04 +6.988898E-06 +1.073359E-04 +1.212824E-06 +6.852003E-04 +6.988898E-06 +6.852003E-04 +7.367895E-03 
 -3.716362E-04 -8.755812E-04 -7.424731E-05 -8.755812E-04 -2.294535E-05 -1.656159E-04 -7.424731E-05 -1.656159E-04 +7.813320E-03 
 -5.322880E-04 +2.362906E-04 +1.277728E-04 +2.362906E-04 +1.460245E-04 +3.262464E-04 +1.277728E-04 +3.262464E-04 +7.663257E-03 
 -4.466469E-04 -1.074659E-03 -1.395342E-04 -1.074659E-03 -1.743947E-04 +5.402092E-04 -1.395342E-04 +5.402092E-04 +7.772759E-03 
 -4.538374E-04 -4.530950E-04 -2.280670E-04 -4.530950E-04 +3.100598E-04 -5.247792E-05 -2.280670E-04 -5.247792E-05 +7.476684E-03 
 -5.203144E-04 +1.116398E-03 +3.654553E-04 +1.116398E-03 -5.932025E-05 -1.763159E-04 +3.654553E-04 -1.763159E-04 +7.747797E-03 
 -2.152256E-04 +5.671160E-04 +1.007468E-04 +5.671160E-04 -5.772606E-05 -3.131092E-04 +1.007468E-04 -3.131092E-04 +7.667639E-03 
 +3.779852E-04 -3.420226E-04 -3.564203E-04 -3.420226E-04 -1.274976E-04 -4.327608E-04 -3.564203E-04 -4.327608E-04 +7.124543E-03 
 +2.601842E-04 -4.358033E-04 -5.603965E-04 -4.358033E-04 +2.127394E-05 -2.443571E-04 -5.603965E-04 -2.443571E-04 +6.738351E-03 
 +6.978763E-04 -1.248529E-04 -2.171504E-04 -1.248529E-04 +9.523055E-05 -6.337665E-05 -2.171504E-04 -6.337665E-05 +7.057299E-03 
 +3.056892E-04 -8.316246E-04 -4.886239E-06 -8.316246E-04 -4.468120E-04 -3.477801E-04 -4.886239E-06 -3.477801E-04 +7.914551E-03 
 -8.473325E-04 -5.507116E-04 -3.266716E-04 -5.507116E-04 +3.179713E-04 -6.709886E-04 -3.266716E-04 -6.709886E-04 +7.607512E-03 
 -3.867210E-04 +1.054158E-03 +4.515443E-05 +1.054158E-03 +1.241383E-04 -2.494022E-04 +4.515443E-05 -2.494022E-04 +7.938591E-03 
 +2.489908E-04 -6.468659E-04 +1.298202E-04 -6.468659E-04 -4.644832E-04 +1.112656E-05 +1.298202E-04 +1.112656E-05 +7.690591E-03 
 -1.449017E-04 +9.348333E-04 +4.371393E-04 +9.348333E-04 +4.028264E-04 +7.676493E-04 +4.371393E-04 +7.676493E-04 +7.376525E-03 
 -1.866229E-04 -4.873074E-04 +3.378335E-04 -4.873074E-04 -6.354064E-05 -1.281561E-04 +3.378335E-04 -1.281561E-04 +7.667658E-03 
 +3.878642E-05 -2.289842E-04 +3.540965E-04 -2.289842E-04 +1.531475E-04 +8.059658E-05 +3.540965E-04 +8.059658E-05 +7.436218E-03 
 -4.069857E-04 +9.096700E-04 -5.713917E-04 +9.096700E-04 +1.731029E-04 -3.674846E-05 -5.713917E-04 -3.674846E-05 +7.637940E-03 
 -3.615445E-04 -2.295552E-05 -4.680135E-04 -2.295552E-05 +1.675750E-05 -4.992879E-05 -4.680135E-04 -4.992879E-05 +7.869826E-03 
 -2.676633E-04 +1.315992E-03 +1.650234E-04 +1.315992E-03 -9.066184E-05 -1.133667E-04 +1.650234E-04 -1.133667E-04 +7.944212E-03 
 +3.819686E-05 -8.063699E-04 +2.183157E-04 -8.063699E-04 -3.378840E-04 +2.093691E-04 +2.183157E-04 +2.093691E-04 +7.906190E-03 
 -3.604286E-04 +3.748809E-04 +2.112785E-04 +3.748809E-04 +2.233637E-04 +9.215644E-04 +2.112785E-04 +9.215644E-04 +7.473615E-03 
 -3.310437E-04 -7.047763E-04 +4.927475E-04 -7.047763E-04 -2.156774E-05 -3.378218E-04 +4.927475E-04 -3.378218E-04 +7.705285E-03 
 -2.625853E-04 +4.508238E-04 -4.530224E-05 +4.508238E-04 -2.877797E-04 -4.521863E-04 -4.530224E-05 -4.521863E-04 +7.649529E-03 
 +1.722286E-04 -5.995907E-05 -4.580824E-04 -5.995907E-05 +3.957068E-04 +6.303975E-04 -4.580824E-04 +6.303975E-04 +7.129106E-03 
 +2.630944E-04 +3.971640E-04 -1.508669E-04 +3.971640E-04 -2.440942E-04 -3.150904E-04 -1.508669E-04 -3.150904E-04 +7.291667E-03 
 +9.339698E-05 -4.247790E-04 +5.442942E-06 -4.247790E-04 +3.559469E-04 +9.974961E-05 +5.442942E-06 +9.974961E-05 +6.965540E-03 
 +5.579570E-05 +2.703587E-04 +3.963163E-04 +2.703587E-04 -1.418472E-04 +5.869608E-04 +3.963163E-04 +5.869608E-04 +7.451075E-03 
 -3.374849E-05 -8.339611E-04 +1.985839E-04 -8.339611E-04 -3.312865E-04 +1.586839E-04 +1.985839E-04 +1.586839E-04 +7.871765E-03 
 -4.835128E-04 -1.055401E-03 -2.828522E-04 -1.055401E-03 +4.993401E-04 +2.809628E-04 -2.828522E-04 +2.809628E-04 +7.738673E-03 
 +4.465306E-05 -4.626677E-05 -2.131791E-04 -4.626677E-05 -8.228430E-04 +1.962353E-04 -2.131791E-04 +1.962353E-04 +8.116854E-03 
 +4.214371E-04 -5.639849E-04 +4.255908E-04 -5.639849E-04 +2.465569E-04 +1.691916E-04 +4.255908E-04 +1.691916E-04 +7.439250E-03 
 -2.902151E-04 +2.866633E-04 +4.575426E-04 +2.866633E-04 +1.164723E-04 +3.694535E-04 +4.575426E-04 +3.694535E-04 +7.393020E-03 
 -1.157069E-05 +1.079183E-04 -5.304647E-04 +1.079183E-04 -1.142939E-04 +4.100896E-04 -5.304647E-04 +4.100896E-04 +7.385458E-03 
 +3.682297E-05 -4.035992E-04 +4.570063E-04 -4.035992E-04 +9.187778E-05 -1.638898E-05 +4.570063E-04 -1.638898E-05 +7.389317E-03 
 -1.422174E-04 +1.298157E-04 +1.850519E-04 +1.298157E-04 +3.364279E-04 -6.963396E-05 +1.850519E-04 -6.963396E-05 +7.468553E-03 
 +4.849019E-05 +6.417633E-04 -3.659396E-04 +6.417633E-04 -2.175673E-04 +2.295689E-04 -3.659396E-04 +2.295689E-04 +7.391194E-03 
 -2.924654E-04 +2.260914E-05 -7.399149E-04 +2.260914E-05 +2.325553E-04 -4.436323E-04 -7.399149E-04 -4.436323E-04 +7.477019E-03 
 -8.467724E-05 +5.577642E-05 +3.898228E-04 +5.577642E-05 -1.555396E-04 +4.963340E-04 +3.898228E-04 +4.963340E-04 +7.549900E-03 
 -7.908989E-05 +9.232746E-05 +1.889796E-04 +9.232746E-05 -1.991028E-04 -5.437105E-04 +1.889796E-04 -5.437105E-04 +7.423007E-03 
 -5.720332E-05 +3.213491E-04 -2.608310E-05 +3.213491E-04 +5.306737E-04 -9.294075E-05 -2.608310E-05 -9.294075E-05 +7.151939E-03 
 +2.237846E-04 +2.732060E-04 -3.476637E-04 +2.732060E-04 -6.472580E-04 -2.111387E-04 -3.476637E-04 -2.111387E-04 +7.555719E-03 
 -8.773620E-05 +2.534559E-05 -3.258987E-04 +2.534559E-05 +1.407118E-04 -1.018421E-05 -3.258987E-04 -1.018421E-05 +7.434931E-03 
 +2.014716E-04 +1.205519E-04 +3.590497E-04 +1.205519E-04 +1.364564E-04 -2.413499E-04 +3.590497E-04 -2.413499E-04 +6.760531E-03 
 +3.723604E-04 +7.626847E-04 -2.922846E-04 +7.626847E-04 -9.771634E-05 +1.351243E-04 -2.922846E-04 +1.351243E-04 +7.131201E-03 
 +2.231266E-04 +2.999433E-04 -6.391934E-06 +2.999433E-04 -5.506747E-05 -2.149774E-04 -6.391934E-06 -2.149774E-04 +7.110022E-03 
 +3.113777E-04 -1.860327E-04 +3.603020E-04 -1.860327E-04 +9.050917E-05 +3.107748E-05 +3.603020E-04 +3.107748E-05 +6.932664E-03 
 -5.888926E-05 +7.024976E-05 +1.824206E-04 +7.024976E-05 +2.050914E-04 -5.765279E-04 +1.824206E-04 -5.765279E-04 +7.330614E-03 
 +3.301346E-04 -1.103185E-04 -5.503668E-04 -1.103185E-04 +5.914128E-05 +5.071923E-04 -5.503668E-04 +5.071923E-04 +7.151496E-03 
 +2.383336E-04 -7.065593E-04 -6.298325E-04 -7.065593E-04 -4.582600E-05 -5.943495E-04 -6.298325E-04 -5.943495E-04 +7.310888E-03 
 -6.285038E-05 -1.450233E-03 -3.055260E-04 -1.450233E-03 -1.901611E-04 -7.320282E-05 -3.055260E-04 -7.320282E-05 +7.676225E-03 
 +3.059150E-04 +2.959143E-04 -7.296373E-04 +2.959143E-04 -1.944409E-04 +1.825226E-04 -7.296373E-04 +1.825226E-04 +7.022299E-03 
 +3.024006E-04 +3.018087E-04 +2.465975E-04 +3.018087E-04 +2.533181E-04 -1.747859E-05 +2.465975E-04 -1.747859E-05 +6.863432E-03 
 +8.223391E-05 -1.384394E-04 +5.266990E-05 -1.384394E-04 +4.001851E-05 +6.524477E-04 +5.266990E-05 +6.524477E-04 +7.385699E-03 
 +3.031626E-04 -2.210905E-04 +3.094970E-04 -2.210905E-04 -3.918455E-04 +3.829437E-04 +3.094970E-04 +3.829437E-04 +7.970733E-03 
 -9.243943E-05 +3.328723E-04 -2.950389E-04 +3.328723E-04 +1.856881E-04 -5.207354E-04 -2.950389E-04 -5.207354E-04 +7.671053E-03 
 -2.080501E-04 -1.877519E-04 -6.317798E-04 -1.877519E-04 +8.932987E-06 +2.580136E-04 -6.317798E-04 +2.580136E-04 +7.367438E-03 
 -9.853776E-05 +7.697759E-04 -1.151160E-05 +7.697759E-04 +9.400117E-05 -3.701342E-04 -1.151160E-05 -3.701342E-04 +7.582077E-03 
 -4.680156E-04 +2.208604E-04 -1.562543E-04 +2.208604E-04 +3.869424E-04 -1.630868E-04 -1.562543E-04 -1.630868E-04 +7.547722E-03 
 +4.411663E-04 -1.169882E-03 +6.476637E-04 -1.169882E-03 -5.684269E-04 +6.557062E-04 +6.476637E-04 +6.557062E-04 +7.535657E-03 
 +1.403973E-04 -3.613517E-04 +5.637349E-04 -3.613517E-04 +3.492119E-05 -3.846026E-04 +5.637349E-04 -3.846026E-04 +7.446340E-03 
 -4.995503E-05 -4.903361E-04 +5.737086E-05 -4.903361E-04 +2.935511E-06 +1.893580E-05 +5.737086E-05 +1.893580E-05 +7.576615E-03 
 +3.740954E-04 +4.906232E-04 +3.748725E-04 +4.906232E-04 -6.115746E-05 -1.264856E-04 +3.748725E-04 -1.264856E-04 +7.421768E-03 
 +3.416906E-04 -3.142518E-04 -2.859981E-04 -3.142518E-04 +1.515513E-05 -3.607017E-05 -2.859981E-04 -3.607017E-05 +7.021872E-03 
 -1.663806E-04 +4.278861E-04 -6.167762E-04 +4.278861E-04 +2.317335E-04 +2.641860E-05 -6.167762E-04 +2.641860E-05 +7.016039E-03 
 +5.286523E-05 +3.582234E-04 +4.473136E-04 +3.582234E-04 +2.622424E-04 +6.500942E-04 +4.473136E-04 +6.500942E-04 +7.266019E-03 
 +1.038000E-04 +4.038349E-04 -2.950799E-04 +4.038349E-04 -6.765677E-04 +1.683780E-05 -2.950799E-04 +1.683780E-05 +7.678200E-03 
 -1.877888E-04 +4.274880E-05 -1.696716E-04 +4.274880E-05 +3.281978E-04 +4.907637E-04 -1.696716E-04 +4.907637E-04 +7.689829E-03 
 -7.439677E-08 +7.366537E-05 +4.289155E-04 +7.366537E-05 -7.098558E-05 -5.352929E-04 +4.289155E-04 -5.352929E-04 +7.508805E-03 
 +6.607521E-04 -2.461590E-04 +5.478068E-05 -2.461590E-04 +1.116096E-05 +4.018178E-04 +5.478068E-05 +4.018178E-04 +7.274651E-03 
 +2.212172E-04 +1.362439E-04 +2.049858E-04 +1.362439E-04 -1.646283E-05 -3.292936E-04 +2.049858E-04 -3.292936E-04 +7.454150E-03 
 -1.644320E-04 -5.565740E-04 +2.072991E-04 -5.565740E-04 +1.313733E-04 -3.041330E-05 +2.072991E-04 -3.041330E-05 +7.400358E-03 
 +2.649657E-04 -9.802817E-04 +1.941287E-04 -9.802817E-04 +4.336312E-05 -3.700289E-04 +1.941287E-04 -3.700289E-04 +7.418239E-03 
 -3.002118E-04 +1.146744E-03 +4.064260E-04 +1.146744E-03 -1.597719E-04 +1.077009E-05 +4.064260E-04 +1.077009E-05 +7.843762E-03 
 -4.182150E-04 -4.650080E-04 +2.749225E-04 -4.650080E-04 -7.922662E-05 -1.175223E-04 +2.749225E-04 -1.175223E-04 +7.627245E-03 
 +3.872967E-04 +7.584885E-05 -7.529220E-04 +7.584885E-05 +1.419462E-04 +4.778452E-04 -7.529220E-04 +4.778452E-04 +7.167241E-03 
 +1.228757E-04 -1.098523E-03 -5.697595E-04 -1.098523E-03 -1.278283E-04 -1.165844E-04 -5.697595E-04 -1.165844E-04 +7.680819E-03 
 -2.396392E-04 +6.434069E-04 -2.906031E-04 +6.434069E-04 -1.815744E-04 -1.462707E-04 -2.906031E-04 -1.462707E-04 +7.846704E-03 
 -4.873256E-04 -4.571621E-04 -3.955609E-04 -4.571621E-04 +3.511207E-04 +3.820983E-04 -3.955609E-04 +3.820983E-04 +7.574028E-03 
 +5.855222E-05 -2.405471E-04 +5.175230E-04 -2.405471E-04 -5.680200E-05 -3.698985E-04 +5.175230E-04 -3.698985E-04 +7.225190E-03 
 -2.666449E-04 -5.371009E-04 -4.680200E-04 -5.371009E-04 +2.045863E-05 -2.432194E-04 -4.680200E-04 -2.432194E-04 +7.347984E-03 
 +1.756600E-04 -7.122033E-05 +2.132625E-05 -7.122033E-05 -5.213589E-05 +1.590086E-04 +2.132625E-05 +1.590086E-04 +7.371171E-03 
 +4.095486E-04 -3.833814E-04 +3.422291E-04 -3.833814E-04 -3.965860E-04 +1.878661E-04 +3.422291E-04 +1.878661E-04 +7.631226E-03 
 +2.430224E-04 +2.959045E-04 -1.253621E-04 +2.959045E-04 +4.862471E-04 -2.318088E-04 -1.253621E-04 -2.318088E-04 +7.165764E-03 
 +1.849929E-04 -2.639513E-04 +2.841147E-04 -2.639513E-04 -5.209129E-04 -4.065367E-04 +2.841147E-04 -4.065367E-04 +7.397280E-03 
 -7.962150E-04 +1.380999E-04 +3.429659E-05 +1.380999E-04 +1.646954E-04 -6.714610E-04 +3.429659E-05 -6.714610E-04 +8.006855E-03 
 -3.009077E-04 +4.759969E-04 +1.759350E-04 +4.759969E-04 +4.212249E-04 -5.487172E-04 +1.759350E-04 -5.487172E-04 +7.708613E-03 
 +2.150263E-04 -5.275040E-04 +6.168904E-04 -5.275040E-04 -6.243313E-04 -5.023491E-04 +6.168904E-04 -5.023491E-04 +7.511422E-03 
 -5.019373E-04 +2.689663E-04 +1.254991E-04 +2.689663E-04 +4.960378E-05 -6.052742E-04 +1.254991E-04 -6.052742E-04 +7.688423E-03 
 -9.431460E-05 -1.990359E-04 +4.241302E-05 -1.990359E-04 +3.334300E-04 -8.316411E-04 +4.241302E-05 -8.316411E-04 +7.387570E-03 
 +2.770730E-04 -8.298251E-04 +5.616597E-04 -8.298251E-04 -4.213476E-04 +1.984826E-04 +5.616597E-04 +1.984826E-04 +7.637644E-03 
 -4.336462E-04 +6.063551E-04 +5.752513E-04 +6.063551E-04 +5.967809E-04 +1.938086E-04 +5.752513E-04 +1.938086E-04 +7.268416E-03 
 -3.642302E-04 +7.378883E-05 +3.651063E-04 +7.378883E-05 +2.324447E-04 +5.249046E-04 +3.651063E-04 +5.249046E-04 +7.503404E-03 
 -9.293582E-05 -4.464696E-04 +1.242742E-03 -4.464696E-04 -4.155205E-04 -3.847310E-04 +1.242742E-03 -3.847310E-04 +7.812365E-03 
 -6.091058E-04 -8.135485E-04 +4.456548E-04 -8.135485E-04 -5.023364E-05 +5.730610E-04 +4.456548E-04 +5.730610E-04 +7.896340E-03 
 -4.342667E-04 -4.501731E-04 -3.937613E-04 -4.501731E-04 -4.539025E-05 -1.275587E-04 -3.937613E-04 -1.275587E-04 +7.870674E-03 
 -6.642842E-05 -2.787361E-05 -7.920326E-05 -2.787361E-05 +1.867637E-04 +2.940881E-04 -7.920326E-05 +2.940881E-04 +7.250542E-03 
 +7.039416E-05 -5.439214E-04 +1.478520E-04 -5.439214E-04 -1.993972E-04 -2.431839E-04 +1.478520E-04 -2.431839E-04 +7.208841E-03 
 +4.082115E-05 -1.478457E-04 -4.399978E-04 -1.478457E-04 -2.582869E-05 +6.835540E-05 -4.399978E-04 +6.835540E-05 +7.424511E-03 
 +5.864277E-05 +8.149548E-04 -3.701062E-04 +8.149548E-04 +3.163594E-04 -5.889126E-04 -3.701062E-04 -5.889126E-04 +6.860995E-03 
 -2.335307E-04 -7.008258E-04 -3.988419E-04 -7.008258E-04 +3.102150E-04 -1.067912E-04 -3.988419E-04 -1.067912E-04 +7.482827E-03 
 -2.073099E-04 -1.458161E-04 +6.806061E-05 -1.458161E-04 +1.602657E-04 +1.509062E-04 +6.806061E-05 +1.509062E-04 +7.215588E-03 
 -4.580630E-05 -4.062590E-05 +3.208631E-04 -4.062590E-05 -1.717459E-04 -1.355268E-04 +3.208631E-04 -1.355268E-04 +7.536713E-03 
 +2.239099E-04 -1.025186E-04 +2.491527E-04 -1.025186E-04 +3.258079E-04 +2.684274E-05 +2.491527E-04 +2.684274E-05 +7.069691E-03 
 -1.963660E-05 +2.844535E-04 -5.845076E-05 +2.844535E-04 -2.914176E-04 +3.663847E-05 -5.845076E-05 +3.663847E-05 +7.367349E-03 
 -1.544321E-04 +5.979683E-04 +1.060964E-04 +5.979683E-04 -4.505646E-04 +5.064352E-04 +1.060964E-04 +5.064352E-04 +7.972375E-03 
 -4.157841E-04 +5.104751E-04 +2.862392E-04 +5.104751E-04 +2.380072E-04 +3.210268E-04 +2.862392E-04 +3.210268E-04 +7.531113E-03 
 +1.339149E-04 +2.896682E-04 -2.924871E-04 +2.896682E-04 -9.198175E-05 -6.661410E-06 -2.924871E-04 -6.661410E-06 +7.235176E-03 
 +6.770374E-05 -1.095598E-03 -4.848391E-04 -1.095598E-03 -1.403843E-04 +4.195995E-04 -4.848391E-04 +4.195995E-04 +7.456554E-03 
 -1.106436E-04 -4.972027E-04 -1.090871E-04 -4.972027E-04 +1.963033E-04 +4.303160E-04 -1.090871E-04 +4.303160E-04 +7.309892E-03 
 -1.734842E-04 -6.980362E-04 -7.999042E-05 -6.980362E-04 +8.916413E-05 -1.471160E-04 -7.999042E-05 -1.471160E-04 +7.664432E-03 
 +1.435877E-04 -1.175459E-03 -8.982224E-04 -1.175459E-03 -2.331651E-04 +5.458880E-04 -8.982224E-04 +5.458880E-04 +7.426627E-03 
 -3.815596E-05 +1.024520E-03 -7.618988E-04 +1.024520E-03 +2.607389E-04 -6.731055E-04 -7.618988E-04 -6.731055E-04 +7.638196E-03 
 +1.618453E-04 -4.462853E-04 +6.877824E-04 -4.462853E-04 +5.080121E-04 -4.052611E-04 +6.877824E-04 -4.052611E-04 +7.458530E-03 
 +3.469276E-04 +2.834157E-04 +2.095727E-04 +2.834157E-04 -4.918661E-04 -3.877644E-04 +2.095727E-04 -3.877644E-04 +7.603613E-03 
 +2.026960E-04 -1.157693E-03 -1.724032E-04 -1.157693E-03 -1.931272E-04 -5.453318E-05 -1.724032E-04 -5.453318E-05 +7.412711E-03 
 +5.031949E-05 +3.988951E-05 +1.545012E-04 +3.988951E-05 +5.636228E-04 -5.084319E-04 +1.545012E-04 -5.084319E-04 +7.254176E-03 
 -6.796987E-04 -1.965466E-04 +4.222944E-04 -1.965466E-04 -1.879189E-04 +3.545101E-04 +4.222944E-04 +3.545101E-04 +7.990458E-03 
 -1.775364E-04 -3.852780E-04 +3.877235E-04 -3.852780E-04 +1.295497E-04 +8.008423E-04 +3.877235E-04 +8.008423E-04 +7.766909E-03 
 +3.438083E-04 -5.500119E-04 +1.105267E-04 -5.500119E-04 +2.208694E-04 +1.810364E-04 +1.105267E-04 +1.810364E-04 +7.354816E-03 
 +2.106546E-04 +6.555398E-04 -1.089181E-04 +6.555398E-04 -7.515480E-04 -6.695786E-05 -1.089181E-04 -6.695786E-05 +8.021475E-03 
 -5.346389E-04 -3.870267E-04 +4.138222E-04 -3.870267E-04 +2.921336E-04 -3.298999E-04 +4.138222E-04 -3.298999E-04 +7.969423E-03 
 +5.509364E-05 -3.180235E-04 +2.542773E-06 -3.180235E-04 -3.739158E-04 +4.760204E-04 +2.542773E-06 +4.760204E-04 +7.721106E-03 
 -2.254211E-04 +1.085560E-04 -4.545475E-05 +1.085560E-04 +6.911867E-04 +5.118290E-04 -4.545475E-05 +5.118290E-04 +7.460420E-03 
 -1.405608E-04 +1.235767E-03 +2.514303E-04 +1.235767E-03 -2.109144E-04 +2.192855E-04 +2.514303E-04 +2.192855E-04 +7.818652E-03 
 -3.475297E-04 +5.645543E-04 -2.910893E-04 +5.645543E-04 -5.302620E-04 -8.318160E-06 -2.910893E-04 -8.318160E-06 +8.241666E-03 
 -3.572086E-04 +8.673848E-04 -4.753668E-05 +8.673848E-04 +2.876541E-04 +4.100363E-04 -4.753668E-05 +4.100363E-04 +7.651147E-03 
 +3.661692E-05 +7.353851E-04 -3.131751E-04 +7.353851E-04 -1.528210E-05 -6.735869E-05 -3.131751E-04 -6.735869E-05 +7.608413E-03 
 -2.975172E-05 -5.614044E-04 -6.181767E-04 -5.614044E-04 -5.807489E-04 +2.203523E-04 -6.181767E-04 +2.203523E-04 +8.095455E-03 
 -4.012263E-04 -3.890436E-04 +7.249219E-05 -3.890436E-04 +3.598593E-04 -1.577266E-04 +7.249219E-05 -1.577266E-04 +7.448336E-03 
 -6.894932E-05 +9.063441E-05 +1.930035E-05 +9.063441E-05 +3.528040E-04 +5.794902E-04 +1.930035E-05 +5.794902E-04 +7.510707E-03 
 -1.988230E-04 -9.785143E-04 -1.148266E-04 -9.785143E-04 -3.221498E-04 +7.572407E-06 -1.148266E-04 +7.572407E-06 +7.673590E-03 
 +2.532912E-04 -1.084128E-03 -1.507491E-04 -1.084128E-03 -3.653180E-04 +9.875966E-05 -1.507491E-04 +9.875966E-05 +7.826473E-03 
 +1.504653E-04 +5.240323E-07 -4.102306E-04 +5.240323E-07 +1.113711E-04 +2.870306E-04 -4.102306E-04 +2.870306E-04 +7.575491E-03 
 -2.428746E-05 -3.369633E-04 -3.830716E-04 -3.369633E-04 +1.966802E-04 +7.303784E-05 -3.830716E-04 +7.303784E-05 +7.686271E-03 
 +8.275388E-05 -8.481141E-04 +1.399325E-04 -8.481141E-04 -1.065486E-05 -3.165013E-04 +1.399325E-04 -3.165013E-04 +7.480697E-03 
 +1.916394E-04 +6.893565E-04 +1.589271E-04 +6.893565E-04 +5.219119E-05 +1.648405E-04 +1.589271E-04 +1.648405E-04 +7.300622E-03 
 +1.884719E-04 +7.519568E-04 +1.840352E-04 +7.519568E-04 +3.393389E-04 +3.383486E-04 +1.840352E-04 +3.383486E-04 +7.065161E-03 
 +1.999334E-04 -6.930160E-04 -4.408494E-04 -6.930160E-04 +2.273509E-04 +8.278390E-04 -4.408494E-04 +8.278390E-04 +7.066563E-03 
 +2.250833E-04 -9.373590E-05 -6.846879E-04 -9.373590E-05 +1.804063E-04 -4.624232E-04 -6.846879E-04 -4.624232E-04 +7.255270E-03 
 +3.000356E-04 +3.906725E-04 -2.570649E-04 +3.906725E-04 -2.024623E-04 -1.325410E-04 -2.570649E-04 -1.325410E-04 +7.266600E-03 
 -8.777473E-05 -4.609741E-04 +2.822320E-04 -4.609741E-04 -4.793752E-04 +5.841308E-04 +2.822320E-04 +5.841308E-04 +7.567400E-03 
 -1.594448E-04 -3.771923E-04 +3.475261E-04 -3.771923E-04 +1.261340E-04 -2.126353E-04 +3.475261E-04 -2.126353E-04 +7.660632E-03 
 -2.703698E-04 -5.160863E-06 -1.333966E-04 -5.160863E-06 +2.066665E-06 +3.434603E-04 -1.333966E-04 +3.434603E-04 +7.702197E-03 
 -3.097001E-05 +6.382273E-04 -2.749736E-04 +6.382273E-04 +8.592715E-05 +2.059257E-05 -2.749736E-04 +2.059257E-05 +7.238552E-03 
 +5.517383E-04 +1.234274E-03 +1.591166E-04 +1.234274E-03 -6.741969E-04 -1.990233E-04 +1.591166E-04 -1.990233E-04 +7.860871E-03 
 +1.010317E-04 -1.977265E-04 +3.427675E-04 -1.977265E-04 +2.675893E-04 -9.106579E-05 +3.427675E-04 -9.106579E-05 +7.591087E-03 
 -8.261937E-05 +1.978951E-04 +3.377442E-04 +1.978951E-04 +2.548602E-04 -2.099829E-06 +3.377442E-04 -2.099829E-06 +7.380382E-03 
 +1.739151E-04 -2.631794E-04 -3.065643E-04 -2.631794E-04 -7.272834E-04 -1.770541E-04 -3.065643E-04 -1.770541E-04 +7.713449E-03 
 -3.013496E-05 -6.756263E-05 -4.360665E-06 -6.756263E-05 +4.613743E-04 -1.376536E-04 -4.360665E-06 -1.376536E-04 +7.376555E-03 
 -8.530250E-05 +6.079676E-05 -5.787891E-06 +6.079676E-05 -2.197856E-04 +1.505538E-05 -5.787891E-06 +1.505538E-05 +7.363298E-03 
 -3.700441E-05 +2.640526E-05 -2.464970E-04 +2.640526E-05 +3.265514E-04 +3.773441E-04 -2.464970E-04 +3.773441E-04 +7.188496E-03 
 -1.561317E-04 +5.276910E-04 -1.266350E-04 +5.276910E-04 -3.653027E-04 -4.500438E-04 -1.266350E-04 -4.500438E-04 +7.492688E-03 
 -1.710104E-04 -4.844656E-04 +4.492691E-04 -4.844656E-04 -1.091264E-04 +5.581362E-04 +4.492691E-04 +5.581362E-04 +7.532401E-03 
 -6.275788E-05 +1.103467E-04 +5.180911E-04 +1.103467E-04 -2.917952E-05 -1.831819E-04 +5.180911E-04 -1.831819E-04 +7.570134E-03 
 +1.561468E-04 -2.295671E-04 -5.854201E-04 -2.295671E-04 +2.089022E-04 +2.488022E-04 -5.854201E-04 +2.488022E-04 +7.186737E-03 
 +1.911278E-04 -3.246685E-04 -8.510600E-04 -3.246685E-04 +7.129614E-05 +5.635588E-04 -8.510600E-04 +5.635588E-04 +7.314190E-03 
 -4.643025E-04 +8.142416E-04 -2.075628E-04 +8.142416E-04 +2.432176E-04 +5.601333E-06 -2.075628E-04 +5.601333E-06 +7.659704E-03 
 -8.589469E-04 +8.907727E-04 +1.957248E-05 +8.907727E-04 +1.948192E-04 +1.174964E-04 +1.957248E-05 +1.174964E-04 +8.184213E-03 
 -2.510206E-04 -7.664083E-04 -2.346833E-04 -7.664083E-04 -2.015944E-04 +3.225645E-05 -2.346833E-04 +3.225645E-05 +7.697387E-03 
 +2.655615E-04 -2.407766E-04 -6.245186E-04 -2.407766E-04 +5.264370E-04 -3.097159E-04 -6.245186E-04 -3.097159E-04 +7.371760E-03 
 +2.096725E-04 +2.476200E-04 -1.517163E-04 +2.476200E-04 -4.519467E-04 +9.285523E-05 -1.517163E-04 +9.285523E-05 +7.903376E-03 
 -2.330905E-04 -2.514045E-04 +4.440974E-04 -2.514045E-04 +9.157508E-06 +4.218421E-04 +4.440974E-04 +4.218421E-04 +7.518774E-03 
 -1.578989E-04 -3.134825E-04 +5.398682E-04 -3.134825E-04 +2.009219E-04 -4.236907E-04 +5.398682E-04 -4.236907E-04 +7.154054E-03 
 -2.427742E-04 +7.559390E-05 +7.736854E-05 +7.559390E-05 +3.160681E-04 -2.135101E-04 +7.736854E-05 -2.135101E-04 +7.517478E-03 
 -5.319096E-05 +5.815934E-04 -2.129972E-04 +5.815934E-04 -1.158699E-03 -4.250134E-04 -2.129972E-04 -4.250134E-04 +8.581226E-03 
 +5.671795E-04 -5.530929E-04 +5.110433E-04 -5.530929E-04 +1.638678E-04 -1.965876E-04 +5.110433E-04 -1.965876E-04 +7.165560E-03 
 +3.242218E-04 -2.110176E-04 +7.626147E-04 -2.110176E-04 +2.493522E-04 -5.989118E-04 +7.626147E-04 -5.989118E-04 +6.665302E-03 
 +1.515926E-04 +1.900564E-04 +1.692023E-04 +1.900564E-04 +6.088213E-05 -4.472697E-05 +1.692023E-04 -4.472697E-05 +7.514385E-03 
 +2.543391E-04 -6.233242E-04 -4.573355E-04 -6.233242E-04 -1.694635E-04 +6.619458E-05 -4.573355E-04 +6.619458E-05 +7.322117E-03 
 -1.507717E-04 +2.246074E-04 +2.484370E-04 +2.246074E-04 +2.461130E-04 +1.834137E-06 +2.484370E-04 +1.834137E-06 +7.056443E-03 
 -1.551951E-04 +4.001497E-05 +2.044774E-04 +4.001497E-05 -4.396311E-05 -2.252670E-04 +2.044774E-04 -2.252670E-04 +7.565418E-03 
 +2.945529E-04 -3.494655E-04 -8.670850E-05 -3.494655E-04 -5.093841E-04 -2.005829E-05 -8.670850E-05 -2.005829E-05 +7.861412E-03 
 -1.449703E-04 -1.636820E-04 +2.076508E-04 -1.636820E-04 +2.562239E-04 -1.054176E-05 +2.076508E-04 -1.054176E-05 +7.348452E-03 
 +6.302212E-05 +5.532448E-05 -1.828410E-04 +5.532448E-05 -2.504058E-04 -4.598032E-04 -1.828410E-04 -4.598032E-04 +7.293710E-03 
 -1.185877E-05 +2.731882E-04 +1.078588E-04 +2.731882E-04 +4.400240E-04 +2.633986E-04 +1.078588E-04 +2.633986E-04 +7.162955E-03 
 +2.354448E-05 -2.507758E-04 +3.444033E-04 -2.507758E-04 -3.008543E-04 -1.283621E-04 +3.444033E-04 -1.283621E-04 +7.570532E-03 
 +3.362953E-04 +2.337215E-04 -2.422187E-04 +2.337215E-04 +4.248646E-04 -1.372531E-04 -2.422187E-04 -1.372531E-04 +7.638091E-03 
 -2.456255E-04 +9.155388E-04 +1.139868E-04 +9.155388E-04 +1.794595E-05 -3.497451E-05 +1.139868E-04 -3.497451E-05 +7.641214E-03 
 -2.904900E-04 +1.455065E-04 -1.266066E-04 +1.455065E-04 +3.771560E-05 +2.455482E-05 -1.266066E-04 +2.455482E-05 +7.420940E-03 
 -9.550646E-05 +1.443305E-04 -7.101793E-04 +1.443305E-04 +2.048292E-04 -5.235895E-04 -7.101793E-04 -5.235895E-04 +7.443797E-03 
 -2.305973E-04 -2.086931E-04 -2.653560E-05 -2.086931E-04 -1.070779E-04 +5.559553E-04 -2.653560E-05 +5.559553E-04 +7.610119E-03 
 -1.397551E-04 -7.089753E-04 +4.665105E-04 -7.089753E-04 -2.759070E-05 -5.123159E-04 +4.665105E-04 -5.123159E-04 +7.661570E-03 
 -3.056216E-04 -1.013929E-03 +4.771420E-04 -1.013929E-03 -5.108552E-05 -8.538247E-05 +4.771420E-04 -8.538247E-05 +7.750171E-03 
 -5.498367E-04 +7.694689E-04 -3.795280E-04 +7.694689E-04 +2.650409E-04 -5.919373E-05 -3.795280E-04 -5.919373E-05 +8.023723E-03 
 -2.662209E-04 +1.224553E-03 +1.594056E-04 +1.224553E-03 -5.485743E-04 -1.293675E-04 +1.594056E-04 -1.293675E-04 +8.042431E-03 
 +2.499190E-04 +6.063950E-05 +5.826105E-04 +6.063950E-05 +1.381518E-04 +3.946357E-05 +5.826105E-04 +3.946357E-05 +6.858135E-03 
 +5.848493E-04 -3.306173E-04 +3.226739E-04 -3.306173E-04 -5.362109E-05 +6.868102E-06 +3.226739E-04 +6.868102E-06 +7.381241E-03 
 -5.420508E-05 +6.298529E-05 -2.083815E-04 +6.298529E-05 -1.243674E-04 +7.246091E-04 -2.083815E-04 +7.246091E-04 +7.687162E-03 
 +2.356840E-04 +3.785800E-04 -3.094381E-04 +3.785800E-04 +1.060853E-04 +5.323833E-04 -3.094381E-04 +5.323833E-04 +7.094951E-03 
 +5.423594E-05 -6.373687E-04 +4.652139E-04 -6.373687E-04 +7.265720E-05 -1.499487E-04 +4.652139E-04 -1.499487E-04 +7.442744E-03 
 -5.360475E-04 +1.782667E-04 +1.878864E-04 +1.782667E-04 -6.788296E-05 -5.600135E-04 +1.878864E-04 -5.600135E-04 +8.140809E-03 
 -1.340687E-04 -1.172602E-03 +6.995915E-05 -1.172602E-03 -3.348887E-04 -6.456782E-05 +6.995915E-05 -6.456782E-05 +7.839155E-03 
 -1.306067E-04 +3.550080E-04 -9.156870E-05 +3.550080E-04 -4.553356E-05 -3.641027E-04 -9.156870E-05 -3.641027E-04 +7.537687E-03 
 -7.840954E-04 +5.514187E-04 -4.720361E-04 +5.514187E-04 +7.656355E-05 +1.571842E-04 -4.720361E-04 +1.571842E-04 +7.728330E-03 
 +1.792919E-04 +4.127083E-05 -8.666629E-05 +4.127083E-05 -6.758226E-05 +2.777696E-04 -8.666629E-05 +2.777696E-04 +7.706196E-03 
 -4.294473E-04 -6.428781E-04 +1.899759E-05 -6.428781E-04 +2.117926E-04 -5.871051E-04 +1.899759E-05 -5.871051E-04 +7.677978E-03 
 -3.049921E-04 -9.097192E-04 -7.948031E-05 -9.097192E-04 +7.220352E-05 +3.962241E-04 -7.948031E-05 +3.962241E-04 +7.611459E-03 
 -8.147800E-05 -2.622433E-04 +6.963591E-05 -2.622433E-04 +2.489027E-04 +4.786097E-04 +6.963591E-05 +4.786097E-04 +7.493978E-03 
 -3.632155E-04 +1.339553E-03 -3.958265E-04 +1.339553E-03 +1.594578E-04 +4.344054E-04 -3.958265E-04 +4.344054E-04 +7.378233E-03 
 +2.009300E-04 +7.365606E-04 +3.752550E-04 +7.365606E-04 -3.244784E-04 -1.461693E-04 +3.752550E-04 -1.461693E-04 +7.351848E-03 
 -9.151596E-05 -3.418280E-04 +4.013271E-04 -3.418280E-04 +4.426503E-04 -2.427862E-04 +4.013271E-04 -2.427862E-04 +7.359139E-03 
 -3.212106E-04 +1.090368E-03 -5.880146E-05 +1.090368E-03 -2.470555E-04 +1.053603E-04 -5.880146E-05 +1.053603E-04 +7.643676E-03 
 +3.577258E-04 -4.314879E-04 +2.180671E-04 -4.314879E-04 -6.736267E-05 +2.210797E-04 +2.180671E-04 +2.210797E-04 +7.350241E-03 
 +6.134807E-05 -7.125118E-04 -4.056742E-04 -7.125118E-04 +8.774280E-05 -8.010265E-05 -4.056742E-04 -8.010265E-05 +7.216497E-03 
 -2.233890E-04 +1.760676E-04 -6.581129E-06 +1.760676E-04 +4.694462E-05 -2.699211E-04 -6.581129E-06 -2.699211E-04 +7.451430E-03 
 +3.686998E-05 +7.891260E-04 -3.712615E-04 +7.891260E-04 +1.051204E-04 -5.152654E-04 -3.712615E-04 -5.152654E-04 +7.187077E-03 
 -2.201320E-04 -5.402330E-04 +2.390131E-04 -5.402330E-04 +2.014349E-04 -2.122713E-04 +2.390131E-04 -2.122713E-04 +7.165724E-03 
 +4.330979E-04 -5.111601E-04 -7.133331E-05 -5.111601E-04 -1.912220E-04 -4.136363E-04 -7.133331E-05 -4.136363E-04 +7.162988E-03 
 +1.409129E-04 +1.559678E-04 +4.386386E-04 +1.559678E-04 +6.829861E-05 -1.121992E-04 +4.386386E-04 -1.121992E-04 +7.456742E-03 
 -1.462487E-04 -9.826648E-04 -5.418645E-05 -9.826648E-04 -2.922349E-04 +2.578857E-05 -5.418645E-05 +2.578857E-05 +7.717326E-03 
 +2.495753E-04 -1.461223E-04 -6.242078E-04 -1.461223E-04 -2.055444E-04 -8.385469E-05 -6.242078E-04 -8.385469E-05 +7.342012E-03 
 +2.418944E-04 +3.160043E-04 +1.281179E-04 +3.160043E-04 +4.866574E-05 -4.021350E-04 +1.281179E-04 -4.021350E-04 +6.918263E-03 
 +5.455569E-05 -3.086169E-05 -3.584894E-04 -3.086169E-05 +3.538734E-05 -4.635458E-05 -3.584894E-04 -4.635458E-05 +7.047633E-03 
 -1.199038E-05 +9.822632E-04 -8.467066E-06 +9.822632E-04 -2.108968E-04 +7.795558E-04 -8.467066E-06 +7.795558E-04 +7.472622E-03 
 -1.576139E-04 +7.701517E-04 -1.063341E-04 +7.701517E-04 -1.295091E-04 -8.632081E-04 -1.063341E-04 -8.632081E-04 +7.314236E-03 
 -6.412129E-05 +2.270019E-05 -1.494447E-04 +2.270019E-05 +5.114718E-04 +1.528457E-04 -1.494447E-04 +1.528457E-04 +7.221714E-03 
 -4.341470E-04 -8.702437E-04 -2.277556E-04 -8.702437E-04 -2.323460E-04 +3.039599E-04 -2.277556E-04 +3.039599E-04 +7.558150E-03 
 -9.319995E-05 -5.180855E-04 -5.371612E-05 -5.180855E-04 +4.718876E-04 +4.535165E-04 -5.371612E-05 +4.535165E-04 +7.410520E-03 
 +3.924075E-06 -1.815926E-04 +3.299755E-04 -1.815926E-04 +9.596704E-05 -3.573612E-04 +3.299755E-04 -3.573612E-04 +7.582273E-03 
 +1.457604E-05 +7.278182E-04 +2.016881E-04 +7.278182E-04 -2.927999E-05 +7.035005E-05 +2.016881E-04 +7.035005E-05 +7.595405E-03 
 +2.603996E-04 +5.438740E-04 -3.842860E-04 +5.438740E-04 -1.194467E-04 -2.755730E-04 -3.842860E-04 -2.755730E-04 +7.643546E-03 
 -1.799613E-04 -4.651412E-04 +3.272187E-04 -4.651412E-04 +1.497251E-05 +7.554970E-06 +3.272187E-04 +7.554970E-06 +7.669829E-03 
 +6.058190E-05 -4.298617E-05 +2.840922E-04 -4.298617E-05 +1.762658E-04 +1.062946E-04 +2.840922E-04 +1.062946E-04 +7.048551E-03 
 +5.806687E-04 -3.167264E-04 -6.710741E-04 -3.167264E-04 -2.794394E-04 -2.155340E-05 -6.710741E-04 -2.155340E-05 +7.368226E-03 
 +1.594757E-05 -3.681378E-04 +1.324857E-04 -3.681378E-04 -8.732148E-05 -3.267489E-04 +1.324857E-04 -3.267489E-04 +7.635319E-03 
 +2.469006E-04 -5.966158E-04 -6.522133E-04 -5.966158E-04 +2.979708E-04 +5.751550E-04 -6.522133E-04 +5.751550E-04 +7.174177E-03 
 +2.365433E-04 +1.943314E-04 -4.555220E-04 +1.943314E-04 +3.082023E-04 -3.023575E-04 -4.555220E-04 -3.023575E-04 +7.069244E-03 
 -4.470575E-04 -6.959140E-04 -2.073123E-04 -6.959140E-04 -3.877217E-05 +3.325829E-06 -2.073123E-04 +3.325829E-06 +7.745225E-03 
 -1.186742E-04 +2.448662E-04 +2.371411E-04 +2.448662E-04 -3.003947E-04 -3.257774E-04 +2.371411E-04 -3.257774E-04 +7.545718E-03 
 +1.681454E-04 -5.472172E-04 -3.739358E-04 -5.472172E-04 +2.704179E-04 +8.359205E-04 -3.739358E-04 +8.359205E-04 +7.354562E-03 
 +2.450950E-04 -6.686080E-04 -3.109332E-04 -6.686080E-04 -3.280048E-04 +3.413470E-05 -3.109332E-04 +3.413470E-05 +7.552906E-03 
 +5.349187E-04 +4.003665E-04 +4.969200E-04 +4.003665E-04 -3.676780E-04 +2.724898E-04 +4.969200E-04 +2.724898E-04 +7.544602E-03 
 -1.505252E-04 +1.095979E-03 +2.243062E-04 +1.095979E-03 -1.331287E-04 -2.010490E-04 +2.243062E-04 -2.010490E-04 +7.845574E-03 
 -2.519265E-04 +8.997409E-04 -3.993386E-04 +8.997409E-04 +3.387227E-04 -4.752949E-04 -3.993386E-04 -4.752949E-04 +7.753164E-03 
 +1.418133E-04 +6.037470E-04 -9.174927E-04 +6.037470E-04 -3.310665E-04 +8.611588E-05 -9.174927E-04 +8.611588E-05 +7.548356E-03 
 -4.473850E-05 +2.310165E-04 +3.067696E-04 +2.310165E-04 +1.150351E-04 -1.941563E-04 +3.067696E-04 -1.941563E-04 +7.603493E-03 
 -3.766258E-04 +2.812655E-04 +4.343847E-04 +2.812655E-04 +1.999557E-04 +5.032874E-04 +4.343847E-04 +5.032874E-04 +7.459946E-03 
 -1.783639E-04 -1.840250E-04 -3.554810E-05 -1.840250E-04 +3.805144E-04 -1.222495E-04 -3.554810E-05 -1.222495E-04 +7.554322E-03 
 +1.020770E-04 +9.950510E-04 -7.943166E-06 +9.950510E-04 -1.347741E-04 -3.154092E-04 -7.943166E-06 -3.154092E-04 +7.501438E-03 
 +1.436544E-04 -3.648990E-04 +1.468059E-05 -3.648990E-04 +1.425946E-04 +2.225900E-04 +1.468059E-05 +2.225900E-04 +6.897402E-03 
 +3.581270E-04 +4.206228E-04 -2.705286E-04 +4.206228E-04 +1.448625E-04 -1.804664E-04 -2.705286E-04 -1.804664E-04 +6.951704E-03 
 +5.174269E-04 -7.955920E-04 -4.663361E-04 -7.955920E-04 +7.199448E-05 +5.974117E-04 -4.663361E-04 +5.974117E-04 +6.934714E-03 
 +6.200303E-04 +1.549020E-04 +6.834749E-05 +1.549020E-04 -2.566937E-04 -2.784338E-04 +6.834749E-05 -2.784338E-04 +7.017030E-03 
 +3.791302E-04 -4.439797E-04 +5.503056E-04 -4.439797E-04 -1.873277E-04 -4.205181E-04 +5.503056E-04 -4.205181E-04 +7.336644E-03 
 +2.274127E-04 -8.023340E-05 +3.651685E-04 -8.023340E-05 -5.587854E-05 +4.371806E-05 +3.651685E-04 +4.371806E-05 +7.193539E-03 
 +2.310810E-04 -5.281471E-04 +1.409427E-05 -5.281471E-04 -1.359350E-04 -1.580173E-05 +1.409427E-05 -1.580173E-05 +7.375968E-03 
 +6.671182E-05 -2.104049E-04 -4.165430E-04 -2.104049E-04 +2.034738E-04 -9.579116E-05 -4.165430E-04 -9.579116E-05 +7.058219E-03 
 +1.220647E-04 +1.112420E-03 +3.549366E-04 +1.112420E-03 -3.315004E-04 +7.477246E-05 +3.549366E-04 +7.477246E-05 +7.708454E-03 
 -5.202186E-04 -1.723223E-04 +5.656224E-04 -1.723223E-04 +2.502927E-04 -6.471002E-04 +5.656224E-04 -6.471002E-04 +7.445507E-03 
 -4.210667E-04 +7.658364E-04 +1.869346E-05 +7.658364E-04 -8.256262E-05 -3.680981E-04 +1.869346E-05 -3.680981E-04 +7.828025E-03 
 -4.623068E-04 -5.659742E-04 -5.033533E-04 -5.659742E-04 -1.834422E-04 +1.566013E-04 -5.033533E-04 +1.566013E-04 +8.075986E-03 
 +7.017851E-05 +5.819286E-04 -5.210847E-04 +5.819286E-04 -5.503669E-06 -5.461074E-04 -5.210847E-04 -5.461074E-04 +7.588066E-03 
 +2.932607E-04 +3.169767E-04 +4.085737E-04 +3.169767E-04 -3.333821E-04 +4.760813E-05 +4.085737E-04 +4.760813E-05 +7.754691E-03 
 -3.144162E-04 +9.515316E-04 +2.050951E-04 +9.515316E-04 +3.469206E-04 +6.965290E-04 +2.050951E-04 +6.965290E-04 +7.609473E-03 
 +3.577851E-04 -2.938087E-04 -7.075101E-04 -2.938087E-04 -8.462567E-04 -7.209196E-05 -7.075101E-04 -7.209196E-05 +7.508660E-03 
 +9.039257E-05 +4.674924E-04 -2.328914E-05 +4.674924E-04 +3.354276E-04 +1.275442E-04 -2.328914E-05 +1.275442E-04 +7.111752E-03 
 -4.933530E-04 +4.634606E-04 +4.590432E-05 +4.634606E-04 +5.107869E-04 -4.593850E-05 +4.590432E-05 -4.593850E-05 +7.383736E-03 
 -1.676764E-04 +4.378448E-04 +2.110422E-04 +4.378448E-04 -2.004286E-04 +3.044416E-04 +2.110422E-04 +3.044416E-04 +7.790308E-03 
 +1.750741E-04 -2.690526E-04 -3.613100E-04 -2.690526E-04 +2.487204E-04 +1.393572E-04 -3.613100E-04 +1.393572E-04 +7.082536E-03 
 -1.953442E-05 +6.014936E-04 -3.552994E-04 +6.014936E-04 +1.995128E-04 -2.865453E-04 -3.552994E-04 -2.865453E-04 +6.898500E-03 
 -4.258573E-04 -3.893344E-04 -1.223631E-04 -3.893344E-04 +6.662702E-05 +5.830418E-04 -1.223631E-04 +5.830418E-04 +7.586468E-03 
 -1.542567E-04 +9.014804E-04 +1.589567E-05 +9.014804E-04 +1.592172E-04 +2.695123E-04 +1.589567E-05 +2.695123E-04 +7.519547E-03 
 +2.323311E-04 -2.505452E-04 +4.926642E-04 -2.505452E-04 -5.929286E-05 -2.974708E-04 +4.926642E-04 -2.974708E-04 +7.361673E-03 
 +1.751573E-04 +1.206619E-04 +5.786686E-04 +1.206619E-04 -3.337877E-04 +2.947699E-04 +5.786686E-04 +2.947699E-04 +7.725978E-03 
 +7.856004E-05 -4.381047E-04 +9.329569E-04 -4.381047E-04 -6.994898E-05 +3.292617E-04 +9.329569E-04 +3.292617E-04 +7.958512E-03 
 +2.124649E-04 +6.079315E-05 +5.886297E-04 +6.079315E-05 -2.733997E-04 +3.926167E-04 +5.886297E-04 +3.926167E-04 +7.586531E-03 
 +2.939755E-05 -3.804791E-04 -4.166885E-04 -3.804791E-04 +3.987858E-04 +4.860624E-04 -4.166885E-04 +4.860624E-04 +7.022771E-03 
 +6.913230E-05 -5.971927E-06 +6.444329E-05 -5.971927E-06 -7.443709E-05 -4.619989E-04 +6.444329E-05 -4.619989E-04 +7.650845E-03 
 -3.631035E-05 -3.637396E-05 -4.390215E-05 -3.637396E-05 +1.325684E-04 +7.409232E-04 -4.390215E-05 +7.409232E-04 +7.409102E-03 
 -1.917702E-04 +5.521210E-04 -3.111856E-04 +5.521210E-04 -1.260609E-04 -7.174128E-05 -3.111856E-04 -7.174128E-05 +7.816619E-03 
 -1.497161E-04 -5.448254E-04 +9.331455E-06 -5.448254E-04 -5.516954E-05 +2.538729E-04 +9.331455E-06 +2.538729E-04 +7.763301E-03 
 -6.234728E-04 +3.219994E-05 +3.931517E-04 +3.219994E-05 +2.674811E-04 +3.242115E-04 +3.931517E-04 +3.242115E-04 +7.674179E-03 
 -1.674049E-04 +5.977376E-04 +3.821276E-04 +5.977376E-04 -2.506046E-04 +9.018739E-04 +3.821276E-04 +9.018739E-04 +7.903316E-03 
 +3.770260E-04 -5.907642E-05 -5.738309E-05 -5.907642E-05 +6.250322E-05 +2.633054E-04 -5.738309E-05 +2.633054E-04 +7.401703E-03 
 +4.471843E-04 +1.507091E-04 +1.340079E-06 +1.507091E-04 +6.329949E-05 -1.847601E-04 +1.340079E-06 -1.847601E-04 +6.968126E-03 
 +2.635533E-04 -5.982948E-04 -3.444253E-04 -5.982948E-04 -3.218840E-04 +6.478811E-04 -3.444253E-04 +6.478811E-04 +7.429478E-03 
 -3.449998E-04 +1.296015E-03 -4.884750E-04 +1.296015E-03 -2.224634E-04 +6.828811E-04 -4.884750E-04 +6.828811E-04 +7.744744E-03 
 +3.910664E-05 -1.369531E-04 -3.021644E-04 -1.369531E-04 +2.835125E-04 +2.306981E-04 -3.021644E-04 +2.306981E-04 +7.128134E-03 
 +2.396990E-04 -1.436748E-04 +5.285823E-05 -1.436748E-04 +1.761874E-04 +1.072707E-04 +5.285823E-05 +1.072707E-04 +7.142303E-03 
 -2.551727E-04 -6.328712E-05 +1.230571E-04 -6.328712E-05 +1.310045E-04 -3.346013E-04 +1.230571E-04 -3.346013E-04 +7.565277E-03 
 -6.237485E-04 -4.765805E-04 +5.614344E-05 -4.765805E-04 -3.050419E-05 +3.785264E-04 +5.614344E-05 +3.785264E-04 +7.936779E-03 
 -2.829665E-04 -1.979030E-04 +4.510186E-04 -1.979030E-04 +1.603586E-04 -4.876391E-04 +4.510186E-04 -4.876391E-04 +7.562535E-03 
 +2.580758E-04 -2.341601E-04 +6.292924E-04 -2.341601E-04 -4.880908E-05 -5.855731E-04 +6.292924E-04 -5.855731E-04 +7.389371E-03 
 -1.085820E-04 +1.662171E-04 +9.647980E-04 +1.662171E-04 -2.820574E-04 -3.178883E-04 +9.647980E-04 -3.178883E-04 +7.631378E-03 
 -7.992069E-04 -9.308236E-05 +4.300907E-04 -9.308236E-05 +2.878406E-04 +3.864170E-04 +4.300907E-04 +3.864170E-04 +7.506706E-03 
 -1.967703E-05 -4.766328E-04 +4.665465E-06 -4.766328E-04 +1.454662E-04 +2.018816E-04 +4.665465E-06 +2.018816E-04 +7.541737E-03 
 +1.851198E-04 +4.522415E-04 -1.822307E-04 +4.522415E-04 -3.669090E-04 +2.080069E-04 -1.822307E-04 +2.080069E-04 +7.729013E-03 
 -5.604026E-04 -1.375788E-04 -5.658474E-04 -1.375788E-04 +6.942821E-05 -8.113672E-05 -5.658474E-04 -8.113672E-05 +7.803293E-03 
 +2.984606E-04 +1.257141E-05 +1.850382E-04 +1.257141E-05 +2.648010E-04 +3.792788E-04 +1.850382E-04 +3.792788E-04 +7.239028E-03 
 -1.110373E-04 -2.763877E-04 -1.583676E-05 -2.763877E-04 +1.522314E-04 +3.802977E-04 -1.583676E-05 +3.802977E-04 +7.624398E-03 
 +5.085862E-04 -3.754562E-04 -3.531497E-05 -3.754562E-04 -1.751014E-04 -3.955622E-04 -3.531497E-05 -3.955622E-04 +7.344587E-03 
 +2.148933E-04 -2.384786E-04 -6.868100E-05 -2.384786E-04 +2.378288E-05 +2.228820E-04 -6.868100E-05 +2.228820E-04 +7.364539E-03 
 -1.369666E-04 -8.368984E-04 +2.053671E-04 -8.368984E-04 +9.347172E-05 -6.133869E-05 +2.053671E-04 -6.133869E-05 +7.314383E-03 
 +2.392626E-04 +3.013814E-04 +2.094137E-04 +3.013814E-04 +2.558251E-04 -8.008712E-04 +2.094137E-04 -8.008712E-04 +6.964372E-03 
 +3.584748E-04 -1.020083E-03 +3.568903E-04 -1.020083E-03 -2.426394E-04 +1.246468E-04 +3.568903E-04 +1.246468E-04 +7.540631E-03 
 +2.413805E-05 -3.450903E-04 +3.453396E-04 -3.450903E-04 -3.105225E-05 -3.445483E-04 +3.453396E-04 -3.445483E-04 +7.964972E-03 
 +1.411523E-04 -9.059082E-05 +8.250725E-04 -9.059082E-05 -7.578701E-07 +3.752144E-04 +8.250725E-04 +3.752144E-04 +7.452738E-03 
 +7.818786E-05 +6.795768E-04 -4.280266E-05 +6.795768E-04 -1.492303E-04 -6.891306E-04 -4.280266E-05 -6.891306E-04 +7.340295E-03 
 +2.620100E-06 -5.004918E-04 -5.938263E-04 -5.004918E-04 -2.933497E-04 +3.993547E-04 -5.938263E-04 +3.993547E-04 +7.709980E-03 
 -1.840956E-04 -5.239446E-04 -2.015609E-04 -5.239446E-04 +3.221493E-04 +4.076025E-05 -2.015609E-04 +4.076025E-05 +7.534725E-03 
 -2.408165E-04 +6.743653E-04 -6.029666E-04 +6.743653E-04 +6.939217E-05 -1.943107E-04 -6.029666E-04 -1.943107E-04 +7.632506E-03 
 -1.616280E-04 -7.970871E-04 -1.097237E-04 -7.970871E-04 +1.024308E-04 -1.125318E-04 -1.097237E-04 -1.125318E-04 +7.500558E-03 
 -3.194128E-04 -7.054677E-04 -4.013345E-04 -7.054677E-04 +8.461073E-06 +3.025654E-04 -4.013345E-04 +3.025654E-04 +7.504489E-03 
 -3.171092E-05 -1.540595E-04 -1.061140E-04 -1.540595E-04 -2.269933E-04 +2.120963E-04 -1.061140E-04 +2.120963E-04 +7.728470E-03 
 -5.239940E-04 -6.340541E-04 +3.455919E-04 -6.340541E-04 +1.505600E-04 +3.673229E-04 +3.455919E-04 +3.673229E-04 +7.688786E-03 
 -6.567899E-04 +8.858346E-04 +8.034930E-05 +8.858346E-04 -4.798292E-05 +4.367676E-04 +8.034930E-05 +4.367676E-04 +7.674898E-03 
 +2.815378E-04 +1.303612E-04 -2.251876E-05 +1.303612E-04 +3.069171E-04 -3.935247E-04 -2.251876E-05 -3.935247E-04 +7.399383E-03 
 -1.677171E-04 -7.543263E-04 -3.636625E-04 -7.543263E-04 -8.474462E-06 +2.321064E-04 -3.636625E-04 +2.321064E-04 +7.735945E-03 
 +1.568280E-04 -3.957304E-04 +5.612522E-04 -3.957304E-04 -5.753808E-04 -7.288702E-04 +5.612522E-04 -7.288702E-04 +7.462269E-03 
 +8.552767E-05 +1.107189E-03 +2.590040E-04 +1.107189E-03 -4.510194E-04 +5.718236E-05 +2.590040E-04 +5.718236E-05 +7.778342E-03 
 -4.087300E-04 +6.024048E-04 -1.866176E-04 +6.024048E-04 +2.232802E-04 +3.060150E-04 -1.866176E-04 +3.060150E-04 +7.706386E-03 
 -6.099206E-05 +1.001947E-04 -6.462127E-04 +1.001947E-04 +2.241486E-04 -1.341713E-04 -6.462127E-04 -1.341713E-04 +7.070170E-03 
 -4.269112E-05 +1.231464E-03 -1.630358E-04 +1.231464E-03 -2.542086E-04 -1.427202E-05 -1.630358E-04 -1.427202E-05 +7.523641E-03 
 +1.062058E-04 -3.534997E-04 +9.474716E-07 -3.534997E-04 -3.745364E-06 -4.086753E-04 +9.474716E-07 -4.086753E-04 +7.216636E-03 
 +3.584573E-04 +7.341446E-04 +5.889334E-04 +7.341446E-04 +1.884754E-04 -6.807535E-05 +5.889334E-04 -6.807535E-05 +6.814519E-03 
 -1.837239E-05 +3.787142E-05 +4.621203E-04 +3.787142E-05 +9.266330E-05 +1.032583E-04 +4.621203E-04 +1.032583E-04 +7.259737E-03 
 -3.735747E-04 +1.035545E-03 +2.081040E-04 +1.035545E-03 -6.848668E-05 -1.346888E-04 +2.081040E-04 -1.346888E-04 +7.753037E-03 
 -2.881239E-04 +2.843157E-04 -3.233881E-04 +2.843157E-04 +1.703371E-04 -6.725008E-04 -3.233881E-04 -6.725008E-04 +7.645830E-03 
 +1.300019E-04 +4.578527E-04 +4.571544E-05 +4.578527E-04 -3.966643E-04 +3.397357E-04 +4.571544E-05 +3.397357E-04 +7.650898E-03 
 +7.899864E-05 +2.794818E-04 +3.017673E-04 +2.794818E-04 -2.070177E-04 -2.163081E-05 +3.017673E-04 -2.163081E-05 +7.451667E-03 
 +3.145662E-04 +5.047044E-04 -3.916492E-04 +5.047044E-04 -1.298089E-04 -1.889767E-04 -3.916492E-04 -1.889767E-04 +7.287165E-03 
 +2.352270E-04 +2.358377E-04 -3.322423E-04 +2.358377E-04 +1.302548E-04 -4.805201E-04 -3.322423E-04 -4.805201E-04 +7.723757E-03 
 -1.716511E-04 -5.886237E-04 -6.632534E-06 -5.886237E-04 +3.787076E-04 -4.733462E-04 -6.632534E-06 -4.733462E-04 +7.088313E-03 
 +1.935307E-04 +1.373038E-04 +3.025202E-04 +1.373038E-04 -6.800616E-05 +3.384672E-04 +3.025202E-04 +3.384672E-04 +7.199113E-03 
 +2.291787E-04 +3.529185E-04 -1.742735E-04 +3.529185E-04 -1.376686E-04 +1.528392E-04 -1.742735E-04 +1.528392E-04 +7.455132E-03 
 -1.654452E-04 +5.509058E-05 +2.554372E-04 +5.509058E-05 +2.657928E-04 -6.884541E-04 +2.554372E-04 -6.884541E-04 +7.092444E-03 
 -2.680653E-04 -6.109893E-05 -1.226901E-04 -6.109893E-05 -1.766341E-04 -1.643239E-05 -1.226901E-04 -1.643239E-05 +7.764976E-03 
 -2.553955E-04 -5.336282E-04 +1.469506E-04 -5.336282E-04 +1.255451E-04 -2.438008E-04 +1.469506E-04 -2.438008E-04 +7.761118E-03 
 +5.138481E-05 +9.674921E-05 +1.282724E-04 +9.674921E-05 +9.514912E-05 +1.966874E-04 +1.282724E-04 +1.966874E-04 +7.178879E-03 
 +2.573857E-04 +5.631720E-05 -1.040748E-03 +5.631720E-05 -1.768039E-07 +2.775041E-04 -1.040748E-03 +2.775041E-04 +6.999076E-03 
 +1.283058E-04 +1.864705E-03 -4.815567E-04 +1.864705E-03 -3.325932E-04 +4.823080E-04 -4.815567E-04 +4.823080E-04 +7.458849E-03 
 -2.146616E-04 +3.512957E-04 -1.943854E-04 +3.512957E-04 +2.420870E-04 +2.906784E-04 -1.943854E-04 +2.906784E-04 +7.222092E-03 
 +2.556250E-04 +3.486237E-04 -1.632331E-04 +3.486237E-04 -3.495241E-04 -1.302258E-05 -1.632331E-04 -1.302258E-05 +7.322576E-03 
 +4.302335E-04 -1.959286E-04 -2.246063E-04 -1.959286E-04 -2.248445E-04 +2.578719E-04 -2.246063E-04 +2.578719E-04 +7.158761E-03 
 +3.939075E-04 +1.984599E-05 +9.033961E-05 +1.984599E-05 +2.543209E-04 -6.685153E-04 +9.033961E-05 -6.685153E-04 +6.948131E-03 
 +3.634479E-04 -1.376582E-04 -3.521700E-04 -1.376582E-04 +1.939298E-04 +4.591257E-05 -3.521700E-04 +4.591257E-05 +6.907893E-03 
 +2.079760E-04 +8.440467E-05 -2.753693E-04 +8.440467E-05 -1.299771E-04 +1.479885E-04 -2.753693E-04 +1.479885E-04 +7.119280E-03 
 +5.876976E-05 +4.007636E-04 -6.772522E-04 +4.007636E-04 +1.223475E-04 -4.069171E-04 -6.772522E-04 -4.069171E-04 +7.094260E-03 
 +2.162852E-04 -9.675453E-05 -3.274658E-04 -9.675453E-05 +9.006025E-05 -2.649091E-04 -3.274658E-04 -2.649091E-04 +7.349637E-03 
 +1.437756E-04 +1.978221E-04 +8.592903E-05 +1.978221E-04 -2.015883E-04 +3.920388E-04 +8.592903E-05 +3.920388E-04 +7.485882E-03 
 -6.717275E-04 +2.258070E-04 -2.064085E-05 +2.258070E-04 -1.146460E-04 +2.275178E-04 -2.064085E-05 +2.275178E-04 +7.910581E-03 
 -2.844353E-05 +1.298921E-03 -8.194035E-05 +1.298921E-03 -1.816941E-04 +4.439609E-04 -8.194035E-05 +4.439609E-04 +8.162918E-03 
 +2.181621E-04 -4.543503E-04 -5.086443E-04 -4.543503E-04 -6.647124E-05 +2.688145E-04 -5.086443E-04 +2.688145E-04 +7.221001E-03 
 -3.972071E-04 -1.322937E-04 -1.100680E-04 -1.322937E-04 +1.014421E-04 -6.476331E-05 -1.100680E-04 -6.476331E-05 +7.904436E-03 
 -2.321166E-04 -3.736973E-04 +3.502921E-05 -3.736973E-04 -2.334558E-05 -4.339655E-04 +3.502921E-05 -4.339655E-04 +7.799363E-03 
 +9.475217E-05 +1.275019E-04 -7.143382E-05 +1.275019E-04 +6.485321E-04 +2.678387E-04 -7.143382E-05 +2.678387E-04 +6.821777E-03 
 +1.812883E-04 +3.577474E-04 -1.281013E-04 +3.577474E-04 -2.561614E-04 +5.411982E-04 -1.281013E-04 +5.411982E-04 +7.793149E-03 
 -2.724837E-04 +2.316188E-04 +2.356778E-04 +2.316188E-04 -2.657811E-04 +4.988877E-04 +2.356778E-04 +4.988877E-04 +7.538730E-03 
 +5.468341E-05 -2.084413E-04 +4.576815E-06 -2.084413E-04 +4.286647E-04 -2.816946E-04 +4.576815E-06 -2.816946E-04 +6.857491E-03 
 +2.564587E-04 +3.641591E-04 -3.744289E-04 +3.641591E-04 +1.682365E-04 -1.807096E-04 -3.744289E-04 -1.807096E-04 +7.050366E-03 
 +4.004275E-04 -5.514661E-04 -3.407916E-04 -5.514661E-04 -1.026822E-04 +9.623553E-04 -3.407916E-04 +9.623553E-04 +7.480577E-03 
 +1.405889E-04 +1.560140E-04 +1.427847E-04 +1.560140E-04 -3.160677E-04 -2.962342E-04 +1.427847E-04 -2.962342E-04 +7.495895E-03 
 +1.053699E-04 -1.820220E-04 +4.214690E-04 -1.820220E-04 +2.773321E-04 -8.227546E-04 +4.214690E-04 -8.227546E-04 +7.618358E-03 
 +1.860461E-04 -1.394767E-04 -3.063719E-04 -1.394767E-04 -6.387988E-04 -2.407989E-04 -3.063719E-04 -2.407989E-04 +7.661171E-03 
 +9.525689E-05 -3.511019E-04 -1.575982E-04 -3.511019E-04 +9.831415E-05 -6.801829E-05 -1.575982E-04 -6.801829E-05 +7.338686E-03 
 -1.068393E-04 -1.583390E-04 +6.606157E-04 -1.583390E-04 +8.558256E-05 -7.715821E-04 +6.606157E-04 -7.715821E-04 +7.168826E-03 
 -4.608969E-04 -1.803590E-04 +2.260378E-04 -1.803590E-04 +9.595994E-05 +1.430940E-04 +2.260378E-04 +1.430940E-04 +7.680977E-03 
 +4.769732E-05 +3.131018E-04 +1.192188E-04 +3.131018E-04 +6.189137E-06 +2.223160E-04 +1.192188E-04 +2.223160E-04 +7.601062E-03 
 +5.816732E-04 -5.861505E-04 +1.848248E-04 -5.861505E-04 -3.982060E-05 -2.687694E-04 +1.848248E-04 -2.687694E-04 +7.338150E-03 
 +4.239729E-05 +4.626843E-04 -1.985153E-04 +4.626843E-04 +3.004296E-04 -5.294274E-04 -1.985153E-04 -5.294274E-04 +7.196113E-03 
 -4.821186E-04 +6.657421E-04 -5.203198E-04 +6.657421E-04 -1.390839E-04 +7.392988E-04 -5.203198E-04 +7.392988E-04 +7.618085E-03 
 -2.098525E-04 -5.520440E-04 -3.351703E-04 -5.520440E-04 +2.981919E-06 -2.321621E-04 -3.351703E-04 -2.321621E-04 +7.262666E-03 
 +5.108780E-04 +8.973135E-04 +1.305095E-04 +8.973135E-04 +1.214159E-04 +5.554413E-05 +1.305095E-04 +5.554413E-05 +6.788152E-03 
 +4.726771E-05 -6.648786E-04 +4.472833E-04 -6.648786E-04 -5.263618E-04 -2.137978E-04 +4.472833E-04 -2.137978E-04 +8.105583E-03 
 -1.424589E-04 +9.160571E-04 +4.063779E-05 +9.160571E-04 -1.067865E-04 +3.598402E-05 +4.063779E-05 +3.598402E-05 +7.608768E-03 
 +2.085743E-04 -4.136926E-04 -2.687796E-04 -4.136926E-04 +4.853678E-04 +5.096204E-05 -2.687796E-04 +5.096204E-05 +7.046883E-03 
 -3.293473E-04 +7.834431E-04 +3.443270E-04 +7.834431E-04 -6.795150E-05 -2.754870E-04 +3.443270E-04 -2.754870E-04 +7.651509E-03 
 +2.516322E-04 -4.444169E-04 +1.888705E-05 -4.444169E-04 +1.562285E-04 -4.020693E-04 +1.888705E-05 -4.020693E-04 +7.158125E-03 
 +2.550579E-04 +2.171451E-04 -4.275668E-05 +2.171451E-04 +2.942362E-04 -5.387852E-04 -4.275668E-05 -5.387852E-04 +6.972674E-03 
 -3.106266E-05 -6.860023E-04 -1.129659E-04 -6.860023E-04 -4.515651E-05 +6.063313E-04 -1.129659E-04 +6.063313E-04 +7.426276E-03 
 -6.100666E-04 +1.565394E-03 +3.529286E-04 +1.565394E-03 -7.511082E-05 -9.560287E-05 +3.529286E-04 -9.560287E-05 +8.160707E-03 
 -4.664103E-04 +3.746281E-04 +1.998373E-04 +3.746281E-04 +2.965246E-05 -1.552205E-04 +1.998373E-04 -1.552205E-04 +7.911645E-03 
 +3.450195E-04 +4.441422E-04 -2.091675E-04 +4.441422E-04 -3.041889E-04 +7.375979E-05 -2.091675E-04 +7.375979E-05 +7.133753E-03 
 +5.320288E-04 +1.027624E-04 +9.903551E-05 +1.027624E-04 +5.210143E-05 -4.048877E-05 +9.903551E-05 -4.048877E-05 +7.058727E-03 
 +1.610211E-04 +3.794477E-04 +6.575015E-04 +3.794477E-04 +4.499637E-05 +4.692554E-04 +6.575015E-04 +4.692554E-04 +7.251436E-03 
 +3.180642E-04 +4.771856E-06 +1.893009E-04 +4.771856E-06 -1.387537E-04 +1.426954E-04 +1.893009E-04 +1.426954E-04 +7.530142E-03 
 -3.073861E-04 -1.669740E-04 -3.467429E-04 -1.669740E-04 -1.142515E-04 +6.597058E-05 -3.467429E-04 +6.597058E-05 +7.980994E-03 
 -5.698782E-04 +5.162654E-04 +3.291623E-06 +5.162654E-04 +1.196688E-04 +2.077626E-04 +3.291623E-06 +2.077626E-04 +7.675278E-03 
 +1.223535E-04 -4.482137E-04 -1.739919E-04 -4.482137E-04 +1.289201E-04 -7.381564E-05 -1.739919E-04 -7.381564E-05 +7.147267E-03 
 +5.802562E-05 -4.603364E-04 -5.236390E-04 -4.603364E-04 +9.278173E-05 +2.525575E-04 -5.236390E-04 +2.525575E-04 +7.329314E-03 
 -2.721458E-04 +1.403562E-03 +2.807589E-04 +1.403562E-03 -2.653076E-04 +1.347129E-04 +2.807589E-04 +1.347129E-04 +7.810479E-03 
 -8.406135E-04 +5.409737E-04 +1.480466E-04 +5.409737E-04 +3.629067E-04 +4.062359E-04 +1.480466E-04 +4.062359E-04 +7.456283E-03 
 +2.105175E-04 +4.060609E-04 -2.880873E-04 +4.060609E-04 +3.616771E-05 -5.728583E-04 -2.880873E-04 -5.728583E-04 +7.150824E-03 
 +3.423613E-04 -1.604933E-04 +6.803579E-04 -1.604933E-04 -2.178498E-04 +2.866252E-04 +6.803579E-04 +2.866252E-04 +7.457162E-03 
 +7.186931E-05 +1.063718E-04 +7.088277E-04 +1.063718E-04 +1.685282E-04 +9.471700E-04 +7.088277E-04 +9.471700E-04 +7.068862E-03 
 +1.226298E-04 +2.739603E-04 -4.646572E-04 +2.739603E-04 -1.260274E-04 -9.094165E-06 -4.646572E-04 -9.094165E-06 +7.044694E-03 
 -2.620379E-04 -3.898630E-05 -1.615706E-04 -3.898630E-05 +1.408783E-04 +4.567446E-04 -1.615706E-04 +4.567446E-04 +7.474010E-03 
 +1.953142E-04 +6.285037E-04 -3.044947E-04 +6.285037E-04 -4.339464E-04 +2.410137E-04 -3.044947E-04 +2.410137E-04 +7.527802E-03 
 +2.645874E-04 -4.014830E-05 -1.389876E-04 -4.014830E-05 +4.853214E-04 +3.629479E-04 -1.389876E-04 +3.629479E-04 +6.995480E-03 
 -7.987484E-07 -5.934921E-04 -1.292903E-06 -5.934921E-04 +3.603809E-04 +2.889037E-04 -1.292903E-06 +2.889037E-04 +7.199408E-03 
 -2.948933E-04 -3.370035E-05 -2.394143E-04 -3.370035E-05 -1.735885E-04 -6.417584E-05 -2.394143E-04 -6.417584E-05 +7.672107E-03 
 -4.778463E-05 +8.684914E-04 +5.075840E-04 +8.684914E-04 -2.299215E-04 +4.708569E-04 +5.075840E-04 +4.708569E-04 +7.286238E-03 
 +9.381705E-05 +6.372879E-04 -1.209160E-04 +6.372879E-04 +1.148038E-05 +1.592620E-04 -1.209160E-04 +1.592620E-04 +7.239204E-03 
 -2.202230E-04 +6.876590E-04 +1.585847E-04 +6.876590E-04 +7.834641E-05 -1.834413E-04 +1.585847E-04 -1.834413E-04 +7.684852E-03 
 +3.527512E-04 +5.747817E-04 -1.418234E-04 +5.747817E-04 -5.275366E-04 -1.873308E-04 -1.418234E-04 -1.873308E-04 +7.443898E-03 
 -6.349356E-05 +3.451829E-04 +2.572623E-04 +3.451829E-04 +2.542173E-04 -7.223673E-04 +2.572623E-04 -7.223673E-04 +6.964759E-03 
 +3.316713E-04 +2.376051E-04 +4.013825E-04 +2.376051E-04 +1.591859E-04 +2.554347E-04 +4.013825E-04 +2.554347E-04 +7.135061E-03 
 -3.520543E-06 +4.064573E-04 +5.489852E-05 +4.064573E-04 -2.556090E-04 +2.128672E-04 +5.489852E-05 +2.128672E-04 +7.620027E-03 
 -4.649759E-04 -1.310818E-04 +2.479821E-05 -1.310818E-04 +1.578819E-04 -1.326591E-04 +2.479821E-05 -1.326591E-04 +7.672364E-03 
 -3.343407E-05 -2.722250E-04 +2.346978E-04 -2.722250E-04 -2.344684E-04 -3.067809E-04 +2.346978E-04 -3.067809E-04 +7.646611E-03 
 +5.853405E-05 -6.590897E-05 -4.611454E-05 -6.590897E-05 +4.809473E-04 -7.930560E-05 -4.611454E-05 -7.930560E-05 +7.551069E-03 
 +3.147378E-04 -1.483861E-04 -2.214535E-04 -1.483861E-04 -4.142254E-04 +2.800837E-04 -2.214535E-04 +2.800837E-04 +7.634003E-03 
 -4.660105E-04 -5.991826E-04 -4.873988E-04 -5.991826E-04 +3.530779E-04 +2.478571E-04 -4.873988E-04 +2.478571E-04 +7.567252E-03 
 -5.934463E-04 +1.604008E-03 -1.854362E-04 +1.604008E-03 +9.818236E-06 -3.764736E-04 -1.854362E-04 -3.764736E-04 +7.890964E-03 
 +9.104313E-05 +2.962870E-04 +1.633544E-04 +2.962870E-04 -1.600616E-04 -1.530643E-04 +1.633544E-04 -1.530643E-04 +7.624578E-03 
 +5.365908E-04 +2.811848E-04 +3.156720E-04 +2.811848E-04 +3.813527E-04 +1.140212E-04 +3.156720E-04 +1.140212E-04 +7.174797E-03 
 +1.842283E-05 +6.528219E-05 +1.999120E-04 +6.528219E-05 -6.018569E-05 -7.134542E-04 +1.999120E-04 -7.134542E-04 +7.753025E-03 
 -1.878162E-04 +5.298243E-04 -2.527219E-04 +5.298243E-04 -2.900358E-04 +1.975254E-04 -2.527219E-04 +1.975254E-04 +7.702417E-03 
 +3.692175E-04 +8.968841E-05 +3.968012E-04 +8.968841E-05 +1.308590E-04 -3.464539E-04 +3.968012E-04 -3.464539E-04 +7.070921E-03 
 -1.835498E-04 +4.677801E-04 +2.670594E-04 +4.677801E-04 +1.779856E-04 -1.897729E-04 +2.670594E-04 -1.897729E-04 +7.638488E-03 
 -1.990243E-04 -1.608994E-04 +4.214470E-04 -1.608994E-04 -4.325381E-04 -4.023892E-04 +4.214470E-04 -4.023892E-04 +7.834970E-03 
 -1.752235E-04 +8.690872E-04 +3.364978E-04 +8.690872E-04 +3.882759E-04 -2.636923E-04 +3.364978E-04 -2.636923E-04 +7.436691E-03 
 +1.696001E-04 -1.227785E-03 -4.153728E-04 -1.227785E-03 -4.225995E-04 -4.093588E-04 -4.153728E-04 -4.093588E-04 +7.540564E-03 
 -1.783086E-04 +2.287402E-04 -2.741477E-05 +2.287402E-04 +2.258023E-04 -4.696495E-04 -2.741477E-05 -4.696495E-04 +7.657273E-03 
 +5.641156E-05 +4.190232E-04 +3.192180E-04 +4.190232E-04 +3.505112E-04 -1.973668E-04 +3.192180E-04 -1.973668E-04 +6.888567E-03 
 +4.327109E-04 +1.299709E-04 -2.409436E-06 +1.299709E-04 -4.884261E-04 +4.662397E-04 -2.409436E-06 +4.662397E-04 +7.514013E-03 
 +4.577620E-05 +5.272235E-04 +4.256615E-05 +5.272235E-04 -2.299401E-04 -3.806194E-05 +4.256615E-05 -3.806194E-05 +7.677951E-03 
 +1.310012E-04 +2.345807E-04 +5.229856E-04 +2.345807E-04 +2.827393E-04 +3.924690E-04 +5.229856E-04 +3.924690E-04 +7.143509E-03 
 +5.407761E-05 -3.181444E-04 +1.664474E-04 -3.181444E-04 +7.555027E-05 +1.345717E-04 +1.664474E-04 +1.345717E-04 +6.950991E-03 
 -2.132913E-04 -4.683924E-04 -1.328254E-04 -4.683924E-04 -8.105786E-05 -7.912918E-05 -1.328254E-04 -7.912918E-05 +7.349818E-03 
 -1.557064E-04 +1.109078E-03 -1.519364E-04 +1.109078E-03 -6.456771E-05 -7.233686E-05 -1.519364E-04 -7.233686E-05 +7.607670E-03 
 -8.047283E-05 +2.577371E-04 -3.583542E-04 +2.577371E-04 -3.225795E-05 -4.859914E-05 -3.583542E-04 -4.859914E-05 +7.392748E-03 
 +4.768255E-04 -1.072683E-04 -1.803260E-04 -1.072683E-04 +2.053814E-04 +6.382012E-05 -1.803260E-04 +6.382012E-05 +6.948790E-03 
 +2.845353E-04 -7.585027E-04 -1.969440E-04 -7.585027E-04 -1.745510E-04 -1.359564E-04 -1.969440E-04 -1.359564E-04 +7.279230E-03 
 +2.310433E-05 +6.840031E-04 -6.729410E-05 +6.840031E-04 +4.501796E-04 -1.066293E-05 -6.729410E-05 -1.066293E-05 +7.213472E-03 
 +5.908209E-05 +7.223804E-05 -5.998083E-05 +7.223804E-05 -4.556423E-04 -5.022371E-04 -5.998083E-05 -5.022371E-04 +7.408469E-03 
 +2.352452E-04 +7.493485E-04 +2.651000E-04 +7.493485E-04 +2.345705E-04 -3.542533E-04 +2.651000E-04 -3.542533E-04 +7.399832E-03 
 +2.878170E-04 +3.088473E-04 +1.555036E-04 +3.088473E-04 -6.328297E-05 +8.671988E-05 +1.555036E-04 +8.671988E-05 +6.997473E-03 
 -6.755147E-05 +5.020517E-04 -5.293001E-04 +5.020517E-04 +6.158503E-05 -6.396076E-04 -5.293001E-04 -6.396076E-04 +7.319335E-03 
 -2.820347E-04 +4.161287E-04 +2.033539E-04 +4.161287E-04 -2.074299E-04 -3.863050E-04 +2.033539E-04 -3.863050E-04 +7.863116E-03 
 -5.618124E-04 +1.853278E-04 +5.901828E-04 +1.853278E-04 +4.295886E-05 -1.996594E-04 +5.901828E-04 -1.996594E-04 +7.980403E-03 
 -2.064865E-04 +7.659676E-05 +3.226258E-04 +7.659676E-05 -2.616507E-05 -3.970539E-04 +3.226258E-04 -3.970539E-04 +7.404347E-03 
 +1.619467E-04 -5.828994E-04 +1.523684E-05 -5.828994E-04 +8.002989E-05 +6.514412E-04 +1.523684E-05 +6.514412E-04 +7.327208E-03 
 +7.760249E-05 -3.673295E-04 +2.008925E-05 -3.673295E-04 -2.786147E-04 +1.302544E-04 +2.008925E-05 +1.302544E-04 +7.653294E-03 
 +1.247919E-05 +6.715874E-04 -3.926031E-05 +6.715874E-04 +3.185479E-04 +4.930177E-05 -3.926031E-05 +4.930177E-05 +7.109183E-03 
 -5.561291E-05 +8.301967E-04 -1.455023E-04 +8.301967E-04 -6.319371E-05 +6.350851E-04 -1.455023E-04 +6.350851E-04 +7.771480E-03 
 -3.939823E-04 +7.591501E-05 +3.294290E-04 +7.591501E-05 +1.736190E-04 -5.028171E-04 +3.294290E-04 -5.028171E-04 +7.546982E-03 
 -3.371821E-04 -5.814516E-04 -1.996077E-04 -5.814516E-04 -4.462735E-04 +1.964177E-04 -1.996077E-04 +1.964177E-04 +7.755878E-03 
 -5.110335E-05 -7.446798E-04 +1.409070E-04 -7.446798E-04 -1.773355E-04 -6.347463E-05 +1.409070E-04 -6.347463E-05 +8.134651E-03 
 -2.918462E-04 -4.189758E-04 +7.677725E-04 -4.189758E-04 +9.306046E-05 -1.219682E-05 +7.677725E-04 -1.219682E-05 +7.584178E-03 
 -3.910860E-04 -2.387843E-04 +7.194784E-05 -2.387843E-04 +2.240610E-04 -4.054441E-05 +7.194784E-05 -4.054441E-05 +7.362377E-03 
 -2.793581E-05 +9.819387E-04 +1.371246E-04 +9.819387E-04 -1.236833E-04 -1.008843E-04 +1.371246E-04 -1.008843E-04 +7.387005E-03 
 +1.636527E-04 +9.539785E-04 +3.183447E-04 +9.539785E-04 +1.635965E-04 +1.483680E-04 +3.183447E-04 +1.483680E-04 +7.767983E-03 
 -8.563312E-05 +1.005491E-03 -1.558590E-04 +1.005491E-03 -2.708765E-04 +9.078077E-05 -1.558590E-04 +9.078077E-05 +7.940538E-03 
 +1.260052E-04 -6.506847E-05 +2.006556E-05 -6.506847E-05 +1.380216E-04 +4.276508E-04 +2.006556E-05 +4.276508E-04 +7.310784E-03 
 +1.872452E-04 -4.413194E-04 -6.605679E-05 -4.413194E-04 +3.558999E-05 -5.436112E-04 -6.605679E-05 -5.436112E-04 +7.375911E-03 
 +1.579015E-05 -1.871607E-04 -2.085340E-04 -1.871607E-04 -2.327574E-04 -3.800872E-04 -2.085340E-04 -3.800872E-04 +7.455205E-03 
 -2.453745E-04 +2.148303E-04 -1.128699E-04 +2.148303E-04 +1.982444E-04 -2.017794E-04 -1.128699E-04 -2.017794E-04 +7.685023E-03 
 +2.088859E-04 +9.999399E-05 -2.132693E-04 +9.999399E-05 -1.476276E-04 -3.378045E-05 -2.132693E-04 -3.378045E-05 +7.924801E-03 
 -5.003475E-04 +2.902427E-05 -1.471044E-04 +2.902427E-05 +3.707986E-05 -2.262217E-04 -1.471044E-04 -2.262217E-04 +7.664932E-03 
 -2.891432E-04 +1.297622E-03 -2.406126E-05 +1.297622E-03 +5.004193E-05 +3.527068E-04 -2.406126E-05 +3.527068E-04 +7.797821E-03 
 +5.548549E-04 -2.720403E-04 +3.710413E-04 -2.720403E-04 -7.970718E-05 +8.450741E-06 +3.710413E-04 +8.450741E-06 +7.378730E-03 
 -8.199617E-05 +6.484372E-04 +4.420782E-04 +6.484372E-04 +2.728004E-04 -1.560158E-04 +4.420782E-04 -1.560158E-04 +7.750264E-03 
 -1.191100E-04 -7.156781E-04 +7.194011E-05 -7.156781E-04 -1.906556E-04 -1.330528E-04 +7.194011E-05 -1.330528E-04 +7.815626E-03 
 +2.082625E-04 +7.986475E-04 +2.394198E-05 +7.986475E-04 +1.425717E-04 +4.196819E-04 +2.394198E-05 +4.196819E-04 +6.908801E-03 
 +2.137646E-04 +4.377768E-04 -3.878419E-05 +4.377768E-04 +2.046766E-04 -4.702434E-04 -3.878419E-05 -4.702434E-04 +7.212998E-03 
 +1.980600E-04 +5.673094E-04 +5.055915E-04 +5.673094E-04 +1.159844E-04 +3.619314E-04 +5.055915E-04 +3.619314E-04 +7.533660E-03 
 +2.396460E-04 -3.442876E-04 +1.166151E-04 -3.442876E-04 -1.642306E-04 +7.743682E-05 +1.166151E-04 +7.743682E-05 +7.555009E-03 
 +7.325669E-05 -1.012283E-03 +1.656260E-05 -1.012283E-03 -1.420852E-04 -6.065794E-05 +1.656260E-05 -6.065794E-05 +7.475583E-03 
 +9.326922E-05 -5.422040E-04 +1.093053E-04 -5.422040E-04 -3.253869E-04 -8.091117E-05 +1.093053E-04 -8.091117E-05 +7.317867E-03 
 -4.513769E-04 -4.563750E-04 +4.448603E-04 -4.563750E-04 +8.702512E-05 +7.943129E-05 +4.448603E-04 +7.943129E-05 +7.522835E-03 
 -1.587605E-04 -8.131721E-04 +5.385106E-05 -8.131721E-04 +2.516763E-04 +4.325735E-04 +5.385106E-05 +4.325735E-04 +7.475475E-03 
 +1.262599E-04 +5.162941E-04 -3.935240E-04 +5.162941E-04 -9.896921E-05 -3.951976E-05 -3.935240E-04 -3.951976E-05 +7.658106E-03 
 +1.809330E-04 +4.523970E-04 +2.448068E-04 +4.523970E-04 +1.640071E-04 -2.703894E-04 +2.448068E-04 -2.703894E-04 +7.170984E-03 
 -1.329953E-04 +2.438921E-04 +2.799789E-04 +2.438921E-04 -4.070316E-05 +3.945851E-04 +2.799789E-04 +3.945851E-04 +7.227586E-03 
 -7.655205E-05 -9.043551E-04 +1.597005E-04 -9.043551E-04 -3.658166E-04 -8.595298E-05 +1.597005E-04 -8.595298E-05 +7.984657E-03 
 -4.136015E-04 +2.182465E-04 -2.665037E-04 +2.182465E-04 +1.105538E-04 -2.771988E-04 -2.665037E-04 -2.771988E-04 +7.586065E-03 
 -2.849557E-04 +4.399466E-05 -5.792297E-04 +4.399466E-05 -8.055083E-06 +2.331328E-04 -5.792297E-04 +2.331328E-04 +7.417126E-03 
 -3.813447E-04 -1.434286E-04 -2.631694E-04 -1.434286E-04 +6.165895E-05 -7.386807E-05 -2.631694E-04 -7.386807E-05 +7.302148E-03 
 +2.978100E-04 +2.543342E-04 +3.167262E-04 +2.543342E-04 +1.152714E-04 +5.409823E-04 +3.167262E-04 +5.409823E-04 +7.132177E-03 
 +8.719700E-05 +8.312149E-04 +8.353438E-04 +8.312149E-04 -2.387627E-04 +3.873544E-04 +8.353438E-04 +3.873544E-04 +7.641267E-03 
 -3.591221E-04 +5.573349E-04 -2.205751E-04 +5.573349E-04 +1.602564E-04 -1.612478E-04 -2.205751E-04 -1.612478E-04 +7.215342E-03 
 +1.010370E-04 +2.396859E-04 -2.320040E-05 +2.396859E-04 +1.112572E-04 -6.303752E-04 -2.320040E-05 -6.303752E-04 +7.095231E-03 
 +2.807060E-05 +5.466134E-04 +1.702746E-04 +5.466134E-04 -2.017510E-04 +5.411588E-04 +1.702746E-04 +5.411588E-04 +7.092053E-03 
 +5.048655E-05 +3.751880E-04 -5.380477E-04 +3.751880E-04 +1.599987E-04 -4.006091E-04 -5.380477E-04 -4.006091E-04 +7.193130E-03 
 +1.880428E-05 +4.837188E-04 -2.588297E-04 +4.837188E-04 +3.491583E-04 +1.002523E-04 -2.588297E-04 +1.002523E-04 +7.614062E-03 
 -2.542171E-04 -1.577791E-04 -2.930936E-04 -1.577791E-04 -1.011958E-04 +2.067513E-04 -2.930936E-04 +2.067513E-04 +7.692412E-03 
 +8.818533E-05 -3.717114E-04 -3.063785E-04 -3.717114E-04 -4.323470E-05 -5.294959E-04 -3.063785E-04 -5.294959E-04 +7.118279E-03 
 +4.230104E-04 +3.806093E-04 -3.394154E-04 +3.806093E-04 -1.576428E-04 -1.348787E-04 -3.394154E-04 -1.348787E-04 +6.847376E-03 
 +3.213846E-04 -1.112474E-04 +4.795682E-04 -1.112474E-04 -1.826345E-04 +1.115640E-05 +4.795682E-04 +1.115640E-05 +7.318411E-03 
 -6.486501E-05 +2.957150E-05 +3.916549E-04 +2.957150E-05 +2.486923E-05 +2.814641E-04 +3.916549E-04 +2.814641E-04 +7.599985E-03 
 -5.356836E-04 -7.881166E-04 +1.590688E-04 -7.881166E-04 +1.014837E-04 +5.895201E-05 +1.590688E-04 +5.895201E-05 +7.668970E-03 
 -2.303120E-04 -1.827866E-05 +2.424167E-04 -1.827866E-05 -1.818258E-04 -5.623478E-05 +2.424167E-04 -5.623478E-05 +7.474424E-03 
 +1.755977E-04 +7.378613E-05 -4.147491E-04 +7.378613E-05 +3.832537E-04 +1.312806E-05 -4.147491E-04 +1.312806E-05 +7.062151E-03 
 +7.827151E-05 -8.187217E-04 -2.750388E-04 -8.187217E-04 -1.323049E-04 +1.731939E-04 -2.750388E-04 +1.731939E-04 +7.516453E-03 
 +1.801729E-04 +5.788160E-04 +1.648917E-05 +5.788160E-04 -3.142086E-04 -6.804235E-05 +1.648917E-05 -6.804235E-05 +7.459289E-03 
 +2.387525E-04 -6.795127E-04 +3.399510E-04 -6.795127E-04 +6.471472E-05 +2.841144E-05 +3.399510E-04 +2.841144E-05 +6.748639E-03 
 +9.515206E-05 -2.166344E-04 +5.558037E-04 -2.166344E-04 -1.396643E-05 +2.916920E-05 +5.558037E-04 +2.916920E-05 +7.222347E-03 
 -3.142328E-04 +1.249230E-04 -4.528152E-05 +1.249230E-04 +1.507392E-04 +2.176369E-04 -4.528152E-05 +2.176369E-04 +7.751343E-03 
 -4.963212E-04 -2.913226E-04 -8.027186E-04 -2.913226E-04 +7.119877E-05 -1.829024E-04 -8.027186E-04 -1.829024E-04 +7.652190E-03 
 -3.831302E-05 +8.061631E-04 -5.758607E-06 +8.061631E-04 -1.767827E-04 +1.125445E-04 -5.758607E-06 +1.125445E-04 +7.531140E-03 
 +6.614863E-05 +2.062003E-04 +1.350645E-04 +2.062003E-04 +1.254236E-04 +2.980011E-05 +1.350645E-04 +2.980011E-05 +7.111584E-03 
 -3.218823E-04 -2.257188E-04 -3.514228E-04 -2.257188E-04 +1.045756E-04 +2.136223E-04 -3.514228E-04 +2.136223E-04 +7.324262E-03 
 -5.201738E-05 +1.255232E-03 +1.534572E-04 +1.255232E-03 -1.717111E-04 +9.337485E-05 +1.534572E-04 +9.337485E-05 +7.474766E-03 
 -2.832063E-04 -5.159796E-04 +1.638906E-04 -5.159796E-04 -7.854561E-05 +4.088304E-04 +1.638906E-04 +4.088304E-04 +7.821091E-03 
 -5.181759E-05 -5.317226E-05 +6.595465E-05 -5.317226E-05 +1.488819E-04 -3.304872E-04 +6.595465E-05 -3.304872E-04 +7.623230E-03 
 -1.134269E-04 +4.265824E-04 -3.558279E-06 +4.265824E-04 +3.442823E-04 +2.808825E-04 -3.558279E-06 +2.808825E-04 +7.390815E-03 
 -5.098499E-04 +3.733084E-04 -9.248314E-05 +3.733084E-04 -6.652798E-05 -2.064542E-05 -9.248314E-05 -2.064542E-05 +7.722449E-03 
 -8.163074E-05 -1.349829E-04 +7.109817E-04 -1.349829E-04 -2.478976E-04 -5.753646E-04 +7.109817E-04 -5.753646E-04 +7.655896E-03 
 -2.730688E-04 +1.446857E-03 +1.101940E-04 +1.446857E-03 -8.278415E-05 +3.123195E-04 +1.101940E-04 +3.123195E-04 +8.149775E-03 
 +2.562646E-04 -4.297958E-04 -1.814396E-04 -4.297958E-04 -1.019458E-04 -3.583414E-04 -1.814396E-04 -3.583414E-04 +7.686291E-03 
 +6.712301E-05 +1.430859E-04 -3.300837E-04 +1.430859E-04 +1.360619E-04 -3.507336E-04 -3.300837E-04 -3.507336E-04 +7.102070E-03 
 -3.003006E-04 -9.871612E-05 -4.382166E-04 -9.871612E-05 +3.805094E-05 +6.961281E-05 -4.382166E-04 +6.961281E-05 +7.303855E-03 
 -1.340620E-04 +3.564399E-05 +1.341123E-04 +3.564399E-05 +6.562602E-05 -6.094464E-04 +1.341123E-04 -6.094464E-04 +7.226913E-03 
 +3.543159E-04 -1.323551E-04 -1.243818E-04 -1.323551E-04 +9.193257E-05 -1.138434E-04 -1.243818E-04 -1.138434E-04 +6.779720E-03 
 +3.032992E-04 -2.670063E-04 +4.395948E-04 -2.670063E-04 +1.621033E-04 +3.047741E-04 +4.395948E-04 +3.047741E-04 +7.161374E-03 
 +3.141229E-04 -7.492007E-04 +6.375562E-04 -7.492007E-04 -4.949744E-04 +6.995093E-05 +6.375562E-04 +6.995093E-05 +7.271929E-03 
 +2.675749E-05 +3.734025E-04 -1.813554E-05 +3.734025E-04 +5.537677E-05 +3.151461E-04 -1.813554E-05 +3.151461E-04 +7.478657E-03 
 +1.970223E-05 -8.772466E-04 +1.735365E-04 -8.772466E-04 -5.642767E-05 -4.796654E-04 +1.735365E-04 -4.796654E-04 +7.300561E-03 
 -7.981797E-05 +1.869378E-04 +2.050572E-04 +1.869378E-04 +6.404687E-04 +8.778447E-04 +2.050572E-04 +8.778447E-04 +6.971431E-03 
 -4.129238E-05 +5.939682E-04 -3.241279E-04 +5.939682E-04 -3.401580E-04 -2.648363E-04 -3.241279E-04 -2.648363E-04 +7.531632E-03 
 +1.155863E-04 +5.052875E-04 -3.608127E-04 +5.052875E-04 -8.098780E-05 +4.698322E-04 -3.608127E-04 +4.698322E-04 +7.598537E-03 
 +3.113990E-04 -3.237766E-04 -3.231774E-04 -3.237766E-04 -5.600416E-05 -1.776919E-04 -3.231774E-04 -1.776919E-04 +7.399769E-03 
 +3.382478E-04 +2.455764E-04 -1.508904E-04 +2.455764E-04 +5.466786E-05 -5.264512E-04 -1.508904E-04 -5.264512E-04 +7.273526E-03 
 +3.890396E-04 +7.405645E-04 -1.441673E-04 +7.405645E-04 -3.663813E-04 -7.111335E-04 -1.441673E-04 -7.111335E-04 +7.896205E-03 
 -4.792615E-04 +1.820022E-04 +3.320092E-04 +1.820022E-04 +3.725115E-04 +2.532574E-04 +3.320092E-04 +2.532574E-04 +7.578890E-03 
 -3.875963E-04 -1.223581E-03 +4.594212E-05 -1.223581E-03 +3.196307E-06 -3.671691E-04 +4.594212E-05 -3.671691E-04 +7.750703E-03 
 -1.475930E-04 +9.980272E-04 +1.008841E-04 +9.980272E-04 -1.893476E-04 -2.206435E-04 +1.008841E-04 -2.206435E-04 +8.108370E-03 
 -7.470541E-05 -7.462736E-05 +2.575188E-04 -7.462736E-05 +3.964637E-04 -9.262718E-04 +2.575188E-04 -9.262718E-04 +7.276956E-03 
 -5.718240E-04 -4.207726E-04 +9.526088E-05 -4.207726E-04 +1.785565E-05 +2.454153E-04 +9.526088E-05 +2.454153E-04 +7.674870E-03 
 +4.420338E-04 +1.806424E-04 -3.095500E-04 +1.806424E-04 -7.532525E-05 -2.848363E-04 -3.095500E-04 -2.848363E-04 +7.359895E-03 
 -3.393098E-06 -4.996701E-04 -2.856765E-04 -4.996701E-04 +4.221717E-05 +2.498926E-04 -2.856765E-04 +2.498926E-04 +7.284574E-03 
 -4.498211E-04 -3.361953E-04 -6.405868E-05 -3.361953E-04 -3.327067E-06 -5.751929E-05 -6.405868E-05 -5.751929E-05 +7.642371E-03 
 -2.087024E-04 +2.315771E-04 +8.619918E-05 +2.315771E-04 +2.860255E-04 +6.832570E-04 +8.619918E-05 +6.832570E-04 +7.152742E-03 
 -2.697123E-04 +5.650872E-04 +3.836611E-05 +5.650872E-04 +2.861029E-04 -1.859430E-04 +3.836611E-05 -1.859430E-04 +7.349491E-03 
 +4.007708E-04 +7.019344E-04 -1.506290E-05 +7.019344E-04 -7.990767E-04 -2.162920E-04 -1.506290E-05 -2.162920E-04 +7.992517E-03 
 +2.613537E-04 +6.003364E-04 -1.422079E-04 +6.003364E-04 +4.038714E-04 -4.185123E-05 -1.422079E-04 -4.185123E-05 +7.305949E-03 
 +1.571612E-04 -1.006655E-03 +2.802443E-04 -1.006655E-03 -1.390913E-04 -5.387909E-04 +2.802443E-04 -5.387909E-04 +7.597007E-03 
 +8.780993E-05 +5.493726E-04 -9.509388E-05 +5.493726E-04 -2.648055E-04 -1.073603E-04 -9.509388E-05 -1.073603E-04 +7.718878E-03 
 -4.503136E-04 +3.962782E-04 +5.449703E-04 +3.962782E-04 +1.772995E-04 -2.143971E-04 +5.449703E-04 -2.143971E-04 +7.461533E-03 
 -3.100705E-04 -3.390574E-04 +5.198797E-04 -3.390574E-04 +1.107159E-04 -6.003443E-04 +5.198797E-04 -6.003443E-04 +7.548304E-03 
 +3.211799E-04 +5.595750E-04 -2.310004E-04 +5.595750E-04 +3.903707E-04 -3.997381E-04 -2.310004E-04 -3.997381E-04 +7.132499E-03 
 +2.487890E-04 -2.891378E-04 +2.806263E-04 -2.891378E-04 -1.995847E-04 -2.480357E-05 +2.806263E-04 -2.480357E-05 +7.355708E-03 
 +5.117360E-05 -4.977114E-05 +7.659799E-04 -4.977114E-05 -1.957835E-04 -3.652030E-04 +7.659799E-04 -3.652030E-04 +7.476315E-03 
 +2.462564E-04 -8.730740E-05 +3.616424E-04 -8.730740E-05 -5.991841E-04 +2.975959E-04 +3.616424E-04 +2.975959E-04 +7.776446E-03 
 +1.644714E-04 +4.404139E-04 -3.164706E-04 +4.404139E-04 +6.178599E-04 +4.359448E-04 -3.164706E-04 +4.359448E-04 +7.364273E-03 
 +1.237040E-04 +3.204635E-05 -6.366439E-04 +3.204635E-05 -1.436522E-04 -9.402244E-05 -6.366439E-04 -9.402244E-05 +7.261584E-03 
 -4.875888E-05 -8.806630E-04 +1.493710E-05 -8.806630E-04 +8.480508E-05 +9.321844E-05 +1.493710E-05 +9.321844E-05 +7.333469E-03 
 +2.294457E-04 -1.763651E-04 +4.429410E-04 -1.763651E-04 -2.250253E-04 -2.511635E-04 +4.429410E-04 -2.511635E-04 +7.053077E-03 
 -1.248221E-04 -2.386268E-04 +3.397803E-04 -2.386268E-04 +2.276830E-04 -2.885531E-04 +3.397803E-04 -2.885531E-04 +7.305042E-03 
 -3.174427E-04 +2.456525E-04 +1.728695E-04 +2.456525E-04 -5.604830E-05 -2.540015E-04 +1.728695E-04 -2.540015E-04 +7.423505E-03 
 +1.493581E-04 +1.602409E-04 +4.150601E-04 +1.602409E-04 +2.332771E-04 +1.393012E-04 +4.150601E-04 +1.393012E-04 +7.098615E-03 
 -1.898679E-04 +4.574498E-04 -1.783097E-04 +4.574498E-04 +1.796286E-04 +6.213656E-04 -1.783097E-04 +6.213656E-04 +7.652987E-03 
 -2.772947E-05 +3.310139E-04 -1.443047E-04 +3.310139E-04 +5.965347E-05 +1.983049E-05 -1.443047E-04 +1.983049E-05 +7.516782E-03 
 +1.908173E-04 -1.849360E-04 +6.030225E-04 -1.849360E-04 +8.893826E-05 +4.096423E-05 +6.030225E-04 +4.096423E-05 +7.327760E-03 
 -1.010960E-05 +7.203760E-04 +4.329169E-04 +7.203760E-04 -1.884887E-04 +1.119631E-04 +4.329169E-04 +1.119631E-04 +7.779480E-03 
 +1.561415E-04 +4.716807E-04 +5.658701E-04 +4.716807E-04 -4.236734E-04 -5.456390E-04 +5.658701E-04 -5.456390E-04 +7.871587E-03 
 -4.134327E-04 +4.807697E-04 +4.935114E-04 +4.807697E-04 +7.356868E-05 +4.749726E-04 +4.935114E-04 +4.749726E-04 +7.978737E-03 
 +7.658883E-05 +2.156613E-04 -9.616512E-05 +2.156613E-04 -6.510191E-05 +7.695124E-04 -9.616512E-05 +7.695124E-04 +7.692401E-03 
 +1.368747E-04 +8.885019E-04 +2.919797E-04 +8.885019E-04 +6.019108E-05 -6.313586E-05 +2.919797E-04 -6.313586E-05 +7.591072E-03 
 -2.668026E-04 +1.282349E-03 +4.517067E-05 +1.282349E-03 -1.217462E-04 +4.407679E-05 +4.517067E-05 +4.407679E-05 +7.979871E-03 
 +8.824585E-05 -6.481236E-04 -9.328407E-05 -6.481236E-04 -1.510543E-04 +1.473623E-05 -9.328407E-05 +1.473623E-05 +7.500411E-03 
 -1.609027E-05 -9.455944E-05 -1.827471E-05 -9.455944E-05 +1.957996E-04 -3.389255E-04 -1.827471E-05 -3.389255E-04 +7.460864E-03 
 -2.602287E-04 +7.538465E-04 -2.831314E-04 +7.538465E-04 +2.049792E-04 -4.272175E-04 -2.831314E-04 -4.272175E-04 +7.660325E-03 
 -4.857047E-04 -1.414396E-03 -3.673373E-04 -1.414396E-03 -1.657286E-04 +5.668162E-05 -3.673373E-04 +5.668162E-05 +8.348224E-03 
 -2.839203E-04 +2.246299E-04 -3.296645E-04 +2.246299E-04 -9.859994E-05 -1.728877E-04 -3.296645E-04 -1.728877E-04 +7.839206E-03 
 +8.293126E-05 +3.457732E-04 -2.930532E-04 +3.457732E-04 +4.271629E-04 -6.014232E-05 -2.930532E-04 -6.014232E-05 +7.119368E-03 
 +2.031168E-04 +3.947411E-04 -1.232579E-04 +3.947411E-04 -3.401181E-05 +7.584145E-04 -1.232579E-04 +7.584145E-04 +7.443354E-03 
 +3.508137E-04 -2.099102E-04 -3.641549E-04 -2.099102E-04 -1.576879E-04 +4.099150E-04 -3.641549E-04 +4.099150E-04 +7.303966E-03 
 +4.883868E-04 -8.372170E-04 +4.462785E-04 -8.372170E-04 -1.617751E-04 -1.406555E-04 +4.462785E-04 -1.406555E-04 +7.179358E-03 
 -3.409359E-04 -4.709014E-04 +6.807050E-04 -4.709014E-04 +1.008469E-04 +4.118402E-04 +6.807050E-04 +4.118402E-04 +7.826082E-03 
 -3.440364E-05 +7.098415E-04 +3.908812E-04 +7.098415E-04 -1.034051E-04 -5.926148E-04 +3.908812E-04 -5.926148E-04 +7.704335E-03 
 -3.801923E-04 +1.254918E-04 -6.221805E-05 +1.254918E-04 +3.581943E-05 +4.737854E-06 -6.221805E-05 +4.737854E-06 +7.620601E-03 
 +1.886483E-05 -2.239025E-04 -3.820633E-04 -2.239025E-04 +2.673740E-04 -1.588007E-04 -3.820633E-04 -1.588007E-04 +7.003992E-03 
 +3.318152E-04 -9.300228E-04 -1.035608E-04 -9.300228E-04 +1.796757E-04 -4.097287E-04 -1.035608E-04 -4.097287E-04 +7.242842E-03 
 -5.816572E-05 -1.007885E-03 -4.629896E-04 -1.007885E-03 -4.852607E-04 -5.107743E-04 -4.629896E-04 -5.107743E-04 +7.961779E-03 
 +1.409884E-04 -3.353981E-04 -7.688476E-04 -3.353981E-04 -5.236583E-05 +1.946762E-04 -7.688476E-04 +1.946762E-04 +7.533238E-03 
 +5.097230E-05 -1.625829E-04 +1.613600E-04 -1.625829E-04 +8.736229E-05 -3.377438E-04 +1.613600E-04 -3.377438E-04 +7.470285E-03 
 -3.848854E-04 -5.271299E-04 -1.711031E-04 -5.271299E-04 -1.254161E-04 +3.653397E-04 -1.711031E-04 +3.653397E-04 +7.722231E-03 
 +4.176596E-04 +8.025757E-04 -4.882992E-04 +8.025757E-04 +1.486871E-04 -3.545148E-04 -4.882992E-04 -3.545148E-04 +7.550630E-03 
 +1.986385E-04 -1.465172E-04 +1.118629E-05 -1.465172E-04 -2.766053E-04 +3.558436E-04 +1.118629E-05 +3.558436E-04 +7.484559E-03 
 -2.927953E-05 +4.774654E-04 -8.979650E-05 +4.774654E-04 +2.396075E-04 -3.158095E-04 -8.979650E-05 -3.158095E-04 +7.052840E-03 
 +1.021574E-04 +7.009481E-05 -8.466576E-05 +7.009481E-05 -3.603500E-04 +6.934335E-05 -8.466576E-05 +6.934335E-05 +7.508487E-03 
 +1.634921E-04 +1.272127E-03 +1.213358E-04 +1.272127E-03 -2.984728E-04 +8.676023E-05 +1.213358E-04 +8.676023E-05 +7.708995E-03 
 -1.784487E-04 +5.565119E-04 -2.257592E-04 +5.565119E-04 +4.012330E-04 +6.246864E-04 -2.257592E-04 +6.246864E-04 +7.525652E-03 
 +8.227796E-06 -7.863100E-04 -6.367675E-04 -7.863100E-04 +2.669375E-04 +1.523016E-04 -6.367675E-04 +1.523016E-04 +6.811439E-03 
 +1.302158E-04 +1.281073E-04 -6.339226E-04 +1.281073E-04 +1.807750E-04 -6.690653E-06 -6.339226E-04 -6.690653E-06 +6.984224E-03 
 -2.887709E-04 +5.697826E-04 +1.223179E-04 +5.697826E-04 -1.476317E-04 +1.730883E-04 +1.223179E-04 +1.730883E-04 +7.932228E-03 
 -6.392222E-04 -6.500491E-05 +2.645196E-04 -6.500491E-05 +3.078516E-04 +1.698690E-04 +2.645196E-04 +1.698690E-04 +7.806601E-03 
 -4.198452E-04 -5.581921E-04 -1.286952E-04 -5.581921E-04 +2.002416E-04 -4.193956E-05 -1.286952E-04 -4.193956E-05 +7.881399E-03 
 +1.846111E-04 -4.443327E-04 +5.395479E-05 -4.443327E-04 -6.917443E-04 +5.684482E-04 +5.395479E-05 +5.684482E-04 +7.992814E-03 
 -2.211010E-04 -1.040220E-03 -1.456451E-04 -1.040220E-03 +2.248635E-04 +8.648757E-04 -1.456451E-04 +8.648757E-04 +7.654774E-03 
 -2.125540E-04 +4.036440E-04 -3.865749E-04 +4.036440E-04 -2.577396E-05 +3.182172E-04 -3.865749E-04 +3.182172E-04 +7.767451E-03 
 -1.493361E-05 -1.146549E-03 -6.177300E-05 -1.146549E-03 -1.308276E-04 -4.655041E-04 -6.177300E-05 -4.655041E-04 +7.958167E-03 
 -7.103306E-05 -9.622966E-04 +1.438803E-05 -9.622966E-04 -1.233594E-04 +2.062382E-04 +1.438803E-05 +2.062382E-04 +7.640930E-03 
 -1.959765E-04 -1.063023E-03 -4.053786E-04 -1.063023E-03 -3.436742E-05 -3.825225E-04 -4.053786E-04 -3.825225E-04 +7.767497E-03 
 -1.668838E-04 -1.125826E-03 -1.787206E-04 -1.125826E-03 -6.748272E-05 +1.788309E-04 -1.787206E-04 +1.788309E-04 +7.695316E-03 
 -1.575271E-04 +1.335853E-04 +3.325653E-04 +1.335853E-04 +2.410485E-04 +3.213221E-05 +3.325653E-04 +3.213221E-05 +7.792910E-03 
 -2.694969E-04 -1.145794E-04 -3.806054E-04 -1.145794E-04 -2.740280E-04 +4.044000E-05 -3.806054E-04 +4.044000E-05 +7.532300E-03 
 -1.800826E-04 -8.144540E-04 -4.862436E-04 -8.144540E-04 +3.333032E-04 +2.683175E-04 -4.862436E-04 +2.683175E-04 +7.429084E-03 
 +6.169012E-05 +5.908135E-04 +7.384891E-04 +5.908135E-04 -1.167473E-04 +5.208048E-06 +7.384891E-04 +5.208048E-06 +7.252512E-03 
 +6.213894E-05 +5.182179E-05 +6.805670E-04 +5.182179E-05 +1.692293E-05 +5.057498E-04 +6.805670E-04 +5.057498E-04 +7.127794E-03 
 +3.693127E-05 -4.961764E-04 +4.692221E-04 -4.961764E-04 -4.079647E-04 -4.038475E-04 +4.692221E-04 -4.038475E-04 +7.788757E-03 
 -2.271129E-04 -7.961431E-04 +2.456325E-04 -7.961431E-04 +1.232036E-04 +2.172414E-04 +2.456325E-04 +2.172414E-04 +7.872248E-03 
 -1.480536E-04 +7.824191E-04 -5.437090E-04 +7.824191E-04 -1.760342E-04 -2.160822E-04 -5.437090E-04 -2.160822E-04 +7.603129E-03 
 -8.779936E-05 -3.552881E-04 -3.915946E-04 -3.552881E-04 +4.134447E-04 +8.722054E-04 -3.915946E-04 +8.722054E-04 +7.218231E-03 
 -1.704677E-04 +2.192487E-04 -2.254001E-04 +2.192487E-04 +4.971891E-04 +5.578241E-05 -2.254001E-04 +5.578241E-05 +7.237750E-03 
 +1.214818E-04 +9.980674E-05 +1.370994E-04 +9.980674E-05 -2.708120E-04 +7.731056E-04 +1.370994E-04 +7.731056E-04 +7.649390E-03 
 +2.705409E-04 +1.783581E-04 -2.427527E-04 +1.783581E-04 -1.869921E-04 -4.370100E-04 -2.427527E-04 -4.370100E-04 +7.474534E-03 
 -6.482790E-06 -6.739493E-04 -3.372209E-04 -6.739493E-04 +1.302525E-04 +2.396721E-04 -3.372209E-04 +2.396721E-04 +7.117879E-03 
 -6.673279E-05 -6.764898E-05 +6.323067E-04 -6.764898E-05 +3.576266E-04 -4.335120E-04 +6.323067E-04 -4.335120E-04 +7.061749E-03 
 +5.623597E-05 -1.219034E-03 -4.268250E-04 -1.219034E-03 -5.088664E-04 -1.276040E-04 -4.268250E-04 -1.276040E-04 +7.657260E-03 
 -2.297313E-04 +2.439445E-04 -1.121982E-03 +2.439445E-04 +2.111878E-04 -1.480349E-04 -1.121982E-03 -1.480349E-04 +7.576405E-03 
 -3.872279E-05 +4.272079E-04 +8.244811E-05 +4.272079E-04 +3.824153E-04 -3.646512E-04 +8.244811E-05 -3.646512E-04 +7.366708E-03 
 +1.101156E-04 -1.178943E-03 +5.543198E-04 -1.178943E-03 +1.212666E-04 -4.348850E-04 +5.543198E-04 -4.348850E-04 +7.295279E-03 
 +1.511832E-04 +6.713989E-04 +6.522951E-04 +6.713989E-04 -6.253262E-04 +2.818404E-04 +6.522951E-04 +2.818404E-04 +7.926313E-03 
 -1.451403E-04 +3.199637E-04 -3.588338E-04 +3.199637E-04 -1.399739E-04 +3.580588E-04 -3.588338E-04 +3.580588E-04 +7.713764E-03 
 +1.990784E-05 +1.265368E-04 -1.914610E-04 +1.265368E-04 +1.488160E-04 -3.533069E-04 -1.914610E-04 -3.533069E-04 +7.225497E-03 
 +1.340361E-04 -5.482718E-04 +3.061028E-04 -5.482718E-04 +4.620691E-04 +4.001175E-05 +3.061028E-04 +4.001175E-05 +6.986914E-03 
 -2.449273E-04 -1.764324E-04 -1.459076E-04 -1.764324E-04 -2.041866E-04 +3.326486E-04 -1.459076E-04 +3.326486E-04 +7.528947E-03 
 +2.182392E-04 +1.165190E-04 -1.797624E-04 +1.165190E-04 +7.919662E-05 -9.109286E-05 -1.797624E-04 -9.109286E-05 +7.062363E-03 
 +3.162185E-04 -4.525853E-04 -4.280827E-05 -4.525853E-04 -2.071444E-04 -3.054209E-04 -4.280827E-05 -3.054209E-04 +7.364382E-03 
 -5.217229E-04 +1.017160E-03 +5.316144E-04 +1.017160E-03 -5.649394E-05 -1.509552E-04 +5.316144E-04 -1.509552E-04 +8.135903E-03 
 -2.236777E-04 +3.819501E-05 -3.363731E-04 +3.819501E-05 -1.794071E-04 +2.956577E-05 -3.363731E-04 +2.956577E-05 +7.679522E-03 
 -1.082907E-04 -3.946119E-05 -1.834783E-04 -3.946119E-05 +1.051236E-04 +1.518253E-04 -1.834783E-04 +1.518253E-04 +7.196888E-03 
 -3.634027E-04 -2.724709E-04 +7.244648E-05 -2.724709E-04 +2.814401E-04 +5.120061E-04 +7.244648E-05 +5.120061E-04 +7.548844E-03 
 -5.223287E-04 +1.779560E-04 -6.101673E-04 +1.779560E-04 +1.135274E-04 -3.034817E-04 -6.101673E-04 -3.034817E-04 +7.648647E-03 
 -4.657923E-04 +6.918419E-05 -2.627290E-04 +6.918419E-05 +2.485081E-04 -4.525791E-05 -2.627290E-04 -4.525791E-05 +7.615869E-03 
 -1.090103E-04 +7.462879E-04 +4.078440E-04 +7.462879E-04 -3.291579E-04 +1.256121E-04 +4.078440E-04 +1.256121E-04 +7.848176E-03 
 -6.486134E-05 -2.662506E-04 +4.042399E-04 -2.662506E-04 +1.965317E-04 -1.221664E-04 +4.042399E-04 -1.221664E-04 +7.649533E-03 
 +2.762743E-05 +2.904228E-06 +3.497601E-04 +2.904228E-06 -3.042966E-05 +1.298816E-04 +3.497601E-04 +1.298816E-04 +7.459430E-03 
 +2.051365E-04 -1.100584E-03 -3.409882E-05 -1.100584E-03 -3.368903E-04 +3.465345E-04 -3.409882E-05 +3.465345E-04 +7.546369E-03 
 +3.293623E-04 -3.738431E-04 -1.689780E-04 -3.738431E-04 -4.836115E-05 -1.440496E-04 -1.689780E-04 -1.440496E-04 +7.032246E-03 
 +3.900024E-04 +5.816175E-04 +1.363330E-04 +5.816175E-04 +1.801129E-05 -2.227882E-04 +1.363330E-04 -2.227882E-04 +7.319093E-03 
 +3.536395E-04 -2.419982E-04 -4.874996E-04 -2.419982E-04 +3.902230E-04 -3.390441E-04 -4.874996E-04 -3.390441E-04 +7.188348E-03 
 -1.846570E-04 -1.057963E-03 -6.555151E-05 -1.057963E-03 -1.149656E-04 -1.108254E-04 -6.555151E-05 -1.108254E-04 +7.720295E-03 
 -1.528296E-04 +6.282277E-04 -6.194814E-04 +6.282277E-04 -2.071240E-04 -5.599736E-04 -6.194814E-04 -5.599736E-04 +7.703348E-03 
 +5.159730E-06 -5.491203E-04 -5.405769E-05 -5.491203E-04 +9.472882E-06 -1.432391E-05 -5.405769E-05 -1.432391E-05 +7.341903E-03 
 +4.730769E-05 +4.807554E-05 +4.094687E-04 +4.807554E-05 -1.041419E-04 +1.122429E-04 +4.094687E-04 +1.122429E-04 +7.471588E-03 
 -2.254938E-04 -7.078904E-04 -8.399832E-05 -7.078904E-04 +2.766761E-04 +2.019863E-05 -8.399832E-05 +2.019863E-05 +7.642444E-03 
 -2.193303E-04 -3.779551E-04 +7.330211E-05 -3.779551E-04 +1.733746E-04 -2.408717E-04 +7.330211E-05 -2.408717E-04 +7.371338E-03 
 +3.270357E-04 +4.214297E-04 +1.662723E-04 +4.214297E-04 -4.161767E-04 -7.724875E-04 +1.662723E-04 -7.724875E-04 +7.961928E-03 
 +4.052303E-04 -1.603427E-04 +1.392496E-04 -1.603427E-04 -3.871378E-04 +1.228250E-04 +1.392496E-04 +1.228250E-04 +7.753506E-03 
 +2.230466E-04 +6.155386E-06 -2.788534E-04 +6.155386E-06 +5.141869E-04 +7.445968E-05 -2.788534E-04 +7.445968E-05 +6.940104E-03 
 +2.223679E-04 -1.677894E-05 +2.397746E-04 -1.677894E-05 +2.198701E-04 +3.111334E-04 +2.397746E-04 +3.111334E-04 +7.024155E-03 
 -1.876906E-04 +1.084477E-03 +5.826631E-05 +1.084477E-03 -3.740706E-04 +1.653170E-04 +5.826631E-05 +1.653170E-04 +7.592131E-03 
 +2.855013E-04 +2.300216E-04 -1.594718E-04 +2.300216E-04 +7.127133E-05 -5.518266E-04 -1.594718E-04 -5.518266E-04 +7.212675E-03 
 -2.350439E-04 +8.685765E-04 -1.517322E-04 +8.685765E-04 +3.203876E-04 -4.070857E-04 -1.517322E-04 -4.070857E-04 +7.514657E-03 
 +9.133650E-05 +2.016049E-05 -2.791609E-04 +2.016049E-05 -1.768555E-04 -6.607257E-06 -2.791609E-04 -6.607257E-06 +7.781550E-03 
 +3.871912E-04 -2.328343E-04 -3.393946E-04 -2.328343E-04 +1.486157E-04 -5.683149E-05 -3.393946E-04 -5.683149E-05 +6.885292E-03 
 -2.384514E-04 +4.197868E-04 -3.246351E-04 +4.197868E-04 +4.885840E-04 -2.045912E-05 -3.246351E-04 -2.045912E-05 +7.113604E-03 
 +6.776346E-05 -3.849074E-04 -9.685474E-05 -3.849074E-04 -6.181952E-04 -1.966795E-04 -9.685474E-05 -1.966795E-04 +7.974098E-03 
 +6.196530E-05 -1.406478E-03 +1.925719E-04 -1.406478E-03 -1.469691E-04 -2.440760E-04 +1.925719E-04 -2.440760E-04 +7.813391E-03 
 +1.904419E-04 -7.149122E-04 -2.984725E-05 -7.149122E-04 -1.256713E-04 -3.831077E-04 -2.984725E-05 -3.831077E-04 +7.582874E-03 
 +3.866329E-04 -1.137014E-03 -6.224283E-04 -1.137014E-03 +5.984281E-05 +9.075397E-04 -6.224283E-04 +9.075397E-04 +7.248741E-03 
 +3.076974E-04 -2.673333E-04 -1.218278E-04 -2.673333E-04 -2.417347E-05 -4.898298E-04 -1.218278E-04 -4.898298E-04 +7.276990E-03 
 -3.720782E-04 -4.000366E-04 -6.151312E-04 -4.000366E-04 +2.083568E-04 +2.987040E-04 -6.151312E-04 +2.987040E-04 +7.404440E-03 
 +1.039326E-04 +1.048375E-04 -9.135932E-05 +1.048375E-04 +2.721227E-04 +4.138658E-04 -9.135932E-05 +4.138658E-04 +7.425241E-03 
 +2.325710E-04 +5.563014E-04 +2.258725E-04 +5.563014E-04 -2.424380E-04 -1.798732E-04 +2.258725E-04 -1.798732E-04 +7.428517E-03 
 -2.172293E-04 -1.405230E-04 +5.504349E-04 -1.405230E-04 +1.593830E-05 +1.814812E-04 +5.504349E-04 +1.814812E-04 +7.495055E-03 
 +1.698986E-04 -1.139535E-04 +4.138756E-04 -1.139535E-04 -1.400596E-04 -1.047701E-04 +4.138756E-04 -1.047701E-04 +7.509296E-03 
 +2.378946E-04 -2.281002E-04 -2.010295E-04 -2.281002E-04 +1.273130E-04 +1.664645E-04 -2.010295E-04 +1.664645E-04 +7.439218E-03 
 +9.337558E-05 +1.352972E-04 -6.664805E-04 +1.352972E-04 -5.863151E-05 +2.769974E-04 -6.664805E-04 +2.769974E-04 +7.391903E-03 
 +4.944234E-04 -6.137408E-04 -2.075806E-04 -6.137408E-04 -5.222411E-04 +2.300115E-05 -2.075806E-04 +2.300115E-05 +7.342571E-03 
 +2.653439E-05 -4.251186E-04 +1.215581E-04 -4.251186E-04 +8.509340E-04 +2.016077E-04 +1.215581E-04 +2.016077E-04 +7.308654E-03 
 -1.110637E-04 +2.412689E-04 +1.005012E-04 +2.412689E-04 -3.392367E-04 -3.375758E-04 +1.005012E-04 -3.375758E-04 +7.393956E-03 
 -3.929796E-04 +8.552785E-04 +3.054618E-04 +8.552785E-04 +1.069062E-04 +3.115044E-04 +3.054618E-04 +3.115044E-04 +7.535479E-03 
 -1.125325E-04 +3.612447E-04 +2.503298E-04 +3.612447E-04 -2.494135E-04 +5.504375E-05 +2.503298E-04 +5.504375E-05 +7.795767E-03 
 -7.434589E-05 +2.256512E-04 -1.377144E-04 +2.256512E-04 +3.204612E-04 +7.459199E-04 -1.377144E-04 +7.459199E-04 +7.302035E-03 
 +4.460424E-04 +5.536534E-05 +7.610217E-05 +5.536534E-05 -3.558222E-07 -6.796730E-05 +7.610217E-05 -6.796730E-05 +7.367901E-03 
 +3.629414E-04 -7.572237E-04 -2.774395E-04 -7.572237E-04 -3.535223E-05 -1.657534E-04 -2.774395E-04 -1.657534E-04 +7.818398E-03 
 -9.301260E-05 +5.497448E-04 -7.447847E-04 +5.497448E-04 -3.926850E-05 -4.675849E-04 -7.447847E-04 -4.675849E-04 +7.669550E-03 
 +2.165552E-04 -8.764465E-04 -1.205152E-06 -8.764465E-04 +1.270641E-04 +1.126864E-04 -1.205152E-06 +1.126864E-04 +7.492287E-03 
 +1.071431E-04 +2.086197E-04 -2.387348E-04 +2.086197E-04 -1.906565E-04 -2.384600E-05 -2.387348E-04 -2.384600E-05 +7.441933E-03 
 -1.461907E-04 -6.026928E-04 -5.828893E-04 -6.026928E-04 +1.134617E-04 +4.824694E-04 -5.828893E-04 +4.824694E-04 +7.590701E-03 
 +6.580250E-05 -2.742797E-04 +3.734370E-04 -2.742797E-04 -2.996660E-04 -2.286538E-04 +3.734370E-04 -2.286538E-04 +7.508847E-03 
 -1.479788E-06 -8.235342E-04 -1.028022E-04 -8.235342E-04 -1.505907E-05 +1.959714E-04 -1.028022E-04 +1.959714E-04 +7.790214E-03 
 -1.251947E-04 -3.854196E-05 +2.232601E-04 -3.854196E-05 +5.305286E-04 +4.582869E-04 +2.232601E-04 +4.582869E-04 +7.074881E-03 
 +4.380316E-04 -4.204144E-05 +1.681512E-04 -4.204144E-05 +1.783360E-04 -3.016609E-04 +1.681512E-04 -3.016609E-04 +6.996501E-03 
 +1.357046E-04 +9.593671E-04 +3.762901E-04 +9.593671E-04 -1.497638E-04 +1.846695E-04 +3.762901E-04 +1.846695E-04 +7.730020E-03 
 -3.559646E-04 +7.210649E-04 +1.672234E-04 +7.210649E-04 -1.111184E-04 +1.969798E-04 +1.672234E-04 +1.969798E-04 +7.800898E-03 
 -1.304789E-04 -2.967250E-04 -3.432556E-04 -2.967250E-04 -1.078789E-04 +6.727284E-05 -3.432556E-04 +6.727284E-05 +7.484942E-03 
 +1.006956E-04 -5.830925E-04 -2.988751E-04 -5.830925E-04 +1.458773E-04 +3.628291E-04 -2.988751E-04 +3.628291E-04 +7.584779E-03 
 +5.509959E-04 -2.736490E-04 -5.307694E-04 -2.736490E-04 -1.257035E-04 -1.398579E-05 -5.307694E-04 -1.398579E-05 +7.334989E-03 
 +6.418207E-04 +1.772995E-04 +2.651225E-04 +1.772995E-04 -1.847000E-04 -4.806969E-04 +2.651225E-04 -4.806969E-04 +6.992378E-03 
 -1.219862E-04 -1.327068E-04 -4.509921E-05 -1.327068E-04 -1.526020E-04 +2.942274E-04 -4.509921E-05 +2.942274E-04 +7.504362E-03 
 -5.219631E-04 +1.841915E-04 -4.671771E-04 +1.841915E-04 +1.782086E-04 -4.247651E-04 -4.671771E-04 -4.247651E-04 +7.880336E-03 
 -2.996714E-04 +1.825649E-04 +3.479006E-05 +1.825649E-04 +1.756018E-04 +4.977366E-04 +3.479006E-05 +4.977366E-04 +7.372363E-03 
 -1.658529E-04 -2.084204E-04 -4.531404E-04 -2.084204E-04 +1.687981E-04 -4.963443E-04 -4.531404E-04 -4.963443E-04 +7.373568E-03 
 -1.744542E-04 -4.279509E-04 +3.537501E-05 -4.279509E-04 +5.120585E-05 +3.242843E-04 +3.537501E-05 +3.242843E-04 +7.802613E-03 
 +3.018896E-04 +2.183951E-04 -1.450053E-04 +2.183951E-04 -1.195660E-04 +2.153949E-04 -1.450053E-04 +2.153949E-04 +7.410006E-03 
 +3.168728E-04 +2.110366E-05 -2.014725E-04 +2.110366E-05 -2.549047E-05 -2.032311E-04 -2.014725E-04 -2.032311E-04 +7.200148E-03 
 -2.164337E-04 -9.568482E-05 -5.592817E-05 -9.568482E-05 -2.158773E-04 +1.033947E-03 -5.592817E-05 +1.033947E-03 +7.451256E-03 
 -3.242894E-04 +3.495445E-04 -3.110482E-04 +3.495445E-04 +3.635483E-04 +4.079758E-05 -3.110482E-04 +4.079758E-05 +7.122229E-03 
 -2.190883E-05 -3.903635E-04 +2.819669E-04 -3.903635E-04 -2.157300E-04 +3.434058E-06 +2.819669E-04 +3.434058E-06 +7.402337E-03 
 +3.348010E-05 +7.468652E-04 +5.702395E-05 +7.468652E-04 -5.944923E-05 -7.014179E-04 +5.702395E-05 -7.014179E-04 +7.683512E-03 
 -1.563027E-04 +1.175074E-03 -3.008560E-04 +1.175074E-03 -3.095483E-04 -1.787917E-04 -3.008560E-04 -1.787917E-04 +7.652799E-03 
 +7.640043E-05 -3.605398E-04 -6.894040E-05 -3.605398E-04 +9.598909E-05 -3.332302E-04 -6.894040E-05 -3.332302E-04 +7.135557E-03 
 -3.016946E-04 +6.340383E-05 -2.572371E-04 +6.340383E-05 +2.378898E-04 +6.005264E-04 -2.572371E-04 +6.005264E-04 +7.465283E-03 
 -2.251936E-05 -7.617731E-04 +1.520952E-05 -7.617731E-04 -1.454800E-04 +2.288607E-04 +1.520952E-05 +2.288607E-04 +7.644027E-03 
 +3.008278E-04 -5.212045E-05 +1.267895E-04 -5.212045E-05 +2.976265E-04 +1.645980E-04 +1.267895E-04 +1.645980E-04 +6.980055E-03 
 +3.854173E-04 -2.159682E-05 -4.718020E-04 -2.159682E-05 -2.809011E-04 +3.557105E-05 -4.718020E-04 +3.557105E-05 +7.179999E-03 
 -2.962442E-04 +1.237394E-03 +3.189712E-05 +1.237394E-03 -3.531056E-05 +2.648299E-04 +3.189712E-05 +2.648299E-04 +7.920494E-03 
 -5.282483E-04 -3.396388E-04 +5.520152E-04 -3.396388E-04 +8.197495E-05 -8.715292E-05 +5.520152E-04 -8.715292E-05 +7.850285E-03 
 +2.407312E-04 -3.084249E-04 +5.560940E-04 -3.084249E-04 -6.973482E-06 -3.024977E-04 +5.560940E-04 -3.024977E-04 +7.446109E-03 
 -9.274643E-05 +1.038574E-03 +2.802443E-04 +1.038574E-03 -3.669415E-04 +4.329836E-04 +2.802443E-04 +4.329836E-04 +8.124582E-03 
 +7.662137E-05 +5.108547E-04 -2.512788E-04 +5.108547E-04 -4.173708E-04 +1.836080E-04 -2.512788E-04 +1.836080E-04 +7.755897E-03 
 +2.440984E-04 -1.203077E-04 -4.967468E-05 -1.203077E-04 +4.917979E-04 +2.875491E-04 -4.967468E-05 +2.875491E-04 +7.000289E-03 
 +4.901099E-05 -6.600822E-04 -1.891680E-04 -6.600822E-04 +1.806295E-04 -3.039547E-05 -1.891680E-04 -3.039547E-05 +7.365146E-03 
 +1.458728E-04 -3.755814E-04 -5.273818E-05 -3.755814E-04 -6.349567E-05 +3.808502E-06 -5.273818E-05 +3.808502E-06 +6.899384E-03 
 +3.128957E-04 +1.798660E-05 -3.195532E-04 +1.798660E-05 +2.435754E-04 -2.312481E-04 -3.195532E-04 -2.312481E-04 +6.599574E-03 
 +4.077060E-04 -3.108683E-04 -1.204907E-04 -3.108683E-04 -4.364201E-05 -6.407909E-05 -1.204907E-04 -6.407909E-05 +6.971672E-03 
 +3.314317E-04 +3.186937E-06 +1.157026E-04 +3.186937E-06 +2.862903E-05 +7.375021E-04 +1.157026E-04 +7.375021E-04 +7.579320E-03 
 -1.092275E-04 -5.300415E-04 +5.249851E-04 -5.300415E-04 -9.049833E-06 -1.112269E-04 +5.249851E-04 -1.112269E-04 +7.550187E-03 
 -2.537026E-04 +8.705253E-04 +9.814364E-05 +8.705253E-04 -2.373200E-04 -1.152650E-04 +9.814364E-05 -1.152650E-04 +7.605274E-03 
 +3.887444E-04 -3.311906E-04 -2.617059E-04 -3.311906E-04 +5.896166E-06 +4.938543E-04 -2.617059E-04 +4.938543E-04 +7.521112E-03 
 +3.175292E-04 +3.755722E-04 -1.628064E-05 +3.755722E-04 -1.557782E-04 -2.037416E-04 -1.628064E-05 -2.037416E-04 +7.043355E-03 
 -2.580881E-04 +3.778246E-04 -2.509147E-04 +3.778246E-04 +9.777669E-05 +9.527294E-04 -2.509147E-04 +9.527294E-04 +7.267014E-03 
 -9.976233E-06 +1.014624E-03 +1.356687E-04 +1.014624E-03 +1.054151E-04 -5.908858E-04 +1.356687E-04 -5.908858E-04 +7.563119E-03 
 -4.012797E-04 +5.798077E-04 -7.008081E-04 +5.798077E-04 +1.850650E-04 +1.671212E-04 -7.008081E-04 +1.671212E-04 +7.757246E-03 
 -2.560977E-04 -6.704822E-05 -2.832913E-04 -6.704822E-05 +1.214631E-04 -3.618519E-04 -2.832913E-04 -3.618519E-04 +7.374897E-03 
 +2.106767E-04 +5.348684E-04 +1.327778E-04 +5.348684E-04 +4.993996E-05 +4.213235E-04 +1.327778E-04 +4.213235E-04 +7.668393E-03 
 +3.638234E-04 -4.128105E-04 +1.977027E-04 -4.128105E-04 -4.649032E-04 +1.847027E-04 +1.977027E-04 +1.847027E-04 +7.759127E-03 
 -9.536058E-06 +2.972203E-04 +4.341818E-04 +2.972203E-04 +1.591255E-05 -1.227002E-04 +4.341818E-04 -1.227002E-04 +7.473757E-03 
 -2.553767E-04 +1.480144E-06 -2.116832E-04 +1.480144E-06 +2.633462E-04 -4.843350E-04 -2.116832E-04 -4.843350E-04 +7.371904E-03 
 -3.776821E-04 +2.080498E-04 -4.872052E-04 +2.080498E-04 +4.000029E-05 -4.246639E-04 -4.872052E-04 -4.246639E-04 +7.669265E-03 
 +2.584653E-04 -1.584284E-04 +5.863548E-04 -1.584284E-04 -4.394819E-04 +3.818386E-04 +5.863548E-04 +3.818386E-04 +7.391311E-03 
 +1.279092E-04 +1.803719E-05 +6.047588E-04 +1.803719E-05 +7.950058E-05 -3.607471E-04 +6.047588E-04 -3.607471E-04 +7.199321E-03 
 -1.400092E-04 +7.616020E-04 +2.907427E-04 +7.616020E-04 -9.263201E-05 +7.819481E-04 +2.907427E-04 +7.819481E-04 +7.526412E-03 
 +1.075569E-04 -1.141677E-04 -2.038009E-04 -1.141677E-04 +3.358202E-04 -1.933865E-04 -2.038009E-04 -1.933865E-04 +7.345373E-03 
 -7.980211E-05 -6.004096E-04 +9.000176E-06 -6.004096E-04 -1.197900E-04 -5.304444E-04 +9.000176E-06 -5.304444E-04 +7.496063E-03 
 -7.232451E-06 -5.768134E-04 -4.809269E-04 -5.768134E-04 +3.441704E-05 +5.068172E-04 -4.809269E-04 +5.068172E-04 +7.659332E-03 
 -8.989459E-05 +1.291739E-03 -2.565164E-04 +1.291739E-03 +1.761152E-05 +2.845869E-05 -2.565164E-04 +2.845869E-05 +7.790268E-03 
 -9.588507E-05 -1.364416E-04 +7.235804E-04 -1.364416E-04 +1.394509E-04 -2.316953E-04 +7.235804E-04 -2.316953E-04 +7.427667E-03 
 +1.964295E-07 -2.775015E-05 -2.277339E-04 -2.775015E-05 -2.286656E-04 +1.961455E-04 -2.277339E-04 +1.961455E-04 +7.553115E-03 
 +1.032135E-04 +2.435284E-04 -4.833154E-04 +2.435284E-04 -3.389095E-05 -4.036518E-04 -4.833154E-04 -4.036518E-04 +7.666504E-03 
 +1.168239E-04 +4.034226E-04 -5.101358E-04 +4.034226E-04 +3.191856E-04 +1.616054E-04 -5.101358E-04 +1.616054E-04 +7.172850E-03 
 -1.663938E-04 -1.255568E-03 -2.575009E-04 -1.255568E-03 -1.750960E-04 +1.284748E-04 -2.575009E-04 +1.284748E-04 +7.675206E-03 
 +7.274128E-05 -1.315953E-04 +1.097407E-04 -1.315953E-04 -1.541447E-04 -3.465031E-05 +1.097407E-04 -3.465031E-05 +7.485016E-03 
 -3.641089E-04 +3.758043E-04 +1.579745E-04 +3.758043E-04 -1.133001E-04 -2.576462E-04 +1.579745E-04 -2.576462E-04 +7.502186E-03 
 -5.533042E-04 +6.639896E-04 +3.270899E-04 +6.639896E-04 +2.536862E-04 +5.143822E-04 +3.270899E-04 +5.143822E-04 +7.494957E-03 
 -6.027239E-04 -5.213118E-05 -1.650187E-04 -5.213118E-05 +2.407497E-04 -5.471084E-04 -1.650187E-04 -5.471084E-04 +8.073991E-03 
 -4.731196E-04 +1.240506E-03 -4.590232E-04 +1.240506E-03 +1.253708E-04 -1.944555E-05 -4.590232E-04 -1.944555E-05 +7.896463E-03 
 -1.454832E-04 -7.539989E-05 +6.552086E-05 -7.539989E-05 -6.696316E-04 +3.538769E-04 +6.552086E-05 +3.538769E-04 +7.877122E-03 
 -4.318022E-04 -3.148861E-04 +8.363665E-06 -3.148861E-04 +2.055172E-04 +2.307978E-04 +8.363665E-06 +2.307978E-04 +7.798655E-03 
 -4.380806E-04 +8.838790E-05 +1.418083E-04 +8.838790E-05 +2.416347E-04 -2.486367E-04 +1.418083E-04 -2.486367E-04 +7.630627E-03 
 -1.626582E-04 +7.894184E-04 -3.785149E-05 +7.894184E-04 -6.698351E-05 -2.214615E-04 -3.785149E-05 -2.214615E-04 +7.534295E-03 
 +2.211870E-04 +2.907749E-05 -2.931614E-04 +2.907749E-05 +6.935937E-05 +2.015749E-04 -2.931614E-04 +2.015749E-04 +7.366511E-03 
 +7.807223E-05 -2.598969E-04 +4.569311E-04 -2.598969E-04 -2.520488E-04 -6.394299E-05 +4.569311E-04 -6.394299E-05 +7.565695E-03 
 -4.954159E-04 +3.757489E-04 +3.880308E-04 +3.757489E-04 -1.404240E-04 +1.622983E-04 +3.880308E-04 +1.622983E-04 +7.759436E-03 
 -8.793255E-05 +3.665919E-04 -5.926896E-04 +3.665919E-04 +8.809457E-05 -5.334980E-04 -5.926896E-04 -5.334980E-04 +7.751932E-03 
 -3.792533E-04 -3.967352E-04 -1.187375E-04 -3.967352E-04 +1.359383E-04 -1.746271E-04 -1.187375E-04 -1.746271E-04 +7.815452E-03 
 -8.112060E-04 -8.354545E-04 +5.212048E-04 -8.354545E-04 +8.573515E-05 +1.008092E-04 +5.212048E-04 +1.008092E-04 +8.041572E-03 
 -1.808581E-05 +1.528523E-03 +1.740914E-04 +1.528523E-03 -2.130755E-04 +3.766445E-04 +1.740914E-04 +3.766445E-04 +7.742386E-03 
 -9.424096E-05 +1.095076E-04 -8.990982E-05 +1.095076E-04 +9.972705E-05 +3.026582E-04 -8.990982E-05 +3.026582E-04 +7.902165E-03 
 +1.177227E-04 -2.687834E-04 +4.521943E-05 -2.687834E-04 +9.367012E-06 +2.031391E-06 +4.521943E-05 +2.031391E-06 +7.531070E-03 
 +5.087347E-04 +3.679781E-04 -2.792054E-04 +3.679781E-04 +1.692964E-04 +1.200117E-04 -2.792054E-04 +1.200117E-04 +7.005450E-03 
 -4.235488E-04 +1.513753E-04 -2.837215E-05 +1.513753E-04 -1.078735E-04 +6.187979E-05 -2.837215E-05 +6.187979E-05 +7.570556E-03 
 -3.047157E-04 -8.631372E-04 +9.264605E-05 -8.631372E-04 +1.083595E-04 -1.547421E-04 +9.264605E-05 -1.547421E-04 +7.529540E-03 
 +9.926026E-06 +8.448193E-04 +2.880922E-04 +8.448193E-04 -2.698127E-04 +1.150626E-04 +2.880922E-04 +1.150626E-04 +7.766381E-03 
 -3.277245E-05 +3.354780E-04 -1.712056E-04 +3.354780E-04 -2.496835E-04 +6.245110E-04 -1.712056E-04 +6.245110E-04 +7.812913E-03 
 +2.511023E-04 +2.833443E-04 -1.693428E-04 +2.833443E-04 -2.071521E-04 +8.039504E-04 -1.693428E-04 +8.039504E-04 +7.319635E-03 
 -1.181466E-04 -4.396261E-04 +4.663228E-04 -4.396261E-04 +2.135190E-04 +5.396681E-06 +4.663228E-04 +5.396681E-06 +7.094689E-03 
 +3.039434E-04 -2.778891E-04 +3.566261E-04 -2.778891E-04 -4.082169E-04 +1.669285E-05 +3.566261E-04 +1.669285E-05 +7.513169E-03 
 +2.597527E-04 -3.609191E-04 -5.847316E-05 -3.609191E-04 +1.123168E-05 +3.248787E-04 -5.847316E-05 +3.248787E-04 +7.025108E-03 
 +1.187648E-05 +9.576134E-05 +3.646759E-04 +9.576134E-05 +3.853804E-04 +9.105710E-06 +3.646759E-04 +9.105710E-06 +6.813320E-03 
 +2.065407E-04 -3.167400E-04 -6.195520E-05 -3.167400E-04 -2.479089E-05 +4.739400E-04 -6.195520E-05 +4.739400E-04 +7.653327E-03 
 +1.461479E-04 -3.397079E-04 +2.464087E-04 -3.397079E-04 +4.780570E-05 -7.208682E-04 +2.464087E-04 -7.208682E-04 +7.677394E-03 
 -1.983272E-04 -3.808171E-04 +4.247295E-04 -3.808171E-04 -3.756516E-04 -8.795306E-04 +4.247295E-04 -8.795306E-04 +7.472251E-03 
 -2.114795E-04 -2.405864E-04 -2.233973E-04 -2.405864E-04 +3.196001E-04 +6.981001E-04 -2.233973E-04 +6.981001E-04 +7.442887E-03 
 +3.072655E-04 -1.038923E-03 -5.509722E-04 -1.038923E-03 -3.318005E-04 +3.833786E-04 -5.509722E-04 +3.833786E-04 +7.782312E-03 
 +6.715604E-05 +8.285545E-04 -1.988367E-04 +8.285545E-04 -1.237514E-04 +5.271906E-05 -1.988367E-04 +5.271906E-05 +7.709522E-03 
 -3.182258E-04 +1.340078E-05 -3.220240E-04 +1.340078E-05 -3.947968E-05 -4.241446E-05 -3.220240E-04 -4.241446E-05 +7.683127E-03 
 -2.226433E-04 -7.796616E-04 +2.044784E-04 -7.796616E-04 -7.805067E-05 +6.169893E-05 +2.044784E-04 +6.169893E-05 +7.778178E-03 
 -9.658967E-05 -4.385365E-04 -2.210779E-04 -4.385365E-04 +9.232110E-05 +5.977503E-04 -2.210779E-04 +5.977503E-04 +7.338220E-03 
 +1.292248E-04 +1.245107E-04 +2.629614E-06 +1.245107E-04 +3.803052E-04 -9.336183E-05 +2.629614E-06 -9.336183E-05 +6.791621E-03 
 +2.217961E-04 +4.040782E-04 +3.376602E-04 +4.040782E-04 +2.012083E-04 +2.111750E-04 +3.376602E-04 +2.111750E-04 +7.021230E-03 
 +8.114895E-05 +1.171397E-03 -1.408132E-04 +1.171397E-03 -5.172209E-04 +4.782190E-05 -1.408132E-04 +4.782190E-05 +7.803307E-03 
 -1.699772E-04 +2.043068E-04 +1.416413E-04 +2.043068E-04 +1.519770E-04 -2.516579E-05 +1.416413E-04 -2.516579E-05 +7.590182E-03 
 -2.610304E-04 +1.262767E-04 +4.174660E-04 +1.262767E-04 +2.582002E-04 -5.974065E-04 +4.174660E-04 -5.974065E-04 +7.090736E-03 
 -2.328657E-04 -2.460309E-04 -2.601342E-04 -2.460309E-04 +2.942378E-04 +3.098547E-04 -2.601342E-04 +3.098547E-04 +7.288333E-03 
 +1.859762E-04 +1.220698E-05 -4.357130E-04 +1.220698E-05 +2.126139E-04 +3.872489E-04 -4.357130E-04 +3.872489E-04 +7.124620E-03 
 +3.735971E-04 -7.812979E-04 +1.858490E-04 -7.812979E-04 -6.866104E-04 -2.083303E-04 +1.858490E-04 -2.083303E-04 +7.721406E-03 
 -9.696379E-05 +1.119336E-04 +3.640416E-04 +1.119336E-04 -1.295771E-04 -9.688770E-04 +3.640416E-04 -9.688770E-04 +7.527883E-03 
 +1.289968E-05 -2.824846E-04 -6.102467E-04 -2.824846E-04 +9.107969E-07 -1.888652E-05 -6.102467E-04 -1.888652E-05 +7.247712E-03 
 +1.596793E-04 +4.775473E-04 -6.505469E-04 +4.775473E-04 +1.490667E-04 -2.062703E-04 -6.505469E-04 -2.062703E-04 +7.247712E-03 
 +1.551903E-04 +3.810911E-04 -3.576431E-04 +3.810911E-04 +1.546733E-04 -4.804585E-04 -3.576431E-04 -4.804585E-04 +7.197754E-03 
 +4.162373E-04 +1.903036E-06 -1.926228E-04 +1.903036E-06 -4.370744E-05 -1.314268E-04 -1.926228E-04 -1.314268E-04 +6.845262E-03 
 +8.190964E-05 -7.401183E-05 +4.569792E-04 -7.401183E-05 -6.250007E-05 -1.336592E-04 +4.569792E-04 -1.336592E-04 +7.182863E-03 
 -6.133401E-04 +1.165048E-04 +2.900796E-04 +1.165048E-04 +2.232190E-04 +3.697411E-04 +2.900796E-04 +3.697411E-04 +7.830801E-03 
 -5.131064E-04 +3.747984E-04 -2.828339E-04 +3.747984E-04 +1.836498E-04 +1.793551E-04 -2.828339E-04 +1.793551E-04 +7.586715E-03 
 +3.799817E-04 -5.905560E-04 -7.688623E-04 -5.905560E-04 -5.616578E-05 +1.445976E-04 -7.688623E-04 +1.445976E-04 +7.436033E-03 
 -1.789545E-04 +1.236262E-03 -2.232195E-04 +1.236262E-03 -3.744144E-04 -1.296387E-05 -2.232195E-04 -1.296387E-05 +8.090520E-03 
 -1.905318E-04 -4.562358E-04 +2.537929E-04 -4.562358E-04 -4.756337E-04 +6.438098E-04 +2.537929E-04 +6.438098E-04 +7.951155E-03 
 +9.848730E-05 +2.142465E-04 -1.386316E-04 +2.142465E-04 +1.403461E-04 -5.519171E-04 -1.386316E-04 -5.519171E-04 +7.201024E-03 
 -3.353047E-05 +2.381718E-04 +2.814984E-04 +2.381718E-04 +1.683667E-04 -4.600251E-05 +2.814984E-04 -4.600251E-05 +7.086594E-03 
 +1.225927E-04 +3.903901E-04 -3.071731E-04 +3.903901E-04 +2.195352E-04 -2.007399E-04 -3.071731E-04 -2.007399E-04 +7.487824E-03 
 -1.345514E-04 +1.242344E-05 -1.944993E-04 +1.242344E-05 +2.427161E-04 -2.866150E-04 -1.944993E-04 -2.866150E-04 +7.469082E-03 
 +2.291375E-04 +1.432749E-04 +2.755130E-04 +1.432749E-04 -4.960650E-04 +2.313411E-04 +2.755130E-04 +2.313411E-04 +7.373746E-03 
 -5.563937E-05 -5.099441E-05 -5.586788E-04 -5.099441E-05 +2.417028E-04 +6.278809E-05 -5.586788E-04 +6.278809E-05 +7.484192E-03 
 -7.177460E-04 -4.555529E-04 -3.936234E-05 -4.555529E-04 +1.535336E-04 -8.898973E-05 -3.936234E-05 -8.898973E-05 +7.835870E-03 
 -5.795467E-04 -3.790951E-04 +5.802753E-04 -3.790951E-04 +2.335657E-04 -3.407403E-04 +5.802753E-04 -3.407403E-04 +7.543912E-03 
 -2.140452E-04 -4.394873E-04 +2.168592E-05 -4.394873E-04 -1.722745E-04 -1.841033E-04 +2.168592E-05 -1.841033E-04 +7.956250E-03 
 +3.892996E-04 -1.410600E-04 -3.532431E-04 -1.410600E-04 -2.921970E-04 -4.897134E-04 -3.532431E-04 -4.897134E-04 +7.282391E-03 
 +3.823924E-05 -8.312385E-04 -1.263937E-04 -8.312385E-04 -1.279437E-04 +1.116227E-04 -1.263937E-04 +1.116227E-04 +7.592123E-03 
 +9.872063E-05 +1.107768E-03 -1.552993E-04 +1.107768E-03 +1.832147E-04 -1.093242E-04 -1.552993E-04 -1.093242E-04 +7.262479E-03 
 +3.059539E-04 -4.842614E-04 -1.233333E-04 -4.842614E-04 -4.300183E-05 -1.136804E-04 -1.233333E-04 -1.136804E-04 +7.171129E-03 
 -5.380666E-05 +3.619295E-04 -1.932602E-04 +3.619295E-04 +1.185536E-04 -3.801816E-04 -1.932602E-04 -3.801816E-04 +7.331021E-03 
 -5.754043E-05 +4.192267E-04 -4.708796E-05 +4.192267E-04 -1.034246E-04 +5.802585E-04 -4.708796E-05 +5.802585E-04 +7.569855E-03 
 -6.421852E-04 +4.827703E-05 +1.994094E-04 +4.827703E-05 +2.536016E-04 -2.119750E-04 +1.994094E-04 -2.119750E-04 +7.602549E-03 
 -1.867171E-05 +7.467860E-04 +3.952478E-04 +7.467860E-04 +6.080983E-04 -3.246176E-04 +3.952478E-04 -3.246176E-04 +7.094053E-03 
 +1.379403E-04 -2.149871E-04 +2.092819E-04 -2.149871E-04 -6.109839E-04 -1.792959E-04 +2.092819E-04 -1.792959E-04 +7.466477E-03 
 -2.381738E-04 +1.914661E-04 +4.421516E-04 +1.914661E-04 +2.466666E-04 -3.432546E-04 +4.421516E-04 -3.432546E-04 +7.505949E-03 
 -2.273220E-04 +7.618404E-04 +3.768865E-04 +7.618404E-04 -1.358838E-04 +8.945150E-05 +3.768865E-04 +8.945150E-05 +7.377557E-03 
 +1.778879E-04 -1.219029E-04 -7.742218E-05 -1.219029E-04 -1.976085E-04 -2.895428E-04 -7.742218E-05 -2.895428E-04 +7.551564E-03 
 -2.445564E-04 +8.461157E-04 +3.781199E-04 +8.461157E-04 -1.989728E-04 +2.410910E-04 +3.781199E-04 +2.410910E-04 +7.610884E-03 
 -4.272162E-04 -2.435236E-04 +2.179318E-04 -2.435236E-04 +2.164665E-04 +6.742243E-04 +2.179318E-04 +6.742243E-04 +7.687881E-03 
 +1.901478E-04 +4.206804E-04 +2.091448E-04 +4.206804E-04 +1.992924E-04 +6.032047E-06 +2.091448E-04 +6.032047E-06 +7.233608E-03 
 -2.053703E-04 +7.277909E-04 -1.625352E-04 +7.277909E-04 -7.354301E-05 +8.582898E-04 -1.625352E-04 +8.582898E-04 +7.518236E-03 
 -1.040581E-04 -5.273110E-04 -6.031040E-04 -5.273110E-04 +4.911156E-05 +3.348619E-04 -6.031040E-04 +3.348619E-04 +7.641193E-03 
 +1.914801E-05 -3.945683E-04 +2.053806E-04 -3.945683E-04 +1.658470E-04 +4.922061E-05 +2.053806E-04 +4.922061E-05 +7.250950E-03 
 +4.273482E-04 -3.173844E-04 -3.159387E-04 -3.173844E-04 -1.465224E-04 +2.555320E-04 -3.159387E-04 +2.555320E-04 +7.233183E-03 
 +9.067454E-05 -3.510794E-04 -1.097385E-04 -3.510794E-04 +6.105438E-05 -2.627744E-04 -1.097385E-04 -2.627744E-04 +7.827001E-03 
 +3.186405E-07 +8.765540E-05 +1.963824E-04 +8.765540E-05 -3.277994E-04 +4.726524E-05 +1.963824E-04 +4.726524E-05 +7.742479E-03 
 +4.491574E-06 -6.982682E-04 +3.241893E-04 -6.982682E-04 +1.497006E-04 +2.097604E-04 +3.241893E-04 +2.097604E-04 +7.301558E-03 
 -8.900253E-07 -6.044596E-04 -4.317196E-04 -6.044596E-04 -1.345590E-05 +4.303515E-04 -4.317196E-04 +4.303515E-04 +6.985533E-03 
 -6.151903E-05 +8.589156E-04 -3.316258E-04 +8.589156E-04 -6.432816E-05 -1.253173E-04 -3.316258E-04 -1.253173E-04 +7.667703E-03 
 +3.389717E-04 -1.033798E-03 -3.114954E-04 -1.033798E-03 -2.717716E-04 +3.684949E-04 -3.114954E-04 +3.684949E-04 +7.553146E-03 
 -7.636159E-05 +1.319569E-04 -1.456619E-04 +1.319569E-04 +2.489329E-04 -1.824027E-04 -1.456619E-04 -1.824027E-04 +7.728081E-03 
 -2.522100E-04 +6.581363E-04 -9.382573E-08 +6.581363E-04 -2.671646E-04 +2.852385E-04 -9.382573E-08 +2.852385E-04 +7.697267E-03 
 -7.592038E-05 -5.602996E-04 +2.867514E-04 -5.602996E-04 +5.397684E-04 -1.498775E-04 +2.867514E-04 -1.498775E-04 +7.145511E-03 
 +2.478640E-06 +4.178286E-04 +6.134526E-05 +4.178286E-04 +6.473881E-05 -2.592992E-04 +6.134526E-05 -2.592992E-04 +7.411404E-03 
 +5.670825E-04 -8.954534E-04 -3.419997E-04 -8.954534E-04 -2.295166E-04 +2.135963E-05 -3.419997E-04 +2.135963E-05 +7.376691E-03 
 +2.488804E-05 +3.053463E-04 +3.711406E-04 +3.053463E-04 +4.681434E-05 -2.760662E-04 +3.711406E-04 -2.760662E-04 +7.203421E-03 
 +1.030167E-04 -1.468118E-04 -5.482010E-05 -1.468118E-04 +1.595907E-04 +4.565072E-04 -5.482010E-05 +4.565072E-04 +6.960419E-03 
 +3.677322E-04 +7.103583E-04 -8.017478E-04 +7.103583E-04 +7.581718E-05 +1.091415E-04 -8.017478E-04 +1.091415E-04 +7.185288E-03 
 -1.500008E-04 -4.511508E-04 -3.054870E-04 -4.511508E-04 -3.615718E-04 -5.123143E-04 -3.054870E-04 -5.123143E-04 +7.593950E-03 
 +6.186680E-05 +1.874647E-04 -2.309256E-04 +1.874647E-04 +3.383080E-04 -2.257857E-04 -2.309256E-04 -2.257857E-04 +7.262728E-03 
 +2.130459E-04 +3.005628E-04 -3.586519E-04 +3.005628E-04 -1.965555E-04 -5.638749E-05 -3.586519E-04 -5.638749E-05 +7.635409E-03 
 -2.959355E-04 +9.203640E-05 -2.827661E-04 +9.203640E-05 +1.317903E-04 -1.445293E-04 -2.827661E-04 -1.445293E-04 +7.428374E-03 
 +1.694852E-05 -1.457925E-04 +3.867100E-04 -1.457925E-04 +2.119252E-04 -5.055874E-05 +3.867100E-04 -5.055874E-05 +6.910134E-03 
 +4.703880E-04 +1.604265E-04 +3.048606E-04 +1.604265E-04 -1.229004E-04 -2.611406E-04 +3.048606E-04 -2.611406E-04 +7.203696E-03 
 -1.534764E-04 +1.199136E-05 -5.035942E-04 +1.199136E-05 -4.971056E-05 +1.146601E-04 -5.035942E-04 +1.146601E-04 +7.406849E-03 
 -1.585161E-04 -6.242243E-04 -6.362020E-04 -6.242243E-04 -6.294443E-05 +6.145641E-04 -6.362020E-04 +6.145641E-04 +7.679154E-03 
 +4.939016E-04 -9.416575E-05 -3.026014E-04 -9.416575E-05 +1.954108E-04 -2.939726E-04 -3.026014E-04 -2.939726E-04 +6.792259E-03 
 +6.896923E-06 -4.641606E-05 -1.387512E-04 -4.641606E-05 -9.653877E-05 -5.543220E-04 -1.387512E-04 -5.543220E-04 +7.275992E-03 
 +5.053943E-05 +3.094212E-04 +6.931035E-04 +3.094212E-04 +2.463533E-05 +3.687254E-04 +6.931035E-04 +3.687254E-04 +7.667287E-03 
 -1.037516E-04 +3.398744E-05 +1.480197E-04 +3.398744E-05 +1.159399E-04 +6.615866E-05 +1.480197E-04 +6.615866E-05 +7.355215E-03 
 -1.243802E-04 -1.247050E-03 -2.581859E-04 -1.247050E-03 -3.825685E-04 +2.307319E-04 -2.581859E-04 +2.307319E-04 +7.587517E-03 
 +2.096909E-04 +3.376047E-04 -3.063271E-04 +3.376047E-04 -1.479319E-04 +3.755316E-04 -3.063271E-04 +3.755316E-04 +7.434406E-03 
 +1.443703E-04 +1.121808E-04 -1.963060E-04 +1.121808E-04 +1.533038E-04 +1.231056E-04 -1.963060E-04 +1.231056E-04 +7.165188E-03 
 +3.288024E-04 +1.210981E-04 +4.337267E-04 +1.210981E-04 -4.027692E-05 -7.501130E-04 +4.337267E-04 -7.501130E-04 +7.076606E-03 
 -3.778039E-04 +7.096576E-04 +5.223158E-05 +7.096576E-04 +7.569386E-05 +1.020924E-04 +5.223158E-05 +1.020924E-04 +7.373571E-03 
 -2.484250E-05 -1.432013E-04 -1.400003E-04 -1.432013E-04 +3.219149E-04 -1.664454E-04 -1.400003E-04 -1.664454E-04 +7.528451E-03 
 +4.495692E-04 -2.442478E-04 -1.733413E-04 -2.442478E-04 -3.413287E-04 +2.262104E-04 -1.733413E-04 +2.262104E-04 +7.730577E-03 
 -4.550087E-04 -9.424415E-04 +2.619941E-04 -9.424415E-04 +1.421195E-04 -8.658359E-04 +2.619941E-04 -8.658359E-04 +7.790741E-03 
 -1.773984E-04 -1.831142E-05 +6.455486E-05 -1.831142E-05 +3.367149E-04 +3.473772E-05 +6.455486E-05 +3.473772E-05 +7.195371E-03 
 +3.224792E-04 -8.887069E-04 +4.661288E-04 -8.887069E-04 -2.384719E-04 +8.364891E-05 +4.661288E-04 +8.364891E-05 +7.196296E-03 
 +4.981398E-05 +2.311272E-04 +5.099559E-04 +2.311272E-04 +5.809910E-05 -2.162820E-04 +5.099559E-04 -2.162820E-04 +7.287852E-03 
 +6.731133E-05 -8.914705E-04 -2.279919E-04 -8.914705E-04 -7.573595E-05 +8.300779E-04 -2.279919E-04 +8.300779E-04 +7.485836E-03 
 -3.048501E-04 -7.627988E-04 -1.741057E-05 -7.627988E-04 +1.427874E-04 +2.716279E-05 -1.741057E-05 +2.716279E-05 +7.724862E-03 
 -1.053687E-04 +8.987890E-04 -2.811887E-05 +8.987890E-04 -9.295582E-05 -3.995335E-04 -2.811887E-05 -3.995335E-04 +7.526912E-03 
 +2.795445E-05 -5.566447E-04 +5.600803E-04 -5.566447E-04 -8.756871E-05 -1.197023E-04 +5.600803E-04 -1.197023E-04 +7.685468E-03 
 -3.664134E-04 +6.600731E-04 -3.017284E-04 +6.600731E-04 -1.995655E-04 -3.655860E-04 -3.017284E-04 -3.655860E-04 +7.832360E-03 
 +5.111013E-04 -3.070604E-04 -3.419975E-04 -3.070604E-04 +1.354297E-04 -3.539872E-04 -3.419975E-04 -3.539872E-04 +7.154052E-03 
 -6.728959E-05 -1.097746E-03 +2.420548E-04 -1.097746E-03 -1.710636E-04 -1.651387E-04 +2.420548E-04 -1.651387E-04 +7.605957E-03 
 -4.343876E-04 +1.509720E-04 +5.122129E-05 +1.509720E-04 +1.981900E-04 -1.923091E-04 +5.122129E-05 -1.923091E-04 +7.601752E-03 
 -7.463796E-05 +4.256578E-04 +1.681079E-04 +4.256578E-04 -1.056133E-04 -2.828502E-04 +1.681079E-04 -2.828502E-04 +7.132653E-03 
 -2.684096E-04 -2.845730E-04 +2.131442E-04 -2.845730E-04 +2.229584E-05 -1.462160E-04 +2.131442E-04 -1.462160E-04 +7.523961E-03 
 -3.469920E-04 -4.874555E-04 -1.500846E-04 -4.874555E-04 -7.600402E-05 -5.846893E-04 -1.500846E-04 -5.846893E-04 +7.681932E-03 
 -8.555202E-06 +3.686054E-04 -1.674316E-04 +3.686054E-04 +1.279958E-04 +2.427210E-04 -1.674316E-04 +2.427210E-04 +7.534450E-03 
 -1.608183E-05 -2.485630E-04 +6.396884E-05 -2.485630E-04 +1.846978E-04 +4.694183E-04 +6.396884E-05 +4.694183E-04 +7.589129E-03 
 -1.309893E-05 +6.285071E-04 -1.368740E-04 +6.285071E-04 -5.918973E-04 +1.239693E-04 -1.368740E-04 +1.239693E-04 +7.728050E-03 
 -1.856509E-04 +2.021997E-04 -4.574465E-04 +2.021997E-04 +2.654901E-04 +7.682134E-04 -4.574465E-04 +7.682134E-04 +7.274356E-03 
 -1.137382E-04 +1.201207E-05 -3.195013E-04 +1.201207E-05 +9.873829E-05 -2.091965E-04 -3.195013E-04 -2.091965E-04 +7.287929E-03 
 +1.348499E-04 +7.106569E-04 -2.295270E-04 +7.106569E-04 -1.604560E-04 +7.433075E-05 -2.295270E-04 +7.433075E-05 +7.469013E-03 
 -1.805567E-04 -4.632083E-04 -1.570628E-04 -4.632083E-04 +2.194021E-04 +1.589658E-04 -1.570628E-04 +1.589658E-04 +7.478021E-03 
 -4.896013E-04 +3.092343E-04 -2.817139E-05 +3.092343E-04 +8.859641E-05 -3.467982E-05 -2.817139E-05 -3.467982E-05 +7.587178E-03 
 -2.080922E-04 -1.848372E-04 +1.012903E-04 -1.848372E-04 +2.074439E-04 -3.211294E-04 +1.012903E-04 -3.211294E-04 +7.408141E-03 
 -2.398970E-04 -6.501653E-04 -6.837815E-05 -6.501653E-04 -6.856552E-04 -4.485184E-04 -6.837815E-05 -4.485184E-04 +8.037320E-03 
 -4.555396E-04 -9.630874E-04 +1.009214E-04 -9.630874E-04 +5.045244E-04 -5.037174E-05 +1.009214E-04 -5.037174E-05 +7.711646E-03 
 +6.244285E-05 -4.310350E-05 +3.228883E-04 -4.310350E-05 +9.434672E-05 -4.503435E-04 +3.228883E-04 -4.503435E-04 +7.404134E-03 
 -7.699108E-05 +1.736634E-03 +1.974801E-04 +1.736634E-03 -5.670414E-04 -2.225058E-04 +1.974801E-04 -2.225058E-04 +7.933565E-03 
 -2.662431E-04 -7.447379E-05 -1.471751E-04 -7.447379E-05 +3.923124E-04 +2.099816E-04 -1.471751E-04 +2.099816E-04 +7.669453E-03 
 +1.752199E-04 +8.210389E-05 -1.837636E-04 +8.210389E-05 -2.975839E-04 +4.683920E-04 -1.837636E-04 +4.683920E-04 +7.273528E-03 
 +3.972965E-04 +5.098928E-04 +3.477017E-04 +5.098928E-04 +2.507327E-04 +5.246303E-04 +3.477017E-04 +5.246303E-04 +7.433083E-03 
 +2.504465E-04 -7.018392E-04 +6.971538E-06 -7.018392E-04 -4.013063E-04 +6.157646E-04 +6.971538E-06 +6.157646E-04 +7.390330E-03 
 +2.784149E-04 -4.569714E-04 -5.431401E-04 -4.569714E-04 +5.819245E-05 +1.002345E-04 -5.431401E-04 +1.002345E-04 +7.429320E-03 
 +1.181039E-04 +3.170736E-04 -5.768709E-05 +3.170736E-04 -6.674623E-04 -3.486668E-04 -5.768709E-05 -3.486668E-04 +8.028117E-03 
 -2.970459E-04 +3.446172E-04 +5.768719E-04 +3.446172E-04 +3.096237E-04 +8.226232E-07 +5.768719E-04 +8.226232E-07 +7.806362E-03 
 -6.591014E-05 -3.095906E-04 +5.319830E-04 -3.095906E-04 +7.414089E-05 -4.514195E-04 +5.319830E-04 -4.514195E-04 +7.366239E-03 
 +2.601533E-04 -1.370067E-04 +3.471397E-05 -1.370067E-04 +2.605237E-04 -6.000325E-04 +3.471397E-05 -6.000325E-04 +7.086412E-03 
 +3.856316E-04 -1.054911E-04 +9.064141E-05 -1.054911E-04 +1.252071E-04 -3.225058E-04 +9.064141E-05 -3.225058E-04 +7.288630E-03 
 +1.265968E-04 -2.259732E-04 +1.973249E-04 -2.259732E-04 +3.372550E-05 -3.184426E-04 +1.973249E-04 -3.184426E-04 +7.696840E-03 
 +9.597866E-05 -6.100686E-04 -3.036621E-04 -6.100686E-04 -3.219117E-04 -8.123925E-05 -3.036621E-04 -8.123925E-05 +7.681517E-03 
 -1.212444E-04 -3.581015E-04 -2.574038E-04 -3.581015E-04 -6.226543E-05 +6.550504E-04 -2.574038E-04 +6.550504E-04 +7.579810E-03 
 +3.694518E-05 +1.367474E-03 -1.890052E-04 +1.367474E-03 -8.984406E-05 -6.128426E-04 -1.890052E-04 -6.128426E-04 +7.202574E-03 
 -9.124995E-05 +5.312390E-04 +1.097782E-04 +5.312390E-04 +3.091193E-04 -5.338268E-04 +1.097782E-04 -5.338268E-04 +6.967404E-03 
 -2.447897E-04 +9.452108E-04 +5.835993E-05 +9.452108E-04 +2.604346E-04 +4.318771E-05 +5.835993E-05 +4.318771E-05 +7.701720E-03 
 -2.319905E-05 +6.675121E-04 +1.002270E-04 +6.675121E-04 -4.616524E-04 -1.656084E-04 +1.002270E-04 -1.656084E-04 +8.096803E-03 
 -1.189103E-05 -1.497459E-03 +1.421043E-04 -1.497459E-03 -1.459392E-04 +6.848006E-05 +1.421043E-04 +6.848006E-05 +7.586442E-03 
 -3.154162E-04 +2.417502E-04 +4.298239E-04 +2.417502E-04 +2.134637E-04 +8.229984E-05 +4.298239E-04 +8.229984E-05 +7.800817E-03 
 -8.272541E-05 -9.903730E-04 +4.303288E-04 -9.903730E-04 +2.072208E-04 -7.483090E-05 +4.303288E-04 -7.483090E-05 +7.848343E-03 
 +1.233063E-04 +1.213892E-03 -1.520998E-04 +1.213892E-03 -1.542408E-04 -6.462143E-05 -1.520998E-04 -6.462143E-05 +7.403849E-03 
 +1.839351E-04 -1.940573E-05 +3.030264E-06 -1.940573E-05 +3.880213E-04 +1.399372E-04 +3.030264E-06 +1.399372E-04 +7.102157E-03 
 +3.376777E-05 +3.173522E-04 -4.966879E-05 +3.173522E-04 -4.186242E-04 -6.179577E-05 -4.966879E-05 -6.179577E-05 +7.149524E-03 
 +2.717806E-05 -2.942342E-04 +3.998115E-04 -2.942342E-04 +4.830511E-04 -1.060755E-04 +3.998115E-04 -1.060755E-04 +7.312501E-03 
 -1.144245E-04 +2.511267E-04 +5.044164E-04 +2.511267E-04 +8.888021E-05 -5.187537E-04 +5.044164E-04 -5.187537E-04 +7.836293E-03 
 +1.226093E-04 -8.296223E-04 +4.868365E-04 -8.296223E-04 -5.514108E-04 -3.378775E-04 +4.868365E-04 -3.378775E-04 +7.802221E-03 
 +3.948480E-04 +4.719494E-04 +2.372414E-04 +4.719494E-04 -3.073216E-04 +2.860298E-04 +2.372414E-04 +2.860298E-04 +7.332121E-03 
 +2.079727E-04 +2.231171E-04 +1.162296E-04 +2.231171E-04 +1.863271E-04 +2.397554E-04 +1.162296E-04 +2.397554E-04 +7.212135E-03 
 -1.020959E-05 -8.311178E-05 -4.697919E-04 -8.311178E-05 +2.005420E-04 -2.852936E-04 -4.697919E-04 -2.852936E-04 +7.415293E-03 
 -6.085425E-05 +1.890753E-04 -1.190733E-04 +1.890753E-04 -7.567173E-05 -7.113356E-06 -1.190733E-04 -7.113356E-06 +7.894875E-03 
 +1.621781E-04 -7.112957E-05 +1.869160E-04 -7.112957E-05 +7.032336E-05 -1.390154E-04 +1.869160E-04 -1.390154E-04 +7.257568E-03 
 +1.964923E-04 -5.140871E-04 -3.844998E-06 -5.140871E-04 +3.104979E-04 +7.124384E-07 -3.844998E-06 +7.124384E-07 +7.058308E-03 
 -8.229426E-06 -2.865738E-04 +5.543319E-04 -2.865738E-04 -3.641413E-04 -4.648517E-04 +5.543319E-04 -4.648517E-04 +7.820965E-03 
 -2.191991E-04 +3.810678E-04 +4.409750E-04 +3.810678E-04 +1.489753E-04 +6.308730E-05 +4.409750E-04 +6.308730E-05 +7.571337E-03 
 +1.256892E-04 +3.127470E-04 +3.364851E-05 +3.127470E-04 -6.373605E-05 +9.290842E-05 +3.364851E-05 +9.290842E-05 +7.712713E-03 
 -1.758254E-04 +1.143204E-03 -1.946320E-05 +1.143204E-03 -1.812886E-04 +2.648984E-04 -1.946320E-05 +2.648984E-04 +7.873110E-03 
 +3.902622E-04 -3.228087E-04 +4.615311E-04 -3.228087E-04 +4.035013E-04 -1.343797E-04 +4.615311E-04 -1.343797E-04 +7.109045E-03 
 +4.550228E-04 +2.687465E-04 -5.221551E-04 +2.687465E-04 -9.828686E-05 +2.232034E-04 -5.221551E-04 +2.232034E-04 +7.354190E-03 
 +3.249380E-05 -1.188215E-03 -3.030694E-04 -1.188215E-03 -3.114442E-04 +3.083545E-05 -3.030694E-04 +3.083545E-05 +7.852236E-03 
 +3.591942E-04 +7.382026E-05 -6.719067E-06 +7.382026E-05 +4.032935E-04 -7.158541E-05 -6.719067E-06 -7.158541E-05 +7.186765E-03 
 +6.595701E-04 -3.293972E-04 +3.271871E-05 -3.293972E-04 -6.777881E-05 -8.418927E-05 +3.271871E-05 -8.418927E-05 +6.853688E-03 
 +7.925809E-05 +2.638703E-04 +3.631368E-04 +2.638703E-04 +2.057176E-04 -2.422365E-04 +3.631368E-04 -2.422365E-04 +7.017273E-03 
 -7.664862E-05 -1.005271E-04 +5.795465E-05 -1.005271E-04 -5.230943E-05 -4.678679E-04 +5.795465E-05 -4.678679E-04 +7.573962E-03 
 -2.190324E-04 -4.271915E-04 -6.733014E-05 -4.271915E-04 +3.685619E-05 +1.837834E-04 -6.733014E-05 +1.837834E-04 +7.647314E-03 
 -2.148871E-04 +5.082712E-05 -1.897844E-04 +5.082712E-05 +1.820030E-05 +5.811548E-04 -1.897844E-04 +5.811548E-04 +7.649526E-03 
 +3.577464E-04 +2.669744E-04 -3.166746E-04 +2.669744E-04 +1.647525E-04 +1.095484E-04 -3.166746E-04 +1.095484E-04 +7.020999E-03 
 +2.976364E-04 -1.086479E-04 +5.126572E-04 -1.086479E-04 -1.818245E-04 +2.589115E-04 +5.126572E-04 +2.589115E-04 +6.945246E-03 
 +1.333963E-04 -4.898217E-04 +1.760575E-04 -4.898217E-04 -2.524622E-04 +4.176831E-04 +1.760575E-04 +4.176831E-04 +7.215088E-03 
 +2.194426E-04 +2.301818E-04 -3.789449E-04 +2.301818E-04 +8.833375E-05 +2.133849E-04 -3.789449E-04 +2.133849E-04 +7.265742E-03 
 +1.960998E-04 -1.340606E-04 +1.885226E-04 -1.340606E-04 -8.980691E-06 +2.036561E-04 +1.885226E-04 +2.036561E-04 +7.367449E-03 
 +2.195596E-05 +1.260056E-04 +1.249832E-04 +1.260056E-04 +2.817613E-05 -3.396538E-04 +1.249832E-04 -3.396538E-04 +7.009469E-03 
 -2.591726E-04 +1.330809E-04 +5.530923E-04 +1.330809E-04 +1.478889E-04 +2.912435E-04 +5.530923E-04 +2.912435E-04 +7.685722E-03 
 +6.052033E-05 -2.359901E-04 -1.215174E-05 -2.359901E-04 -3.096515E-04 +1.058386E-04 -1.215174E-05 +1.058386E-04 +7.635425E-03 
 -1.021516E-05 +1.133460E-04 +1.383446E-05 +1.133460E-04 +3.083526E-04 +6.746889E-04 +1.383446E-05 +6.746889E-04 +7.171899E-03 
 +5.357246E-06 +5.576532E-04 +1.675048E-04 +5.576532E-04 -7.803477E-05 -1.566321E-04 +1.675048E-04 -1.566321E-04 +7.489411E-03 
 +1.674961E-04 +9.641844E-05 +3.311019E-04 +9.641844E-05 +4.975981E-05 -3.057619E-05 +3.311019E-04 -3.057619E-05 +7.200177E-03 
 -2.207074E-04 +6.675719E-04 +3.528691E-05 +6.675719E-04 +1.518032E-04 +1.212327E-04 +3.528691E-05 +1.212327E-04 +7.636993E-03 
 +3.736524E-04 -1.264248E-04 -1.561608E-04 -1.264248E-04 -3.164341E-04 +3.110782E-04 -1.561608E-04 +3.110782E-04 +7.769301E-03 
 +4.431758E-04 -7.827321E-04 +6.020509E-04 -7.827321E-04 +2.789914E-04 +5.414549E-04 +6.020509E-04 +5.414549E-04 +7.163644E-03 
 +8.219293E-05 +3.562948E-04 -2.558458E-04 +3.562948E-04 +1.415978E-05 -4.151926E-05 -2.558458E-04 -4.151926E-05 +6.925685E-03 
 +5.535064E-04 +4.826606E-05 -1.256656E-04 +4.826606E-05 -2.258429E-05 -1.505896E-04 -1.256656E-04 -1.505896E-04 +6.971190E-03 
 +2.526039E-04 +4.083820E-04 +4.692111E-04 +4.083820E-04 +1.644609E-04 +2.110364E-04 +4.692111E-04 +2.110364E-04 +7.146326E-03 
 +2.594214E-04 -3.003381E-04 -1.382523E-04 -3.003381E-04 -4.537862E-04 +8.351973E-05 -1.382523E-04 +8.351973E-05 +7.822149E-03 
 -2.819677E-04 -8.504112E-05 -3.755202E-04 -8.504112E-05 +2.158332E-04 -2.509150E-04 -3.755202E-04 -2.509150E-04 +7.714150E-03 
 -5.915298E-04 -1.198403E-03 -3.967203E-04 -1.198403E-03 +3.037164E-04 -2.025519E-04 -3.967203E-04 -2.025519E-04 +7.725302E-03 
 +8.634920E-05 +1.803236E-04 +1.902036E-04 +1.803236E-04 -2.925145E-04 -2.250875E-04 +1.902036E-04 -2.250875E-04 +7.551619E-03 
 +1.965296E-04 -1.492692E-04 -4.801191E-04 -1.492692E-04 +3.501320E-04 -2.211209E-04 -4.801191E-04 -2.211209E-04 +7.158150E-03 
 +2.092151E-04 +1.075210E-03 +6.882875E-04 +1.075210E-03 -2.080298E-04 -1.293918E-04 +6.882875E-04 -1.293918E-04 +7.635169E-03 
 -1.913871E-04 -1.072406E-03 +4.633077E-04 -1.072406E-03 -4.079059E-04 -5.438222E-04 +4.633077E-04 -5.438222E-04 +7.620034E-03 
 +2.545206E-05 +1.284003E-04 -2.050314E-05 +1.284003E-04 +3.008052E-04 -2.797925E-04 -2.050314E-05 -2.797925E-04 +7.470618E-03 
 +1.935617E-04 -2.462126E-04 -1.927989E-04 -2.462126E-04 +7.387879E-06 +8.997914E-05 -1.927989E-04 +8.997914E-05 +7.464956E-03 
 +1.448348E-04 +2.782365E-04 -4.136158E-04 +2.782365E-04 -7.520113E-05 -3.810363E-04 -4.136158E-04 -3.810363E-04 +7.692797E-03 
 +2.482626E-04 -2.651388E-04 +2.526563E-04 -2.651388E-04 +1.882350E-04 +1.813295E-04 +2.526563E-04 +1.813295E-04 +7.139659E-03 
 -1.074906E-04 +1.194515E-04 +2.856712E-04 +1.194515E-04 -2.405816E-04 -2.164201E-04 +2.856712E-04 -2.164201E-04 +7.351612E-03 
 -8.943189E-05 +1.945032E-04 -3.700076E-04 +1.945032E-04 +2.080894E-04 +1.564913E-04 -3.700076E-04 +1.564913E-04 +7.161323E-03 
 +4.769432E-04 +4.668873E-04 -3.886216E-04 +4.668873E-04 +9.556294E-05 +3.731848E-05 -3.886216E-04 +3.731848E-05 +7.068831E-03 
 +4.923645E-05 +6.867300E-04 -3.544234E-04 +6.867300E-04 -4.139409E-04 +8.721631E-05 -3.544234E-04 +8.721631E-05 +7.720291E-03 
 -2.451214E-04 -4.171109E-04 -1.407956E-04 -4.171109E-04 +6.866061E-04 +8.252211E-06 -1.407956E-04 +8.252211E-06 +7.221730E-03 
 +1.191467E-04 -3.391399E-04 +8.459427E-04 -3.391399E-04 -4.838133E-05 -1.370112E-04 +8.459427E-04 -1.370112E-04 +7.445572E-03 
 +2.075802E-04 +1.188853E-04 +1.553435E-04 +1.188853E-04 -1.091784E-04 +6.106794E-04 +1.553435E-04 +6.106794E-04 +7.367511E-03 
 +1.606334E-04 +5.697993E-04 +1.961537E-04 +5.697993E-04 +1.292490E-04 +5.125227E-05 +1.961537E-04 +5.125227E-05 +7.075456E-03 
 +2.618746E-04 +6.196580E-04 -1.805456E-04 +6.196580E-04 -5.029760E-04 -6.001429E-04 -1.805456E-04 -6.001429E-04 +7.705181E-03 
 -3.845076E-04 +1.811443E-04 -1.034394E-03 +1.811443E-04 -4.772999E-05 -5.955781E-04 -1.034394E-03 -5.955781E-04 +7.973933E-03 
 -2.105594E-05 -4.648410E-04 -4.533303E-04 -4.648410E-04 +5.491091E-05 +4.286902E-05 -4.533303E-04 +4.286902E-05 +7.336379E-03 
 -8.565330E-06 -5.390833E-04 +1.146883E-04 -5.390833E-04 +4.085749E-05 +2.915888E-04 +1.146883E-04 +2.915888E-04 +7.695029E-03 
 -9.330410E-05 -3.277491E-04 +4.583947E-04 -3.277491E-04 +3.597256E-06 -3.540200E-04 +4.583947E-04 -3.540200E-04 +7.760338E-03 
 +6.789746E-05 -1.692543E-05 -2.069119E-04 -1.692543E-05 -1.165607E-05 -7.718870E-04 -2.069119E-04 -7.718870E-04 +7.140644E-03 
 -6.087185E-05 +4.434288E-04 -2.588645E-04 +4.434288E-04 -1.147125E-04 -4.269864E-04 -2.588645E-04 -4.269864E-04 +7.911319E-03 
 -2.818732E-04 +9.693667E-04 -1.451514E-04 +9.693667E-04 +2.843361E-04 +1.888066E-04 -1.451514E-04 +1.888066E-04 +7.843748E-03 
 -2.379101E-05 -7.549128E-04 -2.127359E-04 -7.549128E-04 -2.638666E-04 -1.777072E-04 -2.127359E-04 -1.777072E-04 +7.668118E-03 
 +3.102151E-04 +5.732961E-04 +1.939457E-04 +5.732961E-04 +3.207730E-04 +4.075528E-04 +1.939457E-04 +4.075528E-04 +7.321291E-03 
 +2.540222E-04 -1.181094E-04 +1.625936E-04 -1.181094E-04 +3.094771E-04 +4.267758E-04 +1.625936E-04 +4.267758E-04 +7.254328E-03 
 +2.429573E-04 -4.479648E-04 -2.925521E-04 -4.479648E-04 +2.406544E-05 +5.862468E-04 -2.925521E-04 +5.862468E-04 +7.330585E-03 
 +4.190191E-04 -1.662261E-04 +3.756665E-04 -1.662261E-04 -4.655891E-04 +4.964293E-05 +3.756665E-04 +4.964293E-05 +7.474111E-03 
 -3.857158E-04 +3.892512E-04 +4.310865E-04 +3.892512E-04 +8.538811E-05 +5.212348E-04 +4.310865E-04 +5.212348E-04 +7.232589E-03 
 -3.752152E-04 +5.088624E-04 +1.777623E-04 +5.088624E-04 +8.342835E-05 -1.545307E-04 +1.777623E-04 -1.545307E-04 +7.827086E-03 
 +3.702919E-04 -5.990224E-04 +5.434759E-04 -5.990224E-04 -1.068183E-04 +3.241810E-04 +5.434759E-04 +3.241810E-04 +7.678980E-03 
 +4.162434E-06 +4.109035E-04 +3.362308E-04 +4.109035E-04 -1.627151E-04 -3.610885E-04 +3.362308E-04 -3.610885E-04 +7.209239E-03 
 +4.210516E-05 -2.484830E-04 -1.002845E-05 -2.484830E-04 +2.636352E-04 -3.744308E-04 -1.002845E-05 -3.744308E-04 +7.240830E-03 
 +4.203612E-05 +2.134724E-04 -1.941907E-04 +2.134724E-04 +2.599568E-04 -3.615267E-04 -1.941907E-04 -3.615267E-04 +6.949785E-03 
 -2.914869E-05 +3.607199E-04 +2.441333E-04 +3.607199E-04 -1.452031E-06 -9.356141E-04 +2.441333E-04 -9.356141E-04 +7.400895E-03 
 +1.530258E-04 +4.100802E-04 +9.635347E-05 +4.100802E-04 -2.668875E-04 -2.825168E-04 +9.635347E-05 -2.825168E-04 +7.821776E-03 
 +2.925625E-04 +1.416364E-04 +3.892256E-04 +1.416364E-04 -4.848552E-04 -1.013115E-04 +3.892256E-04 -1.013115E-04 +7.670606E-03 
 +8.978514E-05 +8.495399E-05 -2.034779E-04 +8.495399E-05 +1.307874E-04 -9.733801E-05 -2.034779E-04 -9.733801E-05 +7.166616E-03 
 -2.410699E-04 -1.440056E-04 -4.907582E-04 -1.440056E-04 -5.280827E-05 +1.680737E-04 -4.907582E-04 +1.680737E-04 +7.346891E-03 
 +4.731845E-04 +9.331799E-05 +6.787466E-04 +9.331799E-05 +2.294227E-04 -4.660480E-04 +6.787466E-04 -4.660480E-04 +6.888492E-03 
 +2.240925E-04 +2.886058E-04 +1.955155E-04 +2.886058E-04 +2.150023E-04 +6.404585E-04 +1.955155E-04 +6.404585E-04 +7.035488E-03 
 -3.523869E-04 +6.221110E-04 -3.462386E-04 +6.221110E-04 -2.857387E-04 -3.484187E-04 -3.462386E-04 -3.484187E-04 +7.997938E-03 
 +1.639090E-04 +5.303283E-04 -2.978162E-04 +5.303283E-04 -5.120729E-04 +2.906497E-04 -2.978162E-04 +2.906497E-04 +7.669619E-03 
 +2.060357E-04 -6.706314E-04 -4.549507E-04 -6.706314E-04 +2.242046E-04 +1.560563E-04 -4.549507E-04 +1.560563E-04 +6.871548E-03 
 +2.723470E-04 -6.918345E-04 +5.516439E-05 -6.918345E-04 +3.558572E-04 -4.229553E-04 +5.516439E-05 -4.229553E-04 +6.952677E-03 
 -2.013170E-04 -2.762235E-04 +3.461673E-04 -2.762235E-04 +5.901867E-06 +8.170394E-05 +3.461673E-04 +8.170394E-05 +7.523387E-03 
 -4.387487E-04 -5.511583E-04 -7.287624E-06 -5.511583E-04 +1.997029E-04 -1.181903E-04 -7.287624E-06 -1.181903E-04 +7.667984E-03 
 -4.744442E-05 +1.072491E-04 +5.187697E-04 +1.072491E-04 +1.843970E-04 -8.227092E-04 +5.187697E-04 -8.227092E-04 +7.586681E-03 
 -3.341434E-04 +4.670812E-04 -8.149812E-05 +4.670812E-04 -1.739364E-04 +3.634204E-04 -8.149812E-05 +3.634204E-04 +7.885423E-03 
 -6.074908E-05 +9.936377E-04 -9.603795E-05 +9.936377E-04 -3.994657E-04 +2.949529E-04 -9.603795E-05 +2.949529E-04 +7.998768E-03 
 -1.753634E-04 -1.618122E-04 -8.734084E-05 -1.618122E-04 +2.389797E-04 +5.365150E-04 -8.734084E-05 +5.365150E-04 +7.434586E-03 
 -7.163823E-05 -6.570953E-04 -5.154127E-04 -6.570953E-04 -6.972897E-06 +1.930626E-05 -5.154127E-04 +1.930626E-05 +7.675937E-03 
 +1.120997E-04 -5.400039E-05 -1.233863E-04 -5.400039E-05 -2.566232E-04 +7.746902E-04 -1.233863E-04 +7.746902E-04 +7.584884E-03 
 +9.340281E-06 +5.494601E-04 +3.999326E-04 +5.494601E-04 -1.422560E-05 -1.312637E-04 +3.999326E-04 -1.312637E-04 +7.764538E-03 
 +9.896668E-05 +4.458136E-04 -5.696098E-05 +4.458136E-04 -5.384614E-05 -1.749201E-04 -5.696098E-05 -1.749201E-04 +7.818406E-03 
 +1.392643E-04 +1.083080E-03 +1.765066E-04 +1.083080E-03 -3.339388E-05 +1.403838E-04 +1.765066E-04 +1.403838E-04 +7.598274E-03 
 -1.580879E-04 -8.477665E-04 -2.259929E-05 -8.477665E-04 -2.138586E-05 -3.843029E-05 -2.259929E-05 -3.843029E-05 +7.859908E-03 
 +5.212201E-05 +1.195481E-03 -5.286178E-04 +1.195481E-03 +8.577312E-05 -2.228112E-04 -5.286178E-04 -2.228112E-04 +7.493943E-03 
 +6.205652E-05 -1.324379E-03 +3.784357E-04 -1.324379E-03 -6.432978E-05 +3.008019E-04 +3.784357E-04 +3.008019E-04 +7.806535E-03 
 -3.859298E-04 -1.149458E-04 +2.354070E-05 -1.149458E-04 -5.168504E-06 +5.576595E-04 +2.354070E-05 +5.576595E-04 +7.835183E-03 
 -9.253406E-05 +9.310895E-05 -3.660768E-04 +9.310895E-05 -2.501409E-05 +3.252718E-04 -3.660768E-04 +3.252718E-04 +7.786732E-03 
 -3.076277E-04 +3.592247E-04 +3.288703E-04 +3.592247E-04 +7.903499E-05 -3.017711E-04 +3.288703E-04 -3.017711E-04 +7.437841E-03 
 -2.806959E-05 -5.484933E-05 +3.343274E-04 -5.484933E-05 +1.931499E-04 -5.864663E-05 +3.343274E-04 -5.864663E-05 +7.207341E-03 
 +1.217025E-04 +1.586751E-04 -3.184318E-04 +1.586751E-04 +1.068560E-04 -3.444080E-04 -3.184318E-04 -3.444080E-04 +7.303770E-03 
 +1.724753E-04 -4.928647E-04 -1.091717E-04 -4.928647E-04 -3.962309E-04 +6.970329E-05 -1.091717E-04 +6.970329E-05 +7.627249E-03 
 -2.114306E-06 +2.962578E-04 -5.102649E-04 +2.962578E-04 +1.698953E-04 -8.666999E-05 -5.102649E-04 -8.666999E-05 +7.219770E-03 
 -2.561556E-04 +3.939608E-04 -2.070124E-04 +3.939608E-04 -2.496968E-05 -1.870247E-04 -2.070124E-04 -1.870247E-04 +7.414628E-03 
 +1.113119E-04 -6.809072E-04 +6.186001E-04 -6.809072E-04 +6.953753E-05 -3.710758E-04 +6.186001E-04 -3.710758E-04 +7.550071E-03 
 -3.672832E-06 +1.703975E-03 +1.627094E-05 +1.703975E-03 -3.425842E-05 -3.648557E-04 +1.627094E-05 -3.648557E-04 +7.772233E-03 
 -6.625073E-04 +1.184644E-04 +2.375682E-04 +1.184644E-04 +3.120587E-04 -5.785202E-04 +2.375682E-04 -5.785202E-04 +7.922507E-03 
 -3.492873E-06 +6.090899E-04 -6.409229E-04 +6.090899E-04 -1.042828E-04 -8.205000E-04 -6.409229E-04 -8.205000E-04 +7.649680E-03 
 -1.837646E-04 -2.489180E-04 -7.754598E-04 -2.489180E-04 +1.067162E-04 +5.620531E-04 -7.754598E-04 +5.620531E-04 +7.775464E-03 
 -9.423751E-05 +9.053739E-04 +8.100853E-05 +9.053739E-04 -9.560488E-05 -5.639769E-04 +8.100853E-05 -5.639769E-04 +7.470260E-03 
 +2.447655E-04 -2.600248E-04 +1.051814E-04 -2.600248E-04 -1.803368E-04 -3.692185E-04 +1.051814E-04 -3.692185E-04 +7.920299E-03 
 +1.353541E-04 -3.566781E-04 -5.316605E-04 -3.566781E-04 -1.416895E-04 -7.023108E-04 -5.316605E-04 -7.023108E-04 +7.584774E-03 
 -9.274229E-05 +1.097776E-04 -7.578036E-05 +1.097776E-04 +4.939835E-05 +4.041455E-05 -7.578036E-05 +4.041455E-05 +7.342792E-03 
 -2.353062E-04 +7.575617E-04 -5.594141E-04 +7.575617E-04 +3.871965E-05 +6.366112E-04 -5.594141E-04 +6.366112E-04 +7.717579E-03 
 -6.961853E-05 +4.464256E-05 -2.461217E-05 +4.464256E-05 +6.040599E-05 +5.748596E-04 -2.461217E-05 +5.748596E-04 +7.154349E-03 
 -1.974042E-05 -1.173622E-04 +5.847565E-04 -1.173622E-04 +1.873356E-04 -1.980040E-04 +5.847565E-04 -1.980040E-04 +7.443198E-03 
 -7.043042E-06 +3.056341E-04 +3.461685E-05 +3.056341E-04 -1.238018E-05 +6.489786E-04 +3.461685E-05 +6.489786E-04 +7.473944E-03 
 +3.895521E-06 -4.536057E-04 +1.432786E-05 -4.536057E-04 +1.615472E-04 +1.029001E-04 +1.432786E-05 +1.029001E-04 +7.277821E-03 
 +4.280100E-04 +4.713271E-04 -2.379294E-04 +4.713271E-04 -5.026463E-04 +3.722968E-04 -2.379294E-04 +3.722968E-04 +7.703716E-03 
 -4.473754E-04 -3.067537E-04 -2.071167E-04 -3.067537E-04 +3.341620E-05 +2.096551E-04 -2.071167E-04 +2.096551E-04 +7.994736E-03 
 -4.468922E-05 -1.270238E-04 -5.143176E-04 -1.270238E-04 +1.962045E-04 +3.781696E-04 -5.143176E-04 +3.781696E-04 +7.638121E-03 
 -1.862440E-05 -2.885854E-04 -3.290700E-04 -2.885854E-04 -1.818400E-04 +3.155252E-04 -3.290700E-04 +3.155252E-04 +7.405041E-03 
 -1.676315E-04 +6.453701E-04 -1.410573E-04 +6.453701E-04 +1.715451E-04 -5.041051E-04 -1.410573E-04 -5.041051E-04 +7.729352E-03 
 -7.376137E-05 +1.425984E-03 -6.435657E-06 +1.425984E-03 -5.866486E-04 -6.833571E-05 -6.435657E-06 -6.833571E-05 +8.068707E-03 
 -2.588950E-04 +1.311070E-03 +4.647878E-04 +1.311070E-03 +1.739089E-04 +4.804852E-04 +4.647878E-04 +4.804852E-04 +7.495033E-03 
 +1.404067E-04 -9.097593E-05 +5.303632E-04 -9.097593E-05 +1.736646E-04 +1.765202E-04 +5.303632E-04 +1.765202E-04 +7.284478E-03 
 +2.317299E-04 +5.140160E-04 +4.211998E-04 +5.140160E-04 -1.768941E-04 +6.172258E-04 +4.211998E-04 +6.172258E-04 +7.393828E-03 
 +1.020447E-04 -5.412473E-04 +9.436511E-05 -5.412473E-04 +4.907438E-05 -5.410545E-05 +9.436511E-05 -5.410545E-05 +6.917799E-03 
 +2.757883E-04 -2.072091E-04 +2.384004E-04 -2.072091E-04 +1.681650E-04 -2.712075E-04 +2.384004E-04 -2.712075E-04 +6.910236E-03 
 +1.814485E-04 +1.102982E-04 +3.058990E-06 +1.102982E-04 +3.322647E-04 +1.375529E-04 +3.058990E-06 +1.375529E-04 +7.238179E-03 
 +2.379315E-04 -2.772516E-05 -1.265713E-04 -2.772516E-05 -6.330123E-04 -1.085681E-04 -1.265713E-04 -1.085681E-04 +7.816580E-03 
 -1.907473E-04 +1.739903E-04 +5.277766E-04 +1.739903E-04 +1.848664E-04 +2.683455E-04 +5.277766E-04 +2.683455E-04 +7.360236E-03 
 -1.284982E-04 +4.209501E-04 +3.052243E-04 +4.209501E-04 +2.671306E-04 -3.990077E-04 +3.052243E-04 -3.990077E-04 +7.401151E-03 
 -8.256725E-05 +9.697115E-04 -3.169428E-04 +9.697115E-04 -3.606847E-04 +5.269582E-04 -3.169428E-04 +5.269582E-04 +7.743187E-03 
 -4.050956E-04 +2.175238E-04 -1.281745E-04 +2.175238E-04 +6.209064E-04 -4.633501E-05 -1.281745E-04 -4.633501E-05 +7.188963E-03 
 +2.703073E-04 +9.432238E-05 -6.856056E-04 +9.432238E-05 -1.221719E-05 +4.772777E-04 -6.856056E-04 +4.772777E-04 +7.490224E-03 
 +3.904927E-04 -7.232756E-04 -8.516040E-04 -7.232756E-04 -4.058325E-04 -3.540190E-05 -8.516040E-04 -3.540190E-05 +7.581367E-03 
 -2.118094E-04 +1.108184E-03 -3.537566E-04 +1.108184E-03 +1.552230E-04 -6.674028E-04 -3.537566E-04 -6.674028E-04 +7.454100E-03 
 -8.813348E-05 -9.775747E-06 +4.471697E-05 -9.775747E-06 +5.124809E-05 -3.808901E-04 +4.471697E-05 -3.808901E-04 +7.677898E-03 
 +2.333929E-04 +3.164434E-05 -4.842253E-04 +3.164434E-05 -1.998406E-04 +1.019321E-04 -4.842253E-04 +1.019321E-04 +7.137781E-03 
 +5.890985E-05 -9.293155E-05 -3.911926E-04 -9.293155E-05 +2.292702E-04 +1.345512E-04 -3.911926E-04 +1.345512E-04 +7.018925E-03 
 +3.284760E-04 +3.069172E-05 +1.419989E-04 +3.069172E-05 -1.966219E-05 -8.204093E-05 +1.419989E-04 -8.204093E-05 +7.233430E-03 
 +2.434057E-04 -1.160021E-04 -1.147818E-04 -1.160021E-04 -6.220072E-04 -2.812333E-04 -1.147818E-04 -2.812333E-04 +7.998408E-03 
 +2.081809E-04 -4.508826E-04 +2.125637E-04 -4.508826E-04 +2.944708E-04 -6.112579E-04 +2.125637E-04 -6.112579E-04 +7.593465E-03 
 -6.828062E-06 +2.407268E-04 +7.741726E-04 +2.407268E-04 -5.810736E-05 -2.109499E-04 +7.741726E-04 -2.109499E-04 +7.458014E-03 
 -5.863364E-04 -8.127269E-04 +4.574543E-05 -8.127269E-04 -7.008005E-06 +4.134081E-05 +4.574543E-05 +4.134081E-05 +7.709858E-03 
 -5.405804E-04 +9.754510E-04 +1.446270E-04 +9.754510E-04 -1.628550E-05 +2.025037E-04 +1.446270E-04 +2.025037E-04 +7.760059E-03 
 -4.872824E-04 -3.025036E-04 +4.600780E-04 -3.025036E-04 +3.474035E-04 +2.473003E-04 +4.600780E-04 +2.473003E-04 +7.766849E-03 
 +6.952274E-05 -4.869672E-04 -2.046336E-04 -4.869672E-04 +1.560932E-05 +1.266298E-04 -2.046336E-04 +1.266298E-04 +7.878210E-03 
 +2.738032E-04 +4.423241E-05 +6.438653E-05 +4.423241E-05 -5.936019E-04 +1.693792E-04 +6.438653E-05 +1.693792E-04 +7.762702E-03 
 +7.984724E-05 -5.436274E-04 +2.342063E-04 -5.436274E-04 +3.960822E-04 +4.562608E-05 +2.342063E-04 +4.562608E-05 +7.357327E-03 
 +7.252186E-04 -4.615288E-04 -1.435527E-04 -4.615288E-04 +1.508129E-05 +5.930886E-04 -1.435527E-04 +5.930886E-04 +7.220345E-03 
 +6.052190E-05 -6.305490E-05 -9.493743E-05 -6.305490E-05 -5.486121E-06 -1.822527E-04 -9.493743E-05 -1.822527E-04 +7.447754E-03 
 -4.928872E-04 +8.935713E-04 -8.754231E-05 +8.935713E-04 +1.788460E-04 -8.247483E-05 -8.754231E-05 -8.247483E-05 +7.350762E-03 
 -2.218512E-04 +7.696269E-05 -8.119488E-05 +7.696269E-05 -1.862612E-05 +2.622116E-04 -8.119488E-05 +2.622116E-04 +7.388172E-03 
 +2.208383E-04 +4.064253E-05 -6.212093E-04 +4.064253E-05 +7.060367E-05 -1.975932E-04 -6.212093E-04 -1.975932E-04 +7.273699E-03 
 +5.248651E-04 -6.269088E-04 +3.549796E-04 -6.269088E-04 -1.057271E-04 -1.562314E-04 +3.549796E-04 -1.562314E-04 +6.966659E-03 
 +2.327233E-04 +2.259973E-04 +4.080358E-04 +2.259973E-04 +4.818843E-05 +1.399065E-05 +4.080358E-04 +1.399065E-05 +7.400797E-03 
 +3.244393E-04 -1.005292E-05 +1.259604E-04 -1.005292E-05 -5.074383E-04 +2.901139E-04 +1.259604E-04 +2.901139E-04 +7.659290E-03 
 +1.310627E-04 -6.336332E-04 +1.215628E-04 -6.336332E-04 +5.945371E-04 +3.427293E-05 +1.215628E-04 +3.427293E-05 +7.120611E-03 
 -1.760496E-05 +6.147649E-04 -4.794102E-04 +6.147649E-04 -3.315702E-04 -6.007414E-05 -4.794102E-04 -6.007414E-05 +7.372224E-03 
 +1.863063E-04 +6.894761E-04 -2.437148E-04 +6.894761E-04 +3.075851E-04 -1.228723E-04 -2.437148E-04 -1.228723E-04 +6.985068E-03 
 -1.236579E-05 -7.878437E-05 -1.388834E-04 -7.878437E-05 -2.752905E-06 +2.907349E-04 -1.388834E-04 +2.907349E-04 +7.360820E-03 
 +4.944283E-04 +4.207331E-04 -3.753659E-05 +4.207331E-04 +1.297299E-04 -1.636495E-04 -3.753659E-05 -1.636495E-04 +6.969689E-03 
 +3.474155E-04 -1.730474E-04 -4.574941E-04 -1.730474E-04 -2.550345E-04 +3.179917E-05 -4.574941E-04 +3.179917E-05 +7.359331E-03 
 -1.201993E-04 +6.503989E-05 -5.797796E-04 +6.503989E-05 +2.818454E-04 -4.600216E-04 -5.797796E-04 -4.600216E-04 +7.623537E-03 
 -7.491386E-04 -4.761157E-04 +9.677254E-05 -4.761157E-04 +3.184433E-04 +1.320877E-04 +9.677254E-05 +1.320877E-04 +7.687106E-03 
 -1.529626E-04 +1.226340E-03 -1.059485E-04 +1.226340E-03 -2.695846E-04 +3.439981E-04 -1.059485E-04 +3.439981E-04 +7.589720E-03 
 -6.955564E-05 -2.475702E-04 -4.554973E-05 -2.475702E-04 +3.058384E-04 -2.941111E-04 -4.554973E-05 -2.941111E-04 +6.884142E-03 
 +2.040979E-04 +7.219690E-05 +3.705397E-04 +7.219690E-05 +1.314758E-05 -5.425083E-04 +3.705397E-04 -5.425083E-04 +7.063833E-03 
 +3.678640E-04 -1.872694E-04 +4.138358E-04 -1.872694E-04 -4.025722E-04 -2.637904E-04 +4.138358E-04 -2.637904E-04 +7.698648E-03 
 -2.339026E-04 -2.323579E-04 -1.156934E-04 -2.323579E-04 +3.890445E-05 +2.724104E-05 -1.156934E-04 +2.724104E-05 +7.441703E-03 
 +3.268429E-05 +3.603599E-04 -1.524018E-04 +3.603599E-04 +1.775533E-04 +2.005703E-04 -1.524018E-04 +2.005703E-04 +7.074136E-03 
 +2.128658E-04 -2.499990E-04 -1.885294E-04 -2.499990E-04 +3.147855E-04 -6.016959E-04 -1.885294E-04 -6.016959E-04 +7.134676E-03 
 -2.049310E-04 -1.584590E-04 -1.540391E-04 -1.584590E-04 -9.142226E-05 +6.458079E-04 -1.540391E-04 +6.458079E-04 +7.728451E-03 
 -9.225585E-04 +9.719107E-05 +4.225778E-06 +9.719107E-05 +4.485730E-04 +3.206229E-05 +4.225778E-06 +3.206229E-05 +7.853866E-03 
 +9.919346E-05 -2.370409E-05 +4.192776E-04 -2.370409E-05 -4.574238E-04 -1.637476E-04 +4.192776E-04 -1.637476E-04 +7.926609E-03 
 +4.363854E-04 +2.860105E-04 -1.116983E-04 +2.860105E-04 -3.685354E-04 +3.048437E-04 -1.116983E-04 +3.048437E-04 +7.849873E-03 
 -6.084669E-06 +4.286893E-04 -8.097590E-04 +4.286893E-04 +2.447033E-04 -2.745700E-04 -8.097590E-04 -2.745700E-04 +6.951820E-03 
 +2.543245E-04 +4.508350E-04 -3.101327E-05 +4.508350E-04 +3.127345E-04 +2.851082E-04 -3.101327E-05 +2.851082E-04 +6.950316E-03 
 +3.643417E-04 -9.538586E-04 +3.899253E-04 -9.538586E-04 -3.668101E-04 +3.857463E-04 +3.899253E-04 +3.857463E-04 +7.993612E-03 
 +1.369406E-04 +1.469475E-03 +7.422634E-05 +1.469475E-03 -1.223447E-04 -5.241070E-04 +7.422634E-05 -5.241070E-04 +7.829833E-03 
 -3.232691E-04 +1.298249E-03 +3.532262E-04 +1.298249E-03 +5.383978E-05 -7.463398E-04 +3.532262E-04 -7.463398E-04 +8.030675E-03 
 +3.261145E-04 +1.317721E-06 +7.872113E-05 +1.317721E-06 -3.055624E-04 -7.474818E-05 +7.872113E-05 -7.474818E-05 +7.650167E-03 
 +3.452224E-04 -3.018196E-04 +5.118747E-04 -3.018196E-04 +1.999452E-04 +3.777763E-04 +5.118747E-04 +3.777763E-04 +7.181349E-03 
 -3.438042E-04 +2.722056E-04 -1.690730E-04 +2.722056E-04 +1.874316E-04 +6.180821E-04 -1.690730E-04 +6.180821E-04 +7.535958E-03 
 -5.209624E-04 +9.944228E-04 -2.791546E-04 +9.944228E-04 +2.022492E-06 +1.041961E-03 -2.791546E-04 +1.041961E-03 +7.782132E-03 
 -4.269690E-04 -9.699467E-04 +3.084531E-04 -9.699467E-04 +8.099441E-05 +2.674736E-04 +3.084531E-04 +2.674736E-04 +7.851174E-03 
 -1.953870E-04 +5.729880E-04 +1.115169E-04 +5.729880E-04 +4.047035E-04 -1.844137E-04 +1.115169E-04 -1.844137E-04 +7.621356E-03 
 -1.611579E-04 +7.659303E-04 -4.743826E-06 +7.659303E-04 -5.202022E-04 +1.598886E-04 -4.743826E-06 +1.598886E-04 +7.828554E-03 
 +1.674602E-05 -8.488380E-04 +4.463011E-04 -8.488380E-04 -2.245180E-04 +4.494323E-04 +4.463011E-04 +4.494323E-04 +7.746165E-03 
 +2.981944E-04 -3.909282E-04 +2.357632E-04 -3.909282E-04 +4.724923E-06 -6.180544E-04 +2.357632E-04 -6.180544E-04 +7.317753E-03 
 -2.344170E-04 +1.822281E-04 -1.048662E-04 +1.822281E-04 +8.215461E-05 -3.582730E-04 -1.048662E-04 -3.582730E-04 +7.637131E-03 
 -5.040253E-05 -5.773429E-05 -3.325882E-04 -5.773429E-05 -1.318783E-05 -1.076464E-04 -3.325882E-04 -1.076464E-04 +7.332137E-03 
 +1.247250E-04 -8.960859E-05 -7.920885E-05 -8.960859E-05 +4.963055E-04 +4.355300E-04 -7.920885E-05 +4.355300E-04 +7.272474E-03 
 +1.975534E-04 -8.807041E-04 -7.838728E-05 -8.807041E-04 -1.751108E-04 -1.284781E-04 -7.838728E-05 -1.284781E-04 +7.570477E-03 
 -1.155506E-04 +4.921025E-04 +3.774587E-04 +4.921025E-04 +3.897372E-04 -7.482773E-04 +3.774587E-04 -7.482773E-04 +7.334630E-03 
 +3.798975E-04 +5.033696E-04 +6.395833E-04 +5.033696E-04 -3.784652E-04 -2.589636E-04 +6.395833E-04 -2.589636E-04 +7.600016E-03 
 -1.420008E-04 +4.729800E-04 +2.029566E-04 +4.729800E-04 -6.938423E-05 -3.883895E-04 +2.029566E-04 -3.883895E-04 +7.886513E-03 
 -2.799322E-04 +4.017136E-04 +2.410218E-04 +4.017136E-04 +1.181683E-05 +8.302211E-05 +2.410218E-04 +8.302211E-05 +7.903255E-03 
 -1.146006E-04 +1.230157E-03 -2.066761E-04 +1.230157E-03 +1.451098E-04 +2.517487E-04 -2.066761E-04 +2.517487E-04 +7.782511E-03 
 -1.211759E-04 -1.676766E-04 -9.035112E-04 -1.676766E-04 -7.473816E-05 -2.815967E-05 -9.035112E-04 -2.815967E-05 +7.390604E-03 
 -8.574077E-05 +4.769918E-04 -2.265659E-04 +4.769918E-04 -8.513562E-05 +3.524735E-04 -2.265659E-04 +3.524735E-04 +7.725127E-03 
 -2.325080E-04 -6.325690E-05 -6.708698E-04 -6.325690E-05 +2.188836E-05 +5.592018E-04 -6.708698E-04 +5.592018E-04 +7.578174E-03 
 +5.465658E-04 +4.517201E-04 -7.051256E-04 +4.517201E-04 -4.858596E-04 +3.828534E-04 -7.051256E-04 +3.828534E-04 +7.115933E-03 
 +1.194857E-04 +3.329177E-04 -6.223923E-04 +3.329177E-04 -3.848764E-05 -4.122530E-06 -6.223923E-04 -4.122530E-06 +7.776531E-03 
 -2.119617E-04 +1.503143E-04 +4.730358E-04 +1.503143E-04 +2.995184E-04 +5.140651E-04 +4.730358E-04 +5.140651E-04 +7.247666E-03 
 -3.201717E-04 +3.008306E-04 +1.799702E-04 +3.008306E-04 +1.543725E-04 -3.706776E-04 +1.799702E-04 -3.706776E-04 +7.527319E-03 
 +3.751392E-04 -6.082196E-04 -4.542803E-04 -6.082196E-04 +4.297792E-05 +3.014367E-04 -4.542803E-04 +3.014367E-04 +7.317006E-03 
 -1.583525E-04 -5.670085E-04 -5.113200E-04 -5.670085E-04 +2.983734E-04 -4.796254E-05 -5.113200E-04 -4.796254E-05 +7.334401E-03 
 -2.326809E-04 +1.060964E-03 -6.691779E-04 +1.060964E-03 -6.141824E-04 -1.940628E-04 -6.691779E-04 -1.940628E-04 +7.645355E-03 
 +2.491474E-04 -1.445063E-04 -1.199493E-04 -1.445063E-04 +1.500324E-05 +1.726488E-04 -1.199493E-04 +1.726488E-04 +7.597934E-03 
 +2.506449E-04 -4.189546E-04 +2.126387E-04 -4.189546E-04 -3.293067E-04 +5.241630E-04 +2.126387E-04 +5.241630E-04 +7.531397E-03 
 -2.590374E-04 -2.204655E-04 -2.443973E-04 -2.204655E-04 +4.310405E-04 +3.817442E-04 -2.443973E-04 +3.817442E-04 +7.200972E-03 
 -2.244053E-04 +3.080867E-04 +1.551860E-04 +3.080867E-04 -1.501184E-04 +1.297590E-04 +1.551860E-04 +1.297590E-04 +7.448097E-03 
 +4.765207E-04 +4.443343E-04 +8.671532E-05 +4.443343E-04 -2.505704E-05 +1.569039E-04 +8.671532E-05 +1.569039E-04 +7.469480E-03 
 +5.810115E-04 -1.545881E-04 +5.025712E-05 -1.545881E-04 +2.167435E-04 +2.237341E-04 +5.025712E-05 +2.237341E-04 +6.767068E-03 
 +4.881375E-04 +2.540687E-05 +2.043603E-04 +2.540687E-05 -6.681530E-05 +3.163099E-05 +2.043603E-04 +3.163099E-05 +6.991732E-03 
 +5.106552E-04 +3.305506E-05 +3.639509E-04 +3.305506E-05 -2.198763E-04 +2.494697E-04 +3.639509E-04 +2.494697E-04 +7.343211E-03 
 +1.196134E-04 +3.377456E-05 +4.712874E-04 +3.377456E-05 +4.289427E-04 -1.199047E-04 +4.712874E-04 -1.199047E-04 +7.416170E-03 
 -1.455678E-04 +1.080539E-04 +1.657368E-04 +1.080539E-04 -8.767653E-05 -4.149649E-04 +1.657368E-04 -4.149649E-04 +7.683814E-03 
 +1.351917E-04 +1.435406E-04 -4.948105E-04 +1.435406E-04 -3.850527E-04 +4.517184E-04 -4.948105E-04 +4.517184E-04 +7.816276E-03 
 +1.661269E-04 +2.037105E-04 +3.772749E-05 +2.037105E-04 +4.560258E-04 -1.829691E-04 +3.772749E-05 -1.829691E-04 +7.370464E-03 
 +2.752875E-04 +5.556712E-04 +1.066664E-04 +5.556712E-04 +1.983549E-04 +4.165344E-04 +1.066664E-04 +4.165344E-04 +7.091173E-03 
 +7.445180E-05 -1.558981E-04 +2.772191E-04 -1.558981E-04 +1.699621E-04 -2.805841E-04 +2.772191E-04 -2.805841E-04 +7.532793E-03 
 -1.057507E-04 +7.551865E-04 -1.522768E-05 +7.551865E-04 -7.949209E-04 +1.485141E-04 -1.522768E-05 +1.485141E-04 +7.992860E-03 
 -2.983807E-04 +7.725985E-04 -8.072196E-04 +7.725985E-04 +2.110058E-04 -6.731089E-04 -8.072196E-04 -6.731089E-04 +7.552919E-03 
 +1.415090E-04 -2.190824E-04 +7.334357E-05 -2.190824E-04 -2.739233E-04 +8.702812E-04 +7.334357E-05 +8.702812E-04 +7.428841E-03 
 +2.567100E-04 +1.119523E-04 +6.030529E-04 +1.119523E-04 +4.057635E-04 +2.138249E-04 +6.030529E-04 +2.138249E-04 +6.801335E-03 
 +2.886648E-04 +5.276022E-04 -9.966077E-06 +5.276022E-04 +2.122044E-04 -2.147303E-04 -9.966077E-06 -2.147303E-04 +6.875190E-03 
 +1.364049E-04 -6.459398E-04 +2.003604E-04 -6.459398E-04 +4.513395E-05 +2.554621E-04 +2.003604E-04 +2.554621E-04 +7.692657E-03 
 +1.564929E-04 -5.579070E-04 +7.213591E-05 -5.579070E-04 -5.636306E-04 -1.006540E-04 +7.213591E-05 -1.006540E-04 +7.648671E-03 
 +4.545991E-04 +3.646871E-05 -4.926192E-04 +3.646871E-05 +6.472375E-06 -4.732555E-04 -4.926192E-04 -4.732555E-04 +7.355704E-03 
 +1.932873E-04 -5.973809E-04 -8.775698E-05 -5.973809E-04 +9.854441E-05 -5.809143E-04 -8.775698E-05 -5.809143E-04 +7.332929E-03 
 -2.111610E-04 -1.012337E-03 -2.202567E-04 -1.012337E-03 +3.138969E-04 +2.514203E-04 -2.202567E-04 +2.514203E-04 +7.812240E-03 
 -2.821941E-04 +9.533348E-04 +1.210108E-04 +9.533348E-04 -3.982176E-04 -1.053851E-05 +1.210108E-04 -1.053851E-05 +8.100626E-03 
 -1.699684E-04 +7.808202E-04 +2.883776E-04 +7.808202E-04 -1.013797E-04 -1.771956E-04 +2.883776E-04 -1.771956E-04 +7.615126E-03 
 -9.414848E-05 +3.566987E-04 -5.828763E-04 +3.566987E-04 +2.245310E-04 -4.401050E-04 -5.828763E-04 -4.401050E-04 +7.414409E-03 
 +2.100703E-04 -2.359175E-04 -1.972500E-04 -2.359175E-04 -2.400991E-04 +1.339667E-04 -1.972500E-04 +1.339667E-04 +7.429093E-03 
 +1.862305E-04 -3.640640E-04 +3.949397E-04 -3.640640E-04 +1.943374E-04 +2.494171E-04 +3.949397E-04 +2.494171E-04 +7.071047E-03 
 +4.672798E-04 -5.847791E-05 +8.514792E-05 -5.847791E-05 +2.459713E-04 +4.526192E-04 +8.514792E-05 +4.526192E-04 +7.093928E-03 
 +2.823849E-04 +4.205520E-04 -3.416996E-04 +4.205520E-04 -1.936600E-04 -1.714051E-04 -3.416996E-04 -1.714051E-04 +7.349769E-03 
 +2.523987E-04 -1.866056E-04 -2.032092E-04 -1.866056E-04 +1.479462E-05 +6.095761E-04 -2.032092E-04 +6.095761E-04 +7.295280E-03 
 +4.659754E-04 +8.923414E-05 -1.401828E-04 +8.923414E-05 +6.203805E-05 -3.785545E-04 -1.401828E-04 -3.785545E-04 +7.644269E-03 
 -1.979695E-04 +5.459954E-04 -4.006138E-04 +5.459954E-04 -3.313649E-05 -1.613889E-04 -4.006138E-04 -1.613889E-04 +7.497197E-03 
 -3.425815E-05 +4.372453E-05 +1.343496E-04 +4.372453E-05 +3.742104E-04 -6.491955E-04 +1.343496E-04 -6.491955E-04 +7.431160E-03 
 +2.692871E-04 -2.748012E-04 -2.849599E-04 -2.748012E-04 -6.053780E-04 +8.864532E-05 -2.849599E-04 +8.864532E-05 +7.770101E-03 
 -2.304595E-04 -1.172060E-04 +7.046142E-04 -1.172060E-04 +3.232798E-04 -9.593684E-05 +7.046142E-04 -9.593684E-05 +7.694501E-03 
 -2.718122E-04 -2.746254E-04 +3.723455E-04 -2.746254E-04 -6.704230E-05 +5.474536E-04 +3.723455E-04 +5.474536E-04 +7.669767E-03 
 -2.463172E-04 +4.928732E-04 -1.805744E-04 +4.928732E-04 -9.481607E-05 +6.847718E-05 -1.805744E-04 +6.847718E-05 +7.703711E-03 
 -2.920095E-04 -1.235708E-03 -4.004245E-05 -1.235708E-03 +1.638505E-04 +3.243104E-04 -4.004245E-05 +3.243104E-04 +7.757717E-03 
 +2.530596E-04 -1.216997E-04 +2.635833E-04 -1.216997E-04 -2.933125E-04 +2.009851E-04 +2.635833E-04 +2.009851E-04 +7.180627E-03 
 +4.469059E-05 +3.588539E-04 -1.365139E-04 +3.588539E-04 -2.053320E-04 -7.602820E-04 -1.365139E-04 -7.602820E-04 +7.523744E-03 
 -3.587231E-04 -4.920251E-04 -6.196550E-05 -4.920251E-04 +1.071810E-04 +3.885280E-04 -6.196550E-05 +3.885280E-04 +8.052104E-03 
 -6.390673E-05 -7.429719E-04 +2.137850E-04 -7.429719E-04 +9.390684E-05 -3.305400E-04 +2.137850E-04 -3.305400E-04 +7.676852E-03 
 -2.192290E-04 +1.529600E-04 +1.068508E-04 +1.529600E-04 +1.955139E-05 +2.290964E-04 +1.068508E-04 +2.290964E-04 +7.126847E-03 
 +3.362179E-04 -4.675701E-05 +1.945590E-04 -4.675701E-05 -5.080481E-05 -4.221466E-04 +1.945590E-04 -4.221466E-04 +6.877412E-03 
 -2.773674E-04 +3.002511E-04 -3.632830E-04 +3.002511E-04 -4.302506E-05 +3.034044E-04 -3.632830E-04 +3.034044E-04 +7.555536E-03 
 -6.519478E-04 -6.052917E-04 +3.201145E-04 -6.052917E-04 -1.290695E-04 -1.800450E-04 +3.201145E-04 -1.800450E-04 +8.030843E-03 
 -6.037992E-05 -5.657822E-04 -3.690385E-04 -5.657822E-04 +1.137490E-04 +2.914740E-04 -3.690385E-04 +2.914740E-04 +7.322938E-03 
 +2.417769E-04 -3.183382E-04 -8.231947E-04 -3.183382E-04 +1.828478E-05 -2.146210E-04 -8.231947E-04 -2.146210E-04 +7.070360E-03 
 -5.456714E-05 -3.487639E-04 -2.349102E-04 -3.487639E-04 +1.061446E-04 +4.666034E-04 -2.349102E-04 +4.666034E-04 +7.271714E-03 
 -3.926151E-04 +2.937635E-04 -2.288735E-04 +2.937635E-04 +7.412160E-06 -3.102039E-04 -2.288735E-04 -3.102039E-04 +7.576542E-03 
 +3.104364E-04 +7.021880E-05 -2.282229E-04 +7.021880E-05 -4.802461E-05 +5.523251E-05 -2.282229E-04 +5.523251E-05 +7.459477E-03 
 +2.813837E-04 -9.256676E-05 -4.051809E-04 -9.256676E-05 +2.256922E-04 -2.513073E-04 -4.051809E-04 -2.513073E-04 +7.001629E-03 
 -5.231930E-05 +1.212824E-03 +7.302001E-05 +1.212824E-03 +1.846129E-06 +9.820253E-04 +7.302001E-05 +9.820253E-04 +7.410881E-03 
 +3.216326E-04 -8.203718E-04 -1.664920E-04 -8.203718E-04 -3.954351E-04 +4.201981E-04 -1.664920E-04 +4.201981E-04 +7.587515E-03 
 +1.667897E-04 +3.261151E-04 -3.064907E-05 +3.261151E-04 +1.461126E-04 -1.892110E-04 -3.064907E-05 -1.892110E-04 +7.149583E-03 
 +7.826559E-05 +1.219603E-04 -2.522113E-04 +1.219603E-04 +2.205146E-04 +5.758158E-05 -2.522113E-04 +5.758158E-05 +7.008225E-03 
 +2.637433E-04 +8.846013E-04 +2.885065E-04 +8.846013E-04 -1.601206E-04 -3.966958E-04 +2.885065E-04 -3.966958E-04 +7.690134E-03 
 -4.509197E-04 -8.189629E-04 +5.315208E-05 -8.189629E-04 +1.501440E-05 -1.076512E-04 +5.315208E-05 -1.076512E-04 +7.910052E-03 
 -1.143952E-04 -4.971633E-04 -1.157376E-04 -4.971633E-04 +1.093424E-04 -3.212544E-04 -1.157376E-04 -3.212544E-04 +7.634469E-03 
 +1.277630E-04 -1.166080E-03 +7.648177E-05 -1.166080E-03 -6.838751E-04 +6.967274E-04 +7.648177E-05 +6.967274E-04 +8.096023E-03 
 +1.179777E-04 +7.702421E-04 -2.536825E-04 +7.702421E-04 +2.536688E-04 +1.484535E-05 -2.536825E-04 +1.484535E-05 +7.808001E-03 
 +1.307547E-04 -3.018735E-04 -1.904863E-05 -3.018735E-04 +5.001049E-04 +1.395608E-04 -1.904863E-05 +1.395608E-04 +7.126611E-03 
 +2.328805E-05 -2.281116E-04 +8.331841E-05 -2.281116E-04 -9.099353E-05 -2.968141E-04 +8.331841E-05 -2.968141E-04 +7.645591E-03 
 -4.707069E-05 +6.787172E-04 -2.036462E-04 +6.787172E-04 -3.134247E-04 +5.167330E-04 -2.036462E-04 +5.167330E-04 +7.768791E-03 
 +9.636232E-05 -7.847386E-04 +7.567568E-05 -7.847386E-04 -2.297078E-05 +3.562252E-05 +7.567568E-05 +3.562252E-05 +7.819284E-03 
 +3.038133E-04 -5.144119E-04 -3.427769E-04 -5.144119E-04 -1.732622E-04 -1.873583E-04 -3.427769E-04 -1.873583E-04 +7.379683E-03 
 +2.386476E-04 -1.536217E-04 -4.638707E-04 -1.536217E-04 +1.512790E-04 -5.653615E-04 -4.638707E-04 -5.653615E-04 +6.952342E-03 
 +1.007013E-04 -3.342954E-04 +3.544628E-04 -3.342954E-04 +1.383064E-04 -2.455064E-04 +3.544628E-04 -2.455064E-04 +7.557793E-03 
 +1.788568E-04 -7.120812E-04 +1.335964E-04 -7.120812E-04 -4.556794E-04 +1.276092E-04 +1.335964E-04 +1.276092E-04 +7.950186E-03 
 -4.860908E-04 -7.286344E-04 +8.051633E-05 -7.286344E-04 +1.947175E-04 +2.806545E-04 +8.051633E-05 +2.806545E-04 +7.960370E-03 
 -5.850091E-04 -1.588287E-04 -1.229013E-04 -1.588287E-04 +3.348191E-04 +3.085159E-04 -1.229013E-04 +3.085159E-04 +7.846859E-03 
 +1.179190E-04 +3.069617E-04 -8.482508E-04 +3.069617E-04 -2.108817E-04 -4.119310E-04 -8.482508E-04 -4.119310E-04 +7.658613E-03 
 -5.495833E-05 +4.521445E-04 +8.239545E-05 +4.521445E-04 +3.668196E-04 -2.591256E-04 +8.239545E-05 -2.591256E-04 +7.484033E-03 
 +1.552289E-05 +1.909042E-04 -1.859889E-04 +1.909042E-04 +4.626913E-05 +1.089390E-04 -1.859889E-04 +1.089390E-04 +7.499245E-03 
 +4.235229E-04 +4.467533E-04 +1.578181E-04 +4.467533E-04 -3.116753E-04 -2.574690E-04 +1.578181E-04 -2.574690E-04 +7.323767E-03 
 +1.615013E-04 -2.879242E-04 +6.793177E-04 -2.879242E-04 +9.302705E-05 +5.127353E-04 +6.793177E-04 +5.127353E-04 +7.215614E-03 
 +1.462078E-04 -5.408963E-05 +4.640454E-04 -5.408963E-05 +1.484017E-04 -4.528019E-04 +4.640454E-04 -4.528019E-04 +7.433158E-03 
 -1.171730E-04 -3.357632E-04 -3.196587E-04 -3.357632E-04 -4.202996E-04 -2.506461E-04 -3.196587E-04 -2.506461E-04 +7.416499E-03 
 +1.977556E-04 -5.944110E-04 +2.435532E-04 -5.944110E-04 -7.560814E-05 +3.484717E-05 +2.435532E-04 +3.484717E-05 +7.438699E-03 
 -2.050800E-04 +9.964871E-04 +2.189407E-04 +9.964871E-04 -5.440002E-05 +4.648167E-05 +2.189407E-04 +4.648167E-05 +7.686648E-03 
 +1.493338E-04 -1.949466E-04 +7.081174E-05 -1.949466E-04 +1.865782E-04 +4.814907E-04 +7.081174E-05 +4.814907E-04 +7.210853E-03 
 -5.306209E-05 +2.006751E-04 +3.915116E-04 +2.006751E-04 +3.164460E-04 +5.774230E-04 +3.915116E-04 +5.774230E-04 +7.198837E-03 
 -1.067395E-04 +4.033413E-04 +6.587938E-04 +4.033413E-04 +3.033150E-05 +5.127459E-04 +6.587938E-04 +5.127459E-04 +7.627072E-03 
 -1.397960E-04 -4.891633E-04 +1.127071E-04 -4.891633E-04 -4.373665E-04 -2.200060E-04 +1.127071E-04 -2.200060E-04 +7.649685E-03 
 -3.382957E-04 +2.722988E-04 -6.053454E-04 +2.722988E-04 +2.380843E-05 -5.723853E-04 -6.053454E-04 -5.723853E-04 +7.536798E-03 
 -2.058372E-04 +2.448876E-04 +4.276414E-05 +2.448876E-04 -2.674706E-04 -1.038050E-04 +4.276414E-05 -1.038050E-04 +7.952045E-03 
 -5.812319E-04 -3.650991E-04 -1.249088E-04 -3.650991E-04 +4.856529E-04 +2.811565E-04 -1.249088E-04 +2.811565E-04 +7.824029E-03 
 -2.975518E-04 +4.592790E-04 +8.128943E-07 +4.592790E-04 +4.116806E-05 -2.759917E-06 +8.128943E-07 -2.759917E-06 +7.742878E-03 
 +2.988764E-05 +9.262168E-06 +5.673284E-04 +9.262168E-06 -4.907089E-04 -9.559627E-05 +5.673284E-04 -9.559627E-05 +8.052991E-03 
 +1.119763E-04 -1.140632E-04 +1.063622E-04 -1.140632E-04 +4.095934E-07 +6.433523E-04 +1.063622E-04 +6.433523E-04 +7.932804E-03 
 -4.712697E-05 +9.330663E-04 +3.542960E-04 +9.330663E-04 -1.058638E-04 +5.563339E-04 +3.542960E-04 +5.563339E-04 +7.595697E-03 
 -2.465845E-04 +1.984340E-04 +2.108136E-04 +1.984340E-04 +6.210356E-04 +1.322703E-04 +2.108136E-04 +1.322703E-04 +7.339112E-03 
 +1.245716E-04 -3.873439E-04 +2.485656E-04 -3.873439E-04 -6.226199E-05 -3.644871E-04 +2.485656E-04 -3.644871E-04 +7.289106E-03 
 +2.203384E-04 -5.392344E-04 +2.132003E-04 -5.392344E-04 -5.657841E-05 +4.827832E-04 +2.132003E-04 +4.827832E-04 +7.247145E-03 
 +2.728423E-04 +1.043197E-04 +4.010290E-04 +1.043197E-04 +6.692109E-06 -1.060831E-04 +4.010290E-04 -1.060831E-04 +7.393414E-03 
 +8.457383E-05 -6.653302E-07 -2.080921E-04 -6.653302E-07 -3.007918E-05 +5.374861E-05 -2.080921E-04 +5.374861E-05 +7.366352E-03 
 +5.450041E-05 -5.326459E-04 +1.203718E-04 -5.326459E-04 +1.401397E-04 -3.262250E-04 +1.203718E-04 -3.262250E-04 +7.249996E-03 
 -2.534790E-04 -4.194843E-05 +2.906099E-04 -4.194843E-05 -1.927244E-05 +9.563553E-05 +2.906099E-04 +9.563553E-05 +7.630013E-03 
 +1.826685E-05 -2.227359E-04 -1.011787E-05 -2.227359E-04 -2.890832E-04 +3.902587E-04 -1.011787E-05 +3.902587E-04 +7.610289E-03 
 +1.320775E-04 -8.265197E-04 -6.291178E-04 -8.265197E-04 -3.910994E-04 -5.408383E-04 -6.291178E-04 -5.408383E-04 +7.311271E-03 
 -2.541246E-04 +3.280611E-04 -4.770785E-04 +3.280611E-04 +5.966601E-04 -6.811772E-04 -4.770785E-04 -6.811772E-04 +6.880432E-03 
 +1.446342E-04 -2.335812E-04 -8.448499E-04 -2.335812E-04 +5.698806E-05 +8.775743E-05 -8.448499E-04 +8.775743E-05 +7.141204E-03 
 +7.860454E-05 +3.791230E-05 -4.468052E-04 +3.791230E-05 +1.316032E-04 -5.647880E-04 -4.468052E-04 -5.647880E-04 +7.560145E-03 
 +3.972556E-05 +2.026698E-04 +4.489983E-04 +2.026698E-04 -6.456168E-05 -7.392083E-05 +4.489983E-04 -7.392083E-05 +7.596349E-03 
 -3.083604E-04 -1.027550E-03 +2.138071E-04 -1.027550E-03 -1.595991E-04 +8.453320E-05 +2.138071E-04 +8.453320E-05 +7.765815E-03 
 -3.060869E-04 -3.948529E-04 +3.512515E-04 -3.948529E-04 -6.414521E-05 -2.713277E-04 +3.512515E-04 -2.713277E-04 +7.678441E-03 
 -6.714946E-05 -7.874998E-04 -2.437842E-04 -7.874998E-04 +1.669484E-04 +4.139926E-04 -2.437842E-04 +4.139926E-04 +7.199822E-03 
 -5.369664E-04 -9.404875E-04 -2.635920E-05 -9.404875E-04 +2.257176E-04 +1.093676E-04 -2.635920E-05 +1.093676E-04 +7.447458E-03 
 -1.942258E-05 -4.683418E-05 +2.089073E-04 -4.683418E-05 -5.128875E-04 -4.293209E-04 +2.089073E-04 -4.293209E-04 +7.750130E-03 
 -5.505197E-05 -1.485430E-04 -4.441864E-04 -1.485430E-04 +1.129302E-04 -1.411809E-04 -4.441864E-04 -1.411809E-04 +7.300953E-03 
 +1.295067E-04 +5.567155E-04 +1.385025E-04 +5.567155E-04 +2.072176E-04 +1.476371E-04 +1.385025E-04 +1.476371E-04 +7.138637E-03 
 +5.019204E-04 +5.852478E-04 +1.116444E-04 +5.852478E-04 -1.653045E-04 -7.705131E-05 +1.116444E-04 -7.705131E-05 +7.448266E-03 
 -7.396531E-05 -2.535699E-05 +2.772269E-06 -2.535699E-05 +1.822726E-04 +5.227913E-04 +2.772269E-06 +5.227913E-04 +7.203261E-03 
 +3.005172E-04 +9.299256E-04 +2.126491E-04 +9.299256E-04 +2.136426E-04 +1.912380E-05 +2.126491E-04 +1.912380E-05 +7.275461E-03 
 +2.075246E-05 -2.716641E-04 -1.596927E-04 -2.716641E-04 -4.608643E-04 -3.207551E-05 -1.596927E-04 -3.207551E-05 +7.795483E-03 
 -2.791345E-04 +4.586165E-06 -5.263649E-04 +4.586165E-06 +2.280458E-04 -1.282884E-04 -5.263649E-04 -1.282884E-04 +7.880496E-03 
 +3.488560E-04 +8.561223E-05 -3.599500E-06 +8.561223E-05 -2.961771E-04 -4.076916E-05 -3.599500E-06 -4.076916E-05 +7.383552E-03 
 +4.057637E-04 -3.330593E-04 +3.091528E-04 -3.330593E-04 +3.010470E-04 -4.649976E-04 +3.091528E-04 -4.649976E-04 +7.158192E-03 
 +1.135262E-04 +3.580445E-04 +1.294012E-04 +3.580445E-04 +1.082202E-04 +3.083290E-05 +1.294012E-04 +3.083290E-05 +7.435062E-03 
 +1.994794E-04 +9.826543E-04 +2.028875E-04 +9.826543E-04 -5.859203E-05 -1.478719E-05 +2.028875E-04 -1.478719E-05 +7.640944E-03 
 +3.151308E-04 -8.380802E-04 +1.725890E-04 -8.380802E-04 -4.968569E-04 +4.025399E-04 +1.725890E-04 +4.025399E-04 +7.546182E-03 
 -1.941977E-04 -9.084043E-05 -1.665209E-04 -9.084043E-05 +2.924155E-04 -1.763093E-04 -1.665209E-04 -1.763093E-04 +7.468054E-03 
 -3.156157E-04 -9.347234E-04 -2.173451E-05 -9.347234E-04 +1.504724E-05 +1.122543E-04 -2.173451E-05 +1.122543E-04 +7.608391E-03 
 +4.575565E-04 -6.532454E-06 -4.593360E-04 -6.532454E-06 +4.905598E-05 -4.372516E-05 -4.593360E-04 -4.372516E-05 +7.247422E-03 
 +2.420944E-04 +5.866439E-04 -1.602391E-04 +5.866439E-04 +2.481479E-04 +7.622555E-04 -1.602391E-04 +7.622555E-04 +7.130521E-03 
 +4.781191E-04 -7.107662E-04 -3.123083E-05 -7.107662E-04 +1.019560E-04 -1.070901E-04 -3.123083E-05 -1.070901E-04 +6.983583E-03 
 -1.549281E-04 -1.411712E-04 +9.987383E-05 -1.411712E-04 -6.826398E-06 -1.478877E-04 +9.987383E-05 -1.478877E-04 +7.141049E-03 
 -2.790185E-04 -9.957404E-04 +4.334683E-04 -9.957404E-04 +8.207792E-05 -1.717226E-04 +4.334683E-04 -1.717226E-04 +7.615482E-03 
 +2.620362E-04 -5.594584E-05 +3.780739E-04 -5.594584E-05 -2.122670E-04 +7.490021E-05 +3.780739E-04 +7.490021E-05 +7.620166E-03 
 +2.781078E-04 +1.148209E-04 +3.608449E-04 +1.148209E-04 +2.778691E-05 +1.131082E-04 +3.608449E-04 +1.131082E-04 +7.433010E-03 
 -1.600622E-04 -9.499515E-04 -1.476031E-04 -9.499515E-04 +5.946958E-05 +2.393736E-04 -1.476031E-04 +2.393736E-04 +7.545053E-03 
 +3.313381E-04 +1.310366E-04 +1.324162E-04 +1.310366E-04 -1.198793E-04 +1.688140E-06 +1.324162E-04 +1.688140E-06 +7.509354E-03 
 +3.376118E-04 +1.509851E-04 +1.733820E-04 +1.509851E-04 -1.008710E-05 -1.530226E-04 +1.733820E-04 -1.530226E-04 +7.213419E-03 
 -2.598310E-04 +2.058527E-04 +2.370052E-04 +2.058527E-04 +3.106971E-04 -4.786811E-04 +2.370052E-04 -4.786811E-04 +7.513833E-03 
 +7.729438E-05 +2.425323E-05 +2.404634E-04 +2.425323E-05 -1.574097E-04 +2.640432E-04 +2.404634E-04 +2.640432E-04 +7.610019E-03 
 -1.063406E-04 -3.074626E-04 -1.514517E-04 -3.074626E-04 -1.732072E-04 +6.776664E-04 -1.514517E-04 +6.776664E-04 +7.643369E-03 
 +5.464504E-05 -1.644606E-04 +3.506576E-04 -1.644606E-04 +1.389013E-04 -4.836383E-05 +3.506576E-04 -4.836383E-05 +7.361716E-03 
 -1.513391E-04 +5.809975E-04 +4.786008E-04 +5.809975E-04 -1.360708E-04 -1.605567E-04 +4.786008E-04 -1.605567E-04 +7.511885E-03 
 -3.940026E-04 -1.366484E-04 +7.063348E-05 -1.366484E-04 -6.261015E-05 +3.494071E-04 +7.063348E-05 +3.494071E-04 +7.807862E-03 
 -2.278063E-05 +3.852757E-04 -3.779789E-04 +3.852757E-04 -1.749640E-04 +1.070692E-04 -3.779789E-04 +1.070692E-04 +7.615499E-03 
 +1.271501E-04 +2.229680E-04 -3.231920E-04 +2.229680E-04 +3.368625E-04 +1.904381E-04 -3.231920E-04 +1.904381E-04 +7.108216E-03 
 +2.808689E-04 +1.946716E-04 -1.504763E-04 +1.946716E-04 +2.056281E-05 -1.947225E-04 -1.504763E-04 -1.947225E-04 +7.273603E-03 
 -1.265717E-04 -3.859353E-04 +1.954633E-04 -3.859353E-04 -6.313378E-04 +2.573886E-04 +1.954633E-04 +2.573886E-04 +7.883014E-03 
 -2.990205E-04 -5.070997E-04 +1.219164E-04 -5.070997E-04 +2.327806E-04 +2.284615E-04 +1.219164E-04 +2.284615E-04 +7.514688E-03 
 +4.101422E-04 -5.301607E-05 +1.003059E-03 -5.301607E-05 -9.611800E-05 -1.723318E-04 +1.003059E-03 -1.723318E-04 +7.606664E-03 
 +6.586759E-05 +1.559139E-04 +2.980966E-04 +1.559139E-04 +1.892839E-04 -3.941486E-04 +2.980966E-04 -3.941486E-04 +7.370905E-03 
 +1.106664E-04 -3.018018E-04 -2.737872E-04 -3.018018E-04 +1.479287E-04 -3.938262E-04 -2.737872E-04 -3.938262E-04 +7.212291E-03 
 +1.241505E-04 +4.008334E-04 -3.789257E-05 +4.008334E-04 +1.066215E-04 -5.325915E-04 -3.789257E-05 -5.325915E-04 +7.508903E-03 
 -1.549307E-04 +4.868225E-04 +2.522961E-04 +4.868225E-04 -6.194760E-05 -3.326943E-04 +2.522961E-04 -3.326943E-04 +7.457589E-03 
 +8.469998E-05 +3.859882E-04 +7.370178E-04 +3.859882E-04 -1.134621E-04 +1.755725E-05 +7.370178E-04 +1.755725E-05 +7.314741E-03 
 -8.314452E-05 -1.400732E-04 +1.200573E-04 -1.400732E-04 +2.781502E-04 -3.958359E-04 +1.200573E-04 -3.958359E-04 +7.556336E-03 
 -1.991389E-04 -6.643235E-04 +7.118519E-04 -6.643235E-04 -1.022605E-04 -7.161499E-04 +7.118519E-04 -7.161499E-04 +7.619519E-03 
 +9.049044E-05 -5.115777E-04 +4.639351E-05 -5.115777E-04 -1.327303E-04 -1.731061E-04 +4.639351E-05 -1.731061E-04 +7.529315E-03 
 -1.465858E-04 -1.811187E-04 -5.161975E-05 -1.811187E-04 -1.768167E-04 -2.336740E-04 -5.161975E-05 -2.336740E-04 +7.707929E-03 
 -6.580253E-04 -2.419625E-04 +6.497198E-04 -2.419625E-04 +4.691007E-04 +1.830568E-04 +6.497198E-04 +1.830568E-04 +7.529107E-03 
 -1.149392E-04 -7.124862E-04 -4.186155E-04 -7.124862E-04 -2.409765E-04 +1.590858E-04 -4.186155E-04 +1.590858E-04 +7.713072E-03 
 +2.711135E-04 +1.713432E-04 -9.873100E-05 +1.713432E-04 +1.555525E-04 -2.638281E-04 -9.873100E-05 -2.638281E-04 +7.035904E-03 
 +2.174669E-04 -4.532512E-04 +3.419858E-04 -4.532512E-04 +2.014202E-04 +2.099413E-04 +3.419858E-04 +2.099413E-04 +7.100406E-03 
 +2.556685E-04 +8.039128E-05 +7.605517E-04 +8.039128E-05 -5.396973E-04 -2.510761E-05 +7.605517E-04 -2.510761E-05 +7.350691E-03 
 -6.843375E-06 +2.518172E-04 +1.012011E-04 +2.518172E-04 +1.319322E-04 -3.458159E-04 +1.012011E-04 -3.458159E-04 +7.235452E-03 
 +1.533739E-04 -9.312962E-05 -7.006331E-04 -9.312962E-05 -3.454510E-05 -1.966756E-04 -7.006331E-04 -1.966756E-04 +7.405202E-03 
 -3.673952E-04 -1.287278E-03 -7.302081E-05 -1.287278E-03 +2.946608E-04 -4.395649E-04 -7.302081E-05 -4.395649E-04 +7.826943E-03 
 -5.214585E-04 -4.213483E-05 +4.041125E-04 -4.213483E-05 +1.755217E-04 -1.498504E-04 +4.041125E-04 -1.498504E-04 +7.694178E-03 
 -2.808838E-04 -3.384330E-04 +3.860632E-04 -3.384330E-04 -1.725149E-04 +2.895959E-04 +3.860632E-04 +2.895959E-04 +7.326342E-03 
 +1.624829E-04 -1.401860E-04 +5.472281E-04 -1.401860E-04 -2.970977E-04 +7.828026E-05 +5.472281E-04 +7.828026E-05 +7.558971E-03 
 +1.215152E-04 +1.009104E-04 -5.069915E-05 +1.009104E-04 +7.774788E-05 +5.559620E-04 -5.069915E-05 +5.559620E-04 +7.299790E-03 
 +1.928673E-04 -2.534530E-04 -9.247526E-05 -2.534530E-04 -3.741251E-04 +2.032557E-04 -9.247526E-05 +2.032557E-04 +7.542149E-03 
 -6.832086E-05 -2.268542E-04 +4.514418E-04 -2.268542E-04 +5.166828E-04 -2.261716E-04 +4.514418E-04 -2.261716E-04 +7.307560E-03 
 +1.023030E-04 -4.063929E-04 +9.799469E-04 -4.063929E-04 +2.328424E-04 +6.639104E-04 +9.799469E-04 +6.639104E-04 +7.074219E-03 
 +6.025790E-04 +4.671250E-04 +3.071360E-04 +4.671250E-04 -3.061818E-04 +1.242502E-04 +3.071360E-04 +1.242502E-04 +7.387435E-03 
 -2.637309E-05 +1.532945E-04 -3.895257E-04 +1.532945E-04 -1.259989E-04 -2.656087E-04 -3.895257E-04 -2.656087E-04 +7.498758E-03 
 +2.569001E-04 +3.873718E-04 +7.185259E-05 +3.873718E-04 -3.430292E-05 -3.677470E-04 +7.185259E-05 -3.677470E-04 +7.141528E-03 
 -3.106708E-05 +2.051090E-05 +2.225508E-06 +2.051090E-05 +3.183284E-04 -4.604982E-04 +2.225508E-06 -4.604982E-04 +7.137443E-03 
 -1.934128E-04 -4.681929E-04 +7.253385E-05 -4.681929E-04 -2.214986E-04 -1.335951E-04 +7.253385E-05 -1.335951E-04 +7.407851E-03 
 +1.849839E-05 -6.487260E-04 +8.535017E-04 -6.487260E-04 -6.836812E-05 -4.013702E-04 +8.535017E-04 -4.013702E-04 +7.146574E-03 
 -7.057671E-04 -2.021053E-04 +3.779379E-06 -2.021053E-04 +3.071371E-04 +2.179178E-04 +3.779379E-06 +2.179178E-04 +7.682519E-03 
 +2.961075E-04 -3.180227E-04 -2.953091E-04 -3.180227E-04 -3.941637E-05 -4.750704E-04 -2.953091E-04 -4.750704E-04 +7.285812E-03 
 +2.576309E-04 +2.606389E-04 -4.366038E-04 +2.606389E-04 +2.509478E-05 -3.828417E-04 -4.366038E-04 -3.828417E-04 +7.125852E-03 
 -8.165301E-05 -1.286531E-05 -6.240008E-04 -1.286531E-05 +3.244976E-04 +2.039394E-04 -6.240008E-04 +2.039394E-04 +7.361747E-03 
 +3.458547E-04 +4.914685E-04 +5.529198E-05 +4.914685E-04 -2.655211E-04 -1.337779E-04 +5.529198E-05 -1.337779E-04 +7.542142E-03 
 +6.139840E-05 +4.160469E-04 -1.702224E-04 +4.160469E-04 -3.338894E-04 +7.016020E-04 -1.702224E-04 +7.016020E-04 +7.651723E-03 
 +4.812722E-04 +1.935954E-04 +3.842789E-04 +1.935954E-04 -2.559795E-04 +1.751812E-04 +3.842789E-04 +1.751812E-04 +7.398761E-03 
 +3.163614E-04 -8.245076E-04 +2.064234E-04 -8.245076E-04 +1.145640E-04 -1.108547E-04 +2.064234E-04 -1.108547E-04 +6.768506E-03 
 -1.323528E-04 +1.518487E-04 +1.364849E-04 +1.518487E-04 +5.659118E-04 +1.001940E-05 +1.364849E-04 +1.001940E-05 +7.115311E-03 
 +1.327650E-04 -4.819796E-04 -1.814274E-05 -4.819796E-04 -4.046377E-04 -2.230815E-04 -1.814274E-05 -2.230815E-04 +7.668168E-03 
 +1.447185E-04 -2.942043E-04 -3.697116E-04 -2.942043E-04 +1.428254E-04 -4.861840E-04 -3.697116E-04 -4.861840E-04 +7.255427E-03 
 +1.987667E-04 -5.003604E-04 +8.198789E-05 -5.003604E-04 -2.395599E-04 +1.372298E-04 +8.198789E-05 +1.372298E-04 +7.397018E-03 
 +3.245290E-04 -2.558868E-04 -5.091781E-04 -2.558868E-04 +1.236245E-04 +5.193948E-05 -5.091781E-04 +5.193948E-05 +6.975878E-03 
 +4.409477E-04 +1.173564E-05 -4.003873E-04 +1.173564E-05 -1.968457E-04 +8.723518E-05 -4.003873E-04 +8.723518E-05 +7.054586E-03 
 +1.027753E-04 -2.622324E-04 +3.977952E-04 -2.622324E-04 +2.599296E-04 -6.300453E-04 +3.977952E-04 -6.300453E-04 +7.334338E-03 
 +1.469365E-04 -3.173294E-04 +4.051236E-04 -3.173294E-04 +1.151518E-04 +3.317560E-04 +4.051236E-04 +3.317560E-04 +7.669060E-03 
 -3.620190E-05 +3.374110E-04 +8.193133E-04 +3.374110E-04 -4.403347E-04 -1.851992E-05 +8.193133E-04 -1.851992E-05 +7.629927E-03 
 +2.268732E-04 -6.348877E-05 +3.829479E-04 -6.348877E-05 +2.953644E-04 +4.059536E-04 +3.829479E-04 +4.059536E-04 +7.576575E-03 
 +1.208951E-04 -5.506815E-04 -2.770320E-05 -5.506815E-04 +7.250401E-05 +1.987531E-04 -2.770320E-05 +1.987531E-04 +7.631609E-03 
 -1.794388E-04 +2.730215E-04 -2.887146E-05 +2.730215E-04 +5.476496E-05 +5.477258E-04 -2.887146E-05 +5.477258E-04 +7.536305E-03 
 +3.633250E-04 -8.089884E-04 -1.146312E-04 -8.089884E-04 -5.363844E-04 +1.210615E-04 -1.146312E-04 +1.210615E-04 +8.187049E-03 
 +1.109665E-04 -1.857307E-04 -3.930069E-04 -1.857307E-04 +3.042544E-04 +4.685374E-05 -3.930069E-04 +4.685374E-05 +7.373444E-03 
 +1.749768E-04 -2.513971E-04 -3.352742E-05 -2.513971E-04 +2.319668E-04 -3.431563E-04 -3.352742E-05 -3.431563E-04 +7.392205E-03 
 +2.074267E-04 -8.728939E-04 +5.526082E-04 -8.728939E-04 -3.636798E-06 +3.050962E-04 +5.526082E-04 +3.050962E-04 +8.103886E-03 
 +7.270938E-05 +3.607457E-04 +3.837089E-04 +3.607457E-04 +4.849409E-05 -9.136673E-05 +3.837089E-04 -9.136673E-05 +7.611979E-03 
 +3.356953E-04 +1.027735E-04 +3.034183E-04 +1.027735E-04 +1.043962E-04 +6.546060E-05 +3.034183E-04 +6.546060E-05 +7.167101E-03 
 +1.454642E-05 +2.583087E-04 -1.794972E-04 +2.583087E-04 -3.561850E-04 -1.449332E-04 -1.794972E-04 -1.449332E-04 +7.496107E-03 
 -1.183302E-04 +7.019030E-04 -1.917931E-04 +7.019030E-04 -2.734963E-04 -2.735110E-04 -1.917931E-04 -2.735110E-04 +7.725114E-03 
 +1.821182E-05 -4.894628E-04 +1.876378E-04 -4.894628E-04 -3.510330E-04 +3.055419E-04 +1.876378E-04 +3.055419E-04 +7.803586E-03 
 +1.084629E-04 +1.567466E-04 -4.172292E-04 +1.567466E-04 +1.267858E-04 -3.468490E-04 -4.172292E-04 -3.468490E-04 +7.558715E-03 
 +3.741248E-04 -2.979392E-04 -8.549630E-04 -2.979392E-04 +1.773159E-04 -1.333626E-04 -8.549630E-04 -1.333626E-04 +7.099726E-03 
 -2.153203E-04 +5.917296E-05 -3.438224E-04 +5.917296E-05 +1.090037E-04 -1.738804E-04 -3.438224E-04 -1.738804E-04 +7.592734E-03 
 -2.310612E-05 +2.489577E-04 +1.279854E-04 +2.489577E-04 -2.630416E-04 +6.423124E-05 +1.279854E-04 +6.423124E-05 +7.238403E-03 
 -1.540064E-04 +1.086271E-04 +6.366412E-04 +1.086271E-04 +3.509194E-04 -1.288736E-04 +6.366412E-04 -1.288736E-04 +7.584517E-03 
 -2.664351E-05 -6.743705E-05 +3.590341E-04 -6.743705E-05 -3.176370E-04 +3.307521E-04 +3.590341E-04 +3.307521E-04 +8.110839E-03 
 +3.882579E-05 -2.843375E-04 +7.293856E-05 -2.843375E-04 -2.778654E-04 +7.839787E-05 +7.293856E-05 +7.839787E-05 +7.629422E-03 
 +2.376835E-04 -1.404018E-04 +4.060611E-04 -1.404018E-04 +4.949371E-04 +6.100170E-04 +4.060611E-04 +6.100170E-04 +6.997499E-03 
 +8.021664E-05 +3.754207E-04 -1.024541E-04 +3.754207E-04 +3.681538E-05 -6.731012E-04 -1.024541E-04 -6.731012E-04 +7.347538E-03 
 +1.935366E-04 -2.232141E-04 -7.261115E-04 -2.232141E-04 +1.645856E-04 +1.998615E-04 -7.261115E-04 +1.998615E-04 +7.195014E-03 
 +1.322485E-05 -7.272825E-04 -3.846369E-04 -7.272825E-04 +1.170448E-04 +2.679688E-04 -3.846369E-04 +2.679688E-04 +7.448544E-03 
 -3.019515E-04 +7.214623E-04 +2.899783E-04 +7.214623E-04 -3.506035E-04 -1.036563E-04 +2.899783E-04 -1.036563E-04 +7.749529E-03 
 +3.890732E-04 -7.660940E-04 -6.076338E-05 -7.660940E-04 -2.472667E-04 +1.132666E-04 -6.076338E-05 +1.132666E-04 +7.190422E-03 
 -1.123581E-04 +1.121981E-03 -3.007425E-04 +1.121981E-03 -1.074204E-04 -5.109673E-04 -3.007425E-04 -5.109673E-04 +7.582731E-03 
 -2.911582E-04 +3.869652E-06 -2.777499E-04 +3.869652E-06 +4.249414E-04 +1.635462E-04 -2.777499E-04 +1.635462E-04 +7.504757E-03 
 +3.490313E-04 +3.002185E-05 -4.648904E-04 +3.002185E-05 +3.141748E-04 +2.024844E-05 -4.648904E-04 +2.024844E-05 +7.153110E-03 
 +1.747374E-04 -2.812636E-04 -3.946557E-04 -2.812636E-04 -8.914436E-05 +2.177623E-04 -3.946557E-04 +2.177623E-04 +7.436241E-03 
 +2.569979E-04 -3.748875E-04 -3.374261E-04 -3.748875E-04 -5.194964E-04 +2.450832E-05 -3.374261E-04 +2.450832E-05 +7.805292E-03 
 -1.798241E-04 -9.911526E-05 -2.227005E-05 -9.911526E-05 +4.789196E-04 +7.674316E-04 -2.227005E-05 +7.674316E-04 +7.741848E-03 
 +2.549734E-04 +2.157972E-04 -1.583962E-06 +2.157972E-04 +1.590212E-04 -8.231867E-04 -1.583962E-06 -8.231867E-04 +7.086564E-03 
 -8.051377E-05 -3.088001E-04 +2.388617E-05 -3.088001E-04 -7.635228E-04 -1.741802E-05 +2.388617E-05 -1.741802E-05 +7.763313E-03 
 -3.293937E-05 +1.631956E-04 +2.257081E-04 +1.631956E-04 +3.613438E-04 -1.869811E-04 +2.257081E-04 -1.869811E-04 +7.681683E-03 
 +2.774856E-05 +1.247839E-04 +9.161889E-05 +1.247839E-04 +2.064969E-04 +7.134262E-04 +9.161889E-05 +7.134262E-04 +7.817145E-03 
 -7.721595E-05 -6.218363E-04 +1.355248E-04 -6.218363E-04 -8.451098E-05 -7.177498E-04 +1.355248E-04 -7.177498E-04 +7.570654E-03 
 +8.756889E-05 +3.292202E-04 -1.833341E-04 +3.292202E-04 -8.180731E-05 -2.908175E-04 -1.833341E-04 -2.908175E-04 +7.765115E-03 
 +1.228440E-04 +5.648982E-04 -1.848801E-04 +5.648982E-04 -2.013312E-04 -1.347837E-04 -1.848801E-04 -1.347837E-04 +7.696897E-03 
 -2.334442E-04 +6.031129E-05 +3.523474E-04 +6.031129E-05 +4.812268E-04 -3.057067E-04 +3.523474E-04 -3.057067E-04 +7.238410E-03 
 -4.434433E-05 +1.260584E-04 -1.432548E-04 +1.260584E-04 -1.605053E-04 -1.569325E-04 -1.432548E-04 -1.569325E-04 +7.541546E-03 
 +2.909825E-04 -4.517729E-04 -7.347718E-04 -4.517729E-04 -7.514934E-05 +3.823673E-04 -7.347718E-04 +3.823673E-04 +7.254275E-03 
 +1.125904E-04 +1.612510E-04 -4.123502E-04 +1.612510E-04 +5.687479E-04 +6.297033E-04 -4.123502E-04 +6.297033E-04 +6.741463E-03 
 +2.705506E-04 +8.955005E-04 +3.346037E-04 +8.955005E-04 -3.403200E-04 -1.723714E-04 +3.346037E-04 -1.723714E-04 +7.834872E-03 
 -4.992933E-04 +3.803591E-04 +3.580578E-04 +3.803591E-04 -9.055912E-05 -3.164296E-04 +3.580578E-04 -3.164296E-04 +7.792913E-03 
 -5.010387E-04 +4.302185E-04 -3.345587E-04 +4.302185E-04 +1.312613E-04 -7.492933E-05 -3.345587E-04 -7.492933E-05 +7.755029E-03 
 +1.629857E-04 +1.543580E-04 +1.703448E-04 +1.543580E-04 -4.346825E-04 -2.592524E-04 +1.703448E-04 -2.592524E-04 +7.782378E-03 
 -2.131325E-04 +7.176431E-04 -2.818988E-06 +7.176431E-04 +6.896049E-05 +4.380790E-05 -2.818988E-06 +4.380790E-05 +7.469370E-03 
 -5.858448E-04 -1.859164E-04 -4.563030E-04 -1.859164E-04 +3.496460E-04 -6.776753E-05 -4.563030E-04 -6.776753E-05 +7.488349E-03 
 +1.306209E-04 -3.560661E-04 -3.291427E-04 -3.560661E-04 +1.404489E-04 -2.539692E-04 -3.291427E-04 -2.539692E-04 +7.243937E-03 
 -2.770504E-05 -2.653282E-04 -6.969843E-05 -2.653282E-04 -2.002230E-04 -3.419277E-04 -6.969843E-05 -3.419277E-04 +7.634612E-03 
 -8.704826E-05 -4.945300E-04 +1.456084E-04 -4.945300E-04 -7.886226E-05 -1.675074E-04 +1.456084E-04 -1.675074E-04 +7.506807E-03 
 +2.836929E-04 +4.538688E-05 -3.970466E-04 +4.538688E-05 +4.425342E-05 +1.876004E-05 -3.970466E-04 +1.876004E-05 +6.999529E-03 
 +1.036266E-04 +1.144014E-04 -2.172318E-04 +1.144014E-04 -6.044929E-05 +6.100623E-04 -2.172318E-04 +6.100623E-04 +7.662552E-03 
 -1.606958E-04 -7.477840E-04 +1.433486E-04 -7.477840E-04 +3.510576E-05 +4.187602E-04 +1.433486E-04 +4.187602E-04 +7.517205E-03 
 -8.044767E-05 +2.221858E-04 -4.903823E-04 +2.221858E-04 -2.219170E-04 -4.626280E-04 -4.903823E-04 -4.626280E-04 +7.260966E-03 
 +9.097563E-05 -1.233952E-04 -1.743129E-04 -1.233952E-04 +3.786630E-04 +1.120935E-04 -1.743129E-04 +1.120935E-04 +7.197910E-03 
 +7.032831E-05 -4.651162E-04 +7.160673E-04 -4.651162E-04 -1.882574E-04 -3.000236E-04 +7.160673E-04 -3.000236E-04 +7.378750E-03 
 +4.798700E-06 +1.913794E-04 +6.238971E-04 +1.913794E-04 +8.281147E-05 +3.205752E-04 +6.238971E-04 +3.205752E-04 +7.230616E-03 
 +2.299865E-04 +2.592786E-04 +2.106320E-04 +2.592786E-04 -2.335883E-05 +6.543401E-04 +2.106320E-04 +6.543401E-04 +7.031846E-03 
 +1.504611E-04 +2.039651E-04 +1.943757E-04 +2.039651E-04 -3.993521E-05 +3.307337E-04 +1.943757E-04 +3.307337E-04 +7.053108E-03 
 +1.356377E-05 +3.578940E-04 -1.225718E-04 +3.578940E-04 +2.063980E-04 -8.898732E-06 -1.225718E-04 -8.898732E-06 +7.349909E-03 
 -4.142375E-04 -3.073325E-04 +2.904771E-05 -3.073325E-04 +2.930783E-04 -4.622717E-04 +2.904771E-05 -4.622717E-04 +7.787706E-03 
 -2.327359E-04 +3.642451E-04 -2.263410E-04 +3.642451E-04 -8.860957E-05 +1.548052E-04 -2.263410E-04 +1.548052E-04 +7.671227E-03 
 +4.619486E-04 -6.681104E-04 -6.259950E-04 -6.681104E-04 -2.713736E-04 +6.839950E-04 -6.259950E-04 +6.839950E-04 +7.268436E-03 
 -6.911157E-05 +7.005937E-04 -2.362904E-04 +7.005937E-04 -2.092926E-04 -5.305114E-06 -2.362904E-04 -5.305114E-06 +7.581061E-03 
 -1.202097E-04 +2.058540E-04 -2.927931E-04 +2.058540E-04 +2.901094E-04 -3.235640E-05 -2.927931E-04 -3.235640E-05 +6.994047E-03 
 +9.257744E-05 -2.432472E-04 -7.403604E-04 -2.432472E-04 -1.910602E-04 -3.180226E-04 -7.403604E-04 -3.180226E-04 +7.103292E-03 
 +4.487151E-05 -3.116134E-04 -1.134698E-04 -3.116134E-04 +8.451152E-05 +2.221417E-04 -1.134698E-04 +2.221417E-04 +7.225432E-03 
 -4.120154E-05 -1.715565E-04 -3.105491E-04 -1.715565E-04 +7.479601E-05 -2.892125E-04 -3.105491E-04 -2.892125E-04 +7.225045E-03 
 -3.672747E-04 -7.008900E-04 -1.666189E-04 -7.008900E-04 -1.842062E-04 -2.739459E-05 -1.666189E-04 -2.739459E-05 +7.953924E-03 
 +1.333965E-04 -6.009960E-04 -2.450616E-04 -6.009960E-04 +1.040475E-04 +2.529172E-04 -2.450616E-04 +2.529172E-04 +7.351585E-03 
 +5.771266E-04 +2.111802E-04 -3.473595E-04 +2.111802E-04 -1.696762E-04 -3.889779E-04 -3.473595E-04 -3.889779E-04 +7.184655E-03 
 +2.652761E-04 +2.799667E-04 -2.312769E-04 +2.799667E-04 +9.874424E-05 -2.724601E-04 -2.312769E-04 -2.724601E-04 +7.290311E-03 
 +3.802728E-04 -2.539600E-04 -2.560561E-05 -2.539600E-04 +2.281277E-04 +1.522761E-04 -2.560561E-05 +1.522761E-04 +6.903906E-03 
 +2.882231E-04 +1.297142E-04 -2.268680E-04 +1.297142E-04 -8.436527E-05 +2.035980E-04 -2.268680E-04 +2.035980E-04 +7.092505E-03 
 -1.728441E-04 -6.159518E-04 +5.740729E-04 -6.159518E-04 -8.431872E-05 -2.856852E-04 +5.740729E-04 -2.856852E-04 +7.794503E-03 
 -5.121063E-05 +9.754685E-04 +2.173241E-04 +9.754685E-04 +8.468162E-06 +5.115732E-04 +2.173241E-04 +5.115732E-04 +7.488173E-03 
 +3.047700E-04 -3.613622E-04 -2.617867E-04 -3.613622E-04 +2.267961E-04 -5.019821E-04 -2.617867E-04 -5.019821E-04 +7.235192E-03 
 -6.978926E-05 +3.465065E-04 +3.030394E-04 +3.465065E-04 -1.506889E-04 -1.099266E-04 +3.030394E-04 -1.099266E-04 +7.484663E-03 
 -3.532980E-04 +8.043526E-04 +3.450938E-05 +8.043526E-04 +3.862964E-04 -1.935704E-04 +3.450938E-05 -1.935704E-04 +7.868657E-03 
 +1.935806E-04 -1.062316E-04 -1.652895E-04 -1.062316E-04 -4.347298E-04 -1.181961E-04 -1.652895E-04 -1.181961E-04 +8.016951E-03 
 -4.803940E-05 -7.292657E-05 -5.239734E-05 -7.292657E-05 +1.121735E-04 +1.355906E-04 -5.239734E-05 +1.355906E-04 +7.180744E-03 
 -3.800387E-04 +2.009631E-04 -3.696162E-04 +2.009631E-04 +4.850190E-04 +2.294310E-04 -3.696162E-04 +2.294310E-04 +7.284406E-03 
 +2.028964E-05 -9.173321E-04 -4.135470E-04 -9.173321E-04 -4.130414E-04 -1.662537E-04 -4.135470E-04 -1.662537E-04 +8.113798E-03 
 +2.021002E-04 -1.093503E-04 +7.492471E-05 -1.093503E-04 -4.143357E-04 -3.794659E-04 +7.492471E-05 -3.794659E-04 +7.578620E-03 
 +2.977644E-05 +9.760950E-05 -4.373462E-06 +9.760950E-05 +6.201177E-04 +2.646285E-05 -4.373462E-06 +2.646285E-05 +7.028369E-03 
 -1.219058E-04 -6.068348E-04 -4.416548E-04 -6.068348E-04 -1.470612E-04 +4.217100E-06 -4.416548E-04 +4.217100E-06 +7.472521E-03 
 -7.139822E-05 -6.891809E-04 +2.196105E-04 -6.891809E-04 +1.160967E-04 +7.261015E-04 +2.196105E-04 +7.261015E-04 +7.282681E-03 
 +1.477482E-04 -1.246388E-04 +3.190858E-04 -1.246388E-04 -2.082374E-04 -6.925507E-04 +3.190858E-04 -6.925507E-04 +7.368527E-03 
 +4.987985E-04 -2.084491E-04 +9.165140E-04 -2.084491E-04 -4.798321E-04 +4.468513E-04 +9.165140E-04 +4.468513E-04 +7.727925E-03 
 -1.731911E-04 -2.132605E-05 +3.911711E-04 -2.132605E-05 +4.759378E-04 -5.613559E-04 +3.911711E-04 -5.613559E-04 +7.202746E-03 
 +3.101194E-04 -7.887618E-05 -2.710544E-04 -7.887618E-05 +3.191596E-05 +1.228574E-04 -2.710544E-04 +1.228574E-04 +7.342602E-03 
 +2.186962E-04 +2.246350E-04 -3.752559E-04 +2.246350E-04 -3.986617E-04 +1.298175E-04 -3.752559E-04 +1.298175E-04 +7.641882E-03 
 -2.136796E-04 +3.597862E-04 -3.943325E-04 +3.597862E-04 +1.238525E-04 -3.216503E-04 -3.943325E-04 -3.216503E-04 +7.652607E-03 
 +2.625494E-04 +2.761493E-04 -9.001236E-05 +2.761493E-04 -2.861070E-04 -2.197100E-05 -9.001236E-05 -2.197100E-05 +7.556087E-03 
 +3.093531E-04 +5.412059E-04 -1.777378E-04 +5.412059E-04 +6.556974E-05 +2.491902E-04 -1.777378E-04 +2.491902E-04 +7.378132E-03 
 +3.510059E-04 -6.506859E-04 -1.159011E-04 -6.506859E-04 +2.836742E-04 -2.570708E-04 -1.159011E-04 -2.570708E-04 +7.154896E-03 
 -2.242374E-06 +2.062396E-04 +7.250540E-06 +2.062396E-04 -5.910501E-05 -2.062134E-04 +7.250540E-06 -2.062134E-04 +7.573277E-03 
 -3.177208E-05 -2.086185E-04 -8.019503E-05 -2.086185E-04 +3.687539E-04 +5.158488E-04 -8.019503E-05 +5.158488E-04 +7.689644E-03 
 +4.154029E-04 +6.230803E-04 +4.060882E-04 +6.230803E-04 -3.557840E-04 +3.397784E-04 +4.060882E-04 +3.397784E-04 +7.683113E-03 
 -1.685235E-04 +4.967439E-04 +3.833886E-04 +4.967439E-04 +2.271712E-04 +5.315713E-04 +3.833886E-04 +5.315713E-04 +7.304679E-03 
 +3.787804E-04 -2.038892E-05 +2.629618E-04 -2.038892E-05 +1.283430E-04 +2.121991E-04 +2.629618E-04 +2.121991E-04 +7.192197E-03 
 +8.423065E-05 +1.083340E-05 +2.350344E-04 +1.083340E-05 -3.801530E-04 -2.071826E-05 +2.350344E-04 -2.071826E-05 +7.935940E-03 
 -3.854187E-04 +8.874275E-05 -3.597401E-04 +8.874275E-05 -1.084363E-04 -6.223330E-05 -3.597401E-04 -6.223330E-05 +7.801313E-03 
 +2.667822E-04 -5.941105E-04 +2.120290E-05 -5.941105E-04 +6.462046E-05 -7.633855E-04 +2.120290E-05 -7.633855E-04 +7.028625E-03 
 -1.290296E-04 +1.040427E-04 +3.347643E-04 +1.040427E-04 -9.253178E-05 +3.757568E-04 +3.347643E-04 +3.757568E-04 +7.281341E-03 
 +6.455048E-06 +2.991361E-04 -1.616938E-05 +2.991361E-04 +3.634551E-04 +1.171558E-04 -1.616938E-05 +1.171558E-04 +7.243807E-03 
 -1.056719E-04 -9.360957E-04 +7.745549E-04 -9.360957E-04 +2.398947E-04 +2.013234E-05 +7.745549E-04 +2.013234E-05 +7.361005E-03 
 -2.992920E-04 +3.931861E-04 +2.615089E-04 +3.931861E-04 -2.557761E-04 -5.065013E-04 +2.615089E-04 -5.065013E-04 +7.854038E-03 
 +2.804793E-04 +5.592058E-04 -1.954274E-04 +5.592058E-04 -3.663574E-04 -1.310323E-04 -1.954274E-04 -1.310323E-04 +7.777262E-03 
 +3.705827E-04 -3.240710E-04 +1.502763E-04 -3.240710E-04 -2.039829E-04 -7.873237E-05 +1.502763E-04 -7.873237E-05 +7.254094E-03 
 -1.590650E-04 +3.308398E-04 +1.480601E-04 +3.308398E-04 +2.167017E-04 +1.840888E-04 +1.480601E-04 +1.840888E-04 +7.459800E-03 
 -6.044419E-04 +7.901632E-04 -1.562806E-04 +7.901632E-04 +2.569590E-04 -2.846759E-04 -1.562806E-04 -2.846759E-04 +7.631282E-03 
 -2.293435E-04 -1.176201E-03 +2.789298E-04 -1.176201E-03 +6.708437E-05 +7.987492E-04 +2.789298E-04 +7.987492E-04 +7.654231E-03 
 +3.010261E-04 -3.661896E-04 -6.710945E-05 -3.661896E-04 -1.746087E-04 +8.309328E-05 -6.710945E-05 +8.309328E-05 +7.510709E-03 
 -1.017896E-04 +1.093990E-03 -1.093039E-04 +1.093990E-03 -6.390489E-04 -1.066220E-04 -1.093039E-04 -1.066220E-04 +7.850108E-03 
 -1.587753E-05 +5.758262E-04 -6.574771E-04 +5.758262E-04 +1.395515E-04 +1.434853E-04 -6.574771E-04 +1.434853E-04 +7.230885E-03 
 +1.091766E-04 +3.667216E-04 -4.794068E-04 +3.667216E-04 +1.340222E-04 -6.080780E-05 -4.794068E-04 -6.080780E-05 +7.182308E-03 
 +2.037094E-04 -2.750771E-04 +8.779983E-05 -2.750771E-04 +4.104664E-04 -6.536400E-05 +8.779983E-05 -6.536400E-05 +6.916114E-03 
 +2.455042E-04 +3.132747E-04 -2.200114E-04 +3.132747E-04 -9.681054E-05 -2.117256E-04 -2.200114E-04 -2.117256E-04 +7.316638E-03 
 -4.529511E-05 -1.646767E-05 -5.145571E-04 -1.646767E-05 +2.783860E-04 -4.487953E-04 -5.145571E-04 -4.487953E-04 +7.537255E-03 
 +3.540314E-04 -6.500141E-04 -2.314128E-04 -6.500141E-04 -2.803685E-04 +1.282205E-04 -2.314128E-04 +1.282205E-04 +7.676549E-03 
 +3.460319E-04 -4.094063E-04 +3.080816E-04 -4.094063E-04 -1.151530E-05 -9.974173E-04 +3.080816E-04 -9.974173E-04 +7.539826E-03 
 -9.767611E-05 -3.194211E-04 +1.577259E-04 -3.194211E-04 -8.322528E-05 +3.148854E-04 +1.577259E-04 +3.148854E-04 +7.498007E-03 
 +2.199793E-04 +5.954687E-05 +7.290884E-04 +5.954687E-05 -3.894995E-04 -6.406801E-05 +7.290884E-04 -6.406801E-05 +7.671628E-03 
 -1.702695E-04 -1.100536E-03 +3.142820E-04 -1.100536E-03 +3.022561E-05 +1.735364E-04 +3.142820E-04 +1.735364E-04 +7.652648E-03 
 -6.072980E-04 -3.919608E-04 -8.668439E-05 -3.919608E-04 +5.393309E-04 -5.019337E-04 -8.668439E-05 -5.019337E-04 +7.520923E-03 
 +2.094200E-04 +2.407015E-07 +2.545554E-04 +2.407015E-07 -2.619469E-04 -1.668181E-04 +2.545554E-04 -1.668181E-04 +7.712293E-03 
 -4.060560E-05 +6.211649E-04 +4.877584E-05 +6.211649E-04 +1.458126E-04 -5.944798E-05 +4.877584E-05 -5.944798E-05 +7.568069E-03 
 +9.649945E-05 -8.167837E-04 -2.924283E-05 -8.167837E-04 +2.002268E-05 +6.661839E-05 -2.924283E-05 +6.661839E-05 +7.523545E-03 
 +2.087386E-04 +1.193978E-03 -7.602800E-04 +1.193978E-03 -2.584773E-04 -2.425165E-04 -7.602800E-04 -2.425165E-04 +7.776980E-03 
 +2.117699E-05 -1.620512E-04 -7.273882E-04 -1.620512E-04 +3.694719E-05 +1.157161E-04 -7.273882E-04 +1.157161E-04 +7.833974E-03 
 +1.915205E-04 +8.973785E-04 -4.818466E-04 +8.973785E-04 -2.925766E-04 +1.985825E-04 -4.818466E-04 +1.985825E-04 +7.681652E-03 
 -5.122664E-04 +3.171526E-04 -2.841789E-04 +3.171526E-04 +5.463907E-04 +8.237835E-06 -2.841789E-04 +8.237835E-06 +7.618526E-03 
 -1.071573E-04 +2.549875E-04 -2.109646E-04 +2.549875E-04 +2.635420E-04 +6.448273E-05 -2.109646E-04 +6.448273E-05 +7.258612E-03 
 -2.263861E-05 -4.307730E-04 -1.394260E-04 -4.307730E-04 -2.314278E-04 -5.412655E-04 -1.394260E-04 -5.412655E-04 +7.648873E-03 
 -1.751431E-04 +3.977315E-05 +1.587811E-05 +3.977315E-05 -2.692925E-06 +5.219059E-04 +1.587811E-05 +5.219059E-04 +7.650465E-03 
 +2.262380E-05 +9.189129E-04 -2.965668E-04 +9.189129E-04 -5.216050E-04 +6.531924E-05 -2.965668E-04 +6.531924E-05 +7.962634E-03 
 +1.257785E-04 +6.794165E-05 -4.121279E-05 +6.794165E-05 +5.429127E-04 +3.166226E-04 -4.121279E-05 +3.166226E-04 +7.131105E-03 
 -9.994428E-05 +3.486878E-04 -3.822851E-06 +3.486878E-04 -4.207769E-04 +5.221578E-04 -3.822851E-06 +5.221578E-04 +7.926323E-03 
 -3.463944E-04 -4.343754E-04 +9.874192E-05 -4.343754E-04 +3.007279E-04 +1.678475E-04 +9.874192E-05 +1.678475E-04 +7.947462E-03 
 -5.635526E-04 -2.728861E-04 +4.524995E-04 -2.728861E-04 -4.841109E-05 -2.136587E-04 +4.524995E-04 -2.136587E-04 +7.703524E-03 
 +4.651253E-04 -4.689525E-04 +2.415256E-04 -4.689525E-04 +1.786394E-04 -3.275953E-04 +2.415256E-04 -3.275953E-04 +7.575237E-03 
 +3.310895E-04 -3.677979E-04 -6.412217E-04 -3.677979E-04 -3.668685E-04 +1.250823E-04 -6.412217E-04 +1.250823E-04 +7.441015E-03 
 +1.455108E-05 -7.937574E-04 -2.607120E-04 -7.937574E-04 +3.218585E-04 +9.554342E-04 -2.607120E-04 +9.554342E-04 +7.452923E-03 
 +1.044066E-04 -2.032751E-04 -2.141715E-05 -2.032751E-04 -2.852803E-04 -9.962916E-05 -2.141715E-05 -9.962916E-05 +7.574426E-03 
 -2.075296E-04 -1.049927E-03 +7.284855E-05 -1.049927E-03 -1.354940E-04 +2.159830E-04 +7.284855E-05 +2.159830E-04 +7.973571E-03 
 -2.276476E-04 +2.338743E-04 -1.889143E-04 +2.338743E-04 -1.480457E-05 -6.808680E-04 -1.889143E-04 -6.808680E-04 +7.619023E-03 
 -1.865831E-04 -2.433717E-04 -3.277074E-04 -2.433717E-04 +3.744792E-04 +2.912084E-04 -3.277074E-04 +2.912084E-04 +7.343716E-03 
 -9.817714E-05 +6.189487E-04 -5.053079E-04 +6.189487E-04 -1.017734E-04 +3.398176E-04 -5.053079E-04 +3.398176E-04 +7.775500E-03 
 +2.417384E-05 -5.580132E-04 +8.816095E-06 -5.580132E-04 -4.319957E-06 -1.834246E-05 +8.816095E-06 -1.834246E-05 +7.290670E-03 
 +5.544786E-05 +2.398454E-04 +7.434328E-04 +2.398454E-04 +1.222543E-04 +9.584457E-05 +7.434328E-04 +9.584457E-05 +7.166654E-03 
 -1.885790E-04 -3.474853E-04 -4.281315E-05 -3.474853E-04 -1.305096E-04 +1.601797E-05 -4.281315E-05 +1.601797E-05 +7.652349E-03 
 -2.966235E-05 -1.706867E-04 +2.345487E-04 -1.706867E-04 -9.141734E-05 +1.716620E-04 +2.345487E-04 +1.716620E-04 +7.421993E-03 
 -5.013185E-04 +2.585053E-04 +2.517567E-04 +2.585053E-04 +2.290027E-04 +4.401673E-04 +2.517567E-04 +4.401673E-04 +7.271285E-03 
 +7.650099E-05 +4.536208E-04 -2.981269E-04 +4.536208E-04 +1.651745E-04 -1.100116E-04 -2.981269E-04 -1.100116E-04 +7.765542E-03 
 +5.872040E-05 +6.963010E-04 +2.361911E-04 +6.963010E-04 -1.110984E-04 +2.721764E-04 +2.361911E-04 +2.721764E-04 +7.410536E-03 
 +1.117590E-04 +1.970565E-04 +6.021598E-04 +1.970565E-04 -8.532505E-05 -1.447259E-04 +6.021598E-04 -1.447259E-04 +7.181654E-03 
 +3.180201E-04 +2.468535E-04 +2.973646E-04 +2.468535E-04 +1.437982E-04 -3.617502E-04 +2.973646E-04 -3.617502E-04 +7.151062E-03 
 +3.049611E-04 -1.106780E-03 -1.315119E-04 -1.106780E-03 -5.931483E-04 -4.875454E-04 -1.315119E-04 -4.875454E-04 +8.057400E-03 
 -5.051606E-05 -2.664444E-04 -2.145344E-04 -2.664444E-04 +1.740861E-04 +7.102137E-04 -2.145344E-04 +7.102137E-04 +7.547718E-03 
 -2.746730E-04 +7.065960E-05 +3.342066E-04 +7.065960E-05 +2.623252E-04 -1.649746E-04 +3.342066E-04 -1.649746E-04 +7.520725E-03 
 -1.743492E-04 +4.744505E-04 +3.612362E-04 +4.744505E-04 -2.262533E-04 +4.284479E-04 +3.612362E-04 +4.284479E-04 +7.604109E-03 
 -2.421309E-05 +1.087001E-03 -5.997051E-04 +1.087001E-03 +3.064106E-04 -4.985182E-04 -5.997051E-04 -4.985182E-04 +7.333302E-03 
 -4.400996E-05 +2.108979E-04 -5.771312E-05 +2.108979E-04 -1.862432E-04 +4.991390E-05 -5.771312E-05 +4.991390E-05 +7.496940E-03 
 -4.215969E-05 -5.553117E-06 +3.268216E-04 -5.553117E-06 -2.101859E-04 -3.336383E-04 +3.268216E-04 -3.336383E-04 +7.450985E-03 
 -3.075922E-04 +4.197317E-04 +2.256812E-04 +4.197317E-04 +4.395806E-04 +5.448203E-04 +2.256812E-04 +5.448203E-04 +7.250844E-03 
 +2.431861E-04 +4.184300E-04 -8.868336E-04 +4.184300E-04 +1.425268E-05 +7.492654E-04 -8.868336E-04 +7.492654E-04 +7.291712E-03 
 +3.746825E-04 -4.731856E-04 -6.760472E-04 -4.731856E-04 -1.532474E-04 +3.126412E-04 -6.760472E-04 +3.126412E-04 +7.493441E-03 
 -2.097518E-04 -5.586829E-05 -2.497570E-04 -5.586829E-05 -1.382946E-06 +6.796219E-04 -2.497570E-04 +6.796219E-04 +7.350138E-03 
 +1.318530E-04 +6.966448E-05 +2.489086E-04 +6.966448E-05 +2.367717E-04 +6.016351E-04 +2.489086E-04 +6.016351E-04 +6.998446E-03 
 +2.094591E-04 +4.208142E-04 -6.917076E-05 +4.208142E-04 -4.317220E-04 +2.335375E-05 -6.917076E-05 +2.335375E-05 +7.735151E-03 
 +2.662133E-04 +2.999415E-05 -3.115319E-04 +2.999415E-05 +1.304070E-04 -1.929083E-04 -3.115319E-04 -1.929083E-04 +7.433572E-03 
 +6.224028E-05 -4.342610E-04 +6.255778E-04 -4.342610E-04 +9.971451E-05 +2.156072E-04 +6.255778E-04 +2.156072E-04 +7.003276E-03 
 -2.330551E-04 +8.708250E-06 -1.329822E-04 +8.708250E-06 -8.569114E-05 -2.679341E-04 -1.329822E-04 -2.679341E-04 +7.470712E-03 
 -6.338672E-05 +7.912421E-04 -1.093675E-04 +7.912421E-04 +1.504834E-04 +9.618686E-05 -1.093675E-04 +9.618686E-05 +7.431508E-03 
 +3.473761E-04 -4.623514E-04 +1.321080E-04 -4.623514E-04 -1.482608E-04 +2.078379E-04 +1.321080E-04 +2.078379E-04 +6.940935E-03 
 +2.292495E-04 +1.465231E-04 -1.126015E-04 +1.465231E-04 +1.645036E-04 -5.444584E-04 -1.126015E-04 -5.444584E-04 +7.341771E-03 
 -2.246568E-04 +6.022382E-04 +7.268072E-05 +6.022382E-04 -7.205708E-05 -2.622982E-04 +7.268072E-05 -2.622982E-04 +7.437271E-03 
 -2.073290E-04 +9.822046E-04 +1.423195E-04 +9.822046E-04 +7.354500E-05 -3.093107E-04 +1.423195E-04 -3.093107E-04 +7.713762E-03 
 -5.207831E-04 +1.397645E-04 +1.663750E-04 +1.397645E-04 -1.642002E-04 +2.280145E-04 +1.663750E-04 +2.280145E-04 +7.764703E-03 
 +1.388255E-05 +3.791255E-04 +3.843769E-04 +3.791255E-04 -1.920034E-05 +1.480137E-04 +3.843769E-04 +1.480137E-04 +7.416445E-03 
 +3.784928E-04 +6.236513E-04 +6.159358E-04 +6.236513E-04 +2.713701E-04 +2.208955E-04 +6.159358E-04 +2.208955E-04 +6.979211E-03 
 +1.463939E-04 -2.366518E-04 -1.252826E-04 -2.366518E-04 +3.591753E-04 +2.628225E-04 -1.252826E-04 +2.628225E-04 +7.368629E-03 
 +2.194447E-04 +1.077408E-03 +6.273508E-05 +1.077408E-03 -5.343189E-04 -4.058645E-04 +6.273508E-05 -4.058645E-04 +7.613721E-03 
 +5.080043E-05 +1.080412E-04 +7.130982E-04 +1.080412E-04 -7.041725E-05 +2.169502E-05 +7.130982E-04 +2.169502E-05 +7.651768E-03 
 -4.632520E-06 +5.606341E-04 +5.780578E-05 +5.606341E-04 +1.856648E-04 +2.894249E-04 +5.780578E-05 +2.894249E-04 +7.544703E-03 
 -3.731419E-04 +1.080010E-03 -6.232725E-04 +1.080010E-03 +1.601660E-04 +3.096334E-04 -6.232725E-04 +3.096334E-04 +7.362157E-03 
 +1.556385E-04 +7.179026E-05 +2.609629E-04 +7.179026E-05 +4.460538E-04 -4.329964E-04 +2.609629E-04 -4.329964E-04 +7.234902E-03 
 +3.525618E-04 -3.260426E-05 +4.588613E-04 -3.260426E-05 -1.434887E-04 -5.619918E-04 +4.588613E-04 -5.619918E-04 +7.541925E-03 
 +1.716402E-04 +3.449136E-04 -7.672745E-05 +3.449136E-04 -1.205901E-04 +4.708793E-05 -7.672745E-05 +4.708793E-05 +8.025322E-03 
 +2.919607E-04 +2.774193E-04 +3.172845E-04 +2.774193E-04 -6.220627E-04 -7.303571E-04 +3.172845E-04 -7.303571E-04 +7.564328E-03 
 +2.150106E-04 +1.087674E-04 +2.431347E-04 +1.087674E-04 +3.220575E-04 -1.986657E-04 +2.431347E-04 -1.986657E-04 +6.864050E-03 
 +1.252017E-04 +3.052653E-04 -2.330763E-04 +3.052653E-04 -1.239032E-04 -4.100798E-04 -2.330763E-04 -4.100798E-04 +7.540820E-03 
 -3.268609E-04 +1.001764E-03 -4.661836E-05 +1.001764E-03 +2.395194E-04 +1.953775E-04 -4.661836E-05 +1.953775E-04 +7.659866E-03 
 -3.551329E-04 +4.908235E-04 +1.664540E-04 +4.908235E-04 -1.053481E-04 -1.175730E-04 +1.664540E-04 -1.175730E-04 +7.384806E-03 
 -1.183872E-04 +8.235112E-05 -3.929225E-05 +8.235112E-05 +3.492773E-04 +3.000149E-05 -3.929225E-05 +3.000149E-05 +7.318583E-03 
 -7.788056E-05 -4.949632E-04 +1.154112E-05 -4.949632E-04 -4.268132E-04 +2.877637E-04 +1.154112E-05 +2.877637E-04 +7.633295E-03 
 +1.617616E-04 -3.896846E-04 +2.533981E-04 -3.896846E-04 -4.103518E-06 +2.331025E-04 +2.533981E-04 +2.331025E-04 +7.483975E-03 
 -5.471499E-04 +2.304436E-04 -3.956366E-04 +2.304436E-04 +1.183416E-05 +7.397365E-04 -3.956366E-04 +7.397365E-04 +7.888850E-03 
 -3.208176E-04 +9.607316E-04 +2.451530E-05 +9.607316E-04 -5.336449E-04 +1.855700E-04 +2.451530E-05 +1.855700E-04 +7.915447E-03 
 -7.056698E-04 +1.424410E-04 +1.272856E-04 +1.424410E-04 +6.318981E-04 -1.230550E-04 +1.272856E-04 -1.230550E-04 +7.569576E-03 
 -6.594069E-05 +1.063221E-03 -1.043110E-04 +1.063221E-03 -1.906287E-04 -2.005873E-04 -1.043110E-04 -2.005873E-04 +7.762042E-03 
 -2.732425E-04 -2.800338E-04 -2.304457E-04 -2.800338E-04 +1.070488E-05 +5.586760E-04 -2.304457E-04 +5.586760E-04 +7.867319E-03 
 -7.341499E-05 +1.087894E-04 +2.006616E-04 +1.087894E-04 +4.006705E-04 -7.069100E-04 +2.006616E-04 -7.069100E-04 +7.047807E-03 
 +1.928825E-04 +4.756260E-05 +3.506121E-04 +4.756260E-05 -6.995727E-04 +5.661595E-05 +3.506121E-04 +5.661595E-05 +7.386329E-03 
 -5.524986E-04 +2.263473E-04 -6.247736E-04 +2.263473E-04 +3.268880E-04 -1.726295E-04 -6.247736E-04 -1.726295E-04 +7.528302E-03 
 +2.625600E-04 +3.845288E-04 +1.484288E-04 +3.845288E-04 +1.439170E-04 +1.471639E-04 +1.484288E-04 +1.471639E-04 +7.295536E-03 
 +3.054825E-04 +4.457513E-04 +1.184054E-04 +4.457513E-04 -3.033529E-04 -3.328628E-04 +1.184054E-04 -3.328628E-04 +7.489429E-03 
 +5.874407E-05 -1.887485E-04 -3.789811E-04 -1.887485E-04 +5.834721E-04 -1.166643E-04 -3.789811E-04 -1.166643E-04 +7.083299E-03 
 +9.819950E-05 +8.319577E-05 -5.009812E-05 +8.319577E-05 -1.334479E-04 +1.801626E-04 -5.009812E-05 +1.801626E-04 +7.166679E-03 
 +3.893591E-04 -6.780462E-04 -4.480024E-04 -6.780462E-04 +2.988485E-05 -1.801719E-04 -4.480024E-04 -1.801719E-04 +7.272597E-03 
 +1.042180E-04 +4.018494E-04 -1.762507E-04 +4.018494E-04 -6.901294E-04 -5.084475E-05 -1.762507E-04 -5.084475E-05 +7.625944E-03 
 -3.705746E-04 -4.208395E-04 +3.630401E-04 -4.208395E-04 +3.246859E-04 +6.386646E-04 +3.630401E-04 +6.386646E-04 +7.745155E-03 
 -2.258869E-04 +5.453099E-04 +9.558786E-04 +5.453099E-04 +2.398084E-04 +2.245574E-04 +9.558786E-04 +2.245574E-04 +7.312247E-03 
 -2.484338E-04 +6.691602E-04 +3.176131E-04 +6.691602E-04 -1.719720E-04 +2.357566E-04 +3.176131E-04 +2.357566E-04 +7.593432E-03 
 -6.503160E-04 +3.327343E-04 +2.415509E-04 +3.327343E-04 +2.921707E-04 +1.673872E-04 +2.415509E-04 +1.673872E-04 +7.849107E-03 
 -7.530301E-04 -1.294488E-03 +9.902050E-05 -1.294488E-03 -5.605472E-05 -1.802114E-04 +9.902050E-05 -1.802114E-04 +8.217746E-03 
 -6.601064E-06 +7.465494E-04 +4.652091E-04 +7.465494E-04 -3.130319E-05 -9.522234E-05 +4.652091E-04 -9.522234E-05 +7.653564E-03 
 +4.595675E-05 +5.672223E-04 +9.958412E-04 +5.672223E-04 -1.866324E-04 +1.409734E-04 +9.958412E-04 +1.409734E-04 +7.357883E-03 
 +7.977636E-05 -5.821276E-05 +9.549377E-04 -5.821276E-05 -8.486380E-06 -8.435599E-05 +9.549377E-04 -8.435599E-05 +7.380389E-03 
 +5.632588E-04 -4.959202E-04 -3.656416E-04 -4.959202E-04 -6.534539E-05 +2.575351E-04 -3.656416E-04 +2.575351E-04 +7.229217E-03 
 +1.531679E-05 +7.395092E-04 +3.012274E-04 +7.395092E-04 -9.216063E-05 +1.841592E-04 +3.012274E-04 +1.841592E-04 +7.301077E-03 
 -3.122776E-04 +6.589437E-04 +3.067514E-04 +6.589437E-04 +6.671010E-05 +4.386377E-05 +3.067514E-04 +4.386377E-05 +7.561353E-03 
 -3.154806E-04 -3.200796E-04 -3.651758E-04 -3.200796E-04 +4.597159E-04 -2.973724E-04 -3.651758E-04 -2.973724E-04 +7.562412E-03 
 +9.743230E-05 +2.269687E-04 +5.072286E-04 +2.269687E-04 -5.138900E-04 +3.424304E-04 +5.072286E-04 +3.424304E-04 +7.877894E-03 
 +2.943887E-04 +7.102572E-05 +4.772512E-05 +7.102572E-05 -2.883461E-04 -4.300299E-05 +4.772512E-05 -4.300299E-05 +7.530469E-03 
 -4.273044E-04 +1.108014E-03 -2.268267E-04 +1.108014E-03 +6.623953E-04 -1.923621E-04 -2.268267E-04 -1.923621E-04 +7.355788E-03 
 +2.144850E-04 +3.281186E-04 +5.146944E-04 +3.281186E-04 -4.272308E-04 +2.146612E-04 +5.146944E-04 +2.146612E-04 +7.716236E-03 
 +3.085216E-04 +1.745751E-04 +4.073413E-05 +1.745751E-04 +3.650452E-04 +1.456666E-05 +4.073413E-05 +1.456666E-05 +7.206240E-03 
 +1.136811E-05 +1.004745E-03 -4.749181E-04 +1.004745E-03 -1.402089E-04 +1.811858E-05 -4.749181E-04 +1.811858E-05 +7.493967E-03 
 +1.550039E-04 +3.281590E-04 +2.092044E-05 +3.281590E-04 +2.609720E-05 -4.724366E-05 +2.092044E-05 -4.724366E-05 +7.622162E-03 
 +1.906095E-04 -7.690587E-04 +7.247293E-04 -7.690587E-04 -3.882292E-05 -2.166268E-04 +7.247293E-04 -2.166268E-04 +7.594459E-03 
 -3.544273E-04 +1.381629E-04 +6.546693E-05 +1.381629E-04 +2.195781E-04 -1.664635E-05 +6.546693E-05 -1.664635E-05 +7.525811E-03 
 -2.399025E-04 -5.829924E-04 -5.012559E-04 -5.829924E-04 -2.792348E-04 +8.817304E-05 -5.012559E-04 +8.817304E-05 +7.586482E-03 
 +1.160389E-04 +7.264736E-04 -1.579495E-04 +7.264736E-04 +2.088584E-04 -2.284008E-04 -1.579495E-04 -2.284008E-04 +7.473783E-03 
 +2.652557E-04 -1.950299E-04 -5.197402E-05 -1.950299E-04 +3.638061E-05 +4.979033E-04 -5.197402E-05 +4.979033E-04 +7.280802E-03 
 -4.818222E-05 +4.830212E-04 -2.035215E-04 +4.830212E-04 +7.723621E-05 +1.899907E-04 -2.035215E-04 +1.899907E-04 +7.426883E-03 
 -1.949447E-04 -2.588053E-04 +5.958446E-04 -2.588053E-04 +5.078748E-05 +4.614326E-04 +5.958446E-04 +4.614326E-04 +7.360169E-03 
 +5.715795E-05 +1.102944E-03 -3.011887E-04 +1.102944E-03 -3.043203E-05 -5.380673E-04 -3.011887E-04 -5.380673E-04 +7.628564E-03 
 +3.837076E-05 +1.797899E-03 -2.705907E-04 +1.797899E-03 -2.880212E-04 +3.571956E-04 -2.705907E-04 +3.571956E-04 +7.712948E-03 
 +3.856143E-05 -5.511643E-04 +1.981274E-04 -5.511643E-04 +3.230647E-04 -4.440165E-04 +1.981274E-04 -4.440165E-04 +7.329789E-03 
 +2.747641E-04 +1.195053E-04 +8.219581E-04 +1.195053E-04 +1.945821E-04 +5.629832E-04 +8.219581E-04 +5.629832E-04 +6.981462E-03 
 +1.805936E-04 +8.057374E-04 -1.102570E-04 +8.057374E-04 -7.359706E-04 +1.058737E-04 -1.102570E-04 +1.058737E-04 +7.958732E-03 
 -5.630857E-04 -2.441507E-04 -7.043624E-05 -2.441507E-04 +3.858187E-04 -2.556092E-04 -7.043624E-05 -2.556092E-04 +7.573800E-03 
 -1.455463E-04 -9.299600E-04 +2.396104E-05 -9.299600E-04 +2.601550E-04 -3.684331E-04 +2.396104E-05 -3.684331E-04 +7.078976E-03 
 +6.029869E-05 +1.559790E-04 -7.669947E-04 +1.559790E-04 -1.414600E-04 -9.946968E-06 -7.669947E-04 -9.946968E-06 +7.580588E-03 
 +8.471921E-05 +1.725326E-04 -6.286135E-04 +1.725326E-04 -1.551936E-04 +1.325887E-05 -6.286135E-04 +1.325887E-05 +7.486834E-03 
 -5.693367E-05 +8.403315E-04 -1.463996E-04 +8.403315E-04 +1.365914E-04 +7.586641E-04 -1.463996E-04 +7.586641E-04 +7.606652E-03 
 +2.182910E-05 +1.430845E-04 -1.530989E-04 +1.430845E-04 +1.191690E-04 -4.279524E-04 -1.530989E-04 -4.279524E-04 +7.382765E-03 
 +6.430991E-05 +1.989170E-04 +2.478757E-05 +1.989170E-04 +5.600802E-05 -1.709829E-05 +2.478757E-05 -1.709829E-05 +7.462302E-03 
 -1.182528E-04 +8.985509E-04 +8.303180E-04 +8.985509E-04 -4.317938E-04 +8.804166E-05 +8.303180E-04 +8.804166E-05 +7.729827E-03 
 +1.576749E-04 -1.015701E-04 +7.025789E-04 -1.015701E-04 -4.343854E-05 -2.752623E-04 +7.025789E-04 -2.752623E-04 +7.397554E-03 
 +2.333785E-04 -3.611640E-04 +2.420704E-04 -3.611640E-04 +3.195128E-04 +2.665561E-04 +2.420704E-04 +2.665561E-04 +7.193313E-03 
 -3.573983E-05 +4.583429E-04 -5.279427E-04 +4.583429E-04 -6.661980E-06 -2.576736E-04 -5.279427E-04 -2.576736E-04 +7.584594E-03 
 -3.769427E-04 +3.650297E-04 -2.812341E-04 +3.650297E-04 +1.016105E-04 -1.852900E-04 -2.812341E-04 -1.852900E-04 +7.540314E-03 
 -1.656111E-04 -4.726277E-05 -6.976877E-05 -4.726277E-05 -1.789906E-04 -3.324925E-04 -6.976877E-05 -3.324925E-04 +7.567695E-03 
 +3.988601E-05 +9.354469E-05 -2.174040E-04 +9.354469E-05 -1.157917E-04 -1.486736E-04 -2.174040E-04 -1.486736E-04 +7.570604E-03 
 -2.137538E-04 +1.855929E-04 -9.550909E-06 +1.855929E-04 +1.401284E-04 -7.306868E-04 -9.550909E-06 -7.306868E-04 +7.381134E-03 
 -6.757319E-04 -3.042833E-04 -1.837812E-04 -3.042833E-04 +5.292383E-04 -1.265254E-04 -1.837812E-04 -1.265254E-04 +7.376072E-03 
 -4.098510E-04 -5.473100E-04 +4.018288E-04 -5.473100E-04 -1.592637E-05 -7.747584E-05 +4.018288E-04 -7.747584E-05 +7.515507E-03 
 +1.331091E-04 +9.589723E-04 +5.757147E-04 +9.589723E-04 -7.404397E-04 +3.405469E-04 +5.757147E-04 +3.405469E-04 +7.852165E-03 
 -8.747050E-05 +3.894281E-04 -1.650233E-04 +3.894281E-04 +2.843467E-04 -1.789496E-04 -1.650233E-04 -1.789496E-04 +7.453709E-03 
 -2.191245E-04 +1.502201E-03 -6.898813E-04 +1.502201E-03 -6.141158E-04 +4.277458E-04 -6.898813E-04 +4.277458E-04 +8.209161E-03 
 -1.095620E-04 -2.687778E-04 +4.269662E-05 -2.687778E-04 +1.495844E-04 +1.459532E-04 +4.269662E-05 +1.459532E-04 +7.127361E-03 
 -2.041972E-04 -1.624045E-04 +3.406477E-04 -1.624045E-04 +3.487828E-04 +4.497208E-04 +3.406477E-04 +4.497208E-04 +7.183793E-03 
 +7.696671E-05 -1.100280E-03 +3.887873E-05 -1.100280E-03 -6.048520E-04 +4.485939E-05 +3.887873E-05 +4.485939E-05 +7.946731E-03 
 -1.075978E-04 +1.510057E-04 +1.245292E-04 +1.510057E-04 +5.488137E-04 +1.448648E-04 +1.245292E-04 +1.448648E-04 +7.169290E-03 
 -4.950199E-04 +1.454946E-03 +1.441259E-04 +1.454946E-03 -3.048823E-04 -3.680070E-04 +1.441259E-04 -3.680070E-04 +7.891191E-03 
 -2.327933E-04 +2.106497E-04 +7.848768E-05 +2.106497E-04 +1.082768E-04 -3.826664E-04 +7.848768E-05 -3.826664E-04 +7.767000E-03 
 +2.149596E-04 +7.317166E-04 +2.080929E-04 +7.317166E-04 +5.260804E-04 -8.366691E-06 +2.080929E-04 -8.366691E-06 +7.323552E-03 
 +2.089117E-04 +4.541433E-04 -5.319015E-05 +4.541433E-04 -6.342381E-04 +2.826824E-04 -5.319015E-05 +2.826824E-04 +7.765091E-03 
 +2.002602E-04 -2.220056E-04 -1.272654E-04 -2.220056E-04 +1.279969E-04 +1.239905E-04 -1.272654E-04 +1.239905E-04 +7.412838E-03 
 +3.577702E-04 -3.394858E-04 +1.684261E-04 -3.394858E-04 -4.754889E-04 +4.141254E-05 +1.684261E-04 +4.141254E-05 +7.282998E-03 
 +3.298983E-04 +1.367558E-04 +4.769108E-04 +1.367558E-04 +2.973956E-04 +5.358135E-05 +4.769108E-04 +5.358135E-05 +7.471703E-03 
 +1.399427E-04 +1.988447E-04 +3.035076E-04 +1.988447E-04 +6.865139E-05 +1.379414E-04 +3.035076E-04 +1.379414E-04 +7.399303E-03 
 -5.215898E-04 +2.538306E-04 -3.561721E-04 +2.538306E-04 -3.922539E-05 -2.797897E-04 -3.561721E-04 -2.797897E-04 +7.728195E-03 
 -2.918143E-04 -8.418239E-04 +1.523724E-04 -8.418239E-04 -4.299430E-06 -3.906763E-04 +1.523724E-04 -3.906763E-04 +7.948864E-03 
 -1.114343E-04 -1.991443E-04 +1.026540E-04 -1.991443E-04 -3.391161E-04 +8.494343E-05 +1.026540E-04 +8.494343E-05 +7.721393E-03 
 -3.799894E-04 +1.139657E-04 +1.850104E-04 +1.139657E-04 +4.599858E-04 +8.391633E-04 +1.850104E-04 +8.391633E-04 +7.672458E-03 
 -4.004076E-04 -5.346448E-04 +6.710531E-04 -5.346448E-04 +2.921860E-04 -2.908625E-04 +6.710531E-04 -2.908625E-04 +7.400488E-03 
 -5.028703E-04 +3.413988E-04 -2.957426E-05 +3.413988E-04 -6.154875E-05 -7.984914E-05 -2.957426E-05 -7.984914E-05 +7.547785E-03 
 -4.332125E-04 -2.703271E-04 -7.540361E-05 -2.703271E-04 -1.344498E-04 -1.060650E-04 -7.540361E-05 -1.060650E-04 +7.551515E-03 
 +1.933680E-05 +6.120745E-04 +9.329695E-05 +6.120745E-04 -3.574702E-04 -3.949274E-04 +9.329695E-05 -3.949274E-04 +7.909868E-03 
 +1.889192E-04 +4.982685E-04 -1.215866E-04 +4.982685E-04 -5.613534E-06 +5.598267E-04 -1.215866E-04 +5.598267E-04 +6.922408E-03 
 +3.454913E-04 +2.803383E-04 -3.920314E-04 +2.803383E-04 +5.433754E-05 +2.730057E-04 -3.920314E-04 +2.730057E-04 +7.153315E-03 
 +4.378472E-05 +5.985059E-04 -2.010673E-04 +5.985059E-04 -3.440440E-04 -1.118067E-04 -2.010673E-04 -1.118067E-04 +7.818686E-03 
 +3.315557E-05 +5.633674E-04 -8.250884E-04 +5.633674E-04 +2.279174E-04 -5.626443E-04 -8.250884E-04 -5.626443E-04 +7.413063E-03 
 +3.635670E-04 -1.185119E-03 -1.465461E-04 -1.185119E-03 -3.580470E-04 +1.535519E-04 -1.465461E-04 +1.535519E-04 +7.970117E-03 
 +8.128756E-05 +6.744344E-04 +1.975696E-04 +6.744344E-04 +3.285037E-05 +2.008082E-04 +1.975696E-04 +2.008082E-04 +7.515571E-03 
 +1.586298E-04 +1.070143E-03 +1.099909E-04 +1.070143E-03 +3.799660E-04 -8.769960E-04 +1.099909E-04 -8.769960E-04 +7.063041E-03 
 +2.188367E-04 +3.385842E-04 +9.746610E-04 +3.385842E-04 -8.411931E-05 -4.958140E-04 +9.746610E-04 -4.958140E-04 +7.266041E-03 
 -5.406051E-04 -1.759135E-04 +4.393673E-04 -1.759135E-04 -1.811526E-04 -3.377640E-04 +4.393673E-04 -3.377640E-04 +7.301208E-03 
 +2.299059E-04 -9.318542E-05 -4.600589E-06 -9.318542E-05 +1.629052E-04 -6.557381E-04 -4.600589E-06 -6.557381E-04 +7.315767E-03 
 +4.732304E-04 +5.593229E-04 -1.893182E-05 +5.593229E-04 -5.066913E-04 -8.787827E-05 -1.893182E-05 -8.787827E-05 +7.499437E-03 
 +3.032085E-04 -3.235678E-05 -4.887234E-04 -3.235678E-05 +3.563697E-04 -4.413471E-05 -4.887234E-04 -4.413471E-05 +6.992920E-03 
 +4.831299E-04 +7.855645E-05 -1.278345E-04 +7.855645E-05 -1.539505E-04 +6.455614E-04 -1.278345E-04 +6.455614E-04 +6.862777E-03 
 +4.591228E-04 -2.232917E-04 +1.471027E-08 -2.232917E-04 -3.130709E-05 -5.342125E-06 +1.471027E-08 -5.342125E-06 +7.220854E-03 
 +4.459242E-05 -2.781578E-04 -7.211388E-04 -2.781578E-04 +8.294210E-05 +3.615165E-05 -7.211388E-04 +3.615165E-05 +7.277170E-03 
 -2.757114E-04 +9.270240E-04 +5.189691E-05 +9.270240E-04 +1.336990E-04 -3.684504E-04 +5.189691E-05 -3.684504E-04 +7.185364E-03 
 +1.546630E-04 -5.026247E-04 +2.334261E-04 -5.026247E-04 +3.779501E-04 +6.055791E-04 +2.334261E-04 +6.055791E-04 +6.992353E-03 
 +1.122175E-04 +9.683726E-05 +3.266097E-04 +9.683726E-05 -1.913937E-04 -5.433438E-05 +3.266097E-04 -5.433438E-05 +7.708909E-03 
 -1.380848E-04 -6.171881E-04 +3.093186E-04 -6.171881E-04 -2.815259E-04 +2.595696E-04 +3.093186E-04 +2.595696E-04 +7.512874E-03 
 +1.480951E-05 +4.625099E-04 -1.099266E-04 +4.625099E-04 +6.855499E-04 -2.232799E-04 -1.099266E-04 -2.232799E-04 +7.149563E-03 
 +2.407256E-04 +3.068433E-04 +5.056886E-04 +3.068433E-04 +1.955777E-04 +1.215642E-04 +5.056886E-04 +1.215642E-04 +6.978925E-03 
 -3.118755E-04 -2.691207E-04 +1.112948E-04 -2.691207E-04 +1.803343E-04 -2.197732E-04 +1.112948E-04 -2.197732E-04 +7.669661E-03 
 +5.641064E-04 +1.056874E-04 -3.891869E-04 +1.056874E-04 -9.031266E-04 +8.910159E-06 -3.891869E-04 +8.910159E-06 +7.835680E-03 
 +1.826545E-04 +7.636527E-04 +6.690926E-04 +7.636527E-04 +1.533153E-04 -3.204594E-05 +6.690926E-04 -3.204594E-05 +7.117820E-03 
 -1.560195E-05 +3.810116E-04 +1.719115E-04 +3.810116E-04 -2.158135E-05 +3.431017E-05 +1.719115E-04 +3.431017E-05 +7.522786E-03 
 +3.035690E-04 -2.046636E-04 -6.593170E-04 -2.046636E-04 +7.660660E-05 -1.729932E-04 -6.593170E-04 -1.729932E-04 +7.339805E-03 
 -2.857505E-04 -4.097506E-04 +8.771043E-05 -4.097506E-04 +1.629918E-04 +5.076404E-04 +8.771043E-05 +5.076404E-04 +7.174055E-03 
 +1.201094E-05 +6.877347E-04 -1.086967E-04 +6.877347E-04 +1.611406E-04 -2.410614E-04 -1.086967E-04 -2.410614E-04 +7.876523E-03 
 -6.423095E-05 -6.020647E-04 -1.476786E-04 -6.020647E-04 -5.946713E-04 +2.624089E-04 -1.476786E-04 +2.624089E-04 +8.070027E-03 
 -3.894930E-04 -1.718376E-04 -1.001236E-04 -1.718376E-04 +2.650015E-04 -1.655870E-04 -1.001236E-04 -1.655870E-04 +7.423433E-03 
 -1.779522E-05 +3.947781E-04 +5.685391E-04 +3.947781E-04 -1.709106E-04 -1.421466E-05 +5.685391E-04 -1.421466E-05 +7.484389E-03 
 -3.253898E-04 +4.397035E-04 +1.325710E-04 +4.397035E-04 +3.151621E-04 +1.263113E-04 +1.325710E-04 +1.263113E-04 +7.409500E-03 
 -2.550485E-04 -8.317058E-04 +1.413880E-04 -8.317058E-04 -8.317210E-05 -6.904078E-05 +1.413880E-04 -6.904078E-05 +7.573234E-03 
 +4.858752E-04 +1.592773E-04 +4.656114E-04 +1.592773E-04 -6.926802E-04 +1.366844E-04 +4.656114E-04 +1.366844E-04 +7.621127E-03 
 +4.800922E-04 +3.752343E-04 +1.668039E-04 +3.752343E-04 +5.052626E-04 -1.299560E-04 +1.668039E-04 -1.299560E-04 +7.165920E-03 
 -8.668383E-06 +7.268030E-04 +4.445027E-04 +7.268030E-04 +3.008456E-04 +4.077970E-04 +4.445027E-04 +4.077970E-04 +7.350117E-03 
 +1.031785E-04 +8.523601E-04 -1.464231E-04 +8.523601E-04 -1.583649E-05 -2.321006E-04 -1.464231E-04 -2.321006E-04 +7.646425E-03 
 -8.012546E-06 -7.126629E-04 -1.407665E-04 -7.126629E-04 +1.004422E-04 +2.687937E-05 -1.407665E-04 +2.687937E-05 +7.665369E-03 
 +2.765637E-04 +1.928004E-04 -1.465022E-04 +1.928004E-04 +7.494783E-05 +1.421911E-04 -1.465022E-04 +1.421911E-04 +7.102686E-03 
 +2.970819E-04 -5.943679E-04 -3.302689E-05 -5.943679E-04 -1.299475E-04 +1.794201E-04 -3.302689E-05 +1.794201E-04 +7.341249E-03 
 +5.815550E-05 +2.244184E-04 +7.520732E-04 +2.244184E-04 +1.199593E-04 -1.536674E-05 +7.520732E-04 -1.536674E-05 +7.609172E-03 
 -2.899091E-04 -4.419355E-04 -3.537664E-04 -4.419355E-04 +6.351314E-04 -6.128902E-04 -3.537664E-04 -6.128902E-04 +7.249930E-03 
 +2.522848E-04 +3.443919E-04 +3.133581E-04 +3.443919E-04 -3.692979E-04 -1.849523E-04 +3.133581E-04 -1.849523E-04 +7.298531E-03 
 +2.492469E-04 -2.288253E-04 +1.062466E-04 -2.288253E-04 +4.712946E-05 +4.908126E-04 +1.062466E-04 +4.908126E-04 +7.482793E-03 
 +2.493721E-04 +5.059750E-05 -2.740437E-04 +5.059750E-05 +1.195014E-04 +4.405419E-05 -2.740437E-04 +4.405419E-05 +7.550071E-03 
 -1.916724E-04 +3.150611E-04 +3.362956E-04 +3.150611E-04 +1.683874E-04 -1.722725E-04 +3.362956E-04 -1.722725E-04 +7.450369E-03 
 +1.547569E-04 -1.155120E-03 +4.856659E-04 -1.155120E-03 -2.340247E-04 +5.822605E-05 +4.856659E-04 +5.822605E-05 +7.379333E-03 
 -3.092901E-04 -5.620348E-04 +2.687436E-05 -5.620348E-04 +3.890177E-04 +3.896445E-04 +2.687436E-05 +3.896445E-04 +7.473944E-03 
 -4.154356E-04 -4.313772E-04 -2.876452E-04 -4.313772E-04 -3.234365E-05 +2.740417E-04 -2.876452E-04 +2.740417E-04 +7.717385E-03 
 +2.790741E-04 +1.087590E-03 -8.587941E-04 +1.087590E-03 -1.332421E-04 -4.931177E-04 -8.587941E-04 -4.931177E-04 +7.396341E-03 
 -1.770694E-04 +1.471482E-04 -7.045398E-04 +1.471482E-04 +6.132214E-06 -1.303545E-04 -7.045398E-04 -1.303545E-04 +7.554789E-03 
 +6.427954E-07 +2.559451E-04 -4.505142E-04 +2.559451E-04 -1.855596E-04 -1.796408E-04 -4.505142E-04 -1.796408E-04 +7.519799E-03 
 +5.018820E-05 -9.053699E-04 -7.237375E-05 -9.053699E-04 -2.281261E-04 -5.794239E-04 -7.237375E-05 -5.794239E-04 +7.741849E-03 
 -5.459576E-04 -7.679547E-04 +3.201295E-04 -7.679547E-04 +4.250752E-05 -2.229945E-04 +3.201295E-04 -2.229945E-04 +7.994615E-03 
 -6.768208E-05 +7.895667E-05 -2.085311E-04 +7.895667E-05 +7.293954E-05 +2.112069E-04 -2.085311E-04 +2.112069E-04 +7.109328E-03 
 +3.739808E-04 -4.032326E-04 +1.214274E-04 -4.032326E-04 +2.793045E-05 -3.570875E-05 +1.214274E-04 -3.570875E-05 +6.967166E-03 
 +9.915133E-05 +1.856565E-05 +1.035237E-04 +1.856565E-05 -6.299188E-05 +4.707702E-04 +1.035237E-04 +4.707702E-04 +7.256317E-03 
 -3.389290E-04 +3.464484E-04 -5.538950E-05 +3.464484E-04 +2.542313E-04 -2.274526E-04 -5.538950E-05 -2.274526E-04 +7.149109E-03 
 -4.334629E-05 +4.856552E-04 -7.076099E-05 +4.856552E-04 -3.606986E-04 +4.064815E-04 -7.076099E-05 +4.064815E-04 +7.777866E-03 
 -2.581053E-04 -1.377797E-03 -4.633340E-04 -1.377797E-03 -6.980025E-06 +1.122693E-04 -4.633340E-04 +1.122693E-04 +7.764145E-03 
 +5.898723E-05 -2.785562E-04 +4.228687E-06 -2.785562E-04 +2.539547E-04 -2.757245E-04 +4.228687E-06 -2.757245E-04 +7.013341E-03 
 +2.200641E-04 -6.623066E-04 -1.265680E-04 -6.623066E-04 -4.036635E-04 +2.788094E-04 -1.265680E-04 +2.788094E-04 +7.454297E-03 
 -2.898437E-05 +3.909917E-04 +1.232001E-04 +3.909917E-04 +1.130360E-05 -3.263562E-04 +1.232001E-04 -3.263562E-04 +7.383816E-03 
 -1.769617E-04 +2.575296E-04 -6.493549E-04 +2.575296E-04 -4.319860E-04 -8.244426E-05 -6.493549E-04 -8.244426E-05 +7.679858E-03 
 +1.011316E-04 -2.429175E-04 -5.325355E-04 -2.429175E-04 -2.047191E-05 -6.352251E-04 -5.325355E-04 -6.352251E-04 +7.253132E-03 
 +3.537210E-04 +1.290959E-04 +3.239627E-04 +1.290959E-04 +2.874769E-04 -8.430878E-05 +3.239627E-04 -8.430878E-05 +6.980207E-03 
 -2.635124E-04 -7.765196E-06 +5.642316E-05 -7.765196E-06 +2.760768E-04 -5.199371E-04 +5.642316E-05 -5.199371E-04 +7.478982E-03 
 -1.631551E-04 -5.415578E-05 -5.416647E-04 -5.415578E-05 -9.275276E-05 +9.912035E-05 -5.416647E-04 +9.912035E-05 +7.757074E-03 
 -5.973645E-04 -8.249071E-04 -8.229013E-04 -8.249071E-04 -1.213311E-04 -9.780504E-06 -8.229013E-04 -9.780504E-06 +7.992007E-03 
 +7.012157E-07 -5.080178E-04 -5.843707E-04 -5.080178E-04 +2.002838E-04 -1.091541E-03 -5.843707E-04 -1.091541E-03 +7.478500E-03 
 +4.927872E-04 +4.959058E-04 -8.482785E-05 +4.959058E-04 -2.585228E-04 -4.958112E-04 -8.482785E-05 -4.958112E-04 +7.677869E-03 
 -2.866241E-04 +5.670181E-04 -4.199819E-04 +5.670181E-04 +1.354812E-04 -5.681645E-04 -4.199819E-04 -5.681645E-04 +7.366552E-03 
 +3.653276E-04 -4.905968E-05 +3.235871E-04 -4.905968E-05 -1.998795E-04 +4.202111E-04 +3.235871E-04 +4.202111E-04 +7.379985E-03 
 +9.148781E-05 +2.596235E-04 +8.132427E-04 +2.596235E-04 +1.347615E-05 +1.250299E-05 +8.132427E-04 +1.250299E-05 +7.154622E-03 
 +1.578282E-05 +8.436680E-05 +2.345749E-04 +8.436680E-05 +4.368971E-04 +1.363027E-05 +2.345749E-04 +1.363027E-05 +6.712736E-03 
 +6.488573E-05 -5.314643E-04 +1.708700E-04 -5.314643E-04 -4.959019E-04 +4.991449E-05 +1.708700E-04 +4.991449E-05 +7.951680E-03 
 -6.865248E-04 -1.054916E-03 -2.676668E-04 -1.054916E-03 +3.166228E-04 -5.986039E-06 -2.676668E-04 -5.986039E-06 +8.066048E-03 
 +5.617952E-05 +2.567067E-04 +7.338087E-05 +2.567067E-04 +1.096707E-05 +5.262462E-04 +7.338087E-05 +5.262462E-04 +7.346310E-03 
 -1.540490E-04 -4.506345E-04 +5.249623E-04 -4.506345E-04 -6.821685E-05 -1.384930E-04 +5.249623E-04 -1.384930E-04 +7.716917E-03 
 -2.436714E-04 -9.008274E-04 +9.743639E-05 -9.008274E-04 -1.285433E-04 +3.192050E-05 +9.743639E-05 +3.192050E-05 +7.709222E-03 
 +3.490472E-04 -3.096495E-04 +1.799182E-05 -3.096495E-04 +8.358934E-05 +4.707671E-04 +1.799182E-05 +4.707671E-04 +7.434547E-03 
 +1.959295E-04 -4.694483E-04 -9.715940E-05 -4.694483E-04 -4.830629E-04 -1.405393E-05 -9.715940E-05 -1.405393E-05 +7.772389E-03 
 -9.221512E-05 -5.599561E-04 +8.756145E-05 -5.599561E-04 +5.287122E-04 +2.410395E-04 +8.756145E-05 +2.410395E-04 +7.264388E-03 
 -3.986268E-06 +8.645650E-04 -9.274228E-05 +8.645650E-04 -2.200879E-04 +2.680758E-04 -9.274228E-05 +2.680758E-04 +7.609897E-03 
 -3.865308E-04 -1.492156E-03 +5.844907E-04 -1.492156E-03 -2.063592E-04 +2.112267E-04 +5.844907E-04 +2.112267E-04 +8.100555E-03 
 -2.715230E-04 -4.063980E-04 +1.660522E-04 -4.063980E-04 +2.698492E-05 +3.022221E-04 +1.660522E-04 +3.022221E-04 +7.748600E-03 
 +1.324736E-04 +1.405715E-04 -2.801904E-04 +1.405715E-04 -7.099284E-05 +5.121054E-04 -2.801904E-04 +5.121054E-04 +7.287169E-03 
 +9.977511E-05 +5.341257E-04 -4.818890E-05 +5.341257E-04 +2.328419E-04 +1.134944E-04 -4.818890E-05 +1.134944E-04 +7.013065E-03 
 -1.880668E-04 +1.546092E-04 +1.347035E-04 +1.546092E-04 -7.318431E-05 -1.019807E-04 +1.347035E-04 -1.019807E-04 +7.473568E-03 
 -9.398095E-05 -1.932771E-04 +1.468949E-04 -1.932771E-04 +1.534409E-04 +6.249353E-04 +1.468949E-04 +6.249353E-04 +7.415247E-03 
 -2.206882E-05 -9.293628E-04 -8.852551E-05 -9.293628E-04 -1.745692E-04 -3.053511E-04 -8.852551E-05 -3.053511E-04 +7.444221E-03 
 +2.157392E-04 +3.883542E-05 -1.207699E-04 +3.883542E-05 +3.444574E-04 +5.300705E-04 -1.207699E-04 +5.300705E-04 +7.101181E-03 
 +2.066449E-05 -2.939425E-04 +5.095411E-04 -2.939425E-04 -2.517130E-04 +6.501229E-07 +5.095411E-04 +6.501229E-07 +7.677958E-03 
 -1.347378E-04 +1.087904E-04 -3.627117E-04 +1.087904E-04 +2.028443E-04 +5.372597E-04 -3.627117E-04 +5.372597E-04 +7.379849E-03 
 -3.443834E-04 +7.179906E-04 -2.321766E-04 +7.179906E-04 +2.219988E-04 +7.323359E-05 -2.321766E-04 +7.323359E-05 +7.537685E-03 
 +1.262480E-04 +8.397724E-05 +6.017411E-04 +8.397724E-05 -4.977332E-04 -4.505435E-04 +6.017411E-04 -4.505435E-04 +8.130211E-03 
 -7.744379E-05 -1.796889E-04 +1.366430E-04 -1.796889E-04 +2.185749E-04 +3.330403E-04 +1.366430E-04 +3.330403E-04 +7.377133E-03 
 -3.621586E-04 -7.663377E-04 +3.256784E-04 -7.663377E-04 +1.417043E-04 -2.410884E-04 +3.256784E-04 -2.410884E-04 +7.377166E-03 
 +2.245334E-04 +2.523741E-04 -3.926504E-05 +2.523741E-04 -2.008654E-04 -3.005417E-04 -3.926504E-05 -3.005417E-04 +7.651253E-03 
 +1.723032E-05 -4.037044E-04 -3.653860E-04 -4.037044E-04 -4.497972E-05 +2.927781E-04 -3.653860E-04 +2.927781E-04 +7.555324E-03 
 +2.079383E-04 -5.310327E-04 -3.911057E-04 -5.310327E-04 +1.461500E-04 +3.086351E-06 -3.911057E-04 +3.086351E-06 +7.400544E-03 
 +2.488498E-04 +2.124412E-04 -3.522165E-04 +2.124412E-04 +9.160354E-06 +8.927050E-05 -3.522165E-04 +8.927050E-05 +7.613304E-03 
 +2.919471E-04 -4.195234E-04 -6.903480E-05 -4.195234E-04 -1.126543E-04 +1.684081E-04 -6.903480E-05 +1.684081E-04 +7.365704E-03 
 +2.503181E-04 -3.834104E-04 -1.508162E-04 -3.834104E-04 +1.554907E-04 +3.996218E-04 -1.508162E-04 +3.996218E-04 +7.018334E-03 
 -9.158243E-05 +5.308814E-04 +6.230897E-04 +5.308814E-04 -6.704645E-05 +4.483001E-04 +6.230897E-04 +4.483001E-04 +7.220028E-03 
 -4.863735E-05 -1.233306E-03 -4.124645E-04 -1.233306E-03 +3.466166E-04 +5.395133E-05 -4.124645E-04 +5.395133E-05 +6.991588E-03 
 +2.953106E-05 -5.759411E-04 -3.689300E-04 -5.759411E-04 +6.876043E-06 -2.611523E-04 -3.689300E-04 -2.611523E-04 +7.799566E-03 
 -1.690656E-05 -4.129222E-04 +2.085866E-04 -4.129222E-04 -3.610121E-04 -1.890952E-04 +2.085866E-04 -1.890952E-04 +8.168649E-03 
 +9.062576E-05 +8.483967E-04 -3.894119E-04 +8.483967E-04 -1.216458E-04 +6.593749E-05 -3.894119E-04 +6.593749E-05 +7.843994E-03 
 +1.764736E-04 -6.633141E-04 -4.014192E-04 -6.633141E-04 -1.005498E-05 +4.494924E-04 -4.014192E-04 +4.494924E-04 +7.235115E-03 
 +4.290621E-04 +5.378143E-04 -1.299715E-04 +5.378143E-04 +3.403009E-04 -5.329017E-04 -1.299715E-04 -5.329017E-04 +6.907439E-03 
 +5.073931E-05 -5.500836E-04 -7.084752E-04 -5.500836E-04 +2.407911E-04 -2.770507E-04 -7.084752E-04 -2.770507E-04 +6.959860E-03 
 -2.764319E-04 +5.352140E-04 -6.296023E-04 +5.352140E-04 -1.707019E-04 +1.596306E-04 -6.296023E-04 +1.596306E-04 +7.845767E-03 
 +2.435145E-04 -3.229760E-04 +2.228078E-04 -3.229760E-04 +7.266389E-05 -3.979844E-04 +2.228078E-04 -3.979844E-04 +7.493342E-03 
 -9.309480E-05 -5.963489E-04 +2.666973E-04 -5.963489E-04 +1.993305E-05 -2.251399E-04 +2.666973E-04 -2.251399E-04 +7.546994E-03 
 -9.722340E-05 +7.130116E-04 +6.905349E-05 +7.130116E-04 -1.062505E-05 +5.458352E-06 +6.905349E-05 +5.458352E-06 +7.652065E-03 
 +3.063163E-04 +1.958759E-04 -1.675334E-04 +1.958759E-04 -7.062152E-05 -4.058139E-04 -1.675334E-04 -4.058139E-04 +7.437611E-03 
 +2.351158E-05 -5.811227E-04 +3.565116E-04 -5.811227E-04 -2.460507E-04 +1.178530E-04 +3.565116E-04 +1.178530E-04 +7.208216E-03 
 +4.623492E-05 +4.370894E-05 +2.205581E-04 +4.370894E-05 +1.711234E-04 -5.211112E-04 +2.205581E-04 -5.211112E-04 +7.294197E-03 
 +2.883756E-04 -1.476850E-04 -1.749325E-04 -1.476850E-04 -1.778361E-04 +4.911016E-05 -1.749325E-04 +4.911016E-05 +7.657275E-03 
 +1.879376E-04 +2.733269E-05 +3.495491E-05 +2.733269E-05 +1.235910E-04 -2.923460E-04 +3.495491E-05 -2.923460E-04 +7.211791E-03 
 -1.027364E-04 -6.512894E-05 +3.329154E-05 -6.512894E-05 +1.483763E-04 -1.710940E-04 +3.329154E-05 -1.710940E-04 +7.283310E-03 
 -2.027142E-04 +7.704915E-05 +1.982525E-04 +7.704915E-05 +2.191317E-04 +5.071498E-04 +1.982525E-04 +5.071498E-04 +7.191569E-03 
 +4.384955E-04 +5.421239E-04 -4.342433E-04 +5.421239E-04 +1.372189E-04 -1.571822E-04 -4.342433E-04 -1.571822E-04 +7.292520E-03 
 +1.883370E-04 -4.747785E-04 -1.126601E-04 -4.747785E-04 -5.915895E-04 -6.815486E-04 -1.126601E-04 -6.815486E-04 +7.807325E-03 
 -4.877902E-04 -1.152110E-04 +3.738566E-05 -1.152110E-04 +4.603265E-05 -2.634943E-04 +3.738566E-05 -2.634943E-04 +7.716735E-03 
 +2.290214E-04 -7.353230E-05 -5.808833E-04 -7.353230E-05 +1.184889E-04 +9.161805E-05 -5.808833E-04 +9.161805E-05 +7.260153E-03 
 +5.478302E-04 +2.785381E-04 -2.875143E-04 +2.785381E-04 +2.757384E-04 -1.674941E-04 -2.875143E-04 -1.674941E-04 +6.950696E-03 
 +3.207268E-04 -1.664298E-04 -3.007997E-04 -1.664298E-04 -9.613128E-06 +2.606227E-04 -3.007997E-04 +2.606227E-04 +7.058004E-03 
 +7.038124E-05 +1.405760E-04 -3.633408E-04 +1.405760E-04 -1.613505E-04 +4.282079E-04 -3.633408E-04 +4.282079E-04 +7.265225E-03 
 +2.156476E-04 -3.071039E-04 -2.931055E-04 -3.071039E-04 -4.747654E-04 +6.238317E-04 -2.931055E-04 +6.238317E-04 +7.542311E-03 
 -2.048212E-05 +7.540262E-04 +2.161304E-04 +7.540262E-04 +4.144333E-04 -2.264493E-04 +2.161304E-04 -2.264493E-04 +7.463174E-03 
 -1.672193E-05 +9.992468E-05 +5.653009E-04 +9.992468E-05 +1.920144E-05 -6.632926E-05 +5.653009E-04 -6.632926E-05 +7.442121E-03 
 +7.577849E-05 +3.123582E-04 +3.138786E-04 +3.123582E-04 +8.132122E-05 +2.517765E-04 +3.138786E-04 +2.517765E-04 +7.319165E-03 
 -3.639541E-04 +3.085572E-04 -3.676169E-05 +3.085572E-04 +2.532951E-05 -1.763160E-04 -3.676169E-05 -1.763160E-04 +7.811669E-03 
 +7.337048E-05 -5.146001E-04 -1.577212E-04 -5.146001E-04 -1.339252E-04 -2.744347E-04 -1.577212E-04 -2.744347E-04 +7.780690E-03 
 +1.681428E-04 +4.038743E-04 -1.636175E-04 +4.038743E-04 +6.695036E-05 -2.035101E-04 -1.636175E-04 -2.035101E-04 +7.093878E-03 
 +1.833777E-04 -7.666076E-05 -6.187466E-04 -7.666076E-05 +2.222669E-04 -3.739102E-04 -6.187466E-04 -3.739102E-04 +6.983511E-03 
 -5.215070E-05 +4.757638E-04 -1.167675E-04 +4.757638E-04 -5.320613E-04 -2.653202E-04 -1.167675E-04 -2.653202E-04 +7.705162E-03 
 -1.980824E-04 -7.318728E-05 +1.305516E-04 -7.318728E-05 +2.257357E-04 +4.934978E-04 +1.305516E-04 +4.934978E-04 +7.451922E-03 
 +4.894935E-04 -3.527511E-04 -4.448466E-04 -3.527511E-04 +9.718936E-05 +1.288920E-04 -4.448466E-04 +1.288920E-04 +6.915807E-03 
 +2.263052E-04 +2.525466E-04 -1.651092E-04 +2.525466E-04 -2.477546E-04 +1.153041E-04 -1.651092E-04 +1.153041E-04 +7.464604E-03 
 -8.227198E-06 -5.755029E-04 -3.323687E-05 -5.755029E-04 +2.551303E-04 -1.997145E-04 -3.323687E-05 -1.997145E-04 +7.129804E-03 
 +2.481873E-04 +1.604727E-04 -3.673705E-04 +1.604727E-04 +4.170182E-04 -1.309462E-04 -3.673705E-04 -1.309462E-04 +7.053650E-03 
 +6.129100E-04 -1.384007E-04 -8.136580E-04 -1.384007E-04 -2.431978E-04 -4.775313E-04 -8.136580E-04 -4.775313E-04 +7.160747E-03 
 +1.438802E-04 -3.809568E-04 +3.165716E-04 -3.809568E-04 -4.624322E-04 +5.329190E-04 +3.165716E-04 +5.329190E-04 +7.288427E-03 
 -2.636061E-04 -2.185946E-04 +1.124651E-04 -2.185946E-04 +3.936814E-04 +2.229317E-04 +1.124651E-04 +2.229317E-04 +7.638874E-03 
 +6.407806E-05 +3.821346E-04 +1.857930E-04 +3.821346E-04 -2.922771E-04 -2.339132E-04 +1.857930E-04 -2.339132E-04 +7.496330E-03 
 -8.904072E-05 +2.854952E-04 +5.876186E-05 +2.854952E-04 +4.525799E-04 +4.476747E-04 +5.876186E-05 +4.476747E-04 +7.179997E-03 
 -1.076631E-04 +8.681307E-05 -2.243355E-06 +8.681307E-05 +1.930677E-04 -2.420238E-04 -2.243355E-06 -2.420238E-04 +7.219706E-03 
 +5.554445E-04 +2.379845E-04 -2.420949E-04 +2.379845E-04 -3.277582E-04 -3.046575E-04 -2.420949E-04 -3.046575E-04 +7.189741E-03 
 +3.428598E-04 +3.560385E-04 +7.568546E-05 +3.560385E-04 -2.623713E-04 +3.070091E-04 +7.568546E-05 +3.070091E-04 +6.937867E-03 
 +2.520681E-04 +5.859837E-04 -1.525284E-04 +5.859837E-04 +2.540468E-04 +1.227692E-04 -1.525284E-04 +1.227692E-04 +7.150978E-03 
 -3.532117E-05 +7.356683E-04 +2.289703E-04 +7.356683E-04 -2.055442E-04 +4.921666E-04 +2.289703E-04 +4.921666E-04 +7.574491E-03 
 +1.153009E-04 -3.335669E-04 +4.826377E-04 -3.335669E-04 +1.453508E-04 +4.142454E-04 +4.826377E-04 +4.142454E-04 +7.395231E-03 
 +5.771239E-05 +2.118090E-04 -3.421884E-04 +2.118090E-04 +4.362024E-05 +1.065235E-04 -3.421884E-04 +1.065235E-04 +7.270661E-03 
 +1.368010E-04 +5.849096E-04 -1.773492E-04 +5.849096E-04 +1.156421E-04 +2.811029E-05 -1.773492E-04 +2.811029E-05 +7.439767E-03 
 -1.703087E-04 +8.088248E-04 +1.147612E-04 +8.088248E-04 -8.232987E-05 -8.022999E-05 +1.147612E-04 -8.022999E-05 +7.633629E-03 
 -1.844164E-04 -2.984745E-04 -1.553748E-04 -2.984745E-04 +8.621543E-05 +1.411091E-04 -1.553748E-04 +1.411091E-04 +7.766966E-03 
 -1.482315E-04 +8.834433E-04 -6.396078E-05 +8.834433E-04 -1.604136E-04 +7.038355E-04 -6.396078E-05 +7.038355E-04 +7.350613E-03 
 -5.207591E-04 +2.713037E-04 -3.035006E-04 +2.713037E-04 +2.716323E-04 -5.510189E-05 -3.035006E-04 -5.510189E-05 +7.612681E-03 
 +3.307611E-04 +7.366791E-05 +3.754738E-04 +7.366791E-05 -6.304563E-04 -6.497790E-05 +3.754738E-04 -6.497790E-05 +7.826079E-03 
 +2.657864E-04 +3.307704E-04 +3.776351E-04 +3.307704E-04 +1.821660E-04 -3.624132E-04 +3.776351E-04 -3.624132E-04 +7.354954E-03 
 -2.198537E-04 +1.984926E-04 +4.095253E-05 +1.984926E-04 +2.332331E-04 -1.790416E-04 +4.095253E-05 -1.790416E-04 +7.768855E-03 
 -1.381331E-05 +4.475403E-04 +2.659890E-04 +4.475403E-04 +3.852961E-04 +4.282036E-04 +2.659890E-04 +4.282036E-04 +7.505676E-03 
 +2.162818E-05 -4.330722E-06 -4.706235E-05 -4.330722E-06 -3.345881E-04 +3.772956E-04 -4.706235E-05 +3.772956E-04 +7.524916E-03 
 +2.903115E-04 -6.226692E-04 -3.704175E-04 -6.226692E-04 -4.606036E-04 +2.184706E-04 -3.704175E-04 +2.184706E-04 +7.845290E-03 
 +5.032860E-04 +1.933228E-04 -1.770618E-04 +1.933228E-04 +2.716074E-04 +2.654162E-04 -1.770618E-04 +2.654162E-04 +7.375679E-03 
 +4.737169E-05 -7.595040E-04 -2.565863E-04 -7.595040E-04 -4.394999E-04 -6.328412E-04 -2.565863E-04 -6.328412E-04 +7.564323E-03 
 -2.141608E-04 +1.449453E-03 -8.453259E-04 +1.449453E-03 +1.840939E-04 -6.228055E-04 -8.453259E-04 -6.228055E-04 +7.354390E-03 
 -4.091559E-04 -5.901366E-04 -4.173569E-04 -5.901366E-04 +4.034623E-04 +2.556385E-04 -4.173569E-04 +2.556385E-04 +7.354162E-03 
 +2.230124E-04 -6.078853E-05 -1.024549E-04 -6.078853E-05 -4.836669E-04 -8.871461E-06 -1.024549E-04 -8.871461E-06 +7.830692E-03 
 -1.155979E-05 -3.622333E-04 -4.300598E-04 -3.622333E-04 +2.669064E-05 -1.839054E-04 -4.300598E-04 -1.839054E-04 +7.772040E-03 
 -1.076762E-04 +4.581598E-05 +3.748007E-05 +4.581598E-05 +1.886533E-04 +4.117827E-05 +3.748007E-05 +4.117827E-05 +7.585897E-03 
 +7.305276E-06 +3.934284E-04 +3.388943E-04 +3.934284E-04 -2.048940E-04 +3.548243E-04 +3.388943E-04 +3.548243E-04 +7.657184E-03 
 +9.775237E-05 +3.807195E-04 +2.900039E-04 +3.807195E-04 -1.390591E-05 -7.345970E-04 +2.900039E-04 -7.345970E-04 +7.460354E-03 
 +3.363146E-04 +5.885140E-04 +2.890450E-04 +5.885140E-04 +2.473299E-04 +4.905831E-04 +2.890450E-04 +4.905831E-04 +6.819422E-03 
 +5.150980E-05 +1.444348E-04 -4.846312E-04 +1.444348E-04 +2.011354E-04 -3.440809E-04 -4.846312E-04 -3.440809E-04 +7.048580E-03 
 -2.962813E-04 +8.542170E-04 +1.383905E-04 +8.542170E-04 -6.582450E-05 -5.777503E-05 +1.383905E-04 -5.777503E-05 +7.339208E-03 
 +4.739531E-06 -1.526131E-04 +2.942475E-04 -1.526131E-04 +1.982421E-04 +2.313633E-04 +2.942475E-04 +2.313633E-04 +7.432282E-03 
 -7.441133E-05 +9.064909E-04 -4.119638E-05 +9.064909E-04 -4.088491E-04 -9.912885E-05 -4.119638E-05 -9.912885E-05 +7.771083E-03 
 -2.102208E-04 -6.015732E-04 +1.966788E-04 -6.015732E-04 +1.407235E-05 -2.039761E-04 +1.966788E-04 -2.039761E-04 +7.720214E-03 
 +7.423872E-04 -7.059354E-04 +8.320099E-05 -7.059354E-04 -5.618920E-04 -7.213716E-04 +8.320099E-05 -7.213716E-04 +7.462653E-03 
 +5.139375E-04 -2.697098E-04 +2.260790E-05 -2.697098E-04 +3.730658E-04 +3.042982E-04 +2.260790E-05 +3.042982E-04 +7.327015E-03 
 -6.439482E-05 +3.875484E-04 +3.127014E-04 +3.875484E-04 +3.130235E-04 +1.223172E-04 +3.127014E-04 +1.223172E-04 +7.057798E-03 
 -1.985441E-04 -1.069723E-03 -2.817353E-04 -1.069723E-03 +2.014140E-04 -2.354861E-04 -2.817353E-04 -2.354861E-04 +7.777727E-03 
 -3.378538E-04 +1.113187E-03 -6.559929E-04 +1.113187E-03 -3.621673E-04 +7.384123E-05 -6.559929E-04 +7.384123E-05 +8.117447E-03 
 +4.246401E-04 -6.122882E-04 -4.112753E-04 -6.122882E-04 -8.373249E-05 +4.989122E-04 -4.112753E-04 +4.989122E-04 +7.553376E-03 
 -3.802701E-05 +7.051847E-05 +2.194746E-04 +7.051847E-05 +3.886370E-04 +2.298498E-04 +2.194746E-04 +2.298498E-04 +7.147210E-03 
 -2.710390E-04 +1.746431E-04 +8.024535E-05 +1.746431E-04 -2.841495E-04 +2.635430E-04 +8.024535E-05 +2.635430E-04 +7.620581E-03 
 -2.743948E-04 +1.516372E-03 -3.735902E-05 +1.516372E-03 -3.185273E-04 -1.318310E-04 -3.735902E-05 -1.318310E-04 +7.870452E-03 
 -6.885407E-04 -1.608909E-03 -8.254938E-05 -1.608909E-03 +2.402377E-04 +9.964515E-05 -8.254938E-05 +9.964515E-05 +7.730943E-03 
 -3.063694E-04 +3.768861E-04 +3.091642E-04 +3.768861E-04 -6.556004E-05 -3.604623E-04 +3.091642E-04 -3.604623E-04 +7.638237E-03 
 -1.185291E-04 -5.593700E-04 +7.360068E-04 -5.593700E-04 -1.395799E-04 -3.882158E-04 +7.360068E-04 -3.882158E-04 +7.482079E-03 
 -4.813287E-04 +7.454350E-04 +3.817801E-04 +7.454350E-04 +2.201610E-04 +1.859919E-04 +3.817801E-04 +1.859919E-04 +7.475942E-03 
 +1.430449E-04 -5.114869E-04 +1.762236E-04 -5.114869E-04 +5.284107E-05 +2.796963E-04 +1.762236E-04 +2.796963E-04 +7.231520E-03 
 +2.443373E-04 +4.450856E-04 +5.004429E-04 +4.450856E-04 +1.354038E-04 +3.077614E-05 +5.004429E-04 +3.077614E-05 +6.761262E-03 
 +2.098972E-04 +1.106954E-04 +2.709060E-04 +1.106954E-04 -3.088271E-04 +2.141529E-04 +2.709060E-04 +2.141529E-04 +7.329939E-03 
 +1.128232E-04 -2.943895E-04 +4.893593E-04 -2.943895E-04 +3.246192E-04 -1.454368E-04 +4.893593E-04 -1.454368E-04 +7.247553E-03 
 -2.328213E-05 -8.689755E-05 +2.025088E-04 -8.689755E-05 +3.181523E-04 +2.035885E-04 +2.025088E-04 +2.035885E-04 +7.510693E-03 
 +5.475511E-04 -2.070669E-04 +3.486699E-04 -2.070669E-04 -3.387585E-04 -1.430100E-04 +3.486699E-04 -1.430100E-04 +7.994158E-03 
 +2.959474E-04 +7.689992E-05 -4.790871E-04 +7.689992E-05 -1.248226E-04 -4.442298E-04 -4.790871E-04 -4.442298E-04 +7.502829E-03 
 +8.146743E-05 -4.632444E-04 -6.648339E-04 -4.632444E-04 -1.072104E-04 +2.612934E-04 -6.648339E-04 +2.612934E-04 +7.161555E-03 
 +1.777982E-04 -5.704379E-04 +6.925836E-04 -5.704379E-04 -1.145578E-04 +7.337203E-05 +6.925836E-04 +7.337203E-05 +7.385744E-03 
 +2.345814E-04 +6.468273E-04 +6.590504E-04 +6.468273E-04 +3.253222E-04 +2.416518E-04 +6.590504E-04 +2.416518E-04 +7.682544E-03 
 +2.625746E-04 -2.148907E-04 -2.531531E-04 -2.148907E-04 -2.936022E-04 -1.889367E-04 -2.531531E-04 -1.889367E-04 +7.998181E-03 
 -1.584962E-04 -1.669098E-03 -6.641582E-04 -1.669098E-03 +5.770682E-05 +1.378902E-04 -6.641582E-04 +1.378902E-04 +7.689733E-03 
 +2.053876E-04 +6.710291E-04 -6.382781E-05 +6.710291E-04 -5.853032E-05 -5.717960E-04 -6.382781E-05 -5.717960E-04 +7.195455E-03 
 +5.396745E-04 +1.582795E-04 +1.149112E-04 +1.582795E-04 +8.988456E-05 -8.816174E-04 +1.149112E-04 -8.816174E-04 +6.898376E-03 
 -2.178490E-04 -1.842639E-04 -3.400778E-04 -1.842639E-04 +3.325917E-04 -3.586540E-04 -3.400778E-04 -3.586540E-04 +7.378745E-03 
 -1.354986E-04 +9.619038E-04 -6.513443E-06 +9.619038E-04 +5.612689E-04 -4.138713E-04 -6.513443E-06 -4.138713E-04 +7.282866E-03 
 +2.933692E-04 +7.764932E-04 +1.884611E-04 +7.764932E-04 -6.407666E-04 -6.052161E-06 +1.884611E-04 -6.052161E-06 +7.884498E-03 
 -3.573245E-04 -7.176328E-04 -1.435321E-04 -7.176328E-04 -1.143641E-04 +1.226939E-04 -1.435321E-04 +1.226939E-04 +7.843953E-03 
 +2.389033E-05 +3.318602E-04 +2.597398E-04 +3.318602E-04 +3.095818E-04 +3.587916E-04 +2.597398E-04 +3.587916E-04 +7.229301E-03 
 -9.493605E-05 -1.108623E-03 -8.799723E-05 -1.108623E-03 +2.009107E-05 -6.367494E-05 -8.799723E-05 -6.367494E-05 +7.481549E-03 
 -1.576848E-04 +1.590152E-03 +9.337060E-05 +1.590152E-03 -1.782922E-04 +4.555068E-04 +9.337060E-05 +4.555068E-04 +7.427862E-03 
 +1.293364E-04 -7.718502E-04 +4.804150E-04 -7.718502E-04 +6.683004E-04 -5.426416E-05 +4.804150E-04 -5.426416E-05 +7.238002E-03 
 -1.403011E-04 +1.161829E-03 -1.716722E-04 +1.161829E-03 -1.383696E-04 -2.117221E-04 -1.716722E-04 -2.117221E-04 +8.012409E-03 
 +3.172732E-04 -8.213877E-04 +3.968123E-04 -8.213877E-04 -3.635421E-04 +4.826901E-04 +3.968123E-04 +4.826901E-04 +7.539712E-03 
 +2.486145E-04 -1.212684E-04 +8.023403E-04 -1.212684E-04 -3.343976E-05 -9.362968E-05 +8.023403E-04 -9.362968E-05 +7.127559E-03 
 +1.369531E-04 -1.853866E-04 +7.479782E-06 -1.853866E-04 +3.991197E-05 +1.896428E-04 +7.479782E-06 +1.896428E-04 +7.343982E-03 
 +2.058249E-04 +2.327620E-04 -4.931746E-04 +2.327620E-04 +1.034241E-04 -4.622458E-04 -4.931746E-04 -4.622458E-04 +7.198681E-03 
 +1.434205E-04 -2.298606E-04 +1.222761E-04 -2.298606E-04 +2.575787E-04 +6.080164E-05 +1.222761E-04 +6.080164E-05 +7.276671E-03 
 +1.928430E-04 +1.063881E-03 +3.777679E-05 +1.063881E-03 -3.747393E-04 +2.482313E-04 +3.777679E-05 +2.482313E-04 +7.560757E-03 
 -1.822846E-04 +3.824104E-04 -5.355353E-04 +3.824104E-04 +8.626890E-05 -3.151257E-04 -5.355353E-04 -3.151257E-04 +7.608364E-03 
 -2.643274E-04 +2.571165E-04 +1.011522E-04 +2.571165E-04 -1.293982E-04 +6.900095E-05 +1.011522E-04 +6.900095E-05 +7.747347E-03 
 -5.182164E-06 -4.154643E-04 -1.340076E-04 -4.154643E-04 -1.987154E-04 -4.707990E-04 -1.340076E-04 -4.707990E-04 +7.342520E-03 
 +6.854418E-05 +1.506469E-04 +3.541979E-04 +1.506469E-04 +1.421829E-04 +5.929898E-04 +3.541979E-04 +5.929898E-04 +7.036826E-03 
 +1.773911E-04 -3.071903E-04 +3.388962E-04 -3.071903E-04 +1.935539E-04 +4.453380E-04 +3.388962E-04 +4.453380E-04 +7.342807E-03 
 +2.917916E-04 +6.842510E-04 -2.765818E-04 +6.842510E-04 -5.442091E-04 +1.634134E-04 -2.765818E-04 +1.634134E-04 +7.677346E-03 
 -2.307697E-04 +8.276251E-05 -5.063962E-04 +8.276251E-05 +1.436516E-05 +5.075508E-04 -5.063962E-04 +5.075508E-04 +7.557722E-03 
 -5.205476E-04 +3.456103E-04 -3.412261E-04 +3.456103E-04 +3.947152E-04 +3.112605E-04 -3.412261E-04 +3.112605E-04 +7.371582E-03 
 +4.566027E-04 -3.686288E-04 -2.579455E-04 -3.686288E-04 -2.538866E-05 -1.312717E-04 -2.579455E-04 -1.312717E-04 +7.084223E-03 
 +2.126742E-04 +7.298552E-05 -1.974470E-04 +7.298552E-05 +1.522822E-06 +1.771790E-04 -1.974470E-04 +1.771790E-04 +7.167357E-03 
 -3.974856E-04 +5.327043E-04 -2.489860E-04 +5.327043E-04 +1.628966E-04 +1.265474E-05 -2.489860E-04 +1.265474E-05 +7.367012E-03 
 -9.648210E-05 -4.379339E-04 +4.184470E-04 -4.379339E-04 +1.611546E-04 +5.155369E-04 +4.184470E-04 +5.155369E-04 +7.315414E-03 
 -1.167857E-04 +2.495343E-04 +7.910238E-05 +2.495343E-04 -1.839622E-04 +1.888184E-04 +7.910238E-05 +1.888184E-04 +7.524887E-03 
 -2.377683E-04 +2.907937E-05 -5.263290E-04 +2.907937E-05 +4.560778E-05 -1.261914E-04 -5.263290E-04 -1.261914E-04 +7.409799E-03 
 -1.563199E-04 +5.211057E-04 +9.529853E-05 +5.211057E-04 +2.490077E-04 +2.149915E-04 +9.529853E-05 +2.149915E-04 +7.198827E-03 
 -9.556811E-05 +7.745376E-04 +3.245524E-04 +7.745376E-04 -2.152169E-04 -4.748086E-04 +3.245524E-04 -4.748086E-04 +7.875797E-03 
 -1.199530E-04 -7.455676E-04 -2.622707E-04 -7.455676E-04 -6.083407E-04 -3.175002E-05 -2.622707E-04 -3.175002E-05 +8.162832E-03 
 +1.449550E-04 -5.259748E-05 -6.206874E-04 -5.259748E-05 +3.901644E-05 +3.816473E-04 -6.206874E-04 +3.816473E-04 +7.666619E-03 
 +4.558662E-05 -9.343080E-05 -4.156007E-04 -9.343080E-05 +4.682752E-04 -3.873980E-04 -4.156007E-04 -3.873980E-04 +7.050899E-03 
 -5.518955E-05 +2.639856E-04 -7.567941E-04 +2.639856E-04 -8.126439E-05 -4.233540E-04 -7.567941E-04 -4.233540E-04 +7.405558E-03 
 +2.414716E-04 +6.581233E-04 -3.856465E-04 +6.581233E-04 -1.081412E-04 -6.855580E-04 -3.856465E-04 -6.855580E-04 +7.480780E-03 
 +1.332102E-04 +4.221871E-04 +5.243188E-04 +4.221871E-04 -1.727285E-05 -5.898267E-05 +5.243188E-04 -5.898267E-05 +7.266979E-03 
 -1.340214E-04 +1.648462E-04 +4.379646E-04 +1.648462E-04 +4.420238E-05 +5.403182E-04 +4.379646E-04 +5.403182E-04 +7.488169E-03 
 +1.904817E-04 -2.166993E-04 -2.243518E-05 -2.166993E-04 -1.960875E-05 -3.737694E-04 -2.243518E-05 -3.737694E-04 +7.688206E-03 
 -1.219034E-04 +1.002903E-04 -6.073588E-06 +1.002903E-04 +2.332823E-04 +3.342922E-04 -6.073588E-06 +3.342922E-04 +7.407554E-03 
 +2.321332E-04 -3.400806E-04 +3.836951E-04 -3.400806E-04 +1.436427E-05 +1.311333E-04 +3.836951E-04 +1.311333E-04 +7.311231E-03 
 +4.214462E-04 +1.034482E-03 +4.648732E-04 +1.034482E-03 -5.694376E-04 -3.421026E-04 +4.648732E-04 -3.421026E-04 +7.548759E-03 
 +1.943558E-04 +5.683487E-04 +3.046990E-04 +5.683487E-04 -1.787444E-04 +3.252081E-04 +3.046990E-04 +3.252081E-04 +7.342693E-03 
 -1.345667E-04 +4.579867E-04 +2.764467E-04 +4.579867E-04 -3.635605E-04 -4.324576E-04 +2.764467E-04 -4.324576E-04 +7.503340E-03 
 -2.440890E-04 -3.723225E-04 +3.422409E-04 -3.723225E-04 +5.425160E-04 -8.234499E-05 +3.422409E-04 -8.234499E-05 +7.513685E-03 
 +6.823461E-05 -3.254141E-04 +1.045504E-04 -3.254141E-04 +2.517781E-04 -5.576447E-04 +1.045504E-04 -5.576447E-04 +7.316463E-03 
 +2.430423E-05 +5.722782E-04 -1.187515E-04 +5.722782E-04 -2.575600E-04 +2.171232E-04 -1.187515E-04 +2.171232E-04 +7.446059E-03 
 -5.820062E-04 -7.076437E-04 +5.715408E-06 -7.076437E-04 +1.478798E-04 -6.905721E-04 +5.715408E-06 -6.905721E-04 +7.829949E-03 
 -2.805598E-04 -4.667550E-04 +2.845094E-04 -4.667550E-04 -1.843329E-04 -6.559855E-04 +2.845094E-04 -6.559855E-04 +7.605953E-03 
 -3.656597E-04 -2.901594E-04 -2.611543E-05 -2.901594E-04 +1.823669E-04 -6.628874E-04 -2.611543E-05 -6.628874E-04 +7.567511E-03 
 -1.559373E-04 -4.531695E-04 +1.253376E-04 -4.531695E-04 +1.514383E-04 +4.597669E-04 +1.253376E-04 +4.597669E-04 +7.497895E-03 
 +2.076101E-04 +1.106473E-03 +5.261194E-04 +1.106473E-03 -2.651022E-04 -1.991331E-05 +5.261194E-04 -1.991331E-05 +7.411794E-03 
 -3.157463E-04 -1.588333E-04 +1.806836E-04 -1.588333E-04 -2.454367E-04 +2.830491E-04 +1.806836E-04 +2.830491E-04 +7.693251E-03 
 +7.643783E-05 -8.381086E-06 +1.265678E-04 -8.381086E-06 +9.250821E-05 -9.712991E-06 +1.265678E-04 -9.712991E-06 +7.487123E-03 
 -2.157247E-04 +5.099912E-05 -3.598587E-05 +5.099912E-05 -1.009289E-05 -2.483634E-04 -3.598587E-05 -2.483634E-04 +7.516399E-03 
 -9.081302E-05 -2.613530E-04 +1.542598E-04 -2.613530E-04 +1.811688E-04 +8.523164E-04 +1.542598E-04 +8.523164E-04 +7.403629E-03 
 +2.137610E-04 -3.504975E-04 +6.844443E-05 -3.504975E-04 -3.413312E-05 +5.791075E-04 +6.844443E-05 +5.791075E-04 +7.593503E-03 
 -2.017986E-04 +5.713310E-04 +3.987693E-04 +5.713310E-04 -9.921459E-05 +8.855269E-05 +3.987693E-04 +8.855269E-05 +7.972936E-03 
 +2.744233E-04 +9.604055E-05 -8.616813E-05 +9.604055E-05 +1.551187E-04 +1.130793E-04 -8.616813E-05 +1.130793E-04 +7.317084E-03 
 +5.420943E-04 -3.522199E-04 -5.483993E-04 -3.522199E-04 -1.128119E-04 -5.309843E-04 -5.483993E-04 -5.309843E-04 +7.159912E-03 
 -2.298129E-04 -2.189974E-04 +5.545807E-06 -2.189974E-04 +2.898349E-04 +1.094751E-04 +5.545807E-06 +1.094751E-04 +7.977688E-03 
 -1.119418E-04 +1.020187E-03 +2.930743E-04 +1.020187E-03 -1.184150E-04 +3.920209E-04 +2.930743E-04 +3.920209E-04 +8.117510E-03 
 +2.676976E-04 +4.225380E-04 +2.526694E-04 +4.225380E-04 -1.255999E-04 +1.677465E-05 +2.526694E-04 +1.677465E-05 +7.370546E-03 
 +2.528437E-04 -1.104840E-04 +3.168625E-04 -1.104840E-04 -5.466944E-04 -8.115111E-05 +3.168625E-04 -8.115111E-05 +7.857487E-03 
 -4.284567E-05 +3.697761E-04 +2.835120E-04 +3.697761E-04 -3.715669E-05 +5.261372E-04 +2.835120E-04 +5.261372E-04 +7.363202E-03 
 +1.138559E-04 -2.217706E-04 -5.109445E-04 -2.217706E-04 +4.342616E-04 +3.774132E-04 -5.109445E-04 +3.774132E-04 +7.050550E-03 
 -1.547094E-06 +1.313160E-04 -7.426962E-04 +1.313160E-04 +1.048631E-04 +1.049782E-04 -7.426962E-04 +1.049782E-04 +7.162211E-03 
 +2.085131E-04 -4.915386E-04 -1.024605E-04 -4.915386E-04 -3.622814E-04 +5.487824E-04 -1.024605E-04 +5.487824E-04 +7.686227E-03 
 +6.072337E-06 -1.171154E-03 -1.067228E-04 -1.171154E-03 -2.163537E-04 -1.585245E-05 -1.067228E-04 -1.585245E-05 +7.609362E-03 
 -1.362168E-04 +6.155684E-04 -3.218768E-04 +6.155684E-04 +8.484984E-05 -4.054171E-04 -3.218768E-04 -4.054171E-04 +7.473484E-03 
 -1.644306E-04 +4.845085E-05 -6.034901E-04 +4.845085E-05 +4.935833E-04 -2.533082E-04 -6.034901E-04 -2.533082E-04 +7.330579E-03 
 -2.740343E-05 -2.865310E-04 -5.495374E-04 -2.865310E-04 -2.908515E-04 +2.924147E-04 -5.495374E-04 +2.924147E-04 +7.744830E-03 
 -2.909128E-04 +6.883953E-04 -1.521936E-04 +6.883953E-04 -1.704952E-04 -3.967364E-04 -1.521936E-04 -3.967364E-04 +7.880751E-03 
 +1.166269E-04 +2.533243E-04 +1.171157E-04 +2.533243E-04 +9.662466E-05 -5.919200E-04 +1.171157E-04 -5.919200E-04 +7.110529E-03 
 +5.391190E-04 +6.246890E-04 -2.334917E-04 +6.246890E-04 +2.941389E-05 -5.070469E-04 -2.334917E-04 -5.070469E-04 +7.145702E-03 
 -4.945107E-04 +4.607257E-04 -6.947249E-05 +4.607257E-04 +3.435028E-04 +6.905927E-04 -6.947249E-05 +6.905927E-04 +7.888896E-03 
 -3.844548E-04 +3.800124E-04 -1.753382E-04 +3.800124E-04 +2.079439E-05 -2.727235E-04 -1.753382E-04 -2.727235E-04 +7.860068E-03 
 +5.719249E-05 +1.393698E-04 +1.286663E-04 +1.393698E-04 +6.012807E-05 +5.936064E-04 +1.286663E-04 +5.936064E-04 +7.701151E-03 
 -1.854231E-04 +5.006360E-04 -2.033883E-04 +5.006360E-04 -6.335475E-05 -2.838003E-05 -2.033883E-04 -2.838003E-05 +7.596246E-03 
 +1.572687E-04 -6.508509E-05 +1.509368E-04 -6.508509E-05 -4.524748E-04 -9.669265E-05 +1.509368E-04 -9.669265E-05 +7.672649E-03 
 -6.956269E-05 -1.227164E-03 +4.465580E-04 -1.227164E-03 -4.552962E-05 -3.337728E-04 +4.465580E-04 -3.337728E-04 +7.941493E-03 
 +3.108110E-05 +3.223027E-04 +3.311321E-04 +3.223027E-04 +2.894666E-04 -1.894019E-04 +3.311321E-04 -1.894019E-04 +7.308451E-03 
 -2.620431E-04 -6.032282E-04 +2.834972E-05 -6.032282E-04 +4.043574E-04 -8.401903E-05 +2.834972E-05 -8.401903E-05 +6.889925E-03 
 +1.935191E-04 +3.373550E-04 +5.152905E-05 +3.373550E-04 -1.772196E-04 -1.076440E-04 +5.152905E-05 -1.076440E-04 +7.911487E-03 
 +3.682238E-04 -1.796856E-04 -1.925121E-04 -1.796856E-04 -5.471950E-04 +1.585978E-04 -1.925121E-04 +1.585978E-04 +7.391638E-03 
 +6.793915E-05 +3.670195E-05 -2.099051E-04 +3.670195E-05 +7.818024E-05 -2.952304E-04 -2.099051E-04 -2.952304E-04 +7.413658E-03 
 -1.603935E-05 +3.912864E-05 +7.919706E-05 +3.912864E-05 +1.803770E-04 -1.987741E-04 +7.919706E-05 -1.987741E-04 +7.471215E-03 
 -4.007601E-05 +1.654937E-05 -3.537840E-05 +1.654937E-05 -2.998860E-04 -3.814178E-05 -3.537840E-05 -3.814178E-05 +8.032598E-03 
 +1.659751E-04 -4.489910E-04 -3.703042E-04 -4.489910E-04 -8.511908E-05 -2.313807E-05 -3.703042E-04 -2.313807E-05 +7.597309E-03 
 +5.703051E-04 +2.239924E-04 +3.155051E-04 +2.239924E-04 -2.225020E-04 -1.418035E-05 +3.155051E-04 -1.418035E-05 +7.400962E-03 
 -3.598634E-04 +5.283084E-04 +9.170774E-05 +5.283084E-04 +5.466535E-04 -8.230926E-05 +9.170774E-05 -8.230926E-05 +7.455749E-03 
 -3.200935E-04 +3.596387E-04 -2.065651E-04 +3.596387E-04 -2.062719E-04 +2.052528E-04 -2.065651E-04 +2.052528E-04 +7.799161E-03 
 +7.105275E-05 -2.785076E-04 +4.636826E-05 -2.785076E-04 -3.952968E-04 +3.151324E-04 +4.636826E-05 +3.151324E-04 +7.834643E-03 
 +1.648697E-05 +5.243544E-04 -5.565060E-04 +5.243544E-04 +1.989005E-04 -2.934973E-04 -5.565060E-04 -2.934973E-04 +7.360250E-03 
 +2.132445E-04 +1.714927E-04 -3.430998E-04 +1.714927E-04 +2.565977E-04 +1.338780E-04 -3.430998E-04 +1.338780E-04 +7.620234E-03 
 +8.054052E-05 +1.233986E-04 +4.339737E-04 +1.233986E-04 -2.003403E-04 +3.316585E-04 +4.339737E-04 +3.316585E-04 +7.627421E-03 
 -7.387673E-05 -2.269861E-05 -4.360533E-04 -2.269861E-05 +4.313914E-04 -1.329063E-04 -4.360533E-04 -1.329063E-04 +7.028345E-03 
 +2.117449E-05 +7.471904E-04 -9.280955E-05 +7.471904E-04 -3.129760E-04 -4.287397E-05 -9.280955E-05 -4.287397E-05 +7.750891E-03 
 +1.730676E-06 +2.042216E-05 -1.110217E-04 +2.042216E-05 +1.868783E-04 -1.252517E-03 -1.110217E-04 -1.252517E-03 +7.065041E-03 
 +9.859064E-05 +5.231305E-04 +4.511961E-05 +5.231305E-04 +4.505162E-04 +3.870795E-04 +4.511961E-05 +3.870795E-04 +6.905767E-03 
 +4.732556E-04 +5.278517E-04 +2.633106E-04 +5.278517E-04 -7.353746E-04 -1.499719E-04 +2.633106E-04 -1.499719E-04 +7.672621E-03 
 +4.694597E-05 +7.052027E-05 -1.697652E-05 +7.052027E-05 +1.169396E-04 +4.936028E-04 -1.697652E-05 +4.936028E-04 +7.059504E-03 
 +8.503456E-05 -2.048618E-04 -4.102424E-04 -2.048618E-04 +9.164332E-06 +1.059375E-04 -4.102424E-04 +1.059375E-04 +7.302235E-03 
 -1.580667E-04 -8.806425E-04 +4.148779E-05 -8.806425E-04 +1.216644E-04 -1.952989E-04 +4.148779E-05 -1.952989E-04 +7.452005E-03 
 +1.951498E-04 -5.752411E-04 +3.714828E-04 -5.752411E-04 +4.282519E-04 +1.008715E-04 +3.714828E-04 +1.008715E-04 +6.933610E-03 
 +3.263966E-04 +3.846827E-04 -1.850264E-04 +3.846827E-04 -1.240998E-05 -1.671332E-04 -1.850264E-04 -1.671332E-04 +7.407443E-03 
 +1.412726E-04 -6.613057E-04 -2.048496E-04 -6.613057E-04 -2.723671E-04 -1.950145E-04 -2.048496E-04 -1.950145E-04 +7.595994E-03 
 -2.761235E-04 +1.065268E-03 +2.620291E-04 +1.065268E-03 -4.075908E-04 +1.773489E-05 +2.620291E-04 +1.773489E-05 +7.986214E-03 
 +8.411512E-06 -2.020423E-04 +2.116588E-04 -2.020423E-04 +2.372826E-04 -2.058035E-04 +2.116588E-04 -2.058035E-04 +7.547668E-03 
 -1.238460E-04 -1.216450E-04 +1.046234E-04 -1.216450E-04 -6.866725E-05 +4.310800E-04 +1.046234E-04 +4.310800E-04 +7.642746E-03 
 -2.851616E-04 -1.028626E-03 -1.681412E-04 -1.028626E-03 +1.597203E-04 +2.328323E-04 -1.681412E-04 +2.328323E-04 +7.610854E-03 
 -4.488816E-04 -4.809638E-04 +5.275273E-05 -4.809638E-04 +3.267644E-04 -3.678499E-04 +5.275273E-05 -3.678499E-04 +7.458695E-03 
 +1.411277E-04 -9.698610E-04 +9.055472E-04 -9.698610E-04 -4.387076E-04 +5.076511E-04 +9.055472E-04 +5.076511E-04 +7.756664E-03 
 +1.474320E-04 +7.987773E-05 +6.545686E-04 +7.987773E-05 -1.828117E-06 +1.399651E-04 +6.545686E-04 +1.399651E-04 +7.172388E-03 
 +2.180471E-04 -5.895465E-04 -4.817185E-04 -5.895465E-04 +4.273189E-04 +5.337382E-04 -4.817185E-04 +5.337382E-04 +6.732142E-03 
 +4.854467E-05 -1.180352E-04 -4.101731E-04 -1.180352E-04 +9.338672E-05 +7.387931E-04 -4.101731E-04 +7.387931E-04 +7.321936E-03 
 +5.118511E-05 -5.356700E-04 +1.094860E-04 -5.356700E-04 -2.078122E-04 -3.192681E-05 +1.094860E-04 -3.192681E-05 +7.720770E-03 
 +1.655951E-04 -4.816157E-04 +7.425739E-04 -4.816157E-04 -4.484236E-04 +1.616544E-04 +7.425739E-04 +1.616544E-04 +7.610415E-03 
 +6.551664E-05 -2.959995E-06 +6.549505E-05 -2.959995E-06 +5.651776E-04 +8.488207E-04 +6.549505E-05 +8.488207E-04 +6.775606E-03 
 -1.284765E-04 +4.675170E-06 -2.918989E-04 +4.675170E-06 -4.847227E-04 -4.214625E-04 -2.918989E-04 -4.214625E-04 +7.742679E-03 
 -1.954959E-04 -2.633675E-04 +8.782878E-05 -2.633675E-04 +3.715681E-04 +2.146330E-04 +8.782878E-05 +2.146330E-04 +7.702901E-03 
 +2.048536E-04 +3.290103E-04 -3.554411E-04 +3.290103E-04 +3.556984E-04 -2.662848E-04 -3.554411E-04 -2.662848E-04 +7.084081E-03 
 +3.193401E-04 +8.178013E-04 +1.479949E-05 +8.178013E-04 -4.404843E-04 +1.189961E-05 +1.479949E-05 +1.189961E-05 +7.698642E-03 
 -4.126704E-04 -9.148995E-04 +6.077911E-04 -9.148995E-04 +1.763800E-04 +2.669203E-04 +6.077911E-04 +2.669203E-04 +7.747704E-03 
 -4.762794E-04 +9.028589E-04 +2.361080E-04 +9.028589E-04 -1.452336E-04 +4.377269E-04 +2.361080E-04 +4.377269E-04 +7.750175E-03 
 -1.770165E-04 -8.643441E-04 -2.965321E-04 -8.643441E-04 +2.144159E-04 +1.383885E-04 -2.965321E-04 +1.383885E-04 +7.778059E-03 
 +1.433584E-04 -5.743948E-04 -3.399585E-04 -5.743948E-04 +1.979170E-04 -3.801058E-04 -3.399585E-04 -3.801058E-04 +7.218806E-03 
 -1.924738E-04 -3.537503E-04 -1.076794E-04 -3.537503E-04 -1.940232E-04 +4.647043E-04 -1.076794E-04 +4.647043E-04 +7.783996E-03 
 -3.610054E-05 -8.786878E-04 +7.284387E-05 -8.786878E-04 -2.092320E-04 +5.180370E-04 +7.284387E-05 +5.180370E-04 +7.846316E-03 
 -1.087311E-04 +4.906335E-04 -4.661049E-04 +4.906335E-04 -4.091116E-06 +2.907775E-04 -4.661049E-04 +2.907775E-04 +7.409074E-03 
 -2.620509E-04 -1.275657E-04 -9.903521E-05 -1.275657E-04 +2.550281E-04 +6.452115E-04 -9.903521E-05 +6.452115E-04 +7.316530E-03 
 -3.750003E-04 -9.899060E-04 +2.182433E-04 -9.899060E-04 +1.068950E-04 -1.273766E-04 +2.182433E-04 -1.273766E-04 +7.394894E-03 
 -2.408558E-04 -1.623392E-04 +7.267687E-04 -1.623392E-04 -1.848232E-04 +8.211130E-05 +7.267687E-04 +8.211130E-05 +7.812834E-03 
 -2.093639E-04 -3.854462E-04 +1.953315E-04 -3.854462E-04 +1.163750E-04 +2.976947E-04 +1.953315E-04 +2.976947E-04 +7.477792E-03 
 -2.073447E-04 +2.302429E-04 -2.715342E-04 +2.302429E-04 +3.993895E-04 -5.118074E-05 -2.715342E-04 -5.118074E-05 +7.392913E-03 
 +2.255462E-05 -4.611765E-04 -3.643196E-04 -4.611765E-04 -2.200135E-04 -1.095674E-04 -3.643196E-04 -1.095674E-04 +7.691992E-03 
 +5.398328E-05 -3.363861E-04 -4.644605E-04 -3.363861E-04 +1.912814E-04 +6.192278E-04 -4.644605E-04 +6.192278E-04 +7.531971E-03 
 +2.665038E-04 -9.628398E-04 -1.635207E-04 -9.628398E-04 -1.618145E-05 -9.358293E-05 -1.635207E-04 -9.358293E-05 +7.550628E-03 
 +1.379563E-04 -4.948656E-04 -7.998938E-05 -4.948656E-04 -4.401571E-04 +3.463626E-04 -7.998938E-05 +3.463626E-04 +7.641307E-03 
 -1.733542E-04 -1.537362E-04 +1.360699E-04 -1.537362E-04 -2.582282E-04 -1.329028E-04 +1.360699E-04 -1.329028E-04 +7.921720E-03 
 -4.050758E-04 -7.880007E-06 -4.056622E-04 -7.880007E-06 +4.992947E-04 -1.267592E-04 -4.056622E-04 -1.267592E-04 +7.515247E-03 
 -2.408794E-04 +5.838415E-04 -1.632381E-04 +5.838415E-04 -7.124872E-05 +7.696083E-04 -1.632381E-04 +7.696083E-04 +7.823259E-03 
 +5.936403E-05 +1.620335E-04 +8.520852E-04 +1.620335E-04 +5.446661E-04 +3.063506E-04 +8.520852E-04 +3.063506E-04 +7.668040E-03 
 +6.177816E-05 -5.261227E-04 +3.399115E-04 -5.261227E-04 -6.619795E-04 +2.097884E-04 +3.399115E-04 +2.097884E-04 +7.591285E-03 
 -5.252457E-05 +1.022118E-04 -2.977439E-04 +1.022118E-04 +4.141695E-05 -4.642904E-04 -2.977439E-04 -4.642904E-04 +7.295570E-03 
 -1.511894E-04 +4.236562E-05 -3.534956E-04 +4.236562E-05 -5.960993E-05 -2.213979E-04 -3.534956E-04 -2.213979E-04 +7.360974E-03 
 -1.136833E-04 +7.275292E-04 +4.088843E-04 +7.275292E-04 -3.266434E-05 -5.294274E-04 +4.088843E-04 -5.294274E-04 +7.615803E-03 
 +3.037188E-05 -1.498268E-03 +5.545353E-04 -1.498268E-03 -4.061656E-04 +1.871876E-04 +5.545353E-04 +1.871876E-04 +8.034990E-03 
 -5.033160E-04 +7.381349E-04 +6.617793E-05 +7.381349E-04 +2.253078E-04 +4.342519E-04 +6.617793E-05 +4.342519E-04 +7.526623E-03 
 +3.357941E-04 -1.015620E-03 -1.970989E-05 -1.015620E-03 +2.139467E-04 -2.716409E-04 -1.970989E-05 -2.716409E-04 +7.083196E-03 
 +7.291257E-05 +9.647461E-04 +5.906813E-04 +9.647461E-04 -4.593678E-04 +4.229304E-04 +5.906813E-04 +4.229304E-04 +7.889828E-03 
 +9.978947E-05 -5.098366E-04 +3.619403E-05 -5.098366E-04 +1.000872E-04 -3.782095E-04 +3.619403E-05 -3.782095E-04 +7.634259E-03 
 -2.389365E-05 +7.173805E-04 +5.020016E-04 +7.173805E-04 +1.035619E-05 -3.075206E-04 +5.020016E-04 -3.075206E-04 +7.208248E-03 
 +5.623482E-05 -8.222451E-04 +1.030796E-04 -8.222451E-04 +6.244783E-05 -8.032058E-05 +1.030796E-04 -8.032058E-05 +7.127638E-03 
 +8.124800E-05 +2.002634E-04 -4.087730E-04 +2.002634E-04 +2.057123E-04 -1.469920E-04 -4.087730E-04 -1.469920E-04 +6.979372E-03 
 -3.802844E-04 +5.163033E-04 +9.115747E-05 +5.163033E-04 +2.515562E-04 -6.005280E-05 +9.115747E-05 -6.005280E-05 +7.446025E-03 
 -8.859194E-05 +4.448385E-04 +1.091108E-04 +4.448385E-04 -3.203494E-04 -4.303938E-04 +1.091108E-04 -4.303938E-04 +7.706894E-03 
 +1.410746E-04 -1.789483E-04 +1.264117E-04 -1.789483E-04 -2.841833E-05 +1.118544E-04 +1.264117E-04 +1.118544E-04 +7.203281E-03 
 +4.127113E-04 -8.802477E-04 -1.509740E-04 -8.802477E-04 +2.992953E-04 -5.768495E-04 -1.509740E-04 -5.768495E-04 +6.916166E-03 
 +5.702370E-04 +6.734949E-05 +3.556387E-05 +6.734949E-05 -6.496737E-04 -2.676307E-04 +3.556387E-05 -2.676307E-04 +7.479942E-03 
 +3.160026E-04 +3.680026E-04 -1.267007E-04 +3.680026E-04 +6.495016E-05 -4.764926E-05 -1.267007E-04 -4.764926E-05 +7.201203E-03 
 +2.272904E-04 +1.849775E-04 +2.679058E-04 +1.849775E-04 +1.288568E-04 +3.502450E-04 +2.679058E-04 +3.502450E-04 +6.974449E-03 
 +1.523760E-04 +6.563858E-04 -2.303666E-05 +6.563858E-04 +3.891231E-04 -7.870418E-04 -2.303666E-05 -7.870418E-04 +6.877873E-03 
 -1.347807E-04 +7.397137E-04 -5.115985E-05 +7.397137E-04 +1.595505E-04 -5.131695E-04 -5.115985E-05 -5.131695E-04 +7.390210E-03 
 -1.220453E-04 -6.548044E-04 +2.276271E-04 -6.548044E-04 -1.550818E-04 +4.915324E-04 +2.276271E-04 +4.915324E-04 +7.511461E-03 
 +2.683276E-04 +4.792822E-04 -2.625026E-04 +4.792822E-04 -5.128898E-04 -2.682159E-04 -2.625026E-04 -2.682159E-04 +7.885100E-03 
 -3.271395E-04 -6.157414E-05 +3.254126E-04 -6.157414E-05 -9.746201E-05 +8.203125E-04 +3.254126E-04 +8.203125E-04 +7.720537E-03 
 -3.110972E-04 -5.575923E-04 +6.090077E-04 -5.575923E-04 +5.163861E-04 -4.992454E-05 +6.090077E-04 -4.992454E-05 +7.368221E-03 
 -6.262068E-04 -8.409144E-04 +2.214516E-04 -8.409144E-04 -2.415463E-05 +3.517660E-04 +2.214516E-04 +3.517660E-04 +7.762718E-03 
 -1.846216E-04 +7.497148E-04 +4.487717E-05 +7.497148E-04 -4.840372E-06 -1.534295E-04 +4.487717E-05 -1.534295E-04 +7.602788E-03 
 +4.573127E-04 -2.298499E-05 -4.842976E-05 -2.298499E-05 -1.329718E-04 -8.394266E-05 -4.842976E-05 -8.394266E-05 +7.566580E-03 
 +1.219837E-04 -4.957850E-04 +3.265074E-04 -4.957850E-04 -1.062211E-04 +1.451958E-04 +3.265074E-04 +1.451958E-04 +7.387590E-03 
 -6.678012E-05 -1.593565E-04 +2.643919E-04 -1.593565E-04 +1.288713E-04 -3.764712E-04 +2.643919E-04 -3.764712E-04 +7.541712E-03 
 -2.029491E-04 +1.260571E-03 -2.067835E-04 +1.260571E-03 -2.433421E-04 +6.871331E-04 -2.067835E-04 +6.871331E-04 +7.806534E-03 
 -5.657462E-04 -1.156632E-03 +4.990764E-06 -1.156632E-03 +4.421934E-04 -3.530866E-04 +4.990764E-06 -3.530866E-04 +7.624865E-03 
 +1.118476E-05 -1.205281E-04 +7.025407E-04 -1.205281E-04 +3.258662E-05 +2.419918E-04 +7.025407E-04 +2.419918E-04 +7.617753E-03 
 +4.272207E-05 +3.430330E-04 -2.992682E-04 +3.430330E-04 -5.538019E-05 +4.037482E-04 -2.992682E-04 +4.037482E-04 +7.573554E-03 
 +9.531283E-05 -3.702804E-04 -6.961506E-04 -3.702804E-04 +4.355448E-05 -2.473034E-04 -6.961506E-04 -2.473034E-04 +7.590606E-03 
 +2.187599E-04 -6.024161E-04 +1.092168E-04 -6.024161E-04 -2.136819E-04 -1.465610E-04 +1.092168E-04 -1.465610E-04 +7.572867E-03 
 -5.422065E-05 -8.276002E-04 +3.618951E-04 -8.276002E-04 -2.149085E-04 +1.534282E-04 +3.618951E-04 +1.534282E-04 +7.625624E-03 
 +1.848198E-04 -1.985806E-04 +1.403278E-04 -1.985806E-04 -2.347411E-04 -1.205834E-04 +1.403278E-04 -1.205834E-04 +7.204665E-03 
 +2.778521E-04 -2.467645E-04 +1.212195E-04 -2.467645E-04 +4.890130E-04 -6.223085E-04 +1.212195E-04 -6.223085E-04 +7.022940E-03 
 +5.214270E-04 -1.434312E-06 -4.396320E-04 -1.434312E-06 -3.011602E-04 +1.278116E-04 -4.396320E-04 +1.278116E-04 +7.377118E-03 
 +2.665359E-04 -1.859008E-04 -1.475337E-04 -1.859008E-04 +1.542233E-04 +4.126719E-04 -1.475337E-04 +4.126719E-04 +7.601681E-03 
 -4.738212E-04 +3.552141E-04 -3.453180E-05 +3.552141E-04 +4.375798E-04 +1.850315E-04 -3.453180E-05 +1.850315E-04 +7.483338E-03 
 -2.469574E-04 -5.820461E-04 +3.671236E-04 -5.820461E-04 -2.336851E-04 -3.454444E-04 +3.671236E-04 -3.454444E-04 +7.824251E-03 
 -2.888209E-04 -9.211528E-04 +5.117236E-04 -9.211528E-04 -2.719453E-05 -9.686466E-05 +5.117236E-04 -9.686466E-05 +7.835384E-03 
 -3.344828E-04 -5.184554E-04 +1.487806E-04 -5.184554E-04 +1.557703E-04 +3.329637E-04 +1.487806E-04 +3.329637E-04 +7.886945E-03 
 -6.556007E-04 -5.777587E-04 +9.475546E-06 -5.777587E-04 -9.163588E-05 +8.909355E-05 +9.475546E-06 +8.909355E-05 +7.911028E-03 
 -1.523098E-04 +9.023857E-04 -1.329374E-04 +9.023857E-04 +2.589608E-04 -3.310189E-04 -1.329374E-04 -3.310189E-04 +7.467621E-03 
 +4.709893E-04 +2.184270E-04 +7.378978E-04 +2.184270E-04 +3.487297E-05 +1.007185E-04 +7.378978E-04 +1.007185E-04 +7.227193E-03 
 +1.269893E-04 -3.930972E-04 +1.858516E-04 -3.930972E-04 -9.492065E-04 +2.463129E-04 +1.858516E-04 +2.463129E-04 +7.736706E-03 
 -1.060373E-04 +9.371503E-05 +7.117551E-06 +9.371503E-05 +4.478959E-04 -3.386856E-04 +7.117551E-06 -3.386856E-04 +7.318024E-03 
 +2.144572E-04 +4.978952E-04 +3.771129E-04 +4.978952E-04 +2.181871E-04 -1.057618E-04 +3.771129E-04 -1.057618E-04 +7.054528E-03 
 -5.605525E-05 +4.634510E-04 -5.935628E-04 +4.634510E-04 -1.229604E-04 +2.479815E-04 -5.935628E-04 +2.479815E-04 +7.359607E-03 
 -8.227657E-04 +1.550881E-04 +1.450113E-04 +1.550881E-04 +1.211596E-04 -2.095843E-04 +1.450113E-04 -2.095843E-04 +7.704880E-03 
 -5.637026E-04 -8.672542E-04 -2.455038E-04 -8.672542E-04 +9.742991E-05 -1.821553E-04 -2.455038E-04 -1.821553E-04 +7.970088E-03 
 +4.009828E-05 -2.172570E-04 -9.932794E-04 -2.172570E-04 -2.012846E-04 -4.531267E-04 -9.932794E-04 -4.531267E-04 +7.495960E-03 
 +2.733184E-04 -4.589444E-04 +2.517412E-04 -4.589444E-04 +3.619108E-04 +2.208056E-05 +2.517412E-04 +2.208056E-05 +7.077902E-03 
 +9.209631E-05 +8.688233E-04 +9.253685E-06 +8.688233E-04 -4.085987E-04 -7.275560E-05 +9.253685E-06 -7.275560E-05 +7.641989E-03 
 -1.439981E-04 +3.135802E-04 +3.220267E-04 +3.135802E-04 -2.927710E-04 +2.309602E-04 +3.220267E-04 +2.309602E-04 +7.830531E-03 
 -4.986221E-04 -2.131985E-04 +1.080060E-04 -2.131985E-04 +3.084220E-04 +2.189076E-04 +1.080060E-04 +2.189076E-04 +7.793869E-03 
 -5.422659E-04 -8.537382E-04 -2.897999E-04 -8.537382E-04 -1.008158E-04 +3.911752E-04 -2.897999E-04 +3.911752E-04 +8.074984E-03 
 -9.926724E-05 -1.339355E-03 -1.833311E-04 -1.339355E-03 -2.765316E-04 -1.189636E-04 -1.833311E-04 -1.189636E-04 +7.723380E-03 
 -1.121117E-04 +2.825785E-04 -1.289562E-04 +2.825785E-04 +4.253096E-04 -6.912310E-05 -1.289562E-04 -6.912310E-05 +7.379180E-03 
 -1.501260E-04 +2.309931E-04 -4.960796E-05 +2.309931E-04 -2.376647E-04 -1.573733E-04 -4.960796E-05 -1.573733E-04 +7.424633E-03 
 +1.324116E-04 -2.359751E-04 -2.893236E-04 -2.359751E-04 +1.433987E-04 +2.786251E-04 -2.893236E-04 +2.786251E-04 +6.956056E-03 
 +4.088384E-04 -1.059299E-04 -1.494867E-04 -1.059299E-04 +2.065077E-04 -8.174629E-05 -1.494867E-04 -8.174629E-05 +7.019070E-03 
 +2.031045E-04 -5.760501E-04 +4.050019E-04 -5.760501E-04 +1.432781E-04 -1.518569E-04 +4.050019E-04 -1.518569E-04 +7.093932E-03 
 -4.368389E-04 +7.787288E-04 -6.533786E-05 +7.787288E-04 -1.781746E-04 +1.982209E-04 -6.533786E-05 +1.982209E-04 +7.731552E-03 
 +5.022733E-04 +4.890294E-05 -5.635581E-04 +4.890294E-05 +2.744577E-04 -6.328028E-04 -5.635581E-04 -6.328028E-04 +6.713527E-03 
 +5.034202E-04 +4.744011E-05 -3.248726E-04 +4.744011E-05 -5.129438E-04 +1.019199E-04 -3.248726E-04 +1.019199E-04 +7.485767E-03 
 -4.651195E-05 -8.260379E-05 -1.563602E-04 -8.260379E-05 +1.813416E-05 +3.869434E-05 -1.563602E-04 +3.869434E-05 +7.400719E-03 
 +1.552998E-05 +1.182217E-03 -1.915681E-04 +1.182217E-03 +6.282234E-05 +6.440554E-04 -1.915681E-04 +6.440554E-04 +7.519961E-03 
 -3.923565E-06 +7.605272E-05 +1.259104E-04 +7.605272E-05 -1.035691E-04 -1.464873E-04 +1.259104E-04 -1.464873E-04 +7.611253E-03 
 +2.643732E-05 -2.365917E-05 +2.061825E-04 -2.365917E-05 +3.702775E-04 +6.660357E-04 +2.061825E-04 +6.660357E-04 +7.323305E-03 
 +2.329758E-04 -4.764074E-04 -1.683081E-04 -4.764074E-04 -4.684833E-04 +2.192298E-04 -1.683081E-04 +2.192298E-04 +7.677197E-03 
 -2.959104E-04 -7.193979E-04 +1.767120E-04 -7.193979E-04 +4.541292E-04 -2.096863E-04 +1.767120E-04 -2.096863E-04 +7.456056E-03 
 -1.157732E-04 -6.536681E-04 +2.883488E-04 -6.536681E-04 -1.500527E-04 -5.875693E-05 +2.883488E-04 -5.875693E-05 +7.203153E-03 
 -9.254503E-05 -5.166769E-04 +1.696378E-04 -5.166769E-04 -4.756603E-05 +2.610457E-04 +1.696378E-04 +2.610457E-04 +7.779059E-03 
 -1.589084E-05 +1.501888E-03 -3.288923E-05 +1.501888E-03 -2.694179E-04 -3.370905E-04 -3.288923E-05 -3.370905E-04 +7.623077E-03 
 +5.130736E-04 +5.546390E-04 -5.595125E-04 +5.546390E-04 +1.745255E-04 +9.394269E-05 -5.595125E-04 +9.394269E-05 +7.094272E-03 
 -2.983913E-07 +4.528125E-04 -5.187566E-06 +4.528125E-04 -8.536575E-05 +7.419361E-05 -5.187566E-06 +7.419361E-05 +7.388136E-03 
 -6.350733E-05 -6.218552E-04 +2.582607E-04 -6.218552E-04 +1.808992E-04 -4.612057E-04 +2.582607E-04 -4.612057E-04 +7.483347E-03 
 -4.091364E-05 -6.569236E-04 -2.135404E-04 -6.569236E-04 -6.161607E-04 +2.069561E-04 -2.135404E-04 +2.069561E-04 +7.749141E-03 
 -3.892511E-04 +7.183915E-04 -1.878648E-04 +7.183915E-04 +1.387285E-04 +2.473103E-06 -1.878648E-04 +2.473103E-06 +7.971101E-03 
 -7.884006E-05 +3.198655E-04 +2.533866E-05 +3.198655E-04 +8.169412E-05 -4.408839E-04 +2.533866E-05 -4.408839E-04 +7.536717E-03 
 -1.494751E-04 +3.067652E-04 -2.663981E-04 +3.067652E-04 +3.094118E-04 +2.591105E-04 -2.663981E-04 +2.591105E-04 +7.464987E-03 
 +8.998545E-05 +1.072536E-04 -4.186185E-04 +1.072536E-04 +6.665278E-05 +1.466370E-04 -4.186185E-04 +1.466370E-04 +7.330732E-03 
 +2.423003E-04 -5.873290E-04 +1.063876E-04 -5.873290E-04 -2.701301E-04 +2.664438E-05 +1.063876E-04 +2.664438E-05 +7.581102E-03 
 +3.867787E-04 -2.783910E-04 -1.291142E-04 -2.783910E-04 +3.917924E-04 -1.008611E-04 -1.291142E-04 -1.008611E-04 +6.819446E-03 
 -7.900840E-05 -1.477352E-03 -8.663857E-05 -1.477352E-03 +1.206259E-05 -2.625934E-04 -8.663857E-05 -2.625934E-04 +7.823366E-03 
 +9.618625E-05 +4.828800E-04 -4.893519E-05 +4.828800E-04 -2.520967E-04 -3.224225E-05 -4.893519E-05 -3.224225E-05 +7.390221E-03 
 +6.706368E-05 -2.673884E-04 +2.263407E-04 -2.673884E-04 +5.312046E-04 +3.464988E-04 +2.263407E-04 +3.464988E-04 +7.066451E-03 
 +3.370499E-04 -2.677890E-04 -7.291894E-04 -2.677890E-04 -3.001678E-04 -1.096935E-04 -7.291894E-04 -1.096935E-04 +7.700630E-03 
 -1.006270E-04 -8.769908E-05 -3.494331E-04 -8.769908E-05 -3.539624E-04 -8.971707E-04 -3.494331E-04 -8.971707E-04 +7.680908E-03 
 -4.822708E-04 +5.987157E-04 +5.447768E-04 +5.987157E-04 +4.310340E-04 +8.568120E-05 +5.447768E-04 +8.568120E-05 +7.726119E-03 
 -5.836208E-05 -4.078149E-04 -5.329880E-04 -4.078149E-04 -1.551958E-04 +1.260870E-04 -5.329880E-04 +1.260870E-04 +7.466343E-03 
 -2.138152E-04 +8.081884E-04 +1.626980E-04 +8.081884E-04 +4.265785E-04 -4.846826E-04 +1.626980E-04 -4.846826E-04 +7.307380E-03 
 -2.112804E-05 -7.483740E-04 +1.889057E-04 -7.483740E-04 -4.437522E-04 -5.239026E-04 +1.889057E-04 -5.239026E-04 +7.753768E-03 
 +4.538529E-04 +1.722585E-04 +1.019703E-04 +1.722585E-04 -2.478586E-04 -1.947562E-04 +1.019703E-04 -1.947562E-04 +7.434932E-03 
 -1.034320E-04 +1.816444E-04 +4.263012E-05 +1.816444E-04 +4.218320E-04 -1.534629E-05 +4.263012E-05 -1.534629E-05 +7.101415E-03 
 +3.336398E-05 +1.010811E-04 -4.054290E-04 +1.010811E-04 -4.461453E-04 -1.798270E-04 -4.054290E-04 -1.798270E-04 +7.470916E-03 
 +4.153667E-04 +2.984523E-04 -3.590784E-05 +2.984523E-04 +2.698098E-04 +2.497080E-04 -3.590784E-05 +2.497080E-04 +7.268581E-03 
 +2.016957E-04 +1.239061E-04 -5.636851E-04 +1.239061E-04 -1.849556E-04 -9.559293E-05 -5.636851E-04 -9.559293E-05 +7.306012E-03 
 -2.053546E-04 -7.569836E-04 -4.545593E-04 -7.569836E-04 -1.936228E-04 +1.048344E-04 -4.545593E-04 +1.048344E-04 +7.614939E-03 
 +1.103934E-04 +4.463867E-04 -6.664218E-04 +4.463867E-04 -1.222631E-04 -1.948911E-04 -6.664218E-04 -1.948911E-04 +7.464063E-03 
 +1.634312E-04 -6.494872E-05 -3.099423E-04 -6.494872E-05 +2.072079E-04 -1.309606E-04 -3.099423E-04 -1.309606E-04 +7.420926E-03 
 -5.158818E-04 -6.726496E-04 -1.230841E-04 -6.726496E-04 +2.588792E-04 +7.607140E-05 -1.230841E-04 +7.607140E-05 +7.667816E-03 
 -1.394387E-04 +5.785052E-04 +1.888392E-04 +5.785052E-04 -3.700450E-05 -3.696660E-04 +1.888392E-04 -3.696660E-04 +7.784131E-03 
 +1.576613E-04 -6.373284E-04 +3.504357E-04 -6.373284E-04 -4.228806E-05 +1.664971E-04 +3.504357E-04 +1.664971E-04 +7.142058E-03 
 +1.233940E-04 -7.668564E-04 -5.206316E-04 -7.668564E-04 +2.202838E-04 -2.204792E-04 -5.206316E-04 -2.204792E-04 +7.252120E-03 
 -4.039112E-04 -1.067284E-03 +1.365491E-04 -1.067284E-03 -2.982915E-05 +7.271672E-05 +1.365491E-04 +7.271672E-05 +7.613508E-03 
 +3.486333E-04 -6.496287E-04 +3.116091E-04 -6.496287E-04 +3.647023E-04 -5.928409E-04 +3.116091E-04 -5.928409E-04 +7.353655E-03 
 +1.265187E-04 -6.239445E-05 -2.412461E-04 -6.239445E-05 -3.452553E-04 +1.348157E-04 -2.412461E-04 +1.348157E-04 +7.581537E-03 
 +2.801222E-04 -2.945495E-04 +2.017307E-04 -2.945495E-04 +2.298453E-04 -3.136838E-06 +2.017307E-04 -3.136838E-06 +7.267989E-03 
 +1.820375E-04 +1.511031E-04 +5.553035E-05 +1.511031E-04 -3.589951E-04 -3.045062E-04 +5.553035E-05 -3.045062E-04 +7.395155E-03 
 -3.253978E-04 -3.282464E-04 -6.844840E-04 -3.282464E-04 +1.909511E-04 +5.946761E-04 -6.844840E-04 +5.946761E-04 +7.265009E-03 
 -7.833703E-05 +4.221579E-05 +8.272313E-05 +4.221579E-05 +3.109495E-04 -1.576835E-04 +8.272313E-05 -1.576835E-04 +7.087090E-03 
 -1.936256E-04 +8.503908E-04 -8.602274E-05 +8.503908E-04 +3.617084E-05 -4.246233E-04 -8.602274E-05 -4.246233E-04 +7.496783E-03 
 -1.169083E-05 +9.161779E-04 +1.493687E-04 +9.161779E-04 -3.006358E-04 +3.289789E-04 +1.493687E-04 +3.289789E-04 +7.629349E-03 
 +2.101172E-04 +2.803951E-04 +5.247017E-04 +2.803951E-04 +1.229370E-05 +5.732385E-05 +5.247017E-04 +5.732385E-05 +7.505252E-03 
 -3.952265E-04 +3.502347E-04 -1.114406E-06 +3.502347E-04 +3.349404E-04 +3.452112E-04 -1.114406E-06 +3.452112E-04 +7.858287E-03 
 +4.898972E-05 -3.169136E-04 +5.267902E-04 -3.169136E-04 -6.341024E-04 -1.798314E-04 +5.267902E-04 -1.798314E-04 +7.769553E-03 
 +2.227077E-04 -3.494138E-04 +1.924133E-04 -3.494138E-04 +1.244861E-04 -2.689543E-04 +1.924133E-04 -2.689543E-04 +7.389543E-03 
 -1.460741E-04 +7.603852E-04 -1.959375E-04 +7.603852E-04 -5.504757E-05 -8.264146E-05 -1.959375E-04 -8.264146E-05 +7.452250E-03 
 +2.362689E-04 -9.324505E-04 -3.740568E-04 -9.324505E-04 -6.463009E-05 +4.218892E-04 -3.740568E-04 +4.218892E-04 +7.162605E-03 
 +4.186957E-04 -3.963283E-04 +3.262146E-04 -3.963283E-04 +4.352622E-05 +1.222998E-04 +3.262146E-04 +1.222998E-04 +7.240416E-03 
 -1.800602E-04 -1.827882E-04 -5.120853E-05 -1.827882E-04 -2.629073E-07 -2.145678E-04 -5.120853E-05 -2.145678E-04 +7.544284E-03 
 +3.732248E-04 -3.832915E-04 -1.677816E-04 -3.832915E-04 -1.162464E-05 -1.047146E-04 -1.677816E-04 -1.047146E-04 +6.879945E-03 
 +2.837525E-04 +3.071538E-04 -4.979756E-04 +3.071538E-04 +1.889384E-04 +3.405443E-04 -4.979756E-04 +3.405443E-04 +6.950459E-03 
 -4.690530E-04 -8.852728E-04 -7.374883E-04 -8.852728E-04 +8.189325E-05 -3.356210E-04 -7.374883E-04 -3.356210E-04 +7.820643E-03 
 -3.476589E-04 -6.069980E-04 -5.313759E-04 -6.069980E-04 -1.186648E-04 -2.862272E-04 -5.313759E-04 -2.862272E-04 +7.863969E-03 
 -1.913020E-04 +7.440851E-04 -1.532228E-05 +7.440851E-04 +5.083382E-04 +2.545200E-04 -1.532228E-05 +2.545200E-04 +7.180571E-03 
 -1.899360E-04 +4.611277E-04 -4.517230E-05 +4.611277E-04 -8.315477E-05 -2.980394E-04 -4.517230E-05 -2.980394E-04 +7.328843E-03 
 -2.811720E-04 -8.100591E-04 +8.705437E-05 -8.100591E-04 -9.529446E-05 +3.008207E-04 +8.705437E-05 +3.008207E-04 +7.664701E-03 
 -3.392059E-04 +1.029223E-03 -2.847465E-04 +1.029223E-03 +5.027942E-04 -6.876314E-04 -2.847465E-04 -6.876314E-04 +7.328404E-03 
 -2.258625E-04 -9.010992E-04 -2.322509E-04 -9.010992E-04 -5.406599E-04 +5.858474E-05 -2.322509E-04 +5.858474E-05 +8.083057E-03 
 -4.610310E-04 +7.860762E-04 +5.803950E-04 +7.860762E-04 +2.696090E-04 -5.700686E-04 +5.803950E-04 -5.700686E-04 +7.833676E-03 
 +1.921031E-04 -7.954922E-05 -4.020501E-05 -7.954922E-05 +1.375317E-04 +2.191552E-04 -4.020501E-05 +2.191552E-04 +7.056196E-03 
 +4.423575E-04 -5.637224E-05 -7.710650E-05 -5.637224E-05 +5.317199E-05 -2.103799E-04 -7.710650E-05 -2.103799E-04 +7.472860E-03 
 +1.175739E-04 -1.888591E-04 +1.598222E-04 -1.888591E-04 +1.202062E-04 -4.171406E-04 +1.598222E-04 -4.171406E-04 +7.549396E-03 
 +1.609276E-05 -8.408619E-04 -2.328596E-05 -8.408619E-04 +8.197804E-06 -2.638225E-04 -2.328596E-05 -2.638225E-04 +7.445876E-03 
 +1.288969E-04 +3.959485E-04 +1.750177E-04 +3.959485E-04 -4.781162E-04 +1.602204E-04 +1.750177E-04 +1.602204E-04 +7.732759E-03 
 -5.928758E-05 +3.489443E-04 -2.252523E-04 +3.489443E-04 -1.110242E-04 +3.575544E-05 -2.252523E-04 +3.575544E-05 +7.896293E-03 
 +6.009481E-04 +8.187511E-04 +3.642633E-05 +8.187511E-04 -1.286404E-04 -2.428296E-04 +3.642633E-05 -2.428296E-04 +7.497297E-03 
 +4.503371E-04 +1.091427E-04 +3.979767E-04 +1.091427E-04 +4.098564E-04 +2.179657E-04 +3.979767E-04 +2.179657E-04 +7.339674E-03 
 +1.485545E-04 +5.984530E-04 -1.983427E-04 +5.984530E-04 -3.425804E-04 -4.701641E-05 -1.983427E-04 -4.701641E-05 +7.342179E-03 
 +3.776705E-04 -5.266496E-04 -2.061694E-04 -5.266496E-04 -8.552091E-06 +1.890634E-04 -2.061694E-04 +1.890634E-04 +7.196372E-03 
 +4.730377E-04 -2.168180E-04 +2.747213E-04 -2.168180E-04 -7.939640E-06 +3.962362E-04 +2.747213E-04 +3.962362E-04 +7.153758E-03 
 +2.433205E-04 -3.888863E-04 -6.139202E-04 -3.888863E-04 -2.357320E-04 +5.492046E-05 -6.139202E-04 +5.492046E-05 +6.984574E-03 
 +2.090828E-04 +1.969213E-04 -8.034301E-04 +1.969213E-04 +4.909709E-04 -1.926290E-04 -8.034301E-04 -1.926290E-04 +6.999205E-03 
 +5.964932E-05 +1.702744E-03 +1.710397E-04 +1.702744E-03 -6.857406E-05 +7.564032E-05 +1.710397E-04 +7.564032E-05 +7.370065E-03 
 -2.863015E-04 -9.444383E-04 +1.639172E-04 -9.444383E-04 -4.012347E-04 -4.387235E-04 +1.639172E-04 -4.387235E-04 +8.003471E-03 
 +1.181613E-04 +1.454098E-04 +1.564262E-04 +1.454098E-04 +1.064513E-04 -2.890767E-04 +1.564262E-04 -2.890767E-04 +7.488265E-03 
 +6.644252E-05 +2.605245E-04 +8.431180E-05 +2.605245E-04 -4.027761E-04 -9.527629E-06 +8.431180E-05 -9.527629E-06 +7.566714E-03 
 -9.644325E-05 +4.150105E-05 +1.986886E-04 +4.150105E-05 +3.960757E-05 +4.222345E-05 +1.986886E-04 +4.222345E-05 +7.481623E-03 
 -2.198976E-04 -1.554969E-04 +1.313573E-04 -1.554969E-04 -2.803108E-05 +2.032426E-04 +1.313573E-04 +2.032426E-04 +7.716015E-03 
 -6.843531E-05 -4.686945E-04 -1.426619E-04 -4.686945E-04 +3.955100E-04 -1.839861E-04 -1.426619E-04 -1.839861E-04 +7.054982E-03 
 -3.436155E-04 +4.989463E-04 -3.755119E-04 +4.989463E-04 +2.879245E-04 +4.033408E-05 -3.755119E-04 +4.033408E-05 +7.259975E-03 
 +4.573182E-04 +3.639509E-04 +1.638549E-04 +3.639509E-04 -9.266884E-04 -2.390419E-04 +1.638549E-04 -2.390419E-04 +8.335588E-03 
 +2.489465E-04 -7.250474E-04 +5.400486E-04 -7.250474E-04 +5.480407E-04 -5.828168E-04 +5.400486E-04 -5.828168E-04 +7.288513E-03 
 -2.341016E-04 -3.804590E-04 +7.187677E-05 -3.804590E-04 +3.081725E-04 -4.216979E-06 +7.187677E-05 -4.216979E-06 +6.852252E-03 
 +4.364090E-04 -4.817987E-04 +5.834421E-04 -4.817987E-04 -2.489467E-04 -4.785622E-04 +5.834421E-04 -4.785622E-04 +7.235108E-03 
 +1.505574E-04 +6.738542E-04 +9.897492E-05 +6.738542E-04 -2.775821E-04 -3.542623E-05 +9.897492E-05 -3.542623E-05 +7.270310E-03 
 +1.494398E-04 -1.366698E-04 +3.704687E-04 -1.366698E-04 +3.796394E-04 +6.710225E-05 +3.704687E-04 +6.710225E-05 +7.090508E-03 
 -2.508142E-05 +2.635997E-04 +7.698265E-04 +2.635997E-04 -1.416960E-04 -5.908595E-05 +7.698265E-04 -5.908595E-05 +7.519263E-03 
 -1.213832E-04 +2.195068E-04 +2.622612E-04 +2.195068E-04 -2.898684E-05 -1.923145E-04 +2.622612E-04 -1.923145E-04 +7.800905E-03 
 +4.612968E-04 +4.837250E-04 +1.005095E-04 +4.837250E-04 -4.190943E-04 -1.799629E-04 +1.005095E-04 -1.799629E-04 +7.253575E-03 
 +1.617550E-04 +1.742197E-04 +9.695880E-05 +1.742197E-04 +4.871217E-04 -4.508185E-05 +9.695880E-05 -4.508185E-05 +7.303903E-03 
 -5.438011E-05 +8.107206E-05 -5.919327E-04 +8.107206E-05 -3.050256E-04 -4.341422E-04 -5.919327E-04 -4.341422E-04 +7.735028E-03 
 +1.722041E-05 +9.840810E-06 -9.122554E-04 +9.840810E-06 -3.266176E-04 +2.010692E-05 -9.122554E-04 +2.010692E-05 +7.744742E-03 
 -3.581417E-04 -7.723095E-04 -7.001759E-04 -7.723095E-04 +1.306360E-04 -4.326376E-04 -7.001759E-04 -4.326376E-04 +7.685840E-03 
 -2.467092E-04 +8.954935E-04 -9.138403E-04 +8.954935E-04 +8.128541E-05 +1.677136E-04 -9.138403E-04 +1.677136E-04 +7.489482E-03 
 +2.319765E-04 -3.046725E-04 -6.630967E-04 -3.046725E-04 +3.404281E-04 +5.543862E-04 -6.630967E-04 +5.543862E-04 +7.084361E-03 
 -6.298905E-05 -2.129949E-04 -2.182072E-05 -2.129949E-04 -4.420465E-04 +2.639756E-04 -2.182072E-05 +2.639756E-04 +7.492621E-03 
 -9.583197E-05 +1.216857E-03 -1.360926E-04 +1.216857E-03 -7.179275E-06 -2.533195E-05 -1.360926E-04 -2.533195E-05 +8.097312E-03 
 +3.468468E-04 +3.387118E-04 +2.579572E-04 +3.387118E-04 +1.963696E-06 +5.149634E-06 +2.579572E-04 +5.149634E-06 +7.425142E-03 
 +3.268447E-04 -5.321621E-04 +7.507725E-05 -5.321621E-04 +1.487025E-04 +6.564916E-04 +7.507725E-05 +6.564916E-04 +6.779740E-03 
 +1.665917E-04 +1.225632E-04 -3.699934E-04 +1.225632E-04 +3.365990E-04 +1.838746E-04 -3.699934E-04 +1.838746E-04 +7.007793E-03 
 +4.140107E-04 +1.942810E-04 -2.411217E-05 +1.942810E-04 -6.982791E-04 -4.339948E-04 -2.411217E-05 -4.339948E-04 +7.587603E-03 
 +4.061352E-04 +1.769263E-04 -5.766978E-04 +1.769263E-04 +1.899980E-04 -4.029673E-04 -5.766978E-04 -4.029673E-04 +7.031027E-03 
 -6.826128E-05 -3.602986E-04 -8.536299E-04 -3.602986E-04 -3.327790E-06 +1.438395E-04 -8.536299E-04 +1.438395E-04 +7.436526E-03 
 -4.035184E-04 -9.485428E-05 -4.217503E-04 -9.485428E-05 +5.230053E-04 -7.163693E-05 -4.217503E-04 -7.163693E-05 +7.812098E-03 
 +1.599305E-04 +5.243250E-05 -5.646191E-04 +5.243250E-05 -5.320840E-04 -3.247346E-04 -5.646191E-04 -3.247346E-04 +7.332715E-03 
 +2.286958E-04 -1.752644E-04 -8.079824E-05 -1.752644E-04 +2.677391E-04 +5.334842E-04 -8.079824E-05 +5.334842E-04 +6.866134E-03 
 +3.213221E-04 -2.946371E-04 -1.517284E-04 -2.946371E-04 +2.162422E-04 +1.387833E-04 -1.517284E-04 +1.387833E-04 +7.107475E-03 
 +1.876710E-04 -2.633930E-04 +7.792813E-05 -2.633930E-04 -1.764287E-04 -3.443903E-04 +7.792813E-05 -3.443903E-04 +7.205982E-03 
 +3.891360E-05 +3.883719E-04 +1.604249E-04 +3.883719E-04 +1.031579E-04 +3.249621E-04 +1.604249E-04 +3.249621E-04 +7.489029E-03 
 +2.860703E-04 -1.823965E-04 -1.841982E-04 -1.823965E-04 -4.453134E-04 -2.199938E-04 -1.841982E-04 -2.199938E-04 +8.027568E-03 
 +4.406813E-05 -2.111169E-04 -4.348664E-04 -2.111169E-04 -1.032628E-04 +8.184805E-05 -4.348664E-04 +8.184805E-05 +7.718492E-03 
 -3.140367E-04 -4.529255E-04 -3.961669E-04 -4.529255E-04 +2.134721E-04 +7.069244E-05 -3.961669E-04 +7.069244E-05 +7.699513E-03 
 -5.977534E-04 -1.614805E-05 -4.297286E-04 -1.614805E-05 -7.816903E-05 -1.737136E-05 -4.297286E-04 -1.737136E-05 +7.801446E-03 
 -1.262801E-04 -1.027794E-03 -4.840516E-04 -1.027794E-03 -3.648554E-04 +6.881742E-04 -4.840516E-04 +6.881742E-04 +7.704789E-03 
 -2.149204E-04 -7.295961E-04 -1.720480E-04 -7.295961E-04 +2.640627E-04 -9.022829E-05 -1.720480E-04 -9.022829E-05 +7.331889E-03 
 +9.718782E-05 -1.268607E-04 +1.829599E-05 -1.268607E-04 +5.876130E-04 -3.818150E-04 +1.829599E-05 -3.818150E-04 +6.853506E-03 
 +1.482280E-04 +5.222657E-04 -3.321372E-04 +5.222657E-04 -1.080524E-04 +3.466154E-04 -3.321372E-04 +3.466154E-04 +7.574375E-03 
 -1.107183E-04 +2.031054E-04 -1.167471E-04 +2.031054E-04 +4.581980E-04 +1.158416E-04 -1.167471E-04 +1.158416E-04 +7.111559E-03 
 -1.718539E-04 +4.370933E-04 -3.937720E-04 +4.370933E-04 -2.270347E-04 -5.365651E-06 -3.937720E-04 -5.365651E-06 +7.852537E-03 
 +2.552691E-04 -6.949191E-04 -4.632732E-04 -6.949191E-04 +2.812781E-04 -5.764483E-04 -4.632732E-04 -5.764483E-04 +7.670568E-03 
 +5.190533E-05 +1.823032E-04 +1.367209E-04 +1.823032E-04 -4.676349E-04 -2.082322E-04 +1.367209E-04 -2.082322E-04 +7.686107E-03 
 +4.700893E-05 +1.082375E-03 -4.250840E-05 +1.082375E-03 +9.801688E-05 +8.115423E-04 -4.250840E-05 +8.115423E-04 +7.434902E-03 
 -5.191618E-05 -3.123384E-04 -9.314226E-04 -3.123384E-04 +9.654491E-05 +3.985572E-04 -9.314226E-04 +3.985572E-04 +7.633911E-03 
 +1.178046E-04 -8.756529E-04 -4.074223E-04 -8.756529E-04 -2.884047E-06 -3.838772E-04 -4.074223E-04 -3.838772E-04 +7.546347E-03 
 +2.588622E-04 -5.478468E-04 +1.038328E-05 -5.478468E-04 +9.616512E-05 +2.830118E-04 +1.038328E-05 +2.830118E-04 +7.304565E-03 
 -1.139540E-03 +2.290707E-04 -4.574218E-04 +2.290707E-04 -9.021328E-05 -2.797956E-04 -4.574218E-04 -2.797956E-04 +7.960259E-03 
 -5.375606E-04 +8.059692E-05 -1.292335E-04 +8.059692E-05 +4.258951E-05 -5.348580E-04 -1.292335E-04 -5.348580E-04 +8.113335E-03 
 +1.082751E-04 -2.034417E-04 -1.402378E-04 -2.034417E-04 +1.118917E-04 -1.361388E-05 -1.402378E-04 -1.361388E-05 +7.543212E-03 
 -2.905889E-04 -3.551525E-04 +2.488793E-04 -3.551525E-04 +4.168832E-05 +8.353308E-05 +2.488793E-04 +8.353308E-05 +7.689893E-03 
 +2.445194E-04 +3.528084E-04 +2.264563E-04 +3.528084E-04 +2.845381E-05 -2.004253E-04 +2.264563E-04 -2.004253E-04 +7.329473E-03 
 +1.755154E-04 -6.941681E-05 -5.385767E-04 -6.941681E-05 -1.599106E-05 -8.039416E-05 -5.385767E-04 -8.039416E-05 +6.948214E-03 
 +1.721541E-04 +5.002532E-04 -8.227040E-05 +5.002532E-04 -4.954500E-04 +6.471168E-04 -8.227040E-05 +6.471168E-04 +7.460341E-03 
 +1.877360E-04 -4.729733E-04 -2.774305E-06 -4.729733E-04 +1.033151E-04 +4.383304E-05 -2.774305E-06 +4.383304E-05 +7.165547E-03 
 -1.125484E-04 -1.592198E-04 +4.425182E-04 -1.592198E-04 +3.612588E-04 +1.299178E-04 +4.425182E-04 +1.299178E-04 +7.334995E-03 
 +2.774224E-04 -1.776938E-04 +1.524089E-04 -1.776938E-04 -4.143745E-04 -1.329402E-04 +1.524089E-04 -1.329402E-04 +7.592204E-03 
 -4.542724E-04 -1.300717E-03 +3.318368E-04 -1.300717E-03 +3.919432E-04 +1.909786E-04 +3.318368E-04 +1.909786E-04 +7.423979E-03 
 -7.945261E-05 -9.222223E-04 +5.097992E-05 -9.222223E-04 -2.894760E-04 +3.960693E-04 +5.097992E-05 +3.960693E-04 +8.002945E-03 
 +5.574473E-04 +7.081397E-04 -5.649970E-04 +7.081397E-04 -3.465637E-05 +2.946426E-04 -5.649970E-04 +2.946426E-04 +7.212936E-03 
 +1.754915E-04 -3.958737E-04 -3.289286E-04 -3.958737E-04 +5.622020E-05 +4.823937E-04 -3.289286E-04 +4.823937E-04 +7.005850E-03 
 -7.733858E-05 +2.093431E-04 +3.314815E-04 +2.093431E-04 +5.814033E-05 +1.263717E-04 +3.314815E-04 +1.263717E-04 +7.241174E-03 
 -1.419586E-05 -8.727019E-04 +4.321585E-04 -8.727019E-04 -3.703151E-04 -8.195280E-04 +4.321585E-04 -8.195280E-04 +7.934294E-03 
 +2.230863E-04 -5.008133E-04 +5.418803E-04 -5.008133E-04 +3.948925E-04 +5.501861E-04 +5.418803E-04 +5.501861E-04 +6.991402E-03 
 +2.422477E-04 +9.282955E-04 +1.324481E-04 +9.282955E-04 -7.319314E-05 +2.735645E-04 +1.324481E-04 +2.735645E-04 +6.832289E-03 
 -5.798333E-05 -5.376251E-04 -3.177328E-04 -5.376251E-04 -7.773704E-05 -2.401531E-04 -3.177328E-04 -2.401531E-04 +7.054488E-03 
 -1.845180E-05 +1.211992E-05 +1.296080E-04 +1.211992E-05 +5.595755E-05 +1.727330E-04 +1.296080E-04 +1.727330E-04 +7.281987E-03 
 -1.360340E-05 -5.725800E-04 +1.401560E-04 -5.725800E-04 -3.165305E-04 +9.265217E-05 +1.401560E-04 +9.265217E-05 +7.799281E-03 
 -4.836274E-04 -5.426302E-04 +2.743356E-04 -5.426302E-04 +2.752565E-04 +1.562664E-04 +2.743356E-04 +1.562664E-04 +7.819092E-03 
 -6.090133E-04 +7.755677E-04 +4.311382E-04 +7.755677E-04 +8.680054E-05 -6.726771E-05 +4.311382E-04 -6.726771E-05 +7.934940E-03 
 -1.632302E-04 +1.336150E-04 -2.719987E-04 +1.336150E-04 -2.488994E-04 -4.851925E-04 -2.719987E-04 -4.851925E-04 +7.479921E-03 
 +4.806746E-05 -7.279775E-04 +2.277496E-05 -7.279775E-04 +3.256609E-04 -7.922103E-06 +2.277496E-05 -7.922103E-06 +6.846599E-03 
 +3.838619E-04 -8.787429E-05 +9.467867E-05 -8.787429E-05 +6.066848E-05 -3.050104E-05 +9.467867E-05 -3.050104E-05 +7.330297E-03 
 +1.579100E-04 -2.733391E-05 +3.009032E-04 -2.733391E-05 -1.050911E-04 -2.209678E-04 +3.009032E-04 -2.209678E-04 +7.503585E-03 
 +6.292324E-05 +5.572789E-04 +1.481480E-04 +5.572789E-04 -2.495375E-04 -7.384536E-06 +1.481480E-04 -7.384536E-06 +7.298149E-03 
 +2.874365E-05 -2.658672E-04 -7.422226E-05 -2.658672E-04 -1.051856E-05 +1.218331E-04 -7.422226E-05 +1.218331E-04 +7.715339E-03 
 -9.800016E-06 +4.417891E-04 -5.633084E-05 +4.417891E-04 +1.383852E-04 +2.801226E-04 -5.633084E-05 +2.801226E-04 +7.501773E-03 
 -5.958863E-05 +2.757073E-05 -5.373815E-05 +2.757073E-05 +7.654975E-05 -2.718575E-04 -5.373815E-05 -2.718575E-04 +7.089471E-03 
 -4.028287E-04 +5.351150E-04 +5.243264E-04 +5.351150E-04 +1.620047E-04 -1.591835E-04 +5.243264E-04 -1.591835E-04 +7.377297E-03 
 +2.227031E-04 -2.355802E-04 +3.681127E-04 -2.355802E-04 -2.036410E-04 +6.225489E-04 +3.681127E-04 +6.225489E-04 +7.449826E-03 
 +8.076920E-05 +4.429752E-04 -8.461800E-05 +4.429752E-04 -1.662655E-04 -1.910837E-04 -8.461800E-05 -1.910837E-04 +7.741619E-03 
 -2.639638E-04 -3.209710E-04 +5.176254E-04 -3.209710E-04 -1.665871E-04 -1.630640E-04 +5.176254E-04 -1.630640E-04 +7.899546E-03 
 +3.336412E-04 -3.756707E-04 +6.229338E-04 -3.756707E-04 +1.074253E-05 +4.901592E-04 +6.229338E-04 +4.901592E-04 +7.182486E-03 
 +2.948369E-04 -3.431657E-04 +4.139182E-04 -3.431657E-04 +2.039868E-04 +1.535802E-04 +4.139182E-04 +1.535802E-04 +6.743021E-03 
 -2.230926E-04 -8.265974E-04 -2.802745E-05 -8.265974E-04 +6.663342E-05 -1.800844E-04 -2.802745E-05 -1.800844E-04 +7.983193E-03 
 +1.434397E-04 -3.699775E-04 -4.358772E-04 -3.699775E-04 -6.121754E-04 +1.873785E-04 -4.358772E-04 +1.873785E-04 +8.091679E-03 
 -3.653497E-04 -1.236613E-03 +3.677612E-04 -1.236613E-03 +2.848351E-04 -1.958768E-04 +3.677612E-04 -1.958768E-04 +7.754375E-03 
 -4.897044E-04 +1.370058E-04 +9.795629E-05 +1.370058E-04 +3.248706E-04 +2.394978E-04 +9.795629E-05 +2.394978E-04 +8.023819E-03 
 +2.629611E-05 +9.985964E-06 -9.545418E-06 +9.985964E-06 -7.554803E-04 +4.498711E-04 -9.545418E-06 +4.498711E-04 +7.696812E-03 
 +3.417464E-04 -9.750687E-04 +3.531513E-04 -9.750687E-04 +4.562311E-04 -2.310384E-04 +3.531513E-04 -2.310384E-04 +6.917205E-03 
 +7.184680E-05 +2.320378E-04 +2.360846E-04 +2.320378E-04 +6.512144E-04 +1.153942E-04 +2.360846E-04 +1.153942E-04 +6.805996E-03 
 +1.446282E-04 -3.871683E-04 -1.214565E-04 -3.871683E-04 -5.864208E-04 +1.351686E-04 -1.214565E-04 +1.351686E-04 +7.781577E-03 
 +1.357395E-04 -8.168458E-04 -6.915006E-04 -8.168458E-04 +7.710540E-05 +3.623395E-04 -6.915006E-04 +3.623395E-04 +7.989848E-03 
 -8.794634E-06 +1.057104E-04 -7.885467E-04 +1.057104E-04 +1.813648E-04 -7.288466E-05 -7.885467E-04 -7.288466E-05 +7.404631E-03 
 +3.339317E-04 -9.310389E-04 -9.724175E-05 -9.310389E-04 -3.803313E-04 -3.885886E-05 -9.724175E-05 -3.885886E-05 +7.763896E-03 
 +1.540411E-05 -2.037299E-04 +3.610665E-04 -2.037299E-04 -4.349139E-05 +5.116991E-05 +3.610665E-04 +5.116991E-05 +7.587244E-03 
 +2.317412E-04 +3.239352E-04 +6.031606E-04 +3.239352E-04 +2.276663E-04 +3.066334E-04 +6.031606E-04 +3.066334E-04 +7.106707E-03 
 +2.726603E-04 -7.977725E-04 +9.332594E-04 -7.977725E-04 -9.964136E-05 -3.860040E-05 +9.332594E-04 -3.860040E-05 +7.201472E-03 
 -2.526085E-04 +1.487915E-04 +4.584763E-04 +1.487915E-04 +3.292928E-04 +1.017553E-04 +4.584763E-04 +1.017553E-04 +7.494731E-03 
 -1.169823E-04 +6.577560E-05 -2.454330E-04 +6.577560E-05 -2.483608E-04 +3.113504E-04 -2.454330E-04 +3.113504E-04 +7.774050E-03 
 -1.234973E-04 +1.255120E-03 -6.888752E-04 +1.255120E-03 +2.451129E-04 +1.000904E-04 -6.888752E-04 +1.000904E-04 +7.442778E-03 
 -3.698217E-04 +1.247321E-04 -3.007485E-04 +1.247321E-04 +4.766563E-05 +4.524063E-04 -3.007485E-04 +4.524063E-04 +7.685843E-03 
 -1.288477E-04 -3.995103E-04 -2.499905E-04 -3.995103E-04 -8.184065E-05 -3.757490E-04 -2.499905E-04 -3.757490E-04 +7.591154E-03 
 +1.586452E-04 +1.702349E-05 +7.634158E-04 +1.702349E-05 +1.646978E-04 -1.542373E-04 +7.634158E-04 -1.542373E-04 +7.203214E-03 
 -7.038231E-07 -6.983342E-04 -7.334894E-05 -6.983342E-04 -1.019805E-05 +2.205223E-04 -7.334894E-05 +2.205223E-04 +7.777488E-03 
 -4.080069E-05 +3.715228E-04 -4.006478E-04 +3.715228E-04 -1.865220E-04 -2.931188E-05 -4.006478E-04 -2.931188E-05 +7.628781E-03 
 +4.256365E-04 -4.785827E-05 +8.926580E-04 -4.785827E-05 -2.747832E-04 +8.916144E-05 +8.926580E-04 +8.916144E-05 +7.495278E-03 
 +5.011947E-04 -3.534594E-04 +1.118576E-04 -3.534594E-04 -1.665490E-05 -6.700066E-05 +1.118576E-04 -6.700066E-05 +7.462577E-03 
 +2.152610E-04 -3.503006E-04 -1.789025E-04 -3.503006E-04 +2.793928E-04 +1.130643E-04 -1.789025E-04 +1.130643E-04 +7.101947E-03 
 +2.458598E-04 -1.819235E-04 -1.050171E-04 -1.819235E-04 -8.862565E-05 -3.345703E-04 -1.050171E-04 -3.345703E-04 +7.233927E-03 
 -1.717069E-04 -5.189788E-04 -1.900389E-04 -5.189788E-04 +2.285980E-04 +2.994620E-04 -1.900389E-04 +2.994620E-04 +7.485089E-03 
 +4.587035E-05 -2.133345E-04 -6.925974E-04 -2.133345E-04 +3.226115E-04 -1.721322E-04 -6.925974E-04 -1.721322E-04 +7.231455E-03 
 +2.389724E-04 +1.040633E-06 -8.582651E-04 +1.040633E-06 +4.153145E-05 -7.779794E-05 -8.582651E-04 -7.779794E-05 +6.870199E-03 
 -5.225748E-05 -5.336914E-04 +4.883298E-04 -5.336914E-04 -9.086439E-05 +2.811996E-04 +4.883298E-04 +2.811996E-04 +7.496420E-03 
 -2.036376E-04 -2.053813E-04 +5.189435E-04 -2.053813E-04 -4.604285E-04 -6.102052E-05 +5.189435E-04 -6.102052E-05 +7.790853E-03 
 +4.113858E-04 +3.681333E-04 +6.705622E-04 +3.681333E-04 -8.476620E-05 +1.770805E-04 +6.705622E-04 +1.770805E-04 +7.488624E-03 
 -3.373662E-04 +1.644288E-04 -1.105263E-05 +1.644288E-04 +4.545912E-05 -4.864784E-04 -1.105263E-05 -4.864784E-04 +7.926175E-03 
 -4.655259E-04 +1.211529E-03 -7.829503E-04 +1.211529E-03 +5.130887E-05 -3.033573E-04 -7.829503E-04 -3.033573E-04 +7.602389E-03 
 -1.775031E-04 +6.543398E-06 +5.317056E-04 +6.543398E-06 +1.884256E-04 +1.029418E-04 +5.317056E-04 +1.029418E-04 +7.482026E-03 
 -5.573765E-04 -6.190039E-04 +4.539282E-04 -6.190039E-04 +5.676430E-05 +1.249465E-04 +4.539282E-04 +1.249465E-04 +7.873202E-03 
 -2.509720E-04 -1.195932E-04 -5.106407E-04 -1.195932E-04 +1.370513E-04 -2.259865E-04 -5.106407E-04 -2.259865E-04 +7.430032E-03 
 -1.645484E-04 +1.254349E-03 -1.660909E-04 +1.254349E-03 -2.687760E-04 +2.283288E-04 -1.660909E-04 +2.283288E-04 +7.529404E-03 
 -3.403695E-06 -4.626771E-04 +3.963160E-05 -4.626771E-04 +4.940183E-05 +8.121760E-04 +3.963160E-05 +8.121760E-04 +7.363806E-03 
 +2.852481E-04 -4.733322E-04 +1.147440E-04 -4.733322E-04 +4.720673E-05 -5.086943E-04 +1.147440E-04 -5.086943E-04 +7.172606E-03 
 +2.200372E-04 -3.658795E-04 +3.088345E-04 -3.658795E-04 -4.748628E-04 -2.385728E-04 +3.088345E-04 -2.385728E-04 +7.629340E-03 
 +3.368516E-04 -8.106582E-05 +4.420348E-04 -8.106582E-05 -3.840355E-05 -2.688495E-04 +4.420348E-04 -2.688495E-04 +7.162707E-03 
 +3.863570E-04 +2.231338E-04 +2.796023E-04 +2.231338E-04 +7.139931E-05 -1.032431E-04 +2.796023E-04 -1.032431E-04 +7.179166E-03 
 +2.533594E-04 -1.197160E-04 -2.402746E-04 -1.197160E-04 -6.362507E-05 -1.556959E-04 -2.402746E-04 -1.556959E-04 +7.295434E-03 
 +3.977375E-04 +3.506050E-04 +5.312838E-04 +3.506050E-04 +1.509705E-04 +1.097977E-04 +5.312838E-04 +1.097977E-04 +7.157109E-03 
 -1.186822E-04 +1.533469E-05 +1.943018E-04 +1.533469E-05 -4.601908E-05 +7.970969E-04 +1.943018E-04 +7.970969E-04 +7.433573E-03 
 -2.631945E-05 +1.125942E-04 +3.160449E-04 +1.125942E-04 +3.556909E-04 +2.493087E-05 +3.160449E-04 +2.493087E-05 +6.904105E-03 
 -7.423678E-06 +2.010103E-04 +4.505744E-04 +2.010103E-04 +1.752525E-04 +2.685847E-04 +4.505744E-04 +2.685847E-04 +7.080478E-03 
 +1.512965E-05 +4.105425E-04 -4.839314E-04 +4.105425E-04 -3.824471E-04 -6.166031E-04 -4.839314E-04 -6.166031E-04 +7.539400E-03 
 -2.472828E-04 +4.553218E-04 -3.635633E-04 +4.553218E-04 +1.181874E-04 +1.766368E-04 -3.635633E-04 +1.766368E-04 +7.798512E-03 
 -4.919696E-04 -3.930528E-04 -2.862122E-04 -3.930528E-04 +6.560363E-05 -4.578552E-04 -2.862122E-04 -4.578552E-04 +7.916387E-03 
 -8.379905E-05 +2.924677E-04 +4.984497E-04 +2.924677E-04 -3.003073E-04 -8.484900E-04 +4.984497E-04 -8.484900E-04 +7.775242E-03 
 +2.538150E-04 +4.624159E-04 -2.016061E-04 +4.624159E-04 -1.787624E-04 +2.674710E-04 -2.016061E-04 +2.674710E-04 +7.471143E-03 
 +1.864920E-04 -2.541317E-04 +4.642115E-05 -2.541317E-04 +4.098268E-04 +4.274794E-04 +4.642115E-05 +4.274794E-04 +7.076779E-03 
 -5.354450E-04 -8.705674E-05 +5.788968E-04 -8.705674E-05 -1.965952E-04 +3.174711E-05 +5.788968E-04 +3.174711E-05 +7.836485E-03 
 -8.668856E-04 +6.341603E-04 -1.736805E-04 +6.341603E-04 +1.006411E-04 +4.547246E-04 -1.736805E-04 +4.547246E-04 +7.975925E-03 
 -8.977553E-05 +1.944391E-04 +8.644762E-05 +1.944391E-04 +1.841388E-04 -1.838939E-04 +8.644762E-05 -1.838939E-04 +7.307311E-03 
 -4.440687E-04 +1.476260E-03 -2.777664E-04 +1.476260E-03 -1.579099E-04 -1.351717E-04 -2.777664E-04 -1.351717E-04 +7.637430E-03 
 -3.806090E-04 +8.968599E-04 -8.741747E-05 +8.968599E-04 +1.103834E-04 -1.524451E-04 -8.741747E-05 -1.524451E-04 +7.594892E-03 
 -5.538653E-05 +1.641122E-04 +4.787637E-04 +1.641122E-04 +5.382456E-04 -6.095970E-04 +4.787637E-04 -6.095970E-04 +7.148395E-03 
 +6.564453E-05 +1.264805E-04 +2.407522E-04 +1.264805E-04 -2.619925E-04 -2.927350E-04 +2.407522E-04 -2.927350E-04 +7.635452E-03 
 -2.496608E-04 -1.390736E-03 +5.488411E-05 -1.390736E-03 -4.374826E-04 -1.875247E-04 +5.488411E-05 -1.875247E-04 +7.859493E-03 
 +8.958766E-05 -1.378297E-04 +1.573290E-04 -1.378297E-04 +2.399982E-05 +1.314581E-04 +1.573290E-04 +1.314581E-04 +7.789715E-03 
 -1.813133E-04 +3.798135E-04 +3.502282E-04 +3.798135E-04 +1.189574E-04 +6.376610E-04 +3.502282E-04 +6.376610E-04 +7.530176E-03 
 +6.313302E-05 -1.069319E-03 +4.637023E-04 -1.069319E-03 -1.325704E-05 -1.714377E-04 +4.637023E-04 -1.714377E-04 +7.375553E-03 
 +3.128932E-06 +8.819705E-04 +3.136715E-04 +8.819705E-04 -2.041626E-05 -6.202236E-05 +3.136715E-04 -6.202236E-05 +7.838835E-03 
 -4.260879E-04 -9.810681E-04 +4.197500E-04 -9.810681E-04 +7.739144E-04 -9.046964E-05 +4.197500E-04 -9.046964E-05 +7.550554E-03 
 +1.661069E-04 +6.284742E-05 +9.114105E-05 +6.284742E-05 -3.562794E-04 -1.816369E-04 +9.114105E-05 -1.816369E-04 +7.734835E-03 
 +2.392519E-04 -2.043319E-04 -2.448309E-04 -2.043319E-04 -2.543783E-05 +2.292669E-05 -2.448309E-04 +2.292669E-05 +7.629633E-03 
 +8.185807E-05 +1.184365E-03 +2.340259E-04 +1.184365E-03 -3.064806E-04 -4.412784E-04 +2.340259E-04 -4.412784E-04 +7.712511E-03 
 -2.843796E-04 -5.456752E-04 +5.292041E-04 -5.456752E-04 -1.864412E-04 +1.319283E-04 +5.292041E-04 +1.319283E-04 +7.755829E-03 
 -7.186024E-05 -4.211039E-04 +5.253187E-04 -4.211039E-04 +1.620804E-04 +2.652337E-05 +5.253187E-04 +2.652337E-05 +7.149677E-03 
 -1.928083E-05 -4.888517E-04 +1.936624E-04 -4.888517E-04 +3.950107E-04 +8.151391E-05 +1.936624E-04 +8.151391E-05 +7.292083E-03 
 -3.184676E-04 -7.834766E-04 -1.766751E-04 -7.834766E-04 -1.980809E-04 +2.264216E-05 -1.766751E-04 +2.264216E-05 +7.373054E-03 
 +3.147106E-04 -4.215669E-04 -2.235408E-05 -4.215669E-04 -3.859582E-05 -8.137507E-05 -2.235408E-05 -8.137507E-05 +7.287115E-03 
 +3.246313E-04 -3.141686E-04 -1.876034E-06 -3.141686E-04 +3.191628E-05 +1.940900E-04 -1.876034E-06 +1.940900E-04 +7.381728E-03 
 +8.249090E-05 +1.480842E-04 +4.698382E-04 +1.480842E-04 -4.898582E-05 -6.930635E-04 +4.698382E-04 -6.930635E-04 +7.235426E-03 
 -2.671447E-05 +5.107738E-04 +4.186745E-04 +5.107738E-04 +1.525413E-04 -5.156558E-05 +4.186745E-04 -5.156558E-05 +7.325055E-03 
 -1.457878E-04 +6.266468E-04 +4.013884E-04 +6.266468E-04 +1.175416E-05 +3.725649E-04 +4.013884E-04 +3.725649E-04 +7.559213E-03 
 +3.988155E-05 +7.078949E-04 +4.438527E-04 +7.078949E-04 -3.144431E-04 -2.821956E-04 +4.438527E-04 -2.821956E-04 +7.696007E-03 
 +8.065956E-06 -1.568466E-04 +2.956135E-04 -1.568466E-04 -5.188608E-05 -1.338382E-04 +2.956135E-04 -1.338382E-04 +7.351464E-03 
 +2.241389E-04 +6.183848E-04 +6.600028E-05 +6.183848E-04 -7.667967E-05 -2.683421E-04 +6.600028E-05 -2.683421E-04 +7.117910E-03 
 -2.744376E-04 -6.979646E-04 -4.044943E-04 -6.979646E-04 +1.583636E-04 -2.716089E-05 -4.044943E-04 -2.716089E-05 +7.450036E-03 
 -3.908185E-05 -1.217327E-04 -4.487534E-04 -1.217327E-04 +2.354434E-04 -2.408295E-04 -4.487534E-04 -2.408295E-04 +7.321275E-03 
 +3.373876E-04 -2.400277E-04 -4.492669E-04 -2.400277E-04 +5.144423E-05 +8.840231E-04 -4.492669E-04 +8.840231E-04 +7.122366E-03 
 -6.231345E-06 -1.200178E-03 +1.719617E-04 -1.200178E-03 -4.941828E-04 +2.552963E-04 +1.719617E-04 +2.552963E-04 +7.609690E-03 
 +1.859740E-04 -8.952781E-05 -1.831239E-04 -8.952781E-05 +2.289882E-04 +2.149437E-04 -1.831239E-04 +2.149437E-04 +6.990673E-03 
 -8.290617E-05 -6.805598E-04 -1.534352E-04 -6.805598E-04 +3.298880E-04 -3.029220E-04 -1.534352E-04 -3.029220E-04 +6.903977E-03 
 +1.955060E-04 -4.679987E-04 +6.362722E-05 -4.679987E-04 +1.294390E-04 -8.208047E-05 +6.362722E-05 -8.208047E-05 +7.377393E-03 
 +2.396443E-04 -1.194191E-03 -1.418609E-04 -1.194191E-03 -6.619588E-04 -1.541533E-04 -1.418609E-04 -1.541533E-04 +7.705893E-03 
 -1.090548E-04 -7.323668E-05 +1.227897E-04 -7.323668E-05 +1.768948E-05 -7.831395E-05 +1.227897E-04 -7.831395E-05 +7.446241E-03 
 +1.489242E-05 +6.407840E-04 -2.130506E-04 +6.407840E-04 -9.201941E-05 +4.845030E-05 -2.130506E-04 +4.845030E-05 +7.299350E-03 
 +3.062742E-04 -1.904500E-04 -5.155188E-05 -1.904500E-04 +4.467350E-04 +1.567288E-05 -5.155188E-05 +1.567288E-05 +7.293236E-03 
 +3.151709E-04 -3.673978E-04 -1.971142E-04 -3.673978E-04 +6.236471E-05 -3.137581E-04 -1.971142E-04 -3.137581E-04 +6.965184E-03 
 -2.256088E-04 -2.877405E-05 -1.256911E-04 -2.877405E-05 -1.177696E-04 -3.292421E-04 -1.256911E-04 -3.292421E-04 +7.620296E-03 
 -5.498768E-04 -7.397978E-05 -2.107380E-04 -7.397978E-05 -9.595117E-05 -1.558210E-04 -2.107380E-04 -1.558210E-04 +8.016667E-03 
 -2.487643E-04 +1.092548E-04 +1.480618E-05 +1.092548E-04 +1.108035E-04 +5.773467E-04 +1.480618E-05 +5.773467E-04 +7.306590E-03 
 +9.607190E-05 -4.527893E-04 +6.096409E-04 -4.527893E-04 -1.748402E-05 -2.327641E-04 +6.096409E-04 -2.327641E-04 +7.320569E-03 
 -4.007198E-04 -4.547485E-04 -4.844171E-04 -4.547485E-04 +1.633533E-04 +5.388418E-04 -4.844171E-04 +5.388418E-04 +7.593043E-03 
 -2.556436E-04 +7.314651E-04 -5.160812E-04 +7.314651E-04 +9.478580E-06 +3.524692E-04 -5.160812E-04 +3.524692E-04 +7.658568E-03 
 +5.426098E-04 -2.121492E-04 +1.304417E-04 -2.121492E-04 -3.364248E-04 -3.977584E-04 +1.304417E-04 -3.977584E-04 +7.220773E-03 
 +1.329041E-06 -7.069436E-04 +2.394116E-04 -7.069436E-04 -1.941039E-04 +3.270171E-04 +2.394116E-04 +3.270171E-04 +8.017714E-03 
 -3.527983E-04 +7.639299E-04 +8.625886E-05 +7.639299E-04 -1.341114E-04 +4.943506E-04 +8.625886E-05 +4.943506E-04 +7.894289E-03 
 +3.353858E-05 +3.196097E-04 +5.167950E-04 +3.196097E-04 +3.878053E-04 +6.778582E-04 +5.167950E-04 +6.778582E-04 +7.236231E-03 
 +2.357382E-04 +2.218344E-04 +5.987196E-05 +2.218344E-04 +2.605062E-04 -6.728544E-04 +5.987196E-05 -6.728544E-04 +7.366532E-03 
 +1.844396E-04 -3.487742E-04 +1.285671E-04 -3.487742E-04 -3.345700E-04 +2.563350E-04 +1.285671E-04 +2.563350E-04 +7.635706E-03 
 +1.225527E-04 -1.622611E-04 -1.446394E-04 -1.622611E-04 -2.870423E-04 -3.122030E-04 -1.446394E-04 -3.122030E-04 +7.228184E-03 
 -8.043585E-05 +2.945782E-04 -2.674320E-04 +2.945782E-04 +2.613048E-05 -6.410120E-04 -2.674320E-04 -6.410120E-04 +7.610363E-03 
 -4.820003E-05 +3.860052E-05 +7.330797E-04 +3.860052E-05 +1.807333E-04 -2.869056E-04 +7.330797E-04 -2.869056E-04 +7.544904E-03 
 +2.728394E-04 +8.360467E-06 +3.460309E-04 +8.360467E-06 +3.355505E-04 +5.121476E-04 +3.460309E-04 +5.121476E-04 +7.300500E-03 
 +2.515293E-05 -9.697641E-04 +4.209887E-05 -9.697641E-04 -3.523796E-04 +5.814571E-04 +4.209887E-05 +5.814571E-04 +7.705962E-03 
 -7.578862E-05 -1.153191E-03 +2.207786E-04 -1.153191E-03 -3.964253E-04 -3.643387E-05 +2.207786E-04 -3.643387E-05 +7.936409E-03 
 -1.820948E-04 +2.005303E-04 -5.762819E-06 +2.005303E-04 +2.653977E-04 -6.736936E-05 -5.762819E-06 -6.736936E-05 +7.490330E-03 
 -4.511831E-05 -5.144039E-05 -6.210605E-05 -5.144039E-05 +2.828495E-04 -3.796952E-04 -6.210605E-05 -3.796952E-04 +7.262756E-03 
 -9.341360E-05 +6.479443E-04 +2.004783E-04 +6.479443E-04 -1.128883E-04 +2.750002E-04 +2.004783E-04 +2.750002E-04 +7.799829E-03 
 -2.245849E-04 +1.906455E-04 +7.974690E-05 +1.906455E-04 -5.517101E-05 +6.922088E-04 +7.974690E-05 +6.922088E-04 +7.658664E-03 
 -4.948475E-04 +7.093519E-04 -3.530451E-05 +7.093519E-04 +2.597790E-04 +3.643379E-05 -3.530451E-05 +3.643379E-05 +7.591402E-03 
 -8.665341E-04 +1.420391E-04 +8.244615E-05 +1.420391E-04 +4.789268E-05 -9.574994E-05 +8.244615E-05 -9.574994E-05 +7.931517E-03 
 -5.662172E-04 -3.794759E-04 -1.823582E-04 -3.794759E-04 -9.540119E-05 +1.869800E-05 -1.823582E-04 +1.869800E-05 +7.638277E-03 
 -1.742961E-04 -6.950410E-04 +3.275043E-04 -6.950410E-04 +4.738642E-05 +2.047881E-04 +3.275043E-04 +2.047881E-04 +7.625718E-03 
 -2.620404E-04 +5.402341E-04 +5.097978E-04 +5.402341E-04 +2.057522E-04 +4.665693E-04 +5.097978E-04 +4.665693E-04 +7.430695E-03 
 +4.129358E-04 +7.262349E-05 +2.265789E-04 +7.262349E-05 -3.386342E-04 -2.052803E-04 +2.265789E-04 -2.052803E-04 +7.872163E-03 
 +9.941629E-05 +1.377287E-04 -2.999642E-04 +1.377287E-04 +2.109564E-05 +6.198238E-05 -2.999642E-04 +6.198238E-05 +7.310201E-03 
 +2.102233E-04 +1.547357E-03 -1.036675E-04 +1.547357E-03 -1.444196E-04 -1.557261E-04 -1.036675E-04 -1.557261E-04 +7.552336E-03 
 -1.124788E-05 +1.851172E-04 -2.614097E-04 +1.851172E-04 +2.819726E-04 -7.006707E-04 -2.614097E-04 -7.006707E-04 +7.312020E-03 
 -1.595963E-05 -3.699873E-04 +3.251462E-04 -3.699873E-04 -7.317085E-05 +3.771819E-04 +3.251462E-04 +3.771819E-04 +7.443496E-03 
 -6.214067E-05 +8.168014E-04 -8.511227E-05 +8.168014E-04 -3.031934E-04 +5.215065E-05 -8.511227E-05 +5.215065E-05 +7.842212E-03 
 +2.981237E-04 +6.281571E-05 -2.190636E-04 +6.281571E-05 -5.629899E-04 -1.484073E-04 -2.190636E-04 -1.484073E-04 +7.895273E-03 
 -6.562690E-04 -1.009165E-04 -1.349765E-04 -1.009165E-04 +3.803701E-04 -3.570594E-04 -1.349765E-04 -3.570594E-04 +7.724452E-03 
 -5.645907E-04 -1.396794E-04 +1.264323E-04 -1.396794E-04 +3.142191E-04 +2.148701E-05 +1.264323E-04 +2.148701E-05 +7.733049E-03 
 -9.101805E-05 -6.700042E-04 +2.040220E-04 -6.700042E-04 -2.339066E-04 -6.919158E-05 +2.040220E-04 -6.919158E-05 +7.779165E-03 
 +5.503526E-05 +2.104651E-06 +4.134296E-05 +2.104651E-06 +2.447184E-04 -1.645473E-04 +4.134296E-05 -1.645473E-04 +7.317178E-03 
 +7.556165E-05 -5.294312E-04 +5.344726E-04 -5.294312E-04 -8.153585E-05 -1.619086E-04 +5.344726E-04 -1.619086E-04 +7.169650E-03 
 -2.235584E-04 -5.437226E-04 +4.348014E-04 -5.437226E-04 +5.372798E-05 +3.196982E-04 +4.348014E-04 +3.196982E-04 +7.368670E-03 
 +2.482115E-04 -4.190573E-04 -5.239305E-05 -4.190573E-04 +2.297869E-05 +2.385763E-04 -5.239305E-05 +2.385763E-04 +7.802201E-03 
 -3.319190E-04 -6.533579E-04 -8.513306E-05 -6.533579E-04 -7.795863E-05 +1.159013E-04 -8.513306E-05 +1.159013E-04 +7.738540E-03 
 -6.389789E-04 -6.710269E-04 +2.753646E-05 -6.710269E-04 +2.173517E-04 +1.152838E-04 +2.753646E-05 +1.152838E-04 +7.737057E-03 
 +4.120033E-04 +5.619716E-05 -1.856085E-04 +5.619716E-05 +4.422976E-05 -4.262939E-05 -1.856085E-04 -4.262939E-05 +7.472801E-03 
 +1.963531E-04 +3.122058E-04 -4.416778E-04 +3.122058E-04 -1.607533E-04 -4.263647E-04 -4.416778E-04 -4.263647E-04 +7.131339E-03 
 +9.651505E-05 +3.843928E-04 -4.963980E-04 +3.843928E-04 +1.799908E-05 -5.950269E-04 -4.963980E-04 -5.950269E-04 +7.530115E-03 
 -1.460399E-04 +8.652550E-04 -6.166972E-05 +8.652550E-04 +5.729757E-05 -4.579260E-05 -6.166972E-05 -4.579260E-05 +7.165302E-03 
 +2.770193E-04 +3.135579E-04 +1.258912E-05 +3.135579E-04 +2.641261E-04 -7.118470E-05 +1.258912E-05 -7.118470E-05 +7.005876E-03 
 +1.575820E-04 +5.348759E-05 -5.279344E-04 +5.348759E-05 -2.808529E-04 -1.426275E-04 -5.279344E-04 -1.426275E-04 +7.006761E-03 
 +1.628495E-04 -1.836848E-05 +7.862165E-04 -1.836848E-05 -2.278140E-04 -3.585714E-04 +7.862165E-04 -3.585714E-04 +7.423410E-03 
 +3.484801E-04 +1.230524E-04 +3.130857E-04 +1.230524E-04 +2.471311E-04 -1.953889E-04 +3.130857E-04 -1.953889E-04 +6.851159E-03 
 -1.479644E-04 +7.809564E-05 -4.236394E-04 +7.809564E-05 +2.276889E-04 +6.278556E-05 -4.236394E-04 +6.278556E-05 +7.457330E-03 
 +5.847704E-05 +1.369730E-04 -3.770705E-05 +1.369730E-04 -4.779954E-04 +3.347448E-04 -3.770705E-05 +3.347448E-04 +7.796710E-03 
 +4.112393E-04 +1.209106E-04 +1.189549E-04 +1.209106E-04 -3.246475E-04 -3.106614E-04 +1.189549E-04 -3.106614E-04 +7.654014E-03 
 -8.953990E-05 -6.155030E-04 -5.313154E-04 -6.155030E-04 -9.388143E-05 +3.919099E-05 -5.313154E-04 +3.919099E-05 +7.656026E-03 
 -3.757995E-04 -8.966165E-04 +1.750130E-04 -8.966165E-04 +3.894244E-04 +1.677979E-04 +1.750130E-04 +1.677979E-04 +7.598295E-03 
 -3.688294E-04 -5.916622E-04 +3.030844E-04 -5.916622E-04 -2.482121E-04 -4.185275E-04 +3.030844E-04 -4.185275E-04 +7.790169E-03 
 -1.024179E-04 -5.502998E-04 -3.087260E-04 -5.502998E-04 -2.899042E-04 -3.325671E-04 -3.087260E-04 -3.325671E-04 +7.654557E-03 
 -2.888655E-04 -3.723738E-05 +2.748997E-04 -3.723738E-05 +5.684203E-04 +8.104546E-06 +2.748997E-04 +8.104546E-06 +7.385250E-03 
 -1.661209E-04 -3.877087E-05 +3.939713E-04 -3.877087E-05 +4.117814E-04 -1.247183E-04 +3.939713E-04 -1.247183E-04 +7.272358E-03 
 +3.225960E-04 +3.478849E-05 -1.982116E-04 +3.478849E-05 -1.617488E-04 -3.310625E-04 -1.982116E-04 -3.310625E-04 +7.371843E-03 
 +6.763353E-05 -4.416396E-04 -6.327459E-04 -4.416396E-04 -2.075196E-04 +1.319657E-04 -6.327459E-04 +1.319657E-04 +7.181977E-03 
 -1.820561E-04 +2.382011E-04 +8.840539E-05 +2.382011E-04 -9.042503E-05 +5.022403E-04 +8.840539E-05 +5.022403E-04 +7.704438E-03 
 +2.147789E-06 -5.151352E-04 +1.065873E-03 -5.151352E-04 +2.063962E-04 -6.768985E-04 +1.065873E-03 -6.768985E-04 +7.245917E-03 
 +1.836261E-04 -4.375876E-04 +1.038031E-04 -4.375876E-04 +2.543396E-04 -1.761793E-04 +1.038031E-04 -1.761793E-04 +6.986248E-03 
 -5.870132E-06 -4.888686E-04 -6.180514E-04 -4.888686E-04 -2.144222E-04 +4.351689E-04 -6.180514E-04 +4.351689E-04 +7.649618E-03 
 +2.012675E-04 -1.030157E-04 +9.967810E-05 -1.030157E-04 +1.466015E-04 +2.222235E-04 +9.967810E-05 +2.222235E-04 +7.131801E-03 
 +1.822177E-06 +6.320022E-04 +1.495660E-04 +6.320022E-04 -3.562389E-04 +1.262290E-04 +1.495660E-04 +1.262290E-04 +7.486863E-03 
 -2.922053E-05 +6.151714E-04 -3.921811E-05 +6.151714E-04 -1.459341E-05 -4.851152E-04 -3.921811E-05 -4.851152E-04 +7.625457E-03 
 -4.376899E-04 +2.456814E-04 +2.236057E-04 +2.456814E-04 +2.562120E-04 -8.524433E-05 +2.236057E-04 -8.524433E-05 +7.624238E-03 
 -5.426041E-05 -3.453590E-04 -1.638218E-04 -3.453590E-04 -1.286763E-04 -5.097688E-04 -1.638218E-04 -5.097688E-04 +7.266250E-03 
 -3.873692E-04 -8.602369E-04 +7.295883E-06 -8.602369E-04 +4.802551E-04 +6.295953E-05 +7.295883E-06 +6.295953E-05 +7.858555E-03 
 -2.670026E-05 +3.544810E-04 -7.145207E-05 +3.544810E-04 -3.768882E-04 -4.570834E-04 -7.145207E-05 -4.570834E-04 +7.910240E-03 
 +1.584124E-04 -3.081460E-04 +8.489833E-06 -3.081460E-04 -3.756543E-04 -6.487871E-04 +8.489833E-06 -6.487871E-04 +7.630784E-03 
 +2.854434E-04 -3.715650E-04 +2.981703E-04 -3.715650E-04 -3.628931E-05 +4.444817E-04 +2.981703E-04 +4.444817E-04 +7.423040E-03 
 +1.641624E-04 +3.081267E-04 +2.241945E-04 +3.081267E-04 +3.505178E-04 -1.968231E-04 +2.241945E-04 -1.968231E-04 +7.146412E-03 
 +2.874682E-04 +4.675367E-04 +3.813477E-04 +4.675367E-04 -9.302303E-05 +3.080538E-05 +3.813477E-04 +3.080538E-05 +7.438981E-03 
 -3.647635E-04 +1.111148E-04 +1.540998E-04 +1.111148E-04 -1.122696E-04 +4.591151E-04 +1.540998E-04 +4.591151E-04 +7.849165E-03 
 +1.229248E-04 -3.222093E-04 -1.282840E-04 -3.222093E-04 -2.011246E-04 +1.983442E-04 -1.282840E-04 +1.983442E-04 +7.703729E-03 
 +2.193884E-04 -3.703766E-04 +3.760821E-04 -3.703766E-04 +4.890591E-04 -4.735746E-04 +3.760821E-04 -4.735746E-04 +7.002602E-03 
 -1.145451E-04 -1.562733E-04 -1.917078E-04 -1.562733E-04 +2.687481E-04 +8.853860E-05 -1.917078E-04 +8.853860E-05 +6.955980E-03 
 -2.062373E-04 -3.642383E-04 -4.175063E-04 -3.642383E-04 +2.030529E-04 +3.871588E-04 -4.175063E-04 +3.871588E-04 +7.610044E-03 
 +2.231760E-04 +7.021006E-04 +6.120865E-04 +7.021006E-04 -6.190507E-04 +2.409848E-04 +6.120865E-04 +2.409848E-04 +8.017636E-03 
 +2.567715E-04 +4.631745E-04 -8.642393E-05 +4.631745E-04 +6.115122E-05 +1.906335E-05 -8.642393E-05 +1.906335E-05 +6.952436E-03 
 +7.099890E-05 -2.373780E-05 -2.403950E-04 -2.373780E-05 +3.212335E-04 -8.183969E-05 -2.403950E-04 -8.183969E-05 +7.315127E-03 
 -4.275776E-04 +7.000034E-04 -9.557944E-05 +7.000034E-04 +8.445109E-05 +3.963183E-04 -9.557944E-05 +3.963183E-04 +8.045833E-03 
 -2.972263E-04 -2.917178E-05 -3.013516E-05 -2.917178E-05 +3.566667E-04 -1.547072E-04 -3.013516E-05 -1.547072E-04 +7.486477E-03 
 -1.223936E-04 -7.180679E-04 +2.017796E-04 -7.180679E-04 -5.367011E-04 -4.702849E-04 +2.017796E-04 -4.702849E-04 +8.176357E-03 
 +2.449493E-04 -1.342692E-04 -1.049295E-04 -1.342692E-04 -3.533681E-04 -2.882793E-04 -1.049295E-04 -2.882793E-04 +7.952151E-03 
 -1.681628E-04 -7.940863E-04 +3.148020E-04 -7.940863E-04 +3.079465E-04 +3.712540E-04 +3.148020E-04 +3.712540E-04 +7.650833E-03 
 -2.575308E-05 -3.757982E-05 +3.085031E-04 -3.757982E-05 -9.009111E-05 +3.910437E-04 +3.085031E-04 +3.910437E-04 +7.508697E-03 
 -3.934686E-04 -1.354066E-03 +8.444669E-05 -1.354066E-03 -2.925420E-04 +4.680048E-05 +8.444669E-05 +4.680048E-05 +7.711957E-03 
 -4.416469E-05 +8.448457E-04 -3.374076E-04 +8.448457E-04 +2.902357E-04 +7.980735E-05 -3.374076E-04 +7.980735E-05 +7.699009E-03 
 +4.061647E-04 -3.609440E-04 -5.678878E-04 -3.609440E-04 -2.981831E-04 +8.574525E-05 -5.678878E-04 +8.574525E-05 +7.633025E-03 
 +8.077273E-05 +2.482446E-04 -4.005929E-04 +2.482446E-04 -2.588248E-04 +3.929958E-04 -4.005929E-04 +3.929958E-04 +7.320554E-03 
 -2.419493E-04 -4.965362E-04 +4.211614E-04 -4.965362E-04 +5.290579E-04 +5.862187E-04 +4.211614E-04 +5.862187E-04 +7.230197E-03 
 +1.189547E-04 -1.913618E-04 -1.833296E-04 -1.913618E-04 -4.488099E-04 -1.421617E-04 -1.833296E-04 -1.421617E-04 +7.567476E-03 
 -1.811218E-04 -1.088031E-04 -5.513649E-04 -1.088031E-04 +2.782087E-04 +1.806623E-04 -5.513649E-04 +1.806623E-04 +7.298553E-03 
 -2.526018E-05 +3.916214E-05 +2.933387E-05 +3.916214E-05 +2.536099E-04 +7.437170E-04 +2.933387E-05 +7.437170E-04 +7.195169E-03 
 +4.598543E-04 -6.765891E-04 +2.951490E-04 -6.765891E-04 +1.629108E-04 -1.403179E-04 +2.951490E-04 -1.403179E-04 +7.123559E-03 
 +4.015211E-04 -3.888830E-05 +1.258207E-04 -3.888830E-05 -2.975852E-04 +3.794952E-04 +1.258207E-04 +3.794952E-04 +7.432997E-03 
 -1.273031E-04 -7.894264E-04 -4.243738E-04 -7.894264E-04 +1.296808E-04 +5.245123E-04 -4.243738E-04 +5.245123E-04 +7.870429E-03 
 -3.473487E-04 -2.522191E-04 -2.633213E-04 -2.522191E-04 -1.821382E-05 -4.064330E-04 -2.633213E-04 -4.064330E-04 +7.533328E-03 
 +3.924371E-04 +1.245201E-04 +1.423086E-04 +1.245201E-04 +4.826397E-05 -1.512872E-04 +1.423086E-04 -1.512872E-04 +7.135021E-03 
 +2.037082E-04 +2.832044E-04 -1.088231E-04 +2.832044E-04 -1.631498E-04 +2.634566E-04 -1.088231E-04 +2.634566E-04 +7.612298E-03 
 +2.309672E-04 -9.304377E-05 -3.819233E-04 -9.304377E-05 +2.467008E-04 +2.908506E-04 -3.819233E-04 +2.908506E-04 +7.328353E-03 
 +9.723036E-05 +2.005642E-04 -1.545523E-04 +2.005642E-04 +3.822596E-04 +2.432706E-04 -1.545523E-04 +2.432706E-04 +7.053555E-03 
 +5.388044E-05 +4.837235E-05 -1.118040E-04 +4.837235E-05 -2.752723E-04 -1.512921E-04 -1.118040E-04 -1.512921E-04 +7.337709E-03 
 +1.956815E-04 -2.722454E-04 -6.450344E-05 -2.722454E-04 -3.891272E-05 +6.872041E-04 -6.450344E-05 +6.872041E-04 +7.105933E-03 
 +2.394976E-04 +3.266343E-04 +7.799964E-04 +3.266343E-04 -2.340633E-04 +2.738158E-04 +7.799964E-04 +2.738158E-04 +7.291096E-03 
 -8.401539E-05 -6.859855E-04 -5.164216E-05 -6.859855E-04 +1.680519E-04 +3.655288E-04 -5.164216E-05 +3.655288E-04 +7.283421E-03 
 -1.631001E-06 +3.839817E-04 -7.456421E-05 +3.839817E-04 -1.631276E-04 -1.390317E-04 -7.456421E-05 -1.390317E-04 +7.431026E-03 
 +4.204114E-06 -9.450783E-04 +3.530218E-04 -9.450783E-04 -1.599735E-04 -2.535923E-04 +3.530218E-04 -2.535923E-04 +7.748657E-03 
 +1.743499E-04 -9.400129E-05 -3.463430E-04 -9.400129E-05 +9.553843E-05 +1.696318E-04 -3.463430E-04 +1.696318E-04 +7.215924E-03 
 -4.093507E-05 -8.005505E-06 +5.091423E-05 -8.005505E-06 +1.871124E-04 +1.932411E-04 +5.091423E-05 +1.932411E-04 +7.031281E-03 
 -1.413950E-04 -6.849045E-04 +2.276867E-04 -6.849045E-04 -2.480611E-04 +3.865966E-04 +2.276867E-04 +3.865966E-04 +7.896285E-03 
 -4.006493E-04 +5.078667E-04 -7.436050E-04 +5.078667E-04 +2.048568E-04 +2.024759E-04 -7.436050E-04 +2.024759E-04 +8.048840E-03 
 +2.658133E-04 +5.646484E-05 +6.234848E-04 +5.646484E-05 -2.255961E-04 +1.361342E-04 +6.234848E-04 +1.361342E-04 +7.576470E-03 
 -7.729240E-04 -7.537700E-04 +2.834575E-04 -7.537700E-04 +1.409282E-04 +2.949031E-04 +2.834575E-04 +2.949031E-04 +7.606466E-03 
 -2.333855E-04 -3.613307E-04 -2.178736E-04 -3.613307E-04 +3.082259E-04 +2.696809E-04 -2.178736E-04 +2.696809E-04 +6.971166E-03 
 +4.122505E-04 -2.485824E-05 -1.348041E-04 -2.485824E-05 +2.934005E-04 -7.465842E-04 -1.348041E-04 -7.465842E-04 +6.984943E-03 
 +3.327888E-04 -1.038993E-04 +2.879394E-04 -1.038993E-04 -3.993628E-04 +1.267894E-04 +2.879394E-04 +1.267894E-04 +7.671813E-03 
 -1.168193E-04 -1.280721E-03 +6.444562E-04 -1.280721E-03 -3.497062E-04 +2.799867E-04 +6.444562E-04 +2.799867E-04 +7.785721E-03 
 -3.114294E-04 -3.435901E-05 +5.733616E-04 -3.435901E-05 +1.994657E-05 +1.171640E-04 +5.733616E-04 +1.171640E-04 +7.614061E-03 
 -3.038862E-04 -1.340007E-03 +6.181037E-05 -1.340007E-03 +8.554452E-06 -3.648874E-04 +6.181037E-05 -3.648874E-04 +7.540839E-03 
 -5.073570E-05 +6.574739E-04 -1.553471E-04 +6.574739E-04 +3.849581E-04 -6.598281E-04 -1.553471E-04 -6.598281E-04 +7.160026E-03 
 +1.347039E-04 -6.406332E-04 +9.414226E-05 -6.406332E-04 -1.703614E-04 +1.838614E-04 +9.414226E-05 +1.838614E-04 +7.248206E-03 
 -1.470109E-04 +1.343851E-04 -1.256725E-04 +1.343851E-04 +3.322225E-04 -2.138355E-04 -1.256725E-04 -2.138355E-04 +7.278856E-03 
 +2.468717E-04 -6.481730E-04 -1.700260E-04 -6.481730E-04 -1.738278E-04 -1.766651E-04 -1.700260E-04 -1.766651E-04 +7.500052E-03 
 +2.534791E-04 -8.389333E-04 -3.829822E-04 -8.389333E-04 +3.413998E-04 +5.084115E-05 -3.829822E-04 +5.084115E-05 +7.633131E-03 
 +2.979066E-04 +2.015224E-04 -3.306650E-04 +2.015224E-04 -4.724750E-04 -2.307790E-04 -3.306650E-04 -2.307790E-04 +7.785710E-03 
 +2.118624E-04 -6.857565E-05 +6.838674E-05 -6.857565E-05 -4.915757E-04 -8.393501E-04 +6.838674E-05 -8.393501E-04 +8.020021E-03 
 -3.884042E-04 +1.075120E-03 -5.503184E-04 +1.075120E-03 +3.721495E-04 -3.932700E-04 -5.503184E-04 -3.932700E-04 +7.730618E-03 
 +3.700198E-04 -7.177128E-05 -2.118311E-04 -7.177128E-05 +2.970521E-04 +8.212782E-05 -2.118311E-04 +8.212782E-05 +7.288591E-03 
 -1.083840E-04 -1.539258E-03 +6.896737E-04 -1.539258E-03 -1.846168E-04 -2.985832E-04 +6.896737E-04 -2.985832E-04 +7.753958E-03 
 -5.678814E-04 +1.522052E-04 +6.226079E-04 +1.522052E-04 +8.508293E-06 +2.184980E-05 +6.226079E-04 +2.184980E-05 +7.987289E-03 
 +5.579357E-05 -6.499625E-04 -6.607164E-04 -6.499625E-04 -1.880702E-05 -1.813806E-04 -6.607164E-04 -1.813806E-04 +7.366938E-03 
 +2.100492E-04 +5.622226E-04 +3.891605E-05 +5.622226E-04 +4.170971E-04 -1.961707E-04 +3.891605E-05 -1.961707E-04 +6.923696E-03 
 +1.666890E-04 +5.957473E-04 -2.254724E-04 +5.957473E-04 -1.168037E-04 +5.682717E-04 -2.254724E-04 +5.682717E-04 +7.411841E-03 
 -2.354821E-04 -9.759978E-04 -3.455197E-04 -9.759978E-04 -5.742870E-05 -9.061708E-05 -3.455197E-04 -9.061708E-05 +7.763848E-03 
 -3.998447E-04 +6.743307E-04 -4.304586E-05 +6.743307E-04 +6.726929E-06 -6.911172E-04 -4.304586E-05 -6.911172E-04 +7.727231E-03 
 -4.507962E-04 -4.511357E-04 -3.617660E-05 -4.511357E-04 +2.215986E-04 +1.734478E-04 -3.617660E-05 +1.734478E-04 +7.921766E-03 
 +9.064500E-05 +4.228379E-05 -8.199892E-04 +4.228379E-05 -4.748390E-04 -4.604211E-04 -8.199892E-04 -4.604211E-04 +7.719032E-03 
 +3.032676E-04 -4.548449E-04 -1.813275E-04 -4.548449E-04 +9.720123E-05 +3.038101E-04 -1.813275E-04 +3.038101E-04 +7.223848E-03 
 +2.649741E-04 +4.986700E-04 +4.325490E-04 +4.986700E-04 -1.216639E-04 -3.565123E-04 +4.325490E-04 -3.565123E-04 +7.266873E-03 
 +5.333536E-05 -1.680949E-04 -1.180335E-05 -1.680949E-04 -1.661825E-04 +1.586790E-04 -1.180335E-05 +1.586790E-04 +7.274731E-03 
 +1.472022E-04 -2.180897E-04 -1.806643E-04 -2.180897E-04 -6.226052E-05 -6.829381E-04 -1.806643E-04 -6.829381E-04 +7.472780E-03 
 -6.365276E-04 -7.150156E-04 -1.569269E-05 -7.150156E-04 +2.377644E-04 -5.335605E-04 -1.569269E-05 -5.335605E-04 +7.662828E-03 
 -1.012356E-03 +4.680591E-04 +3.084209E-04 +4.680591E-04 +2.440186E-04 -5.864547E-05 +3.084209E-04 -5.864547E-05 +7.987440E-03 
 +1.575064E-04 -9.378135E-05 -4.914446E-04 -9.378135E-05 -1.444920E-04 -5.091058E-04 -4.914446E-04 -5.091058E-04 +7.162340E-03 
 +4.480397E-05 -5.751537E-04 -4.192357E-04 -5.751537E-04 +2.893706E-04 +3.084882E-06 -4.192357E-04 +3.084882E-06 +7.260427E-03 
 +2.993346E-04 +1.794297E-04 +6.088961E-04 +1.794297E-04 -4.495515E-04 -2.337345E-05 +6.088961E-04 -2.337345E-05 +7.639718E-03 
 +1.660759E-04 -1.953486E-04 -3.277928E-04 -1.953486E-04 -4.823224E-05 +3.566937E-04 -3.277928E-04 +3.566937E-04 +7.531098E-03 
 -9.841537E-05 +8.150595E-05 -2.346292E-04 +8.150595E-05 +2.540566E-05 +4.264641E-04 -2.346292E-04 +4.264641E-04 +7.593685E-03 
 +1.181816E-04 -4.576856E-04 -1.486643E-04 -4.576856E-04 -4.613680E-05 +6.121615E-04 -1.486643E-04 +6.121615E-04 +7.682014E-03 
 -2.171829E-04 -1.356880E-03 +4.061190E-05 -1.356880E-03 -4.741912E-04 +1.920041E-04 +4.061190E-05 +1.920041E-04 +7.752782E-03 
 -2.108681E-04 -7.993986E-04 +5.904121E-05 -7.993986E-04 +4.829252E-06 +6.569103E-05 +5.904121E-05 +6.569103E-05 +7.591421E-03 
 +2.988956E-04 +1.514969E-04 +7.658125E-05 +1.514969E-04 +3.212587E-04 -2.072695E-05 +7.658125E-05 -2.072695E-05 +7.206504E-03 
 -1.966399E-04 -1.543294E-04 -6.440249E-04 -1.543294E-04 +5.054047E-04 +4.985267E-04 -6.440249E-04 +4.985267E-04 +7.329863E-03 
 +5.077075E-05 -8.532555E-05 +1.956550E-05 -8.532555E-05 -5.595354E-04 +3.385613E-04 +1.956550E-05 +3.385613E-04 +7.513767E-03 
 +6.285133E-04 -5.243115E-04 +2.555164E-04 -5.243115E-04 +3.472040E-04 -1.989518E-04 +2.555164E-04 -1.989518E-04 +7.301524E-03 
 +3.472791E-04 +4.722926E-04 -2.557458E-04 +4.722926E-04 -5.376477E-04 -2.149484E-04 -2.557458E-04 -2.149484E-04 +7.433651E-03 
 -3.180907E-05 -2.289083E-04 +1.602139E-04 -2.289083E-04 +2.349296E-04 +5.780172E-05 +1.602139E-04 +5.780172E-05 +7.551158E-03 
 -1.256912E-04 -4.886810E-04 +1.454745E-04 -4.886810E-04 -7.724969E-05 -1.067627E-04 +1.454745E-04 -1.067627E-04 +7.641820E-03 
 +4.324192E-05 -8.800843E-04 +2.218848E-04 -8.800843E-04 -2.645022E-04 -9.851710E-05 +2.218848E-04 -9.851710E-05 +7.486605E-03 
 +8.612595E-05 -1.535895E-04 +3.856485E-04 -1.535895E-04 +3.752063E-04 -8.636138E-06 +3.856485E-04 -8.636138E-06 +7.154198E-03 
 +4.327724E-04 -1.037349E-03 +2.049231E-05 -1.037349E-03 -4.228039E-04 +7.131137E-05 +2.049231E-05 +7.131137E-05 +7.222381E-03 
 +2.920015E-04 -4.108299E-04 -1.238094E-04 -4.108299E-04 -2.813091E-04 +1.997769E-04 -1.238094E-04 +1.997769E-04 +7.499091E-03 
 -1.269364E-04 +2.621997E-04 +1.932670E-04 +2.621997E-04 +1.881974E-04 +6.471819E-04 +1.932670E-04 +6.471819E-04 +7.432139E-03 
 +3.922017E-05 +4.030813E-04 +9.630484E-05 +4.030813E-04 +5.243232E-04 -4.301503E-05 +9.630484E-05 -4.301503E-05 +6.780602E-03 
 +4.153626E-05 -4.166841E-04 -2.280356E-04 -4.166841E-04 -3.800884E-04 -7.184647E-06 -2.280356E-04 -7.184647E-06 +7.929906E-03 
 -5.347001E-05 +2.657174E-04 -7.117850E-04 +2.657174E-04 +2.382460E-04 +3.078251E-04 -7.117850E-04 +3.078251E-04 +7.565886E-03 
 +9.205528E-05 -2.653722E-04 -1.339186E-04 -2.653722E-04 +2.503583E-04 +7.228368E-04 -1.339186E-04 +7.228368E-04 +6.988436E-03 
 +9.874899E-05 -4.932603E-04 +2.292536E-04 -4.932603E-04 -1.734613E-04 +2.546634E-04 +2.292536E-04 +2.546634E-04 +7.355347E-03 
 +1.789569E-04 -2.612570E-04 -7.608130E-04 -2.612570E-04 +2.274151E-04 +2.794714E-05 -7.608130E-04 +2.794714E-05 +7.284257E-03 
 +1.135612E-04 -3.340282E-04 -2.074723E-04 -3.340282E-04 +1.609209E-05 -5.126173E-04 -2.074723E-04 -5.126173E-04 +7.279509E-03 
 -6.476891E-05 -2.118600E-04 +3.084033E-04 -2.118600E-04 -9.451331E-06 +2.824633E-04 +3.084033E-04 +2.824633E-04 +7.558800E-03 
 +8.532475E-05 -8.598936E-04 -1.727887E-04 -8.598936E-04 -3.842067E-06 -1.660665E-04 -1.727887E-04 -1.660665E-04 +7.030728E-03 
 -1.970196E-04 -2.095919E-04 -2.306741E-04 -2.095919E-04 +2.332748E-04 +1.539409E-04 -2.306741E-04 +1.539409E-04 +7.241080E-03 
 -6.878421E-04 -7.337274E-04 +2.157206E-04 -7.337274E-04 +3.286447E-04 +3.100724E-04 +2.157206E-04 +3.100724E-04 +8.077885E-03 
 +4.092599E-04 +9.057745E-04 +1.472759E-04 +9.057745E-04 -5.493209E-04 +1.276942E-04 +1.472759E-04 +1.276942E-04 +7.591739E-03 
 +3.695980E-04 +1.249218E-04 -5.029482E-04 +1.249218E-04 +2.093341E-04 -2.426012E-04 -5.029482E-04 -2.426012E-04 +7.277080E-03 
 +2.350024E-04 -3.530548E-04 -8.032356E-04 -3.530548E-04 -5.432058E-04 -1.343720E-04 -8.032356E-04 -1.343720E-04 +7.752676E-03 
 +2.616808E-04 +3.437690E-04 -4.819313E-06 +3.437690E-04 +1.948448E-04 -4.303886E-04 -4.819313E-06 -4.303886E-04 +7.092097E-03 
 +4.383340E-04 -4.595672E-04 +1.064637E-04 -4.595672E-04 +1.059462E-04 +5.256716E-04 +1.064637E-04 +5.256716E-04 +7.092465E-03 
 -2.088600E-04 -6.561562E-04 +1.701830E-04 -6.561562E-04 -1.463659E-04 -2.718336E-04 +1.701830E-04 -2.718336E-04 +7.905736E-03 
 -8.863743E-04 -1.130219E-04 -2.511039E-04 -1.130219E-04 +3.177003E-04 +4.468011E-05 -2.511039E-04 +4.468011E-05 +7.756921E-03 
 -2.520385E-04 -1.930398E-03 -4.122614E-05 -1.930398E-03 -6.486931E-04 +1.940124E-04 -4.122614E-05 +1.940124E-04 +8.053406E-03 
 -5.955526E-04 -6.979519E-04 +3.668283E-04 -6.979519E-04 +2.770695E-04 -1.014430E-04 +3.668283E-04 -1.014430E-04 +7.636778E-03 
 +9.252295E-05 -1.041780E-04 +2.307801E-04 -1.041780E-04 -3.703486E-06 +2.948047E-04 +2.307801E-04 +2.948047E-04 +7.265883E-03 
 +4.050420E-04 -2.498742E-04 -5.055721E-04 -2.498742E-04 -3.638647E-04 -3.263231E-04 -5.055721E-04 -3.263231E-04 +7.756880E-03 
 -3.821427E-05 -1.998783E-04 -1.201710E-04 -1.998783E-04 +4.510354E-04 +2.915646E-04 -1.201710E-04 +2.915646E-04 +7.183575E-03 
 +2.500394E-04 -6.943721E-04 +4.856641E-04 -6.943721E-04 -1.443147E-05 -6.291445E-04 +4.856641E-04 -6.291445E-04 +7.586384E-03 
 +2.878398E-04 +1.827181E-04 -1.835045E-04 +1.827181E-04 +3.395645E-04 -1.983400E-05 -1.835045E-04 -1.983400E-05 +7.285114E-03 
 +5.086553E-04 +4.579152E-04 +1.266481E-04 +4.579152E-04 -3.055873E-04 -9.790350E-05 +1.266481E-04 -9.790350E-05 +7.191222E-03 
 -1.104267E-06 -8.587090E-05 +2.706283E-04 -8.587090E-05 +1.151699E-04 -8.362083E-04 +2.706283E-04 -8.362083E-04 +7.476264E-03 
 +5.435812E-04 -4.598901E-05 -9.298706E-05 -4.598901E-05 -1.482584E-04 +1.544698E-04 -9.298706E-05 +1.544698E-04 +7.013023E-03 
 +4.005801E-05 +2.606960E-04 -2.615209E-04 +2.606960E-04 +5.346695E-04 -4.393881E-06 -2.615209E-04 -4.393881E-06 +6.650970E-03 
 -2.781032E-04 -1.129827E-05 -1.212755E-04 -1.129827E-05 +7.156596E-05 -8.784768E-04 -1.212755E-04 -8.784768E-04 +7.631088E-03 
 -4.886899E-04 -1.207761E-04 -5.096988E-04 -1.207761E-04 -1.431613E-04 +1.040575E-04 -5.096988E-04 +1.040575E-04 +7.719839E-03 
 -2.906954E-04 +1.289743E-04 +3.576223E-04 +1.289743E-04 +3.490064E-04 +2.397564E-04 +3.576223E-04 +2.397564E-04 +7.028300E-03 
 +2.395469E-04 +4.091593E-04 +1.900032E-04 +4.091593E-04 +6.427639E-05 -2.516808E-04 +1.900032E-04 -2.516808E-04 +7.499823E-03 
 +3.514052E-04 -3.616759E-04 -7.017225E-04 -3.616759E-04 -4.990341E-04 +2.746013E-04 -7.017225E-04 +2.746013E-04 +7.924599E-03 
 +1.618525E-04 -1.506786E-04 +3.971625E-04 -1.506786E-04 +2.246703E-04 +4.053678E-04 +3.971625E-04 +4.053678E-04 +7.399158E-03 
 -1.217722E-04 -2.610270E-04 +5.624476E-04 -2.610270E-04 -2.982553E-04 -1.855630E-04 +5.624476E-04 -1.855630E-04 +7.920709E-03 
 -3.614439E-04 -5.796340E-04 +1.140441E-05 -5.796340E-04 -4.657498E-05 +8.047934E-04 +1.140441E-05 +8.047934E-04 +7.907726E-03 
 -1.490717E-04 +4.945943E-05 -2.711516E-04 +4.945943E-05 +4.662518E-04 -3.973224E-04 -2.711516E-04 -3.973224E-04 +7.089186E-03 
 +6.743653E-05 +6.912634E-04 +3.140505E-05 +6.912634E-04 -5.556182E-04 +1.979713E-05 +3.140505E-05 +1.979713E-05 +7.649846E-03 
 -6.787825E-04 -1.349392E-03 -3.202062E-04 -1.349392E-03 +1.622865E-04 +3.923706E-04 -3.202062E-04 +3.923706E-04 +7.640536E-03 
 -6.935759E-04 +6.896847E-05 -5.096064E-05 +6.896847E-05 -3.734690E-05 -4.147514E-04 -5.096064E-05 -4.147514E-04 +7.820048E-03 
 +1.609917E-04 -9.111412E-04 -5.673050E-04 -9.111412E-04 -3.426169E-04 -2.184709E-04 -5.673050E-04 -2.184709E-04 +7.919494E-03 
 +1.205161E-05 +1.165585E-04 -1.718319E-04 +1.165585E-04 -1.803908E-04 +2.861920E-05 -1.718319E-04 +2.861920E-05 +7.660549E-03 
 -3.802455E-04 -1.707518E-04 +2.455514E-04 -1.707518E-04 +2.375559E-04 -1.707130E-04 +2.455514E-04 -1.707130E-04 +7.479823E-03 
 +1.858556E-04 +3.558952E-04 -7.367243E-05 +3.558952E-04 +2.961243E-04 -5.132723E-05 -7.367243E-05 -5.132723E-05 +6.881198E-03 
 +2.532564E-04 +2.554039E-04 +7.934350E-04 +2.554039E-04 -3.416579E-05 -9.367783E-06 +7.934350E-04 -9.367783E-06 +7.716089E-03 
 +1.350981E-04 -8.635295E-04 +1.994474E-04 -8.635295E-04 -2.092712E-04 +1.410440E-04 +1.994474E-04 +1.410440E-04 +7.572317E-03 
 +1.669700E-04 -1.190043E-04 +1.393012E-04 -1.190043E-04 +8.668755E-05 -4.326972E-04 +1.393012E-04 -4.326972E-04 +7.302441E-03 
 -1.822967E-05 +8.902955E-04 -3.612885E-04 +8.902955E-04 -2.060176E-04 -9.640565E-05 -3.612885E-04 -9.640565E-05 +7.930972E-03 
 -2.542937E-04 +4.747332E-04 +6.561435E-05 +4.747332E-04 +3.024302E-04 -6.323533E-05 +6.561435E-05 -6.323533E-05 +7.597661E-03 
 -1.257620E-04 +1.606601E-04 +1.114120E-06 +1.606601E-04 +2.837240E-04 +6.553869E-04 +1.114120E-06 +6.553869E-04 +7.102409E-03 
 -2.457129E-04 +4.164308E-04 -2.926689E-04 +4.164308E-04 +7.302499E-05 -5.242955E-05 -2.926689E-04 -5.242955E-05 +7.700176E-03 
 -1.459861E-04 +4.468588E-04 -5.104887E-06 +4.468588E-04 -1.899028E-04 +1.126658E-04 -5.104887E-06 +1.126658E-04 +7.450133E-03 
 +1.028776E-04 -1.160499E-04 +1.651839E-04 -1.160499E-04 +1.144499E-04 -3.562711E-04 +1.651839E-04 -3.562711E-04 +7.009286E-03 
 +4.076722E-04 +1.296887E-04 -4.681610E-06 +1.296887E-04 +1.532807E-04 -2.042767E-04 -4.681610E-06 -2.042767E-04 +7.052077E-03 
 +4.215894E-04 +1.097505E-04 -6.579020E-04 +1.097505E-04 +1.746483E-04 -8.411675E-06 -6.579020E-04 -8.411675E-06 +7.475167E-03 
 +1.083654E-04 -2.774944E-04 -4.076088E-04 -2.774944E-04 -3.359805E-04 +4.636565E-04 -4.076088E-04 +4.636565E-04 +7.615933E-03 
 -3.299485E-04 -1.223191E-03 +2.590571E-05 -1.223191E-03 -2.420594E-05 +1.786623E-04 +2.590571E-05 +1.786623E-04 +7.424462E-03 
 -7.329936E-05 -3.003793E-04 +5.057491E-06 -3.003793E-04 -2.049338E-05 -1.412144E-04 +5.057491E-06 -1.412144E-04 +7.562894E-03 
 +6.550777E-05 +3.261024E-04 -5.543777E-04 +3.261024E-04 -4.415688E-04 +2.274281E-04 -5.543777E-04 +2.274281E-04 +7.472929E-03 
 -4.365896E-05 -7.782208E-04 -1.499649E-04 -7.782208E-04 +7.073582E-05 -6.062540E-04 -1.499649E-04 -6.062540E-04 +7.175278E-03 
 +2.867256E-04 +3.205338E-04 -3.421362E-05 +3.205338E-04 +2.136092E-04 -3.873425E-04 -3.421362E-05 -3.873425E-04 +6.998315E-03 
 +1.734187E-04 +4.642533E-05 +4.142794E-04 +4.642533E-05 -3.293711E-04 +4.451400E-04 +4.142794E-04 +4.451400E-04 +7.306115E-03 
 +2.691960E-04 +3.162173E-04 -2.564810E-04 +3.162173E-04 -3.524493E-04 +2.576266E-04 -2.564810E-04 +2.576266E-04 +7.426398E-03 
 +9.477539E-05 -3.154608E-04 -7.273922E-04 -3.154608E-04 +3.808723E-04 -5.995979E-04 -7.273922E-04 -5.995979E-04 +7.416817E-03 
 -3.041952E-04 +1.374786E-03 +6.766241E-04 +1.374786E-03 -7.805154E-05 +1.808874E-04 +6.766241E-04 +1.808874E-04 +7.818966E-03 
 -1.097753E-04 -6.673207E-04 -1.225952E-04 -6.673207E-04 +4.501649E-04 +1.873683E-04 -1.225952E-04 +1.873683E-04 +7.310861E-03 
 +3.321572E-04 -1.145310E-04 -2.450748E-04 -1.145310E-04 -3.094106E-04 +1.884115E-04 -2.450748E-04 +1.884115E-04 +7.193288E-03 
 +2.891264E-04 -2.645758E-04 +6.010164E-04 -2.645758E-04 +6.966967E-05 +1.023029E-04 +6.010164E-04 +1.023029E-04 +7.203694E-03 
 +2.179979E-04 +4.728004E-04 +2.864687E-04 +4.728004E-04 -1.908089E-04 +1.483468E-04 +2.864687E-04 +1.483468E-04 +7.258209E-03 
 +4.904199E-05 +5.367803E-04 -4.609010E-04 +5.367803E-04 +9.920834E-05 -4.095783E-04 -4.609010E-04 -4.095783E-04 +7.606545E-03 
 +1.474019E-04 -3.490263E-04 -7.244823E-04 -3.490263E-04 -3.104821E-05 +3.604838E-04 -7.244823E-04 +3.604838E-04 +7.257384E-03 
 +1.549903E-04 -1.352084E-04 -1.305465E-04 -1.352084E-04 +2.191121E-04 -5.408531E-04 -1.305465E-04 -5.408531E-04 +7.278220E-03 
 -1.390705E-04 -3.204835E-04 -6.062156E-04 -3.204835E-04 -2.349491E-04 -6.394908E-05 -6.062156E-04 -6.394908E-05 +7.761643E-03 
 +2.808302E-04 +1.449088E-04 -1.637093E-04 +1.449088E-04 +9.415022E-05 -3.616578E-04 -1.637093E-04 -3.616578E-04 +7.514709E-03 
 +8.096746E-05 -1.043788E-03 +4.645679E-04 -1.043788E-03 +3.892219E-05 -2.584330E-04 +4.645679E-04 -2.584330E-04 +7.137789E-03 
 +2.204857E-05 +6.008095E-05 -3.331247E-05 +6.008095E-05 +9.565545E-06 +2.565585E-05 -3.331247E-05 +2.565585E-05 +7.315072E-03 
 +9.432821E-05 -3.541567E-04 +2.483867E-04 -3.541567E-04 -2.637889E-04 -2.850517E-04 +2.483867E-04 -2.850517E-04 +7.381321E-03 
 +1.022608E-04 -1.112337E-03 +1.257038E-04 -1.112337E-03 +4.309924E-04 -4.029149E-04 +1.257038E-04 -4.029149E-04 +7.043281E-03 
 +1.208732E-04 +7.142069E-04 +2.251809E-04 +7.142069E-04 -1.475214E-04 +4.561569E-06 +2.251809E-04 +4.561569E-06 +7.530816E-03 
 +1.467921E-04 -1.230999E-03 -4.442778E-05 -1.230999E-03 -4.750676E-06 +2.737651E-04 -4.442778E-05 +2.737651E-04 +7.979084E-03 
 -7.407464E-05 +1.276386E-03 -1.088949E-04 +1.276386E-03 -1.212233E-04 +4.956224E-04 -1.088949E-04 +4.956224E-04 +7.648614E-03 
 +5.691644E-07 -1.226479E-03 +1.715125E-04 -1.226479E-03 -3.275105E-04 +3.404300E-04 +1.715125E-04 +3.404300E-04 +7.891647E-03 
 +2.115595E-04 +2.759777E-04 -4.794207E-05 +2.759777E-04 +9.497462E-05 +6.319022E-04 -4.794207E-05 +6.319022E-04 +7.091386E-03 
 +2.269280E-04 -3.385436E-04 +1.409757E-04 -3.385436E-04 +3.030804E-04 +1.292655E-04 +1.409757E-04 +1.292655E-04 +7.352095E-03 
 +1.162297E-04 +1.126305E-03 +8.416889E-06 +1.126305E-03 -9.362912E-04 -1.224429E-04 +8.416889E-06 -1.224429E-04 +7.773224E-03 
 +7.575093E-05 -7.680447E-05 -2.397775E-04 -7.680447E-05 +6.033742E-04 -5.080280E-04 -2.397775E-04 -5.080280E-04 +6.780167E-03 
 +2.226585E-04 -3.759773E-04 +3.216355E-06 -3.759773E-04 +3.787755E-04 -1.671511E-04 +3.216355E-06 -1.671511E-04 +7.236292E-03 
 +3.757379E-04 -1.138626E-03 +3.860813E-05 -1.138626E-03 -4.899749E-04 -3.665670E-05 +3.860813E-05 -3.665670E-05 +7.810050E-03 
 +5.306663E-05 -6.248056E-04 -1.767003E-05 -6.248056E-04 +4.747333E-04 -6.788231E-04 -1.767003E-05 -6.788231E-04 +7.372102E-03 
 +2.860772E-05 +6.781311E-04 +1.140166E-04 +6.781311E-04 -3.360344E-04 -3.002308E-05 +1.140166E-04 -3.002308E-05 +7.807075E-03 
 -9.986502E-05 -2.277650E-04 -1.390098E-04 -2.277650E-04 +1.280610E-04 +1.243288E-04 -1.390098E-04 +1.243288E-04 +7.693697E-03 
 -8.694555E-06 +5.257895E-04 -2.557545E-04 +5.257895E-04 -3.085544E-04 +6.806575E-05 -2.557545E-04 +6.806575E-05 +7.720163E-03 
 +2.988079E-04 -7.456962E-05 -2.000888E-04 -7.456962E-05 -1.732412E-05 +2.171294E-04 -2.000888E-04 +2.171294E-04 +7.606467E-03 
 -9.282716E-05 -1.820106E-04 -1.280223E-04 -1.820106E-04 +3.482747E-04 -6.075049E-06 -1.280223E-04 -6.075049E-06 +7.143887E-03 
 +5.713136E-04 -2.041564E-05 -2.365790E-04 -2.041564E-05 -7.401177E-06 -2.021790E-04 -2.365790E-04 -2.021790E-04 +7.063644E-03 
 +2.672298E-04 -5.190017E-04 +1.990411E-04 -5.190017E-04 -3.798799E-04 +6.999342E-05 +1.990411E-04 +6.999342E-05 +7.732288E-03 
 -1.026238E-04 -3.215522E-04 +1.119900E-04 -3.215522E-04 +7.454018E-05 -1.960354E-06 +1.119900E-04 -1.960354E-06 +7.488533E-03 
 +5.952073E-04 +2.315462E-04 -3.016753E-04 +2.315462E-04 +1.819537E-04 +2.361711E-04 -3.016753E-04 +2.361711E-04 +6.929178E-03 
 +3.575319E-04 -4.765243E-04 -1.804853E-05 -4.765243E-04 +2.433557E-04 -4.040881E-04 -1.804853E-05 -4.040881E-04 +6.964225E-03 
 +2.099917E-04 +7.662059E-04 -4.723515E-04 +7.662059E-04 +5.609476E-05 +2.251437E-04 -4.723515E-04 +2.251437E-04 +7.114584E-03 
 +1.324229E-04 -1.733813E-04 +9.827754E-05 -1.733813E-04 -5.553697E-05 +6.796272E-05 +9.827754E-05 +6.796272E-05 +7.070156E-03 
 +1.306082E-04 +4.517106E-04 +2.052458E-04 +4.517106E-04 +9.558960E-05 -1.540427E-04 +2.052458E-04 -1.540427E-04 +6.979579E-03 
 +4.195652E-04 -8.836213E-05 +4.480546E-04 -8.836213E-05 -8.827529E-05 +1.103212E-04 +4.480546E-04 +1.103212E-04 +7.090685E-03 
 +3.573422E-04 +2.457556E-04 +1.359387E-04 +2.457556E-04 -1.914270E-04 -3.643795E-04 +1.359387E-04 -3.643795E-04 +7.376348E-03 
 +1.314521E-04 +6.189274E-04 -1.610471E-04 +6.189274E-04 -8.247262E-05 -4.582079E-05 -1.610471E-04 -4.582079E-05 +7.233375E-03 
 -3.416831E-05 -7.144389E-04 +7.371654E-05 -7.144389E-04 -2.527364E-04 +5.815919E-06 +7.371654E-05 +5.815919E-06 +7.704682E-03 
 +1.486662E-04 +1.465948E-04 -1.951573E-04 +1.465948E-04 -4.156102E-04 +2.368537E-04 -1.951573E-04 +2.368537E-04 +7.828840E-03 
 +3.911346E-04 -3.437702E-05 +4.240775E-04 -3.437702E-05 +3.626554E-04 +9.382110E-05 +4.240775E-04 +9.382110E-05 +7.244552E-03 
 +1.062492E-04 +2.060574E-04 +5.092247E-04 +2.060574E-04 +9.471924E-05 +4.035070E-04 +5.092247E-04 +4.035070E-04 +7.001747E-03 
 -3.006113E-04 -3.267298E-04 +5.025334E-04 -3.267298E-04 +5.507972E-04 +1.795652E-04 +5.025334E-04 +1.795652E-04 +7.406503E-03 
 +2.694138E-04 +1.947848E-04 +2.041985E-04 +1.947848E-04 +1.374774E-04 +2.464243E-04 +2.041985E-04 +2.464243E-04 +7.242874E-03 
 -7.849054E-05 -8.489629E-04 -1.703294E-04 -8.489629E-04 -1.261823E-04 -6.089766E-05 -1.703294E-04 -6.089766E-05 +7.831681E-03 
 +4.990230E-05 +7.992934E-04 -1.344288E-04 +7.992934E-04 -2.349127E-04 -2.826393E-04 -1.344288E-04 -2.826393E-04 +7.694114E-03 
 +2.041155E-04 -8.467123E-04 -4.575257E-04 -8.467123E-04 +8.813285E-05 +2.838680E-04 -4.575257E-04 +2.838680E-04 +7.181250E-03 
 -1.768972E-04 -2.970818E-04 -7.098458E-05 -2.970818E-04 +4.265298E-04 +3.100799E-04 -7.098458E-05 +3.100799E-04 +7.390215E-03 
 -1.017340E-04 +8.843835E-04 +1.558364E-04 +8.843835E-04 -3.141503E-04 -3.879576E-05 +1.558364E-04 -3.879576E-05 +7.935426E-03 
 -1.290342E-04 +4.227780E-04 -3.077064E-04 +4.227780E-04 -1.010090E-04 +3.614136E-04 -3.077064E-04 +3.614136E-04 +7.576180E-03 
 +8.761372E-05 -7.290798E-04 +5.585078E-04 -7.290798E-04 -2.966542E-06 +2.336180E-04 +5.585078E-04 +2.336180E-04 +7.325716E-03 
 +1.708814E-05 -2.452496E-04 +1.975499E-04 -2.452496E-04 +3.131789E-04 +7.090221E-05 +1.975499E-04 +7.090221E-05 +7.454659E-03 
 -2.586700E-04 +6.245666E-04 -2.509415E-04 +6.245666E-04 -3.053434E-04 -3.071919E-04 -2.509415E-04 -3.071919E-04 +7.819843E-03 
 +1.698873E-04 +4.516273E-05 +5.489309E-05 +4.516273E-05 +1.722121E-04 -4.079861E-04 +5.489309E-05 -4.079861E-04 +7.483109E-03 
 +8.561209E-05 +1.096543E-03 -1.859238E-04 +1.096543E-03 +2.933005E-06 -3.695991E-04 -1.859238E-04 -3.695991E-04 +7.261490E-03 
 -4.467954E-04 -5.936819E-04 +4.619743E-05 -5.936819E-04 +3.255222E-04 +6.916985E-05 +4.619743E-05 +6.916985E-05 +7.752745E-03 
 -1.390608E-04 +4.888241E-04 -1.269561E-04 +4.888241E-04 -1.325316E-05 -5.336613E-05 -1.269561E-04 -5.336613E-05 +7.544598E-03 
 +1.076766E-04 +8.537655E-05 +4.564340E-04 +8.537655E-05 -3.351655E-04 -2.752630E-04 +4.564340E-04 -2.752630E-04 +7.721629E-03 
 +7.388182E-05 +1.728456E-03 +6.715050E-04 +1.728456E-03 -2.053076E-04 +2.802174E-04 +6.715050E-04 +2.802174E-04 +7.854206E-03 
 +2.914577E-04 -1.612992E-04 +4.634326E-04 -1.612992E-04 +3.410917E-04 +4.539521E-05 +4.634326E-04 +4.539521E-05 +7.093809E-03 
 +5.170793E-04 +7.981262E-04 -2.032394E-04 +7.981262E-04 -5.448950E-04 -1.196559E-04 -2.032394E-04 -1.196559E-04 +7.704234E-03 
 -2.384285E-04 +8.160881E-04 +5.419968E-05 +8.160881E-04 -1.411886E-04 +9.484524E-04 +5.419968E-05 +9.484524E-04 +8.027702E-03 
 -2.281355E-04 +1.025956E-03 +4.645924E-04 +1.025956E-03 +1.565476E-04 -2.525138E-04 +4.645924E-04 -2.525138E-04 +7.553116E-03 
 -1.125768E-06 +1.242841E-04 +2.733298E-04 +1.242841E-04 +3.610313E-04 -9.778825E-04 +2.733298E-04 -9.778825E-04 +7.179759E-03 
 -9.182108E-05 +7.586522E-04 +4.342340E-05 +7.586522E-04 +4.015603E-04 +9.565438E-04 +4.342340E-05 +9.565438E-04 +7.339197E-03 
 -1.197147E-05 -3.223576E-04 +8.472851E-04 -3.223576E-04 -8.435669E-07 +4.329750E-04 +8.472851E-04 +4.329750E-04 +7.380467E-03 
 +3.405535E-04 -5.286339E-05 -3.781618E-04 -5.286339E-05 -2.796159E-04 +1.923292E-04 -3.781618E-04 +1.923292E-04 +7.441716E-03 
 -2.087071E-05 -4.209355E-04 -2.842388E-04 -4.209355E-04 +7.597842E-05 -3.163959E-04 -2.842388E-04 -3.163959E-04 +7.526156E-03 
 +1.929144E-04 +1.787307E-04 -1.023022E-04 +1.787307E-04 +3.717118E-05 +1.112428E-04 -1.023022E-04 +1.112428E-04 +7.330893E-03 
 +3.924677E-04 +2.911651E-04 -5.820151E-04 +2.911651E-04 -4.600963E-05 -2.240285E-04 -5.820151E-04 -2.240285E-04 +7.071553E-03 
 -3.216064E-05 -5.091068E-04 +5.833698E-04 -5.091068E-04 -2.263949E-04 +3.403327E-05 +5.833698E-04 +3.403327E-05 +7.442542E-03 
 -1.653292E-04 +4.556066E-04 +4.822687E-04 +4.556066E-04 +1.710195E-05 -8.827617E-04 +4.822687E-04 -8.827617E-04 +7.785359E-03 
 -7.054457E-04 -5.862686E-04 +1.189378E-04 -5.862686E-04 +2.542436E-04 -2.242274E-04 +1.189378E-04 -2.242274E-04 +7.659567E-03 
 +1.460208E-04 +1.800393E-04 +2.087655E-04 +1.800393E-04 +3.840511E-05 +4.494291E-04 +2.087655E-04 +4.494291E-04 +7.593264E-03 
 +2.881227E-04 +7.067883E-04 -2.787950E-04 +7.067883E-04 -4.174593E-04 -4.564321E-04 -2.787950E-04 -4.564321E-04 +7.705189E-03 
 -2.318010E-04 +2.212622E-04 +2.199728E-05 +2.212622E-04 +1.531804E-04 -3.888166E-05 +2.199728E-05 -3.888166E-05 +7.248356E-03 
 +1.949239E-06 +2.726511E-04 +6.582876E-07 +2.726511E-04 +4.993294E-04 +4.063384E-06 +6.582876E-07 +4.063384E-06 +6.829620E-03 
 -4.711155E-04 -3.570289E-04 +4.557212E-04 -3.570289E-04 -6.574276E-05 -3.710263E-04 +4.557212E-04 -3.710263E-04 +7.382345E-03 
 -1.204841E-04 -1.658980E-04 +6.563463E-04 -1.658980E-04 -1.776988E-05 +3.285229E-04 +6.563463E-04 +3.285229E-04 +7.375053E-03 
 -1.240168E-04 +8.116408E-04 -1.496721E-04 +8.116408E-04 -7.499538E-05 -1.946989E-04 -1.496721E-04 -1.946989E-04 +7.168973E-03 
 -4.645833E-04 +8.100451E-04 -8.015401E-04 +8.100451E-04 +5.620978E-05 +4.915352E-04 -8.015401E-04 +4.915352E-04 +7.839587E-03 
 +9.294062E-05 +4.504223E-04 -3.795586E-04 +4.504223E-04 -6.280538E-04 +8.114630E-05 -3.795586E-04 +8.114630E-05 +7.569554E-03 
 -5.333550E-05 +4.567807E-04 +5.729963E-04 +4.567807E-04 +1.136204E-04 -6.449871E-04 +5.729963E-04 -6.449871E-04 +7.385085E-03 
 +2.830147E-04 +4.007239E-04 +7.385124E-04 +4.007239E-04 -1.143290E-04 +4.859563E-04 +7.385124E-04 +4.859563E-04 +7.462143E-03 
 -1.439677E-04 +3.141610E-04 -1.783587E-04 +3.141610E-04 +2.247916E-04 +6.648801E-05 -1.783587E-04 +6.648801E-05 +7.165232E-03 
 -4.044728E-04 -5.448574E-05 -1.420641E-04 -5.448574E-05 -1.118597E-05 +6.883708E-04 -1.420641E-04 +6.883708E-04 +7.405087E-03 
 +3.098972E-06 +3.361531E-04 -4.308576E-04 +3.361531E-04 +1.878484E-04 +6.265625E-05 -4.308576E-04 +6.265625E-05 +7.127585E-03 
 -4.424130E-05 +1.589728E-04 +1.964104E-04 +1.589728E-04 -2.390973E-04 +3.867322E-05 +1.964104E-04 +3.867322E-05 +7.883037E-03 
 -2.330148E-04 +6.305384E-04 +4.972124E-04 +6.305384E-04 -3.219974E-04 -6.472687E-04 +4.972124E-04 -6.472687E-04 +8.063780E-03 
 -3.329834E-04 +4.175685E-04 +5.063142E-05 +4.175685E-04 +1.977923E-04 -8.951137E-05 +5.063142E-05 -8.951137E-05 +7.496989E-03 
 -1.902575E-04 -7.954752E-04 +6.413987E-07 -7.954752E-04 -6.173399E-05 +3.033088E-04 +6.413987E-07 +3.033088E-04 +7.565613E-03 
 +4.073499E-04 -8.290414E-04 +2.742774E-04 -8.290414E-04 -3.304254E-04 +4.786031E-04 +2.742774E-04 +4.786031E-04 +7.792153E-03 
 -7.984290E-05 -3.115798E-04 +7.914158E-05 -3.115798E-04 +2.461069E-04 -1.873270E-04 +7.914158E-05 -1.873270E-04 +7.234212E-03 
 -2.414778E-04 +4.060670E-04 +5.297695E-04 +4.060670E-04 +6.960647E-05 +5.607514E-04 +5.297695E-04 +5.607514E-04 +7.292478E-03 
 +6.362100E-05 -2.888160E-05 +5.854280E-04 -2.888160E-05 -1.056893E-04 -8.006475E-04 +5.854280E-04 -8.006475E-04 +7.454445E-03 
 +1.669022E-04 +3.050777E-04 +3.329630E-04 +3.050777E-04 +1.468156E-04 -1.204290E-04 +3.329630E-04 -1.204290E-04 +7.707093E-03 
 -1.526720E-04 -1.351440E-04 +4.632570E-04 -1.351440E-04 -1.909402E-04 -5.844880E-04 +4.632570E-04 -5.844880E-04 +7.935382E-03 
 -2.745302E-04 +5.903719E-04 -1.342062E-04 +5.903719E-04 +4.012812E-05 +4.115210E-04 -1.342062E-04 +4.115210E-04 +7.898198E-03 
 -4.163561E-04 -7.030457E-04 +9.873173E-05 -7.030457E-04 +4.390220E-04 -5.385021E-04 +9.873173E-05 -5.385021E-04 +7.551156E-03 
 -2.635605E-04 -3.600236E-04 +1.156836E-04 -3.600236E-04 +1.665740E-04 -3.190837E-04 +1.156836E-04 -3.190837E-04 +7.204172E-03 
 -1.854968E-04 +8.838822E-04 -2.034224E-04 +8.838822E-04 -1.954076E-04 +6.660909E-05 -2.034224E-04 +6.660909E-05 +7.531038E-03 
 -1.895206E-04 +3.443391E-04 +3.572893E-04 +3.443391E-04 +1.139247E-04 +1.052159E-04 +3.572893E-04 +1.052159E-04 +7.392266E-03 
 +1.954985E-04 +4.445882E-04 +7.508691E-05 +4.445882E-04 -7.800779E-04 +2.844079E-05 +7.508691E-05 +2.844079E-05 +7.759715E-03 
 +4.706348E-04 -5.442273E-04 -9.259962E-04 -5.442273E-04 +2.975206E-04 +2.834073E-04 -9.259962E-04 +2.834073E-04 +7.381609E-03 
 +9.142268E-05 -2.699096E-04 -6.139520E-04 -2.699096E-04 +2.277002E-04 +3.038766E-04 -6.139520E-04 +3.038766E-04 +7.286916E-03 
 -6.920174E-04 -4.552560E-04 +1.984690E-04 -4.552560E-04 +1.041073E-04 -2.334090E-04 +1.984690E-04 -2.334090E-04 +8.076034E-03 
 +5.269263E-05 -1.118103E-03 -1.441252E-04 -1.118103E-03 -6.725578E-04 +3.284190E-04 -1.441252E-04 +3.284190E-04 +7.748405E-03 
 +2.668992E-04 +3.263098E-04 +2.931695E-04 +3.263098E-04 -1.804078E-04 +2.307041E-04 +2.931695E-04 +2.307041E-04 +7.894404E-03 
 -6.404980E-05 +4.695732E-04 +3.038257E-04 +4.695732E-04 +1.778177E-05 -1.789117E-04 +3.038257E-04 -1.789117E-04 +7.356671E-03 
 -3.056898E-05 -5.844642E-05 +1.223378E-04 -5.844642E-05 +1.413917E-04 -5.073227E-04 +1.223378E-04 -5.073227E-04 +7.219494E-03 
 -2.717661E-04 -4.961910E-04 +1.769969E-04 -4.961910E-04 -2.088206E-04 -5.597811E-05 +1.769969E-04 -5.597811E-05 +7.689806E-03 
 -7.318984E-04 +4.229481E-04 +1.963661E-04 +4.229481E-04 -1.202067E-05 +1.093449E-04 +1.963661E-04 +1.093449E-04 +7.684261E-03 
 +1.821515E-04 +6.654438E-04 -1.135263E-04 +6.654438E-04 +1.537068E-04 +1.406263E-04 -1.135263E-04 +1.406263E-04 +6.853367E-03 
 +3.041087E-04 +3.754615E-04 -2.212610E-04 +3.754615E-04 +2.400576E-05 -1.030535E-04 -2.212610E-04 -1.030535E-04 +7.275626E-03 
 +6.932111E-05 +4.721945E-04 +1.030386E-04 +4.721945E-04 -4.653863E-04 +7.183468E-05 +1.030386E-04 +7.183468E-05 +7.787938E-03 
 -3.984079E-04 -1.170274E-05 +1.818828E-04 -1.170274E-05 +2.975048E-04 +2.802239E-04 +1.818828E-04 +2.802239E-04 +7.689198E-03 
 -1.371374E-04 +1.708143E-04 -2.396257E-04 +1.708143E-04 +2.254698E-04 +4.528524E-05 -2.396257E-04 +4.528524E-05 +7.176405E-03 
 +1.015179E-04 -5.656899E-04 +6.146717E-05 -5.656899E-04 -2.394313E-05 -1.604494E-04 +6.146717E-05 -1.604494E-04 +7.239527E-03 
 -4.677947E-05 +4.988561E-05 +6.554598E-05 +4.988561E-05 -8.175037E-05 +8.301893E-04 +6.554598E-05 +8.301893E-04 +7.245343E-03 
 +5.330758E-05 -5.021274E-05 -4.166450E-05 -5.021274E-05 +1.686069E-04 -5.456367E-05 -4.166450E-05 -5.456367E-05 +6.927907E-03 
 -3.895825E-04 +8.777539E-04 +2.706003E-04 +8.777539E-04 +6.049939E-05 +1.341765E-04 +2.706003E-04 +1.341765E-04 +7.654616E-03 
 -2.169836E-04 +8.337192E-04 +1.996856E-04 +8.337192E-04 -1.097624E-04 -5.139682E-04 +1.996856E-04 -5.139682E-04 +7.746875E-03 
 -2.901390E-04 +5.809978E-04 +3.219074E-04 +5.809978E-04 +2.221124E-04 +2.902852E-04 +3.219074E-04 +2.902852E-04 +7.715307E-03 
 +2.139357E-04 +5.028224E-04 +4.462150E-05 +5.028224E-04 +6.193247E-05 +5.754676E-04 +4.462150E-05 +5.754676E-04 +7.126555E-03 
 +1.941045E-04 -1.302017E-04 -5.019694E-04 -1.302017E-04 -5.265645E-04 -9.799866E-05 -5.019694E-04 -9.799866E-05 +7.660839E-03 
 -5.232464E-04 +3.496723E-04 -5.180577E-04 +3.496723E-04 +5.388233E-04 +3.666810E-04 -5.180577E-04 +3.666810E-04 +7.806325E-03 
 -1.378400E-05 -8.346481E-07 -4.037582E-04 -8.346481E-07 +3.698268E-04 +4.251157E-04 -4.037582E-04 +4.251157E-04 +7.053685E-03 
 -2.347644E-05 -1.110259E-03 +7.338291E-05 -1.110259E-03 -7.259360E-04 -5.852224E-04 +7.338291E-05 -5.852224E-04 +7.857930E-03 
 +1.859518E-04 +2.999533E-04 +1.967341E-04 +2.999533E-04 +1.084359E-05 +3.645617E-04 +1.967341E-04 +3.645617E-04 +7.411521E-03 
 +2.872404E-04 -9.847373E-04 +2.345744E-04 -9.847373E-04 -8.868016E-05 +7.042755E-05 +2.345744E-04 +7.042755E-05 +7.240862E-03 
 +3.065920E-04 -3.354938E-04 -4.717605E-04 -3.354938E-04 +4.138977E-04 -4.101359E-04 -4.717605E-04 -4.101359E-04 +7.136325E-03 
 +2.863902E-04 -6.254295E-04 -2.624659E-06 -6.254295E-04 -4.892729E-04 +3.309540E-04 -2.624659E-06 +3.309540E-04 +7.571652E-03 
 -2.978066E-04 -7.399199E-05 -1.468980E-04 -7.399199E-05 +2.364114E-04 +1.076011E-04 -1.468980E-04 +1.076011E-04 +7.630968E-03 
 -6.440497E-04 +4.991762E-04 -2.852377E-05 +4.991762E-04 +1.776474E-04 -2.570791E-04 -2.852377E-05 -2.570791E-04 +7.963255E-03 
 -2.822627E-04 +1.758394E-03 +3.280395E-04 +1.758394E-03 +3.007475E-05 +4.120347E-04 +3.280395E-04 +4.120347E-04 +7.863382E-03 
 +1.286697E-05 +6.121123E-05 -5.051411E-04 +6.121123E-05 -4.102424E-04 +9.154118E-04 -5.051411E-04 +9.154118E-04 +7.469576E-03 
 -1.952301E-05 -1.486182E-04 -3.598868E-04 -1.486182E-04 +4.090884E-04 -2.968991E-04 -3.598868E-04 -2.968991E-04 +6.981355E-03 
 -7.609767E-05 +4.463558E-04 +1.511816E-04 +4.463558E-04 +1.900025E-04 +2.754604E-05 +1.511816E-04 +2.754604E-05 +7.132065E-03 
 +1.571339E-04 -7.949820E-05 -9.417286E-06 -7.949820E-05 +8.342608E-05 +5.350789E-04 -9.417286E-06 +5.350789E-04 +7.351222E-03 
 +4.310494E-05 -6.351471E-04 -7.233918E-05 -6.351471E-04 -1.106177E-04 +5.762282E-05 -7.233918E-05 +5.762282E-05 +7.588647E-03 
 +2.055368E-04 +7.731199E-04 +2.310217E-04 +7.731199E-04 -3.620481E-04 -2.494973E-04 +2.310217E-04 -2.494973E-04 +8.084114E-03 
 -4.262384E-04 +6.985714E-04 +2.595613E-04 +6.985714E-04 +3.470395E-04 +4.848260E-04 +2.595613E-04 +4.848260E-04 +7.683397E-03 
 +1.721861E-05 -1.169770E-03 +2.931962E-04 -1.169770E-03 -3.265453E-04 +1.878466E-04 +2.931962E-04 +1.878466E-04 +7.484330E-03 
 +1.421644E-04 +4.349736E-05 -1.089918E-04 +4.349736E-05 +4.271949E-04 -5.912258E-05 -1.089918E-04 -5.912258E-05 +7.144172E-03 
 -3.858702E-04 +3.864275E-04 -3.545016E-04 +3.864275E-04 +2.830940E-04 -1.370832E-05 -3.545016E-04 -1.370832E-05 +7.977371E-03 
 +4.041574E-04 +4.327483E-04 +6.165430E-05 +4.327483E-04 -4.614062E-04 +4.720998E-04 +6.165430E-05 +4.720998E-04 +7.917619E-03 
 +2.529428E-04 +8.600793E-04 -1.420007E-04 +8.600793E-04 +4.870501E-04 -2.852883E-04 -1.420007E-04 -2.852883E-04 +7.013082E-03 
 -1.027136E-05 +9.002094E-04 +2.377815E-04 +9.002094E-04 -1.217999E-04 +1.981965E-04 +2.377815E-04 +1.981965E-04 +7.860248E-03 
 -1.652001E-04 -7.994521E-04 +3.662120E-05 -7.994521E-04 -1.013276E-04 +4.418896E-04 +3.662120E-05 +4.418896E-04 +7.767488E-03 
 +1.512588E-04 +5.360339E-04 +2.468492E-04 +5.360339E-04 -2.470956E-04 -1.515542E-04 +2.468492E-04 -1.515542E-04 +7.301398E-03 
 +1.694275E-04 -3.964324E-04 +4.614507E-04 -3.964324E-04 +1.651502E-04 +1.311374E-04 +4.614507E-04 +1.311374E-04 +7.024341E-03 
 -1.342167E-04 -5.992753E-04 +4.845756E-04 -5.992753E-04 -2.677299E-04 -8.523839E-05 +4.845756E-04 -8.523839E-05 +7.701563E-03 
 -2.356284E-04 +3.160704E-04 -1.809993E-04 +3.160704E-04 +2.998820E-04 +4.783313E-04 -1.809993E-04 +4.783313E-04 +7.395540E-03 
 +1.887487E-04 +5.088764E-04 -3.192969E-04 +5.088764E-04 -1.275858E-04 +6.530446E-05 -3.192969E-04 +6.530446E-05 +7.278646E-03 
 -6.465605E-05 -7.150419E-05 -6.448517E-05 -7.150419E-05 +1.886040E-04 +2.236370E-04 -6.448517E-05 +2.236370E-04 +7.156553E-03 
 +5.400015E-05 +7.127862E-04 -4.813020E-04 +7.127862E-04 -1.008343E-04 -5.115272E-04 -4.813020E-04 -5.115272E-04 +7.056453E-03 
 +1.522004E-04 +6.011649E-05 +1.883485E-04 +6.011649E-05 +1.395851E-04 -6.665595E-05 +1.883485E-04 -6.665595E-05 +7.025131E-03 
 -1.990713E-04 -8.063104E-04 +5.035599E-04 -8.063104E-04 +7.909623E-05 -1.514481E-04 +5.035599E-04 -1.514481E-04 +7.360264E-03 
 -9.649408E-05 -3.875640E-04 +4.549747E-04 -3.875640E-04 +3.998704E-04 +2.940778E-04 +4.549747E-04 +2.940778E-04 +7.364147E-03 
 +2.852136E-04 +7.000209E-04 +1.617001E-04 +7.000209E-04 -4.464770E-04 -2.550318E-04 +1.617001E-04 -2.550318E-04 +7.579853E-03 
 +2.317389E-04 -7.290528E-05 -4.396365E-04 -7.290528E-05 -3.702945E-04 -2.061646E-04 -4.396365E-04 -2.061646E-04 +7.791051E-03 
 -3.725730E-05 -4.061401E-04 -4.018846E-04 -4.061401E-04 +3.121226E-05 -5.791069E-04 -4.018846E-04 -5.791069E-04 +7.554760E-03 
 -4.573406E-04 +2.680331E-04 -3.663048E-04 +2.680331E-04 +4.289574E-04 -1.630041E-04 -3.663048E-04 -1.630041E-04 +7.395056E-03 
 -6.207365E-05 +1.278140E-04 +1.728015E-04 +1.278140E-04 -6.435018E-05 -1.396819E-04 +1.728015E-04 -1.396819E-04 +7.373946E-03 
 +4.672456E-04 -7.007505E-04 +4.801677E-04 -7.007505E-04 -2.681810E-04 -5.453944E-05 +4.801677E-04 -5.453944E-05 +7.859294E-03 
 +1.552568E-05 +1.858102E-04 +1.754756E-04 +1.858102E-04 +5.245671E-04 +1.419002E-04 +1.754756E-04 +1.419002E-04 +7.048393E-03 
 +2.009931E-04 +1.225112E-04 -2.757884E-05 +1.225112E-04 +5.359081E-04 -3.717190E-04 -2.757884E-05 -3.717190E-04 +6.897948E-03 
 +7.084318E-04 +6.748531E-05 +2.800878E-04 +6.748531E-05 -5.933084E-04 +7.009238E-05 +2.800878E-04 +7.009238E-05 +8.105924E-03 
 -1.490667E-04 +6.060710E-04 -1.584582E-04 +6.060710E-04 -2.062666E-04 +5.645435E-04 -1.584582E-04 +5.645435E-04 +7.837877E-03 
 +1.527082E-04 -1.247138E-05 +2.677315E-04 -1.247138E-05 +2.297105E-04 -2.313150E-04 +2.677315E-04 -2.313150E-04 +7.053303E-03 
 +1.881676E-04 +1.838353E-04 +1.051541E-04 +1.838353E-04 -4.937049E-04 -6.209327E-04 +1.051541E-04 -6.209327E-04 +7.440427E-03 
 -1.677053E-05 +9.558194E-04 +9.652422E-05 +9.558194E-04 -1.309409E-04 +1.356323E-04 +9.652422E-05 +1.356323E-04 +7.703585E-03 
 +1.014020E-04 -3.197831E-04 +4.427522E-04 -3.197831E-04 -9.644086E-06 -4.245141E-04 +4.427522E-04 -4.245141E-04 +7.111794E-03 
 -4.738786E-05 +1.241585E-04 +7.897288E-04 +1.241585E-04 +2.360514E-04 +1.119133E-04 +7.897288E-04 +1.119133E-04 +7.186732E-03 
 +2.553018E-04 +6.263172E-04 +6.784161E-04 +6.263172E-04 -1.354637E-04 -2.495512E-04 +6.784161E-04 -2.495512E-04 +7.326996E-03 
 +2.383427E-05 +4.134902E-04 +2.605205E-04 +4.134902E-04 +1.263068E-04 -2.953688E-04 +2.605205E-04 -2.953688E-04 +7.600012E-03 
 -1.291084E-04 -3.095444E-04 -1.742185E-04 -3.095444E-04 +2.545203E-05 -6.237006E-05 -1.742185E-04 -6.237006E-05 +7.676925E-03 
 +1.831850E-05 +5.284637E-04 -4.302950E-04 +5.284637E-04 -9.651063E-05 +7.154757E-05 -4.302950E-04 +7.154757E-05 +7.450711E-03 
 +4.581673E-05 -5.675876E-04 +3.061841E-04 -5.675876E-04 +4.325293E-04 -4.218247E-04 +3.061841E-04 -4.218247E-04 +7.566166E-03 
 -3.174765E-04 -1.049518E-03 +6.048210E-05 -1.049518E-03 -2.160766E-04 -6.989719E-04 +6.048210E-05 -6.989719E-04 +8.066653E-03 
 +9.430396E-06 +1.178132E-03 -6.828345E-05 +1.178132E-03 -3.779719E-04 -1.148608E-04 -6.828345E-05 -1.148608E-04 +7.921016E-03 
 +2.758702E-04 +6.860860E-04 +2.624844E-04 +6.860860E-04 -1.090947E-04 +5.768469E-05 +2.624844E-04 +5.768469E-05 +7.600449E-03 
 -8.103321E-05 -7.730356E-04 -6.359029E-04 -7.730356E-04 +3.246662E-04 +1.509808E-04 -6.359029E-04 +1.509808E-04 +7.425533E-03 
 +1.914839E-04 +9.067002E-04 -2.821891E-04 +9.067002E-04 +7.495565E-05 -1.438379E-04 -2.821891E-04 -1.438379E-04 +7.477500E-03 
 -1.011654E-04 +8.541595E-04 +6.133955E-06 +8.541595E-04 -9.503510E-06 -1.049502E-04 +6.133955E-06 -1.049502E-04 +7.536273E-03 
 -2.858258E-04 -6.959189E-04 +4.469368E-05 -6.959189E-04 -1.630640E-04 +6.573432E-05 +4.469368E-05 +6.573432E-05 +7.526311E-03 
 -4.719835E-04 -2.238144E-04 +2.372150E-05 -2.238144E-04 +5.432274E-04 -1.713885E-04 +2.372150E-05 -1.713885E-04 +7.900409E-03 
 -3.436209E-04 +9.391661E-05 -3.468399E-04 +9.391661E-05 +1.342849E-04 -6.600872E-04 -3.468399E-04 -6.600872E-04 +7.634292E-03 
 +2.204195E-04 +3.781315E-04 +3.764534E-05 +3.781315E-04 -5.126024E-04 -6.305274E-04 +3.764534E-05 -6.305274E-04 +7.170113E-03 
 -3.672242E-04 -4.104631E-04 +3.238109E-04 -4.104631E-04 +1.268275E-04 -1.141969E-04 +3.238109E-04 -1.141969E-04 +7.387144E-03 
 +1.530208E-04 +2.721414E-04 -9.719564E-05 +2.721414E-04 -2.063204E-04 -4.464742E-04 -9.719564E-05 -4.464742E-04 +7.199629E-03 
 -2.989015E-04 +2.804483E-04 -4.799041E-04 +2.804483E-04 -1.298628E-04 -3.307727E-04 -4.799041E-04 -3.307727E-04 +7.365565E-03 
 -4.297069E-04 +4.452257E-04 -3.331129E-04 +4.452257E-04 +5.950870E-05 +2.017374E-04 -3.331129E-04 +2.017374E-04 +7.610646E-03 
 +1.307570E-04 +3.191568E-04 +4.752534E-04 +3.191568E-04 -8.060304E-06 -9.852095E-05 +4.752534E-04 -9.852095E-05 +7.451721E-03 
 -9.262452E-05 -8.055410E-04 +2.846919E-04 -8.055410E-04 -1.064800E-04 +6.276125E-04 +2.846919E-04 +6.276125E-04 +7.325787E-03 
 +3.964404E-04 +3.857402E-04 -5.313250E-04 +3.857402E-04 -1.844618E-04 -2.515863E-04 -5.313250E-04 -2.515863E-04 +7.431360E-03 
 -6.145333E-05 +3.736750E-04 -1.360597E-05 +3.736750E-04 +4.185619E-04 +1.798743E-04 -1.360597E-05 +1.798743E-04 +7.089865E-03 
 -1.007578E-04 +1.790115E-04 -9.904795E-05 +1.790115E-04 +2.520810E-05 -1.295167E-04 -9.904795E-05 -1.295167E-04 +7.275078E-03 
 +4.293205E-05 +2.871267E-04 -5.572701E-06 +2.871267E-04 -4.273850E-04 -5.017431E-04 -5.572701E-06 -5.017431E-04 +7.599804E-03 
 +5.739615E-05 +3.945224E-05 -5.798670E-04 +3.945224E-05 +8.652936E-05 -2.390005E-04 -5.798670E-04 -2.390005E-04 +7.420950E-03 
 +1.700311E-04 -3.353137E-04 -8.204264E-04 -3.353137E-04 +1.087439E-04 -5.059339E-05 -8.204264E-04 -5.059339E-05 +7.446472E-03 
 +1.480615E-04 +5.292306E-04 -1.486504E-05 +5.292306E-04 -1.317925E-04 +1.087370E-04 -1.486504E-05 +1.087370E-04 +7.645867E-03 
 -1.759087E-04 -6.565657E-04 -6.770653E-04 -6.565657E-04 +1.346708E-04 +3.868442E-05 -6.770653E-04 +3.868442E-05 +7.509170E-03 
 -5.809507E-04 -2.701569E-04 -6.993180E-05 -2.701569E-04 +2.271442E-04 -6.406875E-04 -6.993180E-05 -6.406875E-04 +7.353904E-03 
 -2.382630E-04 -7.266449E-05 +4.995024E-05 -7.266449E-05 -9.402881E-05 +3.094520E-04 +4.995024E-05 +3.094520E-04 +7.509228E-03 
 +5.949685E-05 -9.075413E-05 -4.856405E-04 -9.075413E-05 -2.245591E-04 -3.637366E-04 -4.856405E-04 -3.637366E-04 +7.640535E-03 
 -1.451290E-05 +1.090927E-04 +1.849599E-04 +1.090927E-04 +1.984687E-04 +2.914227E-04 +1.849599E-04 +2.914227E-04 +7.374898E-03 
 -5.489759E-04 -5.925065E-05 +3.225918E-04 -5.925065E-05 +4.441696E-04 -3.667111E-04 +3.225918E-04 -3.667111E-04 +7.227882E-03 
 -1.568986E-04 -5.881248E-04 +5.397339E-06 -5.881248E-04 -8.360007E-05 +1.791531E-04 +5.397339E-06 +1.791531E-04 +7.700690E-03 
 -4.529154E-06 +1.061286E-03 -6.585929E-04 +1.061286E-03 -5.682072E-04 +7.391726E-04 -6.585929E-04 +7.391726E-04 +8.273486E-03 
 -8.406673E-04 -2.568459E-04 +9.057693E-05 -2.568459E-04 +4.610333E-04 -3.175242E-04 +9.057693E-05 -3.175242E-04 +7.614017E-03 
 +5.506771E-05 -2.707615E-04 +6.645554E-04 -2.707615E-04 -4.418864E-04 +1.375359E-04 +6.645554E-04 +1.375359E-04 +8.001786E-03 
 +1.208469E-04 +5.697964E-04 +1.999770E-04 +5.697964E-04 -1.220622E-04 +2.536396E-04 +1.999770E-04 +2.536396E-04 +7.435941E-03 
 -3.438146E-04 -4.831431E-04 +1.772163E-04 -4.831431E-04 +4.589618E-04 +4.937648E-04 +1.772163E-04 +4.937648E-04 +7.127015E-03 
 -2.065526E-04 +4.212059E-04 +7.479890E-05 +4.212059E-04 +1.321255E-05 -2.028937E-04 +7.479890E-05 -2.028937E-04 +7.745320E-03 
 -1.640078E-04 -9.114167E-04 -1.214160E-04 -9.114167E-04 -5.403488E-04 +5.677662E-04 -1.214160E-04 +5.677662E-04 +7.568858E-03 
 +1.352332E-04 +2.780297E-04 -1.766244E-04 +2.780297E-04 +3.576487E-04 +5.911574E-04 -1.766244E-04 +5.911574E-04 +7.054754E-03 
 +1.784191E-04 -4.127541E-05 +2.049808E-04 -4.127541E-05 -2.554369E-04 +5.131271E-04 +2.049808E-04 +5.131271E-04 +7.530915E-03 
 -1.576828E-04 +1.939842E-04 +6.948357E-04 +1.939842E-04 -1.212854E-04 -6.547097E-05 +6.948357E-04 -6.547097E-05 +7.793845E-03 
 -4.910594E-04 -9.694734E-04 +1.862871E-04 -9.694734E-04 -2.034112E-04 -1.181366E-04 +1.862871E-04 -1.181366E-04 +7.787120E-03 
 -6.143805E-04 -5.078255E-04 -4.266972E-04 -5.078255E-04 -1.818124E-05 +2.527598E-04 -4.266972E-04 +2.527598E-04 +7.918834E-03 
 +1.580978E-04 +4.628040E-04 -1.678593E-04 +4.628040E-04 +1.695917E-04 -1.263069E-04 -1.678593E-04 -1.263069E-04 +7.245027E-03 
 +3.920986E-04 +2.901079E-04 -4.987099E-04 +2.901079E-04 +1.299482E-04 +1.460142E-04 -4.987099E-04 +1.460142E-04 +6.725568E-03 
 +2.811623E-04 -3.094518E-04 +4.924450E-04 -3.094518E-04 +3.636263E-05 -1.258932E-05 +4.924450E-04 -1.258932E-05 +6.983846E-03 
 +9.188423E-05 -1.270421E-03 +4.015141E-04 -1.270421E-03 -2.948808E-04 -2.435969E-04 +4.015141E-04 -2.435969E-04 +7.574553E-03 
 -5.416382E-04 -1.183738E-03 -5.231338E-04 -1.183738E-03 +1.973844E-04 -4.664886E-04 -5.231338E-04 -4.664886E-04 +7.795065E-03 
 -1.244886E-04 -2.025736E-04 +2.850258E-04 -2.025736E-04 +1.434132E-04 -8.797731E-05 +2.850258E-04 -8.797731E-05 +7.391542E-03 
 +4.157786E-04 -3.394918E-04 -7.904282E-05 -3.394918E-04 +2.033171E-04 +4.114062E-04 -7.904282E-05 +4.114062E-04 +7.249930E-03 
 +2.537870E-04 -2.963427E-04 -2.039108E-04 -2.963427E-04 +2.712473E-04 +4.530117E-04 -2.039108E-04 +4.530117E-04 +7.297986E-03 
 +3.238198E-04 -4.896458E-04 +8.985802E-04 -4.896458E-04 -3.675472E-04 -2.086214E-04 +8.985802E-04 -2.086214E-04 +7.423417E-03 
 +3.537886E-04 +5.274375E-04 +5.812159E-04 +5.274375E-04 +8.680674E-05 -3.748679E-05 +5.812159E-04 -3.748679E-05 +7.010486E-03 
 -4.248454E-04 +9.219147E-04 +4.794148E-04 +9.219147E-04 +2.971692E-04 +3.535810E-04 +4.794148E-04 +3.535810E-04 +7.545376E-03 
 +2.548605E-04 -4.472029E-04 -1.560783E-04 -4.472029E-04 -2.272885E-04 -1.179107E-04 -1.560783E-04 -1.179107E-04 +7.067487E-03 
 -2.821648E-04 -2.563053E-04 +2.417426E-04 -2.563053E-04 +3.096407E-05 -1.174137E-04 +2.417426E-04 -1.174137E-04 +7.873130E-03 
 -7.567027E-05 -4.968163E-04 +2.266721E-04 -4.968163E-04 -8.806196E-05 -4.288676E-05 +2.266721E-04 -4.288676E-05 +7.718671E-03 
 +1.282394E-04 +8.619914E-05 -8.014970E-05 +8.619914E-05 +3.256728E-04 -7.246721E-05 -8.014970E-05 -7.246721E-05 +7.384957E-03 
 +1.393372E-04 -8.108372E-05 +4.792505E-05 -8.108372E-05 -5.435288E-04 -4.276776E-04 +4.792505E-05 -4.276776E-04 +7.730444E-03 
 -5.450537E-04 -5.977849E-04 -1.525881E-04 -5.977849E-04 +2.600595E-05 -5.175470E-04 -1.525881E-04 -5.175470E-04 +7.949931E-03 
 +4.401101E-04 +4.762111E-04 -3.653044E-04 +4.762111E-04 -5.474664E-04 -5.998588E-04 -3.653044E-04 -5.998588E-04 +7.848733E-03 
 +1.623713E-04 +2.179885E-04 -7.637292E-05 +2.179885E-04 +3.003295E-04 -3.714266E-04 -7.637292E-05 -3.714266E-04 +7.213068E-03 
 -1.238450E-04 -4.512130E-04 +5.457174E-04 -4.512130E-04 -2.323643E-04 +4.590877E-04 +5.457174E-04 +4.590877E-04 +7.451375E-03 
 -2.838598E-04 -3.116358E-04 +2.203069E-04 -3.116358E-04 +3.656283E-04 -2.262782E-04 +2.203069E-04 -2.262782E-04 +7.620101E-03 
 -4.819912E-04 +2.519011E-04 -8.203608E-04 +2.519011E-04 +1.643234E-04 +1.374167E-04 -8.203608E-04 +1.374167E-04 +7.765527E-03 
 -1.690571E-04 -1.085914E-04 -2.880364E-04 -1.085914E-04 -9.436776E-05 +2.792394E-04 -2.880364E-04 +2.792394E-04 +7.716176E-03 
 +5.426336E-06 +8.051942E-04 +9.510130E-05 +8.051942E-04 +2.203283E-05 +5.032817E-04 +9.510130E-05 +5.032817E-04 +7.678585E-03 
 +3.731049E-04 -9.952729E-04 +6.864742E-06 -9.952729E-04 -5.204109E-04 +3.497112E-04 +6.864742E-06 +3.497112E-04 +7.835849E-03 
 +6.332020E-05 +2.616739E-04 -1.731469E-04 +2.616739E-04 +3.165958E-04 +5.233138E-05 -1.731469E-04 +5.233138E-05 +7.194612E-03 
 -7.384904E-04 +3.955846E-04 -1.662058E-04 +3.955846E-04 +3.407437E-04 +1.184485E-04 -1.662058E-04 +1.184485E-04 +7.534123E-03 
 -4.999222E-04 -3.446103E-04 +1.415624E-04 -3.446103E-04 +3.147141E-04 -4.280273E-04 +1.415624E-04 -4.280273E-04 +7.688448E-03 
 -4.418979E-05 -1.154931E-03 +2.889914E-04 -1.154931E-03 -1.769642E-04 -6.961993E-05 +2.889914E-04 -6.961993E-05 +7.391509E-03 
 +2.802982E-04 -1.410109E-04 +3.961026E-04 -1.410109E-04 +6.043377E-05 +8.132332E-04 +3.961026E-04 +8.132332E-04 +7.405746E-03 
 -1.679199E-04 -3.034380E-05 +4.380542E-04 -3.034380E-05 +2.464331E-04 +6.603279E-04 +4.380542E-04 +6.603279E-04 +7.367384E-03 
 +3.160577E-04 +1.251128E-03 -3.872629E-04 +1.251128E-03 -8.353680E-05 -2.541320E-05 -3.872629E-04 -2.541320E-05 +6.818909E-03 
 -4.632556E-05 +1.067767E-03 -1.971450E-04 +1.067767E-03 -2.706238E-05 -2.174871E-04 -1.971450E-04 -2.174871E-04 +7.685732E-03 
 -2.205594E-04 -7.730601E-04 -2.422303E-04 -7.730601E-04 +3.332082E-04 -3.599467E-04 -2.422303E-04 -3.599467E-04 +7.285842E-03 
 +1.881909E-04 -1.148755E-04 -3.530775E-04 -1.148755E-04 -2.770644E-04 -3.719232E-04 -3.530775E-04 -3.719232E-04 +7.394250E-03 
 +3.693548E-04 -3.636031E-04 +2.415929E-04 -3.636031E-04 -2.783176E-04 -1.738295E-04 +2.415929E-04 -1.738295E-04 +7.627605E-03 
 -2.280719E-04 +5.196288E-05 -4.648516E-04 +5.196288E-05 +1.443804E-04 -5.104092E-04 -4.648516E-04 -5.104092E-04 +7.868408E-03 
 -1.242833E-04 +1.712036E-04 -1.130718E-04 +1.712036E-04 -6.251792E-04 -1.861239E-04 -1.130718E-04 -1.861239E-04 +7.746775E-03 
 +3.235150E-04 -2.572671E-04 +4.904668E-05 -2.572671E-04 +1.166084E-04 +3.171896E-04 +4.904668E-05 +3.171896E-04 +7.149850E-03 
 +1.146538E-04 +6.732973E-04 -5.617697E-04 +6.732973E-04 +6.882590E-05 -1.608278E-04 -5.617697E-04 -1.608278E-04 +7.576375E-03 
 -7.092229E-06 +7.193485E-04 +2.856312E-04 +7.193485E-04 +3.671947E-05 +3.799636E-04 +2.856312E-04 +3.799636E-04 +7.268637E-03 
 +2.565020E-04 +3.479200E-05 -2.624648E-04 +3.479200E-05 +2.986846E-04 -5.773079E-04 -2.624648E-04 -5.773079E-04 +6.735248E-03 
 +1.644526E-04 +6.765793E-04 -1.112162E-04 +6.765793E-04 +6.174912E-04 +3.747583E-04 -1.112162E-04 +3.747583E-04 +7.202538E-03 
 -1.527279E-04 -8.691432E-04 +8.188197E-04 -8.691432E-04 -2.650635E-04 -2.514574E-04 +8.188197E-04 -2.514574E-04 +7.814121E-03 
 +3.508790E-04 -8.589520E-05 +4.651110E-04 -8.589520E-05 -4.932280E-04 +3.639604E-04 +4.651110E-04 +3.639604E-04 +7.434732E-03 
 -9.812489E-06 -1.567400E-04 +1.368567E-04 -1.567400E-04 +2.612424E-04 +9.597332E-05 +1.368567E-04 +9.597332E-05 +7.011261E-03 
 -4.862977E-04 +1.027290E-03 -1.384700E-04 +1.027290E-03 +4.466632E-05 +4.938713E-04 -1.384700E-04 +4.938713E-04 +8.018328E-03 
 -4.867998E-04 +7.030062E-05 +1.960100E-05 +7.030062E-05 +1.579186E-04 +1.495188E-04 +1.960100E-05 +1.495188E-04 +7.742411E-03 
 -4.532897E-04 +8.112267E-04 +2.028152E-05 +8.112267E-04 -5.626139E-06 -1.756673E-04 +2.028152E-05 -1.756673E-04 +7.611738E-03 
 -4.441959E-04 -1.317377E-03 +1.749815E-04 -1.317377E-03 -2.030652E-04 -5.128098E-04 +1.749815E-04 -5.128098E-04 +7.813861E-03 
 -3.587181E-04 +1.312331E-04 +3.854622E-04 +1.312331E-04 +6.717739E-04 -2.945564E-04 +3.854622E-04 -2.945564E-04 +7.220804E-03 
 +2.462616E-05 +5.803793E-04 +2.426588E-05 +5.803793E-04 -6.383753E-05 -4.964923E-04 +2.426588E-05 -4.964923E-04 +7.458272E-03 
 +4.006993E-04 +5.633276E-04 -3.856424E-04 +5.633276E-04 -5.142428E-04 -3.205885E-04 -3.856424E-04 -3.205885E-04 +7.984372E-03 
 +3.512252E-05 +9.354488E-04 +1.382888E-04 +9.354488E-04 -1.682463E-04 +1.873493E-04 +1.382888E-04 +1.873493E-04 +7.492441E-03 
 +1.693305E-04 -4.861789E-04 -3.587003E-04 -4.861789E-04 +1.568547E-04 -9.992166E-05 -3.587003E-04 -9.992166E-05 +7.341366E-03 
 +1.299208E-04 +6.801429E-04 +8.326520E-04 +6.801429E-04 -1.875406E-04 -3.388434E-04 +8.326520E-04 -3.388434E-04 +7.554515E-03 
 +3.663589E-04 +2.860307E-04 +5.049614E-04 +2.860307E-04 -5.442899E-04 +3.215852E-04 +5.049614E-04 +3.215852E-04 +7.657218E-03 
 -3.987538E-05 -3.319418E-04 -3.595195E-04 -3.319418E-04 +2.976115E-04 +6.505254E-05 -3.595195E-04 +6.505254E-05 +7.431927E-03 
 +3.290677E-04 +2.338588E-04 -7.346646E-05 +2.338588E-04 +1.829205E-05 -1.311389E-04 -7.346646E-05 -1.311389E-04 +7.486498E-03 
 -5.161537E-05 -1.127122E-03 -1.718835E-04 -1.127122E-03 +5.995913E-05 +3.222950E-04 -1.718835E-04 +3.222950E-04 +7.906451E-03 
 -1.035154E-04 -6.126612E-05 -1.491275E-04 -6.126612E-05 -2.937971E-04 +5.504502E-04 -1.491275E-04 +5.504502E-04 +7.629128E-03 
 -3.605587E-04 +1.102781E-03 +2.101279E-04 +1.102781E-03 +2.200409E-04 -1.455975E-04 +2.101279E-04 -1.455975E-04 +7.488724E-03 
 -1.691009E-04 +4.213504E-04 +3.200200E-04 +4.213504E-04 +1.901332E-04 +3.465869E-05 +3.200200E-04 +3.465869E-05 +7.551846E-03 
 +2.737848E-04 -2.818345E-04 -9.941959E-05 -2.818345E-04 +2.092023E-04 -1.793525E-04 -9.941959E-05 -1.793525E-04 +6.957232E-03 
 +5.848510E-04 -9.592540E-05 +1.115330E-04 -9.592540E-05 +3.485876E-04 +3.253009E-04 +1.115330E-04 +3.253009E-04 +7.034697E-03 
 -5.786465E-05 -1.117827E-03 +2.901981E-04 -1.117827E-03 -6.964683E-04 +3.228109E-05 +2.901981E-04 +3.228109E-05 +7.910579E-03 
 -4.139838E-04 +2.902114E-04 +7.428109E-05 +2.902114E-04 +2.093338E-04 +1.247451E-04 +7.428109E-05 +1.247451E-04 +7.834242E-03 
 -1.829712E-04 +1.102866E-04 -1.795753E-04 +1.102866E-04 +4.156792E-04 +2.386444E-04 -1.795753E-04 +2.386444E-04 +7.065486E-03 
 +4.338127E-04 -5.680541E-04 -7.824202E-05 -5.680541E-04 +8.067818E-05 -1.053733E-04 -7.824202E-05 -1.053733E-04 +7.325887E-03 
 +3.640354E-04 +5.130704E-04 +3.735830E-04 +5.130704E-04 -4.579489E-04 +5.519228E-04 +3.735830E-04 +5.519228E-04 +7.551649E-03 
 -5.142412E-05 -3.904613E-04 +2.019384E-04 -3.904613E-04 +3.517925E-04 -1.966818E-05 +2.019384E-04 -1.966818E-05 +7.414420E-03 
 -1.816581E-04 +9.194129E-04 -3.472636E-05 +9.194129E-04 -2.091415E-04 +2.862015E-04 -3.472636E-05 +2.862015E-04 +7.512628E-03 
 +3.455004E-04 +9.292918E-04 +7.865524E-05 +9.292918E-04 -1.004380E-04 -4.417990E-05 +7.865524E-05 -4.417990E-05 +7.379270E-03 
 -3.831471E-05 +9.763131E-04 +7.128150E-04 +9.763131E-04 +9.985879E-05 -1.170138E-04 +7.128150E-04 -1.170138E-04 +7.514698E-03 
 +4.084050E-04 +4.449634E-05 -3.179322E-04 +4.449634E-05 -2.681414E-04 -9.751373E-04 -3.179322E-04 -9.751373E-04 +7.360174E-03 
 +8.689261E-06 +2.059963E-04 +5.598461E-04 +2.059963E-04 -1.061812E-04 -2.140939E-04 +5.598461E-04 -2.140939E-04 +7.676014E-03 
 -2.727430E-04 -2.453257E-04 +2.453954E-04 -2.453257E-04 +6.221548E-05 -1.097888E-06 +2.453954E-04 -1.097888E-06 +7.854886E-03 
 +3.969359E-04 +4.425892E-04 -2.813687E-04 +4.425892E-04 -3.083967E-04 +2.511790E-04 -2.813687E-04 +2.511790E-04 +7.674170E-03 
 +3.358688E-04 -1.264511E-04 +1.423151E-04 -1.264511E-04 +1.164268E-04 -1.247436E-04 +1.423151E-04 -1.247436E-04 +7.327429E-03 
 +1.513847E-04 +1.533104E-04 +2.718471E-05 +1.533104E-04 +7.200050E-05 -3.072589E-04 +2.718471E-05 -3.072589E-04 +6.995837E-03 
 +1.376554E-04 -1.630510E-04 -1.744413E-04 -1.630510E-04 +1.791071E-04 -9.822565E-05 -1.744413E-04 -9.822565E-05 +6.945198E-03 
 -3.355856E-04 +5.850975E-04 -3.914803E-04 +5.850975E-04 -8.450101E-05 +4.530009E-04 -3.914803E-04 +4.530009E-04 +7.667555E-03 
 -9.866469E-06 +1.576527E-04 -6.152384E-04 +1.576527E-04 -6.152589E-05 -5.575786E-04 -6.152384E-04 -5.575786E-04 +7.474034E-03 
 +1.772459E-04 -2.687109E-04 -4.594825E-04 -2.687109E-04 +2.944957E-04 -2.644763E-05 -4.594825E-04 -2.644763E-05 +7.179628E-03 
 +2.195201E-05 -8.209626E-04 +1.026140E-04 -8.209626E-04 -2.153226E-04 +3.314311E-05 +1.026140E-04 +3.314311E-05 +7.851611E-03 
 +1.578237E-04 +3.125888E-04 +7.357750E-06 +3.125888E-04 -1.303447E-04 +3.090024E-05 +7.357750E-06 +3.090024E-05 +7.678923E-03 
 -4.358461E-04 -8.169910E-04 +4.790944E-04 -8.169910E-04 +3.534747E-04 -3.974478E-04 +4.790944E-04 -3.974478E-04 +7.426722E-03 
 -2.329590E-05 -3.736200E-04 +6.673124E-04 -3.736200E-04 -5.386681E-05 -2.308638E-04 +6.673124E-04 -2.308638E-04 +7.313491E-03 
 -6.071275E-05 -3.486641E-04 +3.898466E-04 -3.486641E-04 +6.782262E-05 -1.512355E-04 +3.898466E-04 -1.512355E-04 +7.159850E-03 
 -7.003389E-05 -1.939117E-06 +2.059453E-04 -1.939117E-06 +2.068991E-04 -8.196575E-04 +2.059453E-04 -8.196575E-04 +7.033558E-03 
 +2.844617E-05 +2.409518E-04 +2.973923E-04 +2.409518E-04 +8.258477E-05 +1.566370E-04 +2.973923E-04 +1.566370E-04 +7.128275E-03 
 +2.149090E-04 +4.633419E-04 +9.698848E-05 +4.633419E-04 +2.727222E-04 -1.131883E-04 +9.698848E-05 -1.131883E-04 +7.430311E-03 
 -1.412973E-04 -1.263196E-04 -6.363837E-04 -1.263196E-04 -5.174882E-04 -5.203418E-05 -6.363837E-04 -5.203418E-05 +7.668693E-03 
 +1.612663E-04 -1.989776E-04 -1.464983E-04 -1.989776E-04 -4.481016E-04 +9.746393E-05 -1.464983E-04 +9.746393E-05 +7.532517E-03 
 +1.057908E-04 +1.736173E-04 +5.816514E-05 +1.736173E-04 +4.864503E-04 +2.687305E-04 +5.816514E-05 +2.687305E-04 +7.189971E-03 
 +1.004747E-04 +9.248254E-06 +4.307905E-04 +9.248254E-06 +1.110459E-04 -1.125935E-04 +4.307905E-04 -1.125935E-04 +7.475074E-03 
 +1.926352E-04 -6.011126E-04 -1.212335E-04 -6.011126E-04 -2.946765E-04 +3.805079E-04 -1.212335E-04 +3.805079E-04 +7.409296E-03 
 -2.555605E-04 +1.343253E-04 +4.062150E-04 +1.343253E-04 +2.369094E-04 +1.144823E-04 +4.062150E-04 +1.144823E-04 +7.452740E-03 
 +1.427567E-04 -3.276854E-04 +6.613827E-04 -3.276854E-04 +1.397382E-04 -2.592631E-04 +6.613827E-04 -2.592631E-04 +7.127350E-03 
 +3.333522E-04 +4.019117E-04 -7.390370E-05 +4.019117E-04 -1.218464E-04 +7.144472E-04 -7.390370E-05 +7.144472E-04 +7.364342E-03 
 -7.951681E-04 -3.110229E-05 -3.793212E-05 -3.110229E-05 +3.883435E-04 +2.952538E-04 -3.793212E-05 +2.952538E-04 +7.937826E-03 
 +2.182130E-04 -5.664892E-04 +1.302102E-04 -5.664892E-04 -6.428340E-04 +7.076392E-04 +1.302102E-04 +7.076392E-04 +7.792209E-03 
 +7.847699E-05 +5.396174E-04 +9.587094E-05 +5.396174E-04 +4.255586E-04 -6.601243E-06 +9.587094E-05 -6.601243E-06 +7.132874E-03 
 -7.215957E-05 -6.377236E-04 -8.548133E-06 -6.377236E-04 +4.254505E-05 -5.079054E-04 -8.548133E-06 -5.079054E-04 +7.376110E-03 
 -3.578185E-04 -2.139897E-04 -7.369856E-05 -2.139897E-04 -7.174978E-05 +1.228637E-04 -7.369856E-05 +1.228637E-04 +7.660679E-03 
 -4.926627E-05 -3.772606E-04 -5.709746E-04 -3.772606E-04 -2.827269E-05 +2.410189E-04 -5.709746E-04 +2.410189E-04 +7.399885E-03 
 +2.672448E-04 +5.690675E-04 -1.016930E-04 +5.690675E-04 -4.015720E-04 +8.942081E-04 -1.016930E-04 +8.942081E-04 +7.678533E-03 
 +2.408997E-04 -2.428027E-04 -3.402974E-04 -2.428027E-04 +2.491661E-04 -1.768615E-04 -3.402974E-04 -1.768615E-04 +6.811589E-03 
 +5.473080E-05 +3.573205E-04 +3.937378E-04 +3.573205E-04 +3.041313E-04 -5.128563E-04 +3.937378E-04 -5.128563E-04 +6.890061E-03 
 -5.645920E-04 -1.190790E-03 +8.762582E-04 -1.190790E-03 +8.839866E-05 +7.810502E-04 +8.762582E-04 +7.810502E-04 +8.034165E-03 
 -5.894568E-05 +1.031538E-03 +1.079795E-04 +1.031538E-03 -2.586136E-04 +5.510497E-05 +1.079795E-04 +5.510497E-05 +8.123189E-03 
 -3.048302E-04 +9.611136E-05 -4.672126E-05 +9.611136E-05 +3.446206E-04 -4.620555E-04 -4.672126E-05 -4.620555E-04 +7.341865E-03 
 +2.532332E-04 +4.730216E-04 -3.547792E-04 +4.730216E-04 +9.163946E-05 -3.369109E-04 -3.547792E-04 -3.369109E-04 +7.281441E-03 
 +1.319505E-04 -9.890744E-04 -2.310834E-04 -9.890744E-04 -3.897707E-04 +3.232696E-05 -2.310834E-04 +3.232696E-05 +7.919161E-03 
 -1.806985E-04 -1.331726E-04 -1.095110E-04 -1.331726E-04 +1.463034E-05 -5.225652E-04 -1.095110E-04 -5.225652E-04 +7.796782E-03 
 +3.309093E-04 -2.327067E-04 +2.101982E-04 -2.327067E-04 -2.284273E-04 +2.881607E-04 +2.101982E-04 +2.881607E-04 +7.523031E-03 
 +1.508835E-04 -2.885989E-05 -2.640726E-04 -2.885989E-05 +3.025948E-05 -3.903926E-04 -2.640726E-04 -3.903926E-04 +7.375532E-03 
 +2.145491E-04 -5.705693E-04 +9.187449E-04 -5.705693E-04 -4.187662E-04 +2.123308E-05 +9.187449E-04 +2.123308E-05 +7.577497E-03 
 +4.853689E-05 +3.345938E-04 +1.773535E-04 +3.345938E-04 +3.840211E-04 -2.722233E-04 +1.773535E-04 -2.722233E-04 +7.201256E-03 
 -2.793111E-04 -6.368281E-05 +4.698790E-05 -6.368281E-05 +3.779345E-04 -1.814032E-04 +4.698790E-05 -1.814032E-04 +7.455301E-03 
 +8.554873E-05 +3.354704E-04 +5.585596E-04 +3.354704E-04 +8.998519E-05 +4.662592E-04 +5.585596E-04 +4.662592E-04 +7.610471E-03 
 -5.513059E-04 -2.918321E-04 -5.015284E-04 -2.918321E-04 +2.907248E-04 -4.037989E-05 -5.015284E-04 -4.037989E-05 +7.501423E-03 
 +1.229298E-04 -2.884678E-04 -4.148181E-04 -2.884678E-04 -4.976435E-04 +1.810405E-04 -4.148181E-04 +1.810405E-04 +7.647549E-03 
 +7.637442E-04 +2.004580E-04 +5.477297E-04 +2.004580E-04 +6.988167E-05 +5.053268E-04 +5.477297E-04 +5.053268E-04 +7.181182E-03 
 +1.600461E-04 -6.678529E-04 +5.527138E-05 -6.678529E-04 -5.209141E-05 +3.168297E-04 +5.527138E-05 +3.168297E-04 +7.384512E-03 
 -4.465668E-04 +1.154151E-03 -2.284991E-04 +1.154151E-03 +2.124387E-05 -4.173014E-04 -2.284991E-04 -4.173014E-04 +7.961998E-03 
 -3.344416E-04 -5.889498E-04 -2.820324E-04 -5.889498E-04 -1.805887E-04 +2.419536E-04 -2.820324E-04 +2.419536E-04 +7.615882E-03 
 +8.359644E-05 +1.592688E-04 -4.110048E-04 +1.592688E-04 +1.906401E-04 +1.447520E-04 -4.110048E-04 +1.447520E-04 +6.894762E-03 
 +1.243390E-04 -7.578005E-04 +7.455280E-04 -7.578005E-04 -3.067539E-04 -1.197767E-04 +7.455280E-04 -1.197767E-04 +7.677497E-03 
 -4.313140E-04 +8.699021E-04 -1.860543E-04 +8.699021E-04 -1.544589E-04 +3.102458E-04 -1.860543E-04 +3.102458E-04 +7.717344E-03 
 +1.222227E-04 -6.394591E-04 -1.344261E-04 -6.394591E-04 +4.834821E-04 -3.400040E-04 -1.344261E-04 -3.400040E-04 +6.912991E-03 
 +6.758809E-04 +9.007332E-04 -2.197568E-04 +9.007332E-04 +1.120251E-04 -6.122086E-04 -2.197568E-04 -6.122086E-04 +7.090564E-03 
 -6.328666E-05 +9.513793E-04 -4.523485E-04 +9.513793E-04 -6.616140E-05 +7.956852E-05 -4.523485E-04 +7.956852E-05 +7.528440E-03 
 +2.364732E-04 -1.134685E-05 +1.788029E-05 -1.134685E-05 -2.475170E-04 +3.659241E-04 +1.788029E-05 +3.659241E-04 +7.255761E-03 
 +3.392501E-04 -7.494064E-04 -5.114735E-04 -7.494064E-04 -1.059906E-04 +3.566110E-04 -5.114735E-04 +3.566110E-04 +6.968734E-03 
 -1.124525E-04 -2.993905E-04 -1.623679E-04 -2.993905E-04 +2.594728E-04 -5.831476E-04 -1.623679E-04 -5.831476E-04 +7.481062E-03 
 +1.701791E-04 +1.154858E-03 -3.926407E-04 +1.154858E-03 -2.808143E-04 +1.586834E-04 -3.926407E-04 +1.586834E-04 +7.601879E-03 
 -4.423731E-04 +5.166472E-04 +1.313270E-04 +5.166472E-04 -2.081104E-04 +3.770388E-04 +1.313270E-04 +3.770388E-04 +7.900177E-03 
 -3.491714E-05 +1.821144E-04 +3.082469E-04 +1.821144E-04 +9.042814E-05 +3.210269E-04 +3.082469E-04 +3.210269E-04 +7.773886E-03 
 +2.128899E-04 +2.250121E-04 -1.523504E-04 +2.250121E-04 +1.161790E-04 +4.887351E-05 -1.523504E-04 +4.887351E-05 +7.446545E-03 
 -4.648167E-04 -2.225838E-04 +6.189225E-05 -2.225838E-04 +3.321508E-04 +5.590607E-04 +6.189225E-05 +5.590607E-04 +7.585701E-03 
 -2.858310E-05 -4.263994E-04 +1.387629E-04 -4.263994E-04 +1.606612E-04 -4.160154E-04 +1.387629E-04 -4.160154E-04 +7.419966E-03 
 +7.955416E-05 +3.413346E-04 +1.226777E-04 +3.413346E-04 -2.418976E-04 -5.149716E-05 +1.226777E-04 -5.149716E-05 +7.283154E-03 
 -1.382718E-04 -1.786870E-04 +3.568376E-04 -1.786870E-04 +4.499429E-04 -9.569305E-04 +3.568376E-04 -9.569305E-04 +7.030238E-03 
 +3.381255E-04 +3.896640E-04 +1.157660E-05 +3.896640E-04 -3.037192E-04 -1.391301E-04 +1.157660E-05 -1.391301E-04 +7.578684E-03 
 +3.132662E-04 -1.905369E-04 +4.686734E-06 -1.905369E-04 -2.304715E-04 +1.916464E-04 +4.686734E-06 +1.916464E-04 +7.564988E-03 
 +3.167846E-04 +6.407974E-04 +1.746086E-04 +6.407974E-04 +3.156315E-05 +1.202411E-04 +1.746086E-04 +1.202411E-04 +7.160270E-03 
 -8.684916E-05 +5.197888E-04 -7.924248E-04 +5.197888E-04 -3.961755E-04 -7.783243E-04 -7.924248E-04 -7.783243E-04 +7.744828E-03 
 -3.047028E-04 +5.869584E-04 -1.637470E-04 +5.869584E-04 +3.385753E-04 -3.606430E-04 -1.637470E-04 -3.606430E-04 +7.942134E-03 
 +2.299299E-04 -2.600977E-04 +2.682053E-04 -2.600977E-04 -4.078207E-04 -6.278671E-04 +2.682053E-04 -6.278671E-04 +7.342096E-03 
 -7.516918E-05 -9.088775E-04 +1.844484E-04 -9.088775E-04 -7.483503E-05 -4.832369E-04 +1.844484E-04 -4.832369E-04 +7.562762E-03 
 +1.843045E-04 +2.531810E-04 +1.858182E-04 +2.531810E-04 +2.783074E-04 +2.934078E-04 +1.858182E-04 +2.934078E-04 +7.437790E-03 
 -8.994132E-05 -3.680099E-04 +4.675424E-04 -3.680099E-04 +2.113432E-04 -3.189059E-04 +4.675424E-04 -3.189059E-04 +6.932040E-03 
 -5.181687E-04 +8.451196E-04 +1.460004E-04 +8.451196E-04 +2.044402E-04 -5.819059E-04 +1.460004E-04 -5.819059E-04 +7.605482E-03 
 -8.804520E-06 +2.574674E-04 +2.757552E-04 +2.574674E-04 -6.276898E-04 -4.575618E-04 +2.757552E-04 -4.575618E-04 +8.181793E-03 
 -4.582669E-04 -9.916782E-04 -2.689846E-04 -9.916782E-04 +4.731147E-04 +4.110948E-04 -2.689846E-04 +4.110948E-04 +7.693044E-03 
 +3.797425E-05 +1.539513E-04 +1.254699E-04 +1.539513E-04 +1.638125E-04 +3.035851E-04 +1.254699E-04 +3.035851E-04 +7.101410E-03 
 +8.279632E-05 -3.519091E-04 +5.506803E-04 -3.519091E-04 -3.606414E-04 -3.225856E-05 +5.506803E-04 -3.225856E-05 +7.157767E-03 
 -3.646126E-04 +3.761845E-04 +3.535774E-04 +3.761845E-04 +4.229644E-04 +5.128219E-04 +3.535774E-04 +5.128219E-04 +7.332699E-03 
 -1.853503E-04 -7.387017E-05 -9.655821E-04 -7.387017E-05 +2.118304E-04 +1.461538E-04 -9.655821E-04 +1.461538E-04 +7.457288E-03 
 +9.506212E-05 +3.248619E-04 -3.522082E-04 +3.248619E-04 -2.542449E-04 -2.473260E-04 -3.522082E-04 -2.473260E-04 +7.693423E-03 
 -1.920222E-04 -4.890518E-04 +3.198757E-04 -4.890518E-04 +4.148658E-04 +4.475475E-04 +3.198757E-04 +4.475475E-04 +7.332965E-03 
 +4.487119E-05 -6.787132E-04 +1.130999E-04 -6.787132E-04 -2.198154E-04 +2.988548E-04 +1.130999E-04 +2.988548E-04 +7.785381E-03 
 -2.117728E-04 +8.691023E-04 -4.504710E-04 +8.691023E-04 +3.146392E-04 +2.827221E-04 -4.504710E-04 +2.827221E-04 +7.821214E-03 
 +9.049741E-06 -1.364684E-03 -7.063230E-05 -1.364684E-03 -2.133393E-04 +2.057590E-04 -7.063230E-05 +2.057590E-04 +7.909820E-03 
 +1.102286E-04 +8.147513E-06 -2.492761E-04 +8.147513E-06 -2.431437E-04 -1.310217E-04 -2.492761E-04 -1.310217E-04 +7.747693E-03 
 +1.370278E-04 +1.381931E-04 -5.082219E-04 +1.381931E-04 -2.300813E-04 -7.335037E-04 -5.082219E-04 -7.335037E-04 +7.529807E-03 
 -3.880274E-04 -4.413829E-04 -1.347877E-04 -4.413829E-04 +2.586122E-04 +2.952575E-04 -1.347877E-04 +2.952575E-04 +8.061111E-03 
 -3.244392E-05 +4.777649E-04 +4.677489E-04 +4.777649E-04 -3.544707E-04 +1.957358E-04 +4.677489E-04 +1.957358E-04 +7.669496E-03 
 +2.954574E-04 +5.384207E-05 +6.110896E-04 +5.384207E-05 +1.814879E-04 +1.557956E-04 +6.110896E-04 +1.557956E-04 +7.299539E-03 
 -1.136049E-04 +2.925632E-04 +1.536007E-04 +2.925632E-04 -3.018224E-04 +6.174984E-04 +1.536007E-04 +6.174984E-04 +7.951236E-03 
 +3.430789E-04 -5.344774E-04 -6.284017E-05 -5.344774E-04 +6.326507E-05 +1.910286E-04 -6.284017E-05 +1.910286E-04 +7.405931E-03 
 -3.767412E-05 +2.539242E-04 -1.982488E-04 +2.539242E-04 +7.745015E-05 -5.513016E-04 -1.982488E-04 -5.513016E-04 +7.120422E-03 
 -1.034740E-04 -6.240822E-04 -2.308748E-04 -6.240822E-04 -1.181609E-04 +1.630460E-04 -2.308748E-04 +1.630460E-04 +7.872141E-03 
 -4.090818E-05 +6.413460E-04 +1.178626E-04 +6.413460E-04 -1.004290E-05 +8.585498E-05 +1.178626E-04 +8.585498E-05 +7.560572E-03 
 -1.093021E-04 -4.355253E-04 -9.317914E-05 -4.355253E-04 +2.219331E-04 +1.894966E-04 -9.317914E-05 +1.894966E-04 +7.370586E-03 
 -1.900762E-04 +1.439986E-04 +5.476651E-04 +1.439986E-04 +2.423209E-04 -4.200125E-04 +5.476651E-04 -4.200125E-04 +7.379393E-03 
 -3.521971E-04 -6.257870E-04 -5.829977E-05 -6.257870E-04 +3.440242E-04 +8.888540E-05 -5.829977E-05 +8.888540E-05 +7.757548E-03 
 +9.768643E-05 -7.476407E-04 +2.413755E-04 -7.476407E-04 -8.087107E-04 -3.293368E-04 +2.413755E-04 -3.293368E-04 +8.145734E-03 
 +2.106214E-04 +2.084071E-04 +2.974555E-04 +2.084071E-04 +2.610721E-04 -9.779791E-06 +2.974555E-04 -9.779791E-06 +7.210673E-03 
 +3.150245E-04 +2.680028E-04 +8.383532E-05 +2.680028E-04 +1.193716E-04 +5.771909E-04 +8.383532E-05 +5.771909E-04 +7.210853E-03 
 +2.173409E-04 -7.718490E-05 +3.517878E-04 -7.718490E-05 -1.509674E-05 -7.512242E-04 +3.517878E-04 -7.512242E-04 +7.386222E-03 
 -2.002096E-05 -6.036312E-04 +6.378689E-04 -6.036312E-04 -2.636041E-05 +3.218872E-04 +6.378689E-04 +3.218872E-04 +7.311844E-03 
 -3.784420E-06 -1.617149E-04 +1.060500E-04 -1.617149E-04 +1.321826E-04 +1.597617E-04 +1.060500E-04 +1.597617E-04 +6.998407E-03 
 +1.956961E-04 -1.724787E-04 -2.316982E-04 -1.724787E-04 +2.378340E-04 -2.792236E-04 -2.316982E-04 -2.792236E-04 +7.191645E-03 
 +2.275816E-04 -1.002984E-05 +1.791120E-04 -1.002984E-05 -3.310137E-04 -2.863172E-04 +1.791120E-04 -2.863172E-04 +7.480457E-03 
 -6.622608E-05 -2.716323E-04 +4.647851E-04 -2.716323E-04 -3.415311E-04 -2.305357E-05 +4.647851E-04 -2.305357E-05 +7.514665E-03 
 +9.052851E-05 +4.078461E-05 +6.697997E-04 +4.078461E-05 -1.574732E-04 +4.272790E-04 +6.697997E-04 +4.272790E-04 +7.486700E-03 
 +1.787785E-04 -9.608834E-04 +3.620618E-04 -9.608834E-04 +1.719656E-04 +5.519191E-04 +3.620618E-04 +5.519191E-04 +6.995020E-03 
 +2.190132E-04 +3.162196E-04 -8.477521E-05 +3.162196E-04 +3.916968E-06 -6.042364E-04 -8.477521E-05 -6.042364E-04 +7.534967E-03 
 -1.266898E-04 -1.206122E-03 +1.970968E-04 -1.206122E-03 -1.590821E-04 -2.108253E-04 +1.970968E-04 -2.108253E-04 +8.001674E-03 
 -6.603058E-06 -5.399678E-05 -5.380790E-04 -5.399678E-05 +2.791565E-04 +6.013871E-05 -5.380790E-04 +6.013871E-05 +7.311966E-03 
 +1.783645E-04 +5.285484E-04 +2.884351E-05 +5.285484E-04 -6.203416E-05 -2.280134E-04 +2.884351E-05 -2.280134E-04 +7.797358E-03 
 +6.151826E-05 -1.965783E-04 +4.061776E-04 -1.965783E-04 -7.006594E-04 +1.913935E-04 +4.061776E-04 +1.913935E-04 +7.945353E-03 
 +1.969815E-04 -3.609414E-04 +4.489242E-04 -3.609414E-04 +1.719670E-04 +1.325131E-04 +4.489242E-04 +1.325131E-04 +7.394736E-03 
 +3.711825E-04 +2.430570E-04 -2.085404E-04 +2.430570E-04 +1.152103E-04 -2.421828E-04 -2.085404E-04 -2.421828E-04 +7.231082E-03 
 +2.120731E-04 -6.276107E-04 +3.172219E-04 -6.276107E-04 +2.291378E-04 +5.641105E-04 +3.172219E-04 +5.641105E-04 +7.035098E-03 
 -1.027033E-04 +3.180148E-04 +5.594343E-04 +3.180148E-04 -1.395049E-04 -5.747724E-04 +5.594343E-04 -5.747724E-04 +7.676297E-03 
 -3.017299E-04 -5.423196E-04 -1.479696E-04 -5.423196E-04 +3.279755E-04 -5.747657E-05 -1.479696E-04 -5.747657E-05 +7.639043E-03 
 -1.385428E-05 +6.574358E-04 -2.047326E-04 +6.574358E-04 -1.177612E-04 -1.339880E-04 -2.047326E-04 -1.339880E-04 +7.221988E-03 
 +3.535654E-04 +2.940010E-04 -5.223688E-04 +2.940010E-04 -2.766169E-06 -7.164674E-04 -5.223688E-04 -7.164674E-04 +7.331063E-03 
 +5.685738E-04 +5.124445E-04 +6.871646E-04 +5.124445E-04 +7.284321E-05 +3.327009E-04 +6.871646E-04 +3.327009E-04 +6.817903E-03 
 +2.127958E-04 -1.905557E-04 +3.552526E-04 -1.905557E-04 +1.961094E-04 -2.068835E-04 +3.552526E-04 -2.068835E-04 +7.150936E-03 
 -1.701478E-04 -8.542729E-04 +1.997768E-04 -8.542729E-04 -5.751456E-05 +1.867478E-04 +1.997768E-04 +1.867478E-04 +7.733835E-03 
 -8.281455E-05 +5.011645E-05 +3.806797E-04 +5.011645E-05 +1.283356E-05 +1.910753E-04 +3.806797E-04 +1.910753E-04 +7.513375E-03 
 +1.684406E-04 -9.416190E-04 -5.620534E-04 -9.416190E-04 -1.636161E-04 -9.123088E-05 -5.620534E-04 -9.123088E-05 +7.440002E-03 
 +2.182186E-05 +3.118815E-04 -2.870692E-04 +3.118815E-04 +2.660361E-04 -1.034891E-04 -2.870692E-04 -1.034891E-04 +7.326252E-03 
 -1.764078E-04 -9.391757E-04 +3.279663E-05 -9.391757E-04 -2.083106E-04 +4.404012E-04 +3.279663E-05 +4.404012E-04 +7.581152E-03 
 -3.147278E-04 +4.460152E-04 -6.966083E-05 +4.460152E-04 -4.084666E-05 +2.133303E-04 -6.966083E-05 +2.133303E-04 +8.049830E-03 
 +8.950444E-05 -1.248789E-03 +1.525524E-04 -1.248789E-03 -2.731128E-04 +3.041687E-04 +1.525524E-04 +3.041687E-04 +8.173971E-03 
 +1.916848E-04 +4.979422E-04 +3.792392E-04 +4.979422E-04 +7.594695E-05 +2.231133E-04 +3.792392E-04 +2.231133E-04 +7.199107E-03 
 -6.333162E-05 -3.556706E-04 -2.882445E-04 -3.556706E-04 +9.245703E-05 +3.705025E-04 -2.882445E-04 +3.705025E-04 +6.894257E-03 
 +1.962757E-04 +3.158204E-04 +3.709760E-04 +3.158204E-04 -3.485291E-04 -7.252596E-06 +3.709760E-04 -7.252596E-06 +7.538980E-03 
 +1.031222E-04 +1.299437E-04 +2.749591E-04 +1.299437E-04 +2.977193E-04 -8.025462E-04 +2.749591E-04 -8.025462E-04 +7.162182E-03 
 +2.999564E-04 -8.536757E-04 +3.440046E-04 -8.536757E-04 -5.994347E-04 +3.918061E-06 +3.440046E-04 +3.918061E-06 +7.739495E-03 
 +1.033633E-04 -6.088355E-04 +3.414363E-04 -6.088355E-04 +3.895945E-05 -1.385128E-04 +3.414363E-04 -1.385128E-04 +7.550783E-03 
 +1.133250E-04 -6.393827E-05 +2.364217E-04 -6.393827E-05 +3.480120E-04 +1.228332E-04 +2.364217E-04 +1.228332E-04 +6.990890E-03 
 +3.566353E-04 +4.363295E-04 +5.326393E-04 +4.363295E-04 -5.768119E-06 +5.780830E-04 +5.326393E-04 +5.780830E-04 +7.516446E-03 
 +1.309348E-05 -3.458883E-04 -2.458099E-05 -3.458883E-04 +1.198647E-04 +6.706557E-04 -2.458099E-05 +6.706557E-04 +6.957147E-03 
 +7.755218E-05 -1.497417E-04 +5.960152E-04 -1.497417E-04 +1.990223E-05 +7.449732E-04 +5.960152E-04 +7.449732E-04 +6.904994E-03 
 +2.625105E-07 -7.480437E-04 +1.301305E-04 -7.480437E-04 +1.586570E-04 +5.663234E-05 +1.301305E-04 +5.663234E-05 +7.254605E-03 
 +4.430787E-04 +9.750567E-06 +4.957500E-04 +9.750567E-06 +3.159827E-05 -2.215054E-04 +4.957500E-04 -2.215054E-04 +7.242640E-03 
 +3.210238E-04 +1.793658E-04 +1.366862E-04 +1.793658E-04 +4.649964E-04 -1.903196E-04 +1.366862E-04 -1.903196E-04 +6.803691E-03 
 +4.777547E-04 +2.622985E-04 +1.014608E-04 +2.622985E-04 -1.696421E-04 -1.924531E-04 +1.014608E-04 -1.924531E-04 +7.297719E-03 
 -4.799030E-05 -4.247585E-04 -1.490645E-04 -4.247585E-04 -1.836518E-04 -2.555029E-04 -1.490645E-04 -2.555029E-04 +7.522142E-03 
 +1.225008E-04 +2.592390E-04 -7.837217E-04 +2.592390E-04 +3.346752E-04 -1.303393E-04 -7.837217E-04 -1.303393E-04 +7.444653E-03 
 +4.884682E-04 +4.451872E-04 -1.135497E-04 +4.451872E-04 -6.531516E-04 -2.836821E-05 -1.135497E-04 -2.836821E-05 +7.478825E-03 
 +2.822324E-04 -5.709638E-04 -3.436769E-04 -5.709638E-04 +8.939878E-05 +4.015301E-04 -3.436769E-04 +4.015301E-04 +7.157851E-03 
 +2.379298E-04 -5.920284E-04 -4.643399E-04 -5.920284E-04 +3.836685E-06 +5.672629E-04 -4.643399E-04 +5.672629E-04 +7.365690E-03 
 +2.254565E-04 -8.694872E-05 -2.283473E-04 -8.694872E-05 +2.327575E-06 -6.325230E-04 -2.283473E-04 -6.325230E-04 +7.297271E-03 
 +5.299788E-04 -3.007568E-04 -2.467524E-04 -3.007568E-04 +1.792719E-04 +6.789862E-05 -2.467524E-04 +6.789862E-05 +6.871949E-03 
 +4.173417E-04 -3.989575E-04 +5.800222E-05 -3.989575E-04 +1.679082E-04 +3.331817E-04 +5.800222E-05 +3.331817E-04 +7.083134E-03 
 +2.834610E-04 -2.122502E-04 -4.719822E-04 -2.122502E-04 +1.417917E-05 -1.328266E-04 -4.719822E-04 -1.328266E-04 +7.302012E-03 
 +3.053689E-04 +3.386698E-04 -8.105516E-04 +3.386698E-04 -1.160691E-04 +4.868961E-04 -8.105516E-04 +4.868961E-04 +6.981882E-03 
 +6.038378E-04 +4.260890E-04 +3.854572E-05 +4.260890E-04 -1.506957E-04 +1.487684E-04 +3.854572E-05 +1.487684E-04 +7.419585E-03 
 +2.155102E-04 +9.121057E-04 +2.675335E-04 +9.121057E-04 +6.829117E-05 +2.198214E-04 +2.675335E-04 +2.198214E-04 +7.085983E-03 
 -2.328259E-04 -6.321147E-04 +2.695701E-04 -6.321147E-04 +1.263747E-04 +2.034265E-06 +2.695701E-04 +2.034265E-06 +7.373820E-03 
 +1.036124E-04 +5.941783E-04 +7.339372E-05 +5.941783E-04 -3.248859E-04 +8.990772E-05 +7.339372E-05 +8.990772E-05 +7.769567E-03 
 -5.578129E-06 +2.624115E-04 +5.808096E-04 +2.624115E-04 +2.408185E-04 -8.788783E-05 +5.808096E-04 -8.788783E-05 +7.315279E-03 
 +8.806820E-05 +5.078659E-04 -6.594454E-05 +5.078659E-04 -1.417981E-04 -1.462778E-05 -6.594454E-05 -1.462778E-05 +7.567169E-03 
 -4.254761E-04 +8.274620E-04 -6.019642E-04 +8.274620E-04 +2.898961E-04 +2.336198E-04 -6.019642E-04 +2.336198E-04 +7.883033E-03 
 +8.572381E-05 -3.879797E-04 +2.605368E-04 -3.879797E-04 -2.725727E-04 +5.811218E-05 +2.605368E-04 +5.811218E-05 +7.798804E-03 
 -3.300999E-05 +2.401081E-04 +1.903943E-04 +2.401081E-04 +2.821816E-05 -1.603002E-04 +1.903943E-04 -1.603002E-04 +7.357616E-03 
 -2.493898E-05 -3.842060E-04 -5.878404E-04 -3.842060E-04 -1.415285E-04 -3.073919E-04 -5.878404E-04 -3.073919E-04 +7.657803E-03 
 -8.886295E-05 +2.288601E-04 -3.821845E-04 +2.288601E-04 -2.491845E-05 +2.312358E-04 -3.821845E-04 +2.312358E-04 +7.273745E-03 
 -3.022276E-04 +1.784080E-04 +3.834690E-04 +1.784080E-04 +1.862980E-04 +7.329560E-04 +3.834690E-04 +7.329560E-04 +7.249455E-03 
 +1.934837E-04 -1.383350E-04 +5.233653E-04 -1.383350E-04 -1.584400E-04 -1.753407E-04 +5.233653E-04 -1.753407E-04 +7.761422E-03 
 -2.007895E-04 +8.892087E-04 +9.474423E-05 +8.892087E-04 -3.181387E-04 -9.462619E-05 +9.474423E-05 -9.462619E-05 +7.725208E-03 
 -6.728480E-04 -5.498882E-04 +2.592137E-04 -5.498882E-04 +3.510828E-04 -2.554725E-04 +2.592137E-04 -2.554725E-04 +8.086057E-03 
 +3.385817E-05 -6.118159E-05 -6.987236E-05 -6.118159E-05 -5.160264E-04 +4.191580E-04 -6.987236E-05 +4.191580E-04 +7.918069E-03 
 -3.193338E-04 -1.980601E-04 -7.497510E-04 -1.980601E-04 +3.984816E-04 +3.733285E-04 -7.497510E-04 +3.733285E-04 +7.674917E-03 
 -4.223421E-04 -3.996906E-04 -3.240421E-04 -3.996906E-04 +5.241348E-05 -4.003893E-04 -3.240421E-04 -4.003893E-04 +7.470672E-03 
 -3.098607E-05 -3.584490E-04 -3.962050E-05 -3.584490E-04 +4.797510E-04 +9.433016E-05 -3.962050E-05 +9.433016E-05 +7.100170E-03 
 -3.190833E-05 -2.979589E-04 +2.403967E-04 -2.979589E-04 -2.622146E-04 +4.366278E-04 +2.403967E-04 +4.366278E-04 +7.504529E-03 
 -1.779502E-05 -6.499999E-04 -1.134617E-04 -6.499999E-04 -8.911787E-05 +1.952693E-04 -1.134617E-04 +1.952693E-04 +7.878522E-03 
 +1.975863E-04 +3.781409E-04 -9.476220E-04 +3.781409E-04 -7.235658E-05 -1.978104E-04 -9.476220E-04 -1.978104E-04 +7.440723E-03 
 -5.654387E-05 -1.194768E-03 +4.965354E-05 -1.194768E-03 +3.591867E-05 +3.560713E-04 +4.965354E-05 +3.560713E-04 +7.664274E-03 
 -1.392453E-04 +2.590472E-04 +1.787564E-04 +2.590472E-04 +2.360658E-04 -1.617256E-04 +1.787564E-04 -1.617256E-04 +7.402229E-03 
 +4.340516E-04 +6.724783E-04 -2.938871E-04 +6.724783E-04 -5.691654E-04 -2.251401E-04 -2.938871E-04 -2.251401E-04 +7.532757E-03 
 -5.761680E-05 +5.837592E-04 -3.992237E-04 +5.837592E-04 -8.628788E-05 -6.689668E-06 -3.992237E-04 -6.689668E-06 +7.364129E-03 
 -1.015602E-04 +1.155515E-04 +2.813959E-05 +1.155515E-04 +3.022185E-04 +8.018137E-04 +2.813959E-05 +8.018137E-04 +7.058013E-03 
 -4.865451E-05 +6.899314E-04 -2.447978E-04 +6.899314E-04 -3.492236E-05 -2.742675E-04 -2.447978E-04 -2.742675E-04 +7.382039E-03 
 +2.216658E-05 -4.130547E-04 +1.108048E-04 -4.130547E-04 +2.026741E-04 -9.475081E-05 +1.108048E-04 -9.475081E-05 +7.265685E-03 
 -3.224991E-04 +1.394773E-04 +2.741418E-05 +1.394773E-04 +2.486371E-04 -4.846111E-04 +2.741418E-05 -4.846111E-04 +7.605859E-03 
 +3.083345E-04 +4.570350E-04 -4.877337E-04 +4.570350E-04 -4.684326E-04 +1.998014E-04 -4.877337E-04 +1.998014E-04 +7.838493E-03 
 -6.227171E-04 +1.798871E-04 +7.817054E-05 +1.798871E-04 +6.808298E-05 -2.609338E-04 +7.817054E-05 -2.609338E-04 +7.970176E-03 
 -7.298400E-04 -2.845130E-05 -7.650560E-05 -2.845130E-05 +2.098563E-05 -1.574836E-04 -7.650560E-05 -1.574836E-04 +7.718878E-03 
 +4.572081E-04 +6.344340E-05 -4.196133E-04 +6.344340E-05 +6.777765E-06 -1.578804E-04 -4.196133E-04 -1.578804E-04 +7.201311E-03 
 +8.740069E-05 -5.402334E-04 -1.352484E-04 -5.402334E-04 +9.575563E-05 +4.390602E-04 -1.352484E-04 +4.390602E-04 +7.177554E-03 
 -2.757285E-05 -2.269029E-04 +3.418550E-04 -2.269029E-04 -7.210998E-05 +1.160629E-03 +3.418550E-04 +1.160629E-03 +7.370394E-03 
 -3.056762E-04 -6.884361E-04 +1.752282E-04 -6.884361E-04 -1.188454E-04 +1.574701E-04 +1.752282E-04 +1.574701E-04 +7.591696E-03 
 -7.161007E-08 +2.529470E-04 -2.826472E-04 +2.529470E-04 +6.187020E-04 +1.746529E-04 -2.826472E-04 +1.746529E-04 +7.314327E-03 
 +1.343929E-04 +4.104836E-04 -5.990499E-04 +4.104836E-04 -6.232167E-04 -1.816964E-06 -5.990499E-04 -1.816964E-06 +7.640101E-03 
 -1.666442E-04 +1.653632E-04 -2.939523E-04 +1.653632E-04 +1.632569E-04 -5.652697E-04 -2.939523E-04 -5.652697E-04 +7.856149E-03 
 -5.224589E-05 -5.529499E-04 +6.816195E-05 -5.529499E-04 +1.322390E-04 -3.144622E-04 +6.816195E-05 -3.144622E-04 +7.539070E-03 
 +4.010542E-04 -5.381968E-04 +2.587151E-04 -5.381968E-04 +2.258589E-04 +1.984255E-05 +2.587151E-04 +1.984255E-05 +7.252126E-03 
 +1.270798E-04 +1.460013E-04 -4.249357E-04 +1.460013E-04 -1.892275E-04 +3.524167E-04 -4.249357E-04 +3.524167E-04 +7.165457E-03 
 -9.631365E-05 -4.991678E-04 -2.534989E-04 -4.991678E-04 +1.286427E-04 +5.987677E-04 -2.534989E-04 +5.987677E-04 +7.350888E-03 
 -1.420054E-04 -5.876825E-04 +3.350774E-04 -5.876825E-04 -2.181350E-04 -3.293958E-04 +3.350774E-04 -3.293958E-04 +7.860554E-03 
 +1.333029E-05 -2.263991E-04 -1.464826E-04 -2.263991E-04 -1.041668E-04 +7.532774E-05 -1.464826E-04 +7.532774E-05 +7.377438E-03 
 -3.848996E-04 -1.028934E-03 +2.452262E-04 -1.028934E-03 -1.312925E-04 -1.080680E-04 +2.452262E-04 -1.080680E-04 +7.517300E-03 
 +1.795034E-04 -6.301399E-05 -2.268159E-04 -6.301399E-05 -1.214740E-04 +7.435461E-04 -2.268159E-04 +7.435461E-04 +7.592238E-03 
 +8.058726E-04 -1.935020E-04 +3.689107E-04 -1.935020E-04 +8.962211E-05 -1.017732E-04 +3.689107E-04 -1.017732E-04 +7.030449E-03 
 +4.161405E-05 +2.727859E-04 +6.384603E-04 +2.727859E-04 +2.479667E-04 -1.725753E-04 +6.384603E-04 -1.725753E-04 +7.160924E-03 
 -1.728619E-05 +2.496902E-04 +2.855446E-05 +2.496902E-04 +4.497900E-04 +4.979792E-04 +2.855446E-05 +4.979792E-04 +7.191425E-03 
 +3.941460E-04 -4.023772E-05 -3.771366E-04 -4.023772E-05 -8.412374E-05 +2.852736E-04 -3.771366E-04 +2.852736E-04 +7.691516E-03 
 -1.726559E-04 +9.048750E-06 -1.835541E-04 +9.048750E-06 -5.421107E-04 +5.176983E-04 -1.835541E-04 +5.176983E-04 +8.004915E-03 
 -4.452273E-04 -1.373342E-03 +2.347826E-04 -1.373342E-03 +1.256064E-04 +1.430223E-04 +2.347826E-04 +1.430223E-04 +7.968659E-03 
 -3.198616E-04 +5.525451E-04 +4.041663E-04 +5.525451E-04 +1.211337E-04 -3.571711E-04 +4.041663E-04 -3.571711E-04 +7.674564E-03 
 -5.760642E-04 -9.313188E-05 +2.676408E-04 -9.313188E-05 +1.101778E-04 -2.127490E-04 +2.676408E-04 -2.127490E-04 +7.643104E-03 
 +2.588949E-04 +3.307401E-04 -9.671950E-04 +3.307401E-04 -2.043276E-04 -3.343855E-04 -9.671950E-04 -3.343855E-04 +7.441825E-03 
 +1.591051E-04 -9.260728E-04 -5.302430E-04 -9.260728E-04 +2.542252E-04 -1.469390E-04 -5.302430E-04 -1.469390E-04 +7.106910E-03 
 +3.475658E-04 +2.843331E-04 +1.119040E-04 +2.843331E-04 +3.759947E-04 -5.062310E-04 +1.119040E-04 -5.062310E-04 +7.262797E-03 
 +6.080766E-04 +8.840354E-04 -7.848475E-04 +8.840354E-04 -5.890343E-04 +4.295034E-05 -7.848475E-04 +4.295034E-05 +7.423629E-03 
 +2.472791E-04 +4.337051E-05 -3.387293E-04 +4.337051E-05 -1.572808E-04 -2.519311E-04 -3.387293E-04 -2.519311E-04 +7.549728E-03 
 +3.313799E-04 +2.763206E-04 -3.725340E-05 +2.763206E-04 +1.693225E-04 +2.650240E-04 -3.725340E-05 +2.650240E-04 +7.008707E-03 
 +1.397929E-04 +1.278429E-05 +3.866295E-04 +1.278429E-05 +5.064288E-04 -3.745150E-04 +3.866295E-04 -3.745150E-04 +6.965035E-03 
 +6.768417E-05 -6.618705E-04 +8.837500E-05 -6.618705E-04 -3.674829E-04 -3.854376E-04 +8.837500E-05 -3.854376E-04 +7.804902E-03 
 -6.961131E-05 +5.951626E-04 -5.899351E-04 +5.951626E-04 +1.644867E-04 -2.760395E-04 -5.899351E-04 -2.760395E-04 +7.590482E-03 
 +1.600623E-04 -6.599269E-04 +4.918759E-04 -6.599269E-04 +3.146704E-04 +3.720708E-04 +4.918759E-04 +3.720708E-04 +7.121047E-03 
 +3.773292E-04 -8.357502E-04 +5.064990E-04 -8.357502E-04 -4.739708E-04 -3.170744E-04 +5.064990E-04 -3.170744E-04 +7.704278E-03 
 +2.831697E-06 -2.500886E-04 +2.479607E-04 -2.500886E-04 -4.402048E-04 -1.640872E-04 +2.479607E-04 -1.640872E-04 +7.595122E-03 
 -2.682556E-04 +1.420308E-04 +7.560294E-04 +1.420308E-04 +6.531350E-05 -5.539757E-04 +7.560294E-04 -5.539757E-04 +7.244403E-03 
 -1.324954E-04 -2.540763E-04 -2.010279E-04 -2.540763E-04 +2.397178E-04 +3.050006E-04 -2.010279E-04 +3.050006E-04 +7.291157E-03 
 +4.115275E-04 -2.480368E-04 +5.949191E-05 -2.480368E-04 -3.945790E-05 -2.242910E-04 +5.949191E-05 -2.242910E-04 +7.290743E-03 
 +1.554405E-04 -7.472772E-05 +2.704149E-04 -7.472772E-05 +1.948795E-04 +4.655205E-05 +2.704149E-04 +4.655205E-05 +7.432145E-03 
 +1.270632E-04 -3.405300E-04 -4.420256E-04 -3.405300E-04 +2.997331E-04 +2.457493E-04 -4.420256E-04 +2.457493E-04 +7.286558E-03 
 +1.329365E-04 -8.861765E-04 +2.026149E-05 -8.861765E-04 -2.475824E-04 +4.255251E-04 +2.026149E-05 +4.255251E-04 +7.320987E-03 
 +1.512460E-04 +1.233463E-04 +6.518632E-04 +1.233463E-04 +6.327628E-05 +2.029827E-04 +6.518632E-04 +2.029827E-04 +7.112646E-03 
 +6.723710E-05 -8.124717E-04 +4.823432E-04 -8.124717E-04 -4.266566E-04 +2.567604E-04 +4.823432E-04 +2.567604E-04 +7.506598E-03 
 -3.364638E-04 +1.382411E-03 -2.122375E-04 +1.382411E-03 -2.399014E-05 +2.678883E-04 -2.122375E-04 +2.678883E-04 +7.988754E-03 
 -3.596029E-04 +5.345308E-04 -2.657492E-04 +5.345308E-04 +2.033200E-04 +3.600991E-04 -2.657492E-04 +3.600991E-04 +7.798286E-03 
 +3.695678E-04 +7.439198E-04 -3.550393E-04 +7.439198E-04 +1.925359E-04 -3.341252E-04 -3.550393E-04 -3.341252E-04 +7.031106E-03 
 +1.631216E-05 +1.229693E-04 +2.486234E-04 +1.229693E-04 +2.465828E-04 +6.593303E-04 +2.486234E-04 +6.593303E-04 +7.283007E-03 
 +3.883659E-04 +5.575647E-04 +7.491048E-04 +5.575647E-04 -6.391194E-04 -1.220622E-04 +7.491048E-04 -1.220622E-04 +7.587039E-03 
 +3.551050E-04 +6.046830E-04 +1.952251E-04 +6.046830E-04 +3.157311E-04 -1.284104E-04 +1.952251E-04 -1.284104E-04 +7.284098E-03 
 +3.445598E-05 +7.091775E-04 -3.840889E-04 +7.091775E-04 -1.638539E-04 -3.802059E-04 -3.840889E-04 -3.802059E-04 +7.770116E-03 
 +2.477588E-04 -4.769766E-05 -2.732340E-04 -4.769766E-05 -1.359372E-04 +1.483153E-04 -2.732340E-04 +1.483153E-04 +7.793024E-03 
 +7.923901E-05 -2.999853E-04 +2.119832E-04 -2.999853E-04 +1.402232E-04 +2.989692E-04 +2.119832E-04 +2.989692E-04 +7.392352E-03 
 +2.533035E-04 -4.440293E-04 +5.197157E-04 -4.440293E-04 +2.168544E-04 -5.132134E-04 +5.197157E-04 -5.132134E-04 +7.122114E-03 
 +1.698640E-04 -5.427072E-04 +4.362740E-04 -5.427072E-04 +3.659276E-04 -3.086491E-06 +4.362740E-04 -3.086491E-06 +7.180083E-03 
 +8.534064E-05 -5.497906E-04 +4.882871E-04 -5.497906E-04 -3.156970E-04 -2.124402E-04 +4.882871E-04 -2.124402E-04 +7.370515E-03 
 +2.160205E-04 +8.307974E-04 +1.411658E-04 +8.307974E-04 -5.975532E-04 +1.758522E-04 +1.411658E-04 +1.758522E-04 +7.550763E-03 
 -1.975012E-04 +2.274375E-04 -1.799502E-05 +2.274375E-04 +1.276463E-04 +5.043722E-04 -1.799502E-05 +5.043722E-04 +7.620525E-03 
 -6.132317E-04 -6.045333E-04 -2.160384E-04 -6.045333E-04 +5.120765E-05 -5.198142E-05 -2.160384E-04 -5.198142E-05 +7.734683E-03 
 +2.089651E-04 +2.079925E-04 +4.257829E-04 +2.079925E-04 +1.313771E-04 -5.431221E-04 +4.257829E-04 -5.431221E-04 +7.462431E-03 
 -2.784226E-04 -1.066639E-03 +1.563028E-04 -1.066639E-03 -2.616343E-04 +4.046008E-04 +1.563028E-04 +4.046008E-04 +7.832923E-03 
 -2.956013E-04 +3.464814E-04 -1.760990E-04 +3.464814E-04 +2.864453E-04 +1.764840E-04 -1.760990E-04 +1.764840E-04 +7.722781E-03 
 -7.053765E-05 +1.167593E-04 -1.001296E-04 +1.167593E-04 +5.490770E-05 -5.074994E-04 -1.001296E-04 -5.074994E-04 +7.494616E-03 
 -3.696193E-04 +3.145304E-04 -2.682904E-04 +3.145304E-04 -3.966046E-05 -8.889093E-04 -2.682904E-04 -8.889093E-04 +7.601319E-03 
 +9.153273E-05 -6.273042E-04 +7.395143E-05 -6.273042E-04 -3.023391E-04 -2.149645E-04 +7.395143E-05 -2.149645E-04 +7.329828E-03 
 +4.001177E-04 +4.414425E-04 +1.474776E-04 +4.414425E-04 +2.027319E-04 +7.504388E-04 +1.474776E-04 +7.504388E-04 +6.949576E-03 
 -3.638326E-05 -1.240124E-04 -4.684459E-04 -1.240124E-04 +3.969608E-04 +1.401015E-05 -4.684459E-04 +1.401015E-05 +7.112206E-03 
 +6.596264E-05 +5.730652E-04 -1.295937E-04 +5.730652E-04 -3.566980E-04 -3.965070E-04 -1.295937E-04 -3.965070E-04 +7.902320E-03 
 -1.681013E-04 +1.160149E-03 +3.693974E-04 +1.160149E-03 +5.618217E-05 +1.923027E-04 +3.693974E-04 +1.923027E-04 +7.761116E-03 
 +2.489001E-04 -4.391596E-04 -1.704333E-04 -4.391596E-04 -1.296555E-04 -1.896386E-04 -1.704333E-04 -1.896386E-04 +7.579368E-03 
 +4.919752E-05 +1.394487E-03 +3.082302E-04 +1.394487E-03 -1.402030E-04 -8.078793E-05 +3.082302E-04 -8.078793E-05 +7.990588E-03 
 -2.449148E-04 -1.001264E-04 +7.193841E-04 -1.001264E-04 +2.324604E-04 -3.524859E-04 +7.193841E-04 -3.524859E-04 +7.673986E-03 
 +3.359375E-04 -2.231212E-04 -2.941552E-04 -2.231212E-04 -2.756619E-04 +3.845793E-04 -2.941552E-04 +3.845793E-04 +7.341346E-03 
 +2.772608E-04 -1.633429E-04 -1.537257E-04 -1.633429E-04 +2.537358E-04 +4.946158E-04 -1.537257E-04 +4.946158E-04 +7.129250E-03 
 +2.495715E-04 -9.133699E-04 -2.304493E-04 -9.133699E-04 +3.311311E-04 -1.155325E-04 -2.304493E-04 -1.155325E-04 +7.337276E-03 
 +7.135607E-05 -3.481020E-04 -4.469053E-04 -3.481020E-04 -2.279527E-04 +6.285881E-04 -4.469053E-04 +6.285881E-04 +7.435741E-03 
 -1.574135E-04 -2.348424E-04 -2.687825E-04 -2.348424E-04 -7.929276E-05 -3.355082E-05 -2.687825E-04 -3.355082E-05 +7.489033E-03 
 -4.185445E-04 -6.492781E-04 -6.435831E-04 -6.492781E-04 +2.121948E-04 -3.745161E-05 -6.435831E-04 -3.745161E-05 +7.646880E-03 
 +2.301475E-05 -7.085606E-04 -4.818025E-04 -7.085606E-04 -4.505985E-04 +4.651934E-04 -4.818025E-04 +4.651934E-04 +7.633093E-03 
 +2.826695E-04 -2.701013E-05 +2.124832E-04 -2.701013E-05 +1.488945E-04 +4.667869E-04 +2.124832E-04 +4.667869E-04 +7.197733E-03 
 -1.648046E-04 +1.726247E-04 +4.350421E-04 +1.726247E-04 +8.798905E-05 +5.923404E-04 +4.350421E-04 +5.923404E-04 +7.663045E-03 
 +1.761644E-04 -8.082927E-04 -1.513557E-05 -8.082927E-04 -4.317992E-04 -3.266265E-04 -1.513557E-05 -3.266265E-04 +7.641071E-03 
 +1.194013E-04 +7.762808E-04 +4.547451E-04 +7.762808E-04 -2.668320E-04 +1.982697E-04 +4.547451E-04 +1.982697E-04 +7.623655E-03 
 +1.606262E-04 +7.864225E-05 -2.662548E-06 +7.864225E-05 +3.962324E-04 -8.544142E-04 -2.662548E-06 -8.544142E-04 +7.509134E-03 
 -3.923955E-04 -3.141105E-04 -8.939412E-05 -3.141105E-04 +1.466957E-04 +3.822831E-04 -8.939412E-05 +3.822831E-04 +7.365461E-03 
 -3.763708E-04 +9.660783E-04 +3.147068E-04 +9.660783E-04 -2.250288E-04 -4.062915E-05 +3.147068E-04 -4.062915E-05 +7.788193E-03 
 -2.114197E-04 -1.544358E-04 +3.912185E-04 -1.544358E-04 +2.879137E-04 -2.503448E-04 +3.912185E-04 -2.503448E-04 +7.589538E-03 
 +2.921629E-04 +9.071120E-05 +5.346534E-04 +9.071120E-05 +1.502774E-04 -4.168188E-04 +5.346534E-04 -4.168188E-04 +7.270397E-03 
 +5.900741E-04 -3.819777E-04 +5.993730E-04 -3.819777E-04 -9.101091E-05 -1.051165E-04 +5.993730E-04 -1.051165E-04 +7.228944E-03 
 -7.623322E-05 +1.680014E-04 -4.584180E-04 +1.680014E-04 -7.645062E-05 +3.586571E-04 -4.584180E-04 +3.586571E-04 +7.259664E-03 
 +2.255885E-04 +1.182846E-04 +2.735926E-05 +1.182846E-04 -4.592765E-05 +3.202832E-04 +2.735926E-05 +3.202832E-04 +7.027764E-03 
 +2.073738E-04 -2.524732E-04 +4.202916E-04 -2.524732E-04 +1.800652E-05 +3.762163E-04 +4.202916E-04 +3.762163E-04 +7.201490E-03 
 -2.901359E-04 +3.201774E-04 -4.451448E-04 +3.201774E-04 +4.458680E-04 +4.188790E-05 -4.451448E-04 +4.188790E-05 +7.402910E-03 
 +4.387320E-04 -3.803555E-04 -7.998999E-05 -3.803555E-04 -5.875053E-04 +4.913341E-05 -7.998999E-05 +4.913341E-05 +7.420559E-03 
 +2.447925E-05 -3.241872E-04 -2.394017E-04 -3.241872E-04 +3.426140E-04 -3.609353E-05 -2.394017E-04 -3.609353E-05 +7.413896E-03 
 -2.336005E-04 +6.941833E-05 +5.441395E-05 +6.941833E-05 +2.368766E-04 +1.638101E-04 +5.441395E-05 +1.638101E-04 +7.642761E-03 
 +1.936180E-04 +1.132905E-03 +7.808542E-05 +1.132905E-03 -6.042736E-04 -4.019778E-04 +7.808542E-05 -4.019778E-04 +7.922810E-03 
 +7.457298E-05 -6.363310E-04 -1.429345E-04 -6.363310E-04 +1.716290E-04 +3.583491E-05 -1.429345E-04 +3.583491E-05 +7.491332E-03 
 -2.717370E-04 -1.440278E-03 -5.562259E-04 -1.440278E-03 +2.471405E-04 +4.178082E-05 -5.562259E-04 +4.178082E-05 +7.651840E-03 
 -3.656324E-04 -2.447802E-05 -1.141046E-04 -2.447802E-05 +1.333599E-04 -3.382640E-04 -1.141046E-04 -3.382640E-04 +7.547278E-03 
 -2.883562E-05 -9.711591E-04 +1.064782E-04 -9.711591E-04 +1.019274E-04 +5.195393E-04 +1.064782E-04 +5.195393E-04 +7.541780E-03 
 +1.066326E-05 +3.729564E-04 -4.720962E-04 +3.729564E-04 -3.495795E-04 +5.389082E-04 -4.720962E-04 +5.389082E-04 +7.566197E-03 
 +3.932253E-04 -5.266937E-04 -4.352494E-04 -5.266937E-04 -4.202310E-04 +1.572405E-04 -4.352494E-04 +1.572405E-04 +7.708337E-03 
 +1.568835E-04 -1.225755E-04 +3.586508E-06 -1.225755E-04 -1.709632E-06 +3.911457E-04 +3.586508E-06 +3.911457E-04 +7.400846E-03 
 +1.790156E-04 -5.167513E-04 -3.632391E-04 -5.167513E-04 +4.991454E-04 +3.779827E-04 -3.632391E-04 +3.779827E-04 +6.959866E-03 
 +1.851555E-04 +1.122541E-04 +1.037895E-04 +1.122541E-04 -1.035944E-04 +2.470682E-04 +1.037895E-04 +2.470682E-04 +7.260598E-03 
 +2.423328E-04 +3.655029E-04 -3.007262E-04 +3.655029E-04 -4.700228E-05 +1.295569E-04 -3.007262E-04 +1.295569E-04 +7.277413E-03 
 -3.657856E-04 -1.300365E-04 +8.229035E-05 -1.300365E-04 +1.589542E-04 +3.647404E-04 +8.229035E-05 +3.647404E-04 +7.572515E-03 
 -2.505993E-04 +1.913681E-04 -1.049229E-04 +1.913681E-04 +1.540379E-04 +3.306858E-04 -1.049229E-04 +3.306858E-04 +7.613124E-03 
 +1.169776E-04 +4.813604E-04 -1.046104E-03 +4.813604E-04 -2.210854E-04 -8.416274E-05 -1.046104E-03 -8.416274E-05 +7.275845E-03 
 +5.137635E-05 +1.782678E-04 -3.169401E-04 +1.782678E-04 +2.179692E-04 -1.201798E-04 -3.169401E-04 -1.201798E-04 +7.208975E-03 
 +3.962329E-04 +1.892468E-04 -1.896693E-04 +1.892468E-04 -4.572838E-04 -7.116547E-05 -1.896693E-04 -7.116547E-05 +7.550932E-03 
 +4.578275E-04 -2.415374E-04 +3.525118E-04 -2.415374E-04 +4.229913E-04 +4.562645E-05 +3.525118E-04 +4.562645E-05 +7.246666E-03 
 -1.066236E-04 -6.407998E-04 +6.116708E-04 -6.407998E-04 +2.163515E-04 -7.088585E-04 +6.116708E-04 -7.088585E-04 +7.583701E-03 
 +1.763659E-04 +8.634339E-04 +2.619775E-04 +8.634339E-04 -5.879291E-04 -2.055294E-04 +2.619775E-04 -2.055294E-04 +7.914918E-03 
 -2.132383E-05 +3.237476E-04 +1.031467E-04 +3.237476E-04 +8.506297E-05 -3.817231E-04 +1.031467E-04 -3.817231E-04 +7.820953E-03 
 -7.324908E-05 +3.312912E-04 -1.502083E-04 +3.312912E-04 +2.121509E-04 -9.132919E-05 -1.502083E-04 -9.132919E-05 +7.762434E-03 
 -8.196144E-05 -6.802678E-04 +1.676218E-04 -6.802678E-04 -3.373034E-04 -6.432769E-05 +1.676218E-04 -6.432769E-05 +7.458726E-03 
 -3.968065E-04 -7.433934E-04 +1.343851E-04 -7.433934E-04 +2.492715E-04 +3.731844E-04 +1.343851E-04 +3.731844E-04 +7.824019E-03 
 -1.740113E-04 -3.649164E-05 +3.980463E-05 -3.649164E-05 +3.583950E-04 -1.573903E-05 +3.980463E-05 -1.573903E-05 +7.242132E-03 
 -9.091711E-05 +4.525036E-04 -5.290083E-04 +4.525036E-04 +1.517455E-04 +1.545612E-04 -5.290083E-04 +1.545612E-04 +7.230702E-03 
 -3.589079E-04 -1.107983E-03 -1.070845E-04 -1.107983E-03 -4.255426E-05 -3.479884E-04 -1.070845E-04 -3.479884E-04 +7.756521E-03 
 +1.819136E-04 +8.992153E-04 -8.463109E-05 +8.992153E-04 -5.071854E-04 +1.532600E-04 -8.463109E-05 +1.532600E-04 +7.673495E-03 
 +1.234582E-04 -5.313466E-05 -1.788693E-04 -5.313466E-05 -5.888510E-05 -1.280499E-04 -1.788693E-04 -1.280499E-04 +7.316422E-03 
 -1.539534E-04 -1.153654E-03 +4.399888E-04 -1.153654E-03 +5.601401E-04 +2.912836E-05 +4.399888E-04 +2.912836E-05 +7.245250E-03 
 -1.483097E-04 -3.473913E-05 -2.773560E-04 -3.473913E-05 -2.070286E-04 -3.763250E-04 -2.773560E-04 -3.763250E-04 +7.681897E-03 
 -2.875445E-04 +3.201350E-04 -3.265812E-04 +3.201350E-04 +2.125224E-05 -5.834266E-05 -3.265812E-04 -5.834266E-05 +7.337898E-03 
 -4.633395E-05 +5.088162E-04 +3.334224E-04 +5.088162E-04 +1.431567E-04 +3.846469E-04 +3.334224E-04 +3.846469E-04 +6.987854E-03 
 +3.423609E-05 +7.372629E-04 -4.321973E-05 +7.372629E-04 +1.881587E-04 +2.961640E-04 -4.321973E-05 +2.961640E-04 +7.132718E-03 
 -4.892368E-06 -1.887831E-04 -6.341557E-05 -1.887831E-04 -1.158854E-04 -5.167881E-04 -6.341557E-05 -5.167881E-04 +7.326335E-03 
 +1.179755E-04 +8.302163E-04 +2.519778E-04 +8.302163E-04 -3.395194E-04 -3.370149E-04 +2.519778E-04 -3.370149E-04 +7.597364E-03 
 +9.438467E-05 +6.028046E-04 -1.496031E-04 +6.028046E-04 -7.990096E-05 -7.507757E-05 -1.496031E-04 -7.507757E-05 +7.765877E-03 
 -4.692053E-04 -6.725041E-04 +2.412688E-04 -6.725041E-04 +1.233220E-05 -7.658164E-05 +2.412688E-04 -7.658164E-05 +7.504816E-03 
 +2.411042E-04 +3.059043E-04 -4.760872E-05 +3.059043E-04 +1.949827E-04 -1.368499E-04 -4.760872E-05 -1.368499E-04 +7.513568E-03 
 +1.841408E-04 -4.386124E-04 -2.825692E-05 -4.386124E-04 -1.598905E-04 +2.535843E-04 -2.825692E-05 +2.535843E-04 +7.351168E-03 
 -2.979679E-04 +4.499142E-04 +1.956323E-04 +4.499142E-04 +1.968983E-04 -2.970310E-04 +1.956323E-04 -2.970310E-04 +7.692994E-03 
 +6.983631E-05 +1.128423E-04 +2.610061E-04 +1.128423E-04 -2.562920E-04 +5.017894E-04 +2.610061E-04 +5.017894E-04 +7.895824E-03 
 -2.837366E-04 -3.435178E-04 +4.046395E-04 -3.435178E-04 +1.751247E-04 +1.849495E-04 +4.046395E-04 +1.849495E-04 +7.554132E-03 
 -4.261030E-04 -6.496164E-04 +1.401892E-04 -6.496164E-04 +3.492727E-05 +2.662977E-04 +1.401892E-04 +2.662977E-04 +7.785367E-03 
 -3.923568E-04 +2.847218E-04 +4.219198E-04 +2.847218E-04 +1.770564E-04 +2.307524E-04 +4.219198E-04 +2.307524E-04 +7.515470E-03 
 -1.511168E-04 +3.697257E-04 -1.654591E-04 +3.697257E-04 +5.489549E-04 -1.438172E-04 -1.654591E-04 -1.438172E-04 +7.810283E-03 
 +2.476610E-04 +6.242204E-04 +3.835973E-05 +6.242204E-04 -6.504878E-04 -1.011231E-04 +3.835973E-05 -1.011231E-04 +8.084810E-03 
 -2.361016E-04 -2.278088E-04 +1.157588E-04 -2.278088E-04 +2.668670E-05 -6.865732E-04 +1.157588E-04 -6.865732E-04 +7.514307E-03 
 +1.542076E-04 +7.975935E-05 -7.093858E-04 +7.975935E-05 -4.113194E-04 -1.064603E-04 -7.093858E-04 -1.064603E-04 +7.390686E-03 
 -2.691473E-05 +4.277760E-04 -1.623220E-04 +4.277760E-04 +3.453970E-04 +3.768123E-04 -1.623220E-04 +3.768123E-04 +7.212263E-03 
 +5.640876E-04 -4.668161E-04 -1.363699E-04 -4.668161E-04 +1.024569E-04 -9.924970E-05 -1.363699E-04 -9.924970E-05 +7.194658E-03 
 +3.838616E-04 +4.372454E-05 -6.556459E-05 +4.372454E-05 -3.168687E-04 +2.672864E-05 -6.556459E-05 +2.672864E-05 +7.123627E-03 
 -4.902603E-04 +2.874800E-04 +2.849178E-05 +2.874800E-04 +8.959035E-05 -4.078776E-04 +2.849178E-05 -4.078776E-04 +7.592967E-03 
 -1.673957E-04 +9.483582E-04 -1.140791E-04 +9.483582E-04 +5.026445E-06 -7.238064E-04 -1.140791E-04 -7.238064E-04 +7.701361E-03 
 -7.484870E-05 +7.615623E-04 +5.648342E-04 +7.615623E-04 +3.234973E-04 +1.031621E-04 +5.648342E-04 +1.031621E-04 +7.543602E-03 
 +1.122425E-04 -3.237143E-04 +1.896145E-04 -3.237143E-04 -2.153918E-04 -3.020671E-04 +1.896145E-04 -3.020671E-04 +7.708262E-03 
 +1.146864E-04 -4.937189E-05 +1.474344E-04 -4.937189E-05 -3.534663E-04 +4.191387E-05 +1.474344E-04 +4.191387E-05 +7.933359E-03 
 -3.337609E-04 -2.197951E-04 +3.613451E-04 -2.197951E-04 +7.894985E-06 -2.736913E-04 +3.613451E-04 -2.736913E-04 +7.808419E-03 
 -2.918491E-04 +6.808935E-04 +6.215399E-05 +6.808935E-04 +1.705724E-04 +2.213634E-04 +6.215399E-05 +2.213634E-04 +7.736014E-03 
 -5.929309E-05 -2.748009E-04 +5.856434E-04 -2.748009E-04 +9.322842E-05 -2.316749E-04 +5.856434E-04 -2.316749E-04 +7.757131E-03 
 -1.345785E-04 +1.585904E-03 -3.271936E-05 +1.585904E-03 -1.198790E-04 +3.513874E-04 -3.271936E-05 +3.513874E-04 +7.889467E-03 
 +2.119118E-04 -8.379055E-05 -5.720777E-04 -8.379055E-05 +1.476445E-04 -2.013051E-04 -5.720777E-04 -2.013051E-04 +7.175034E-03 
 +5.126187E-04 +3.025606E-04 -4.890324E-04 +3.025606E-04 -9.365330E-05 -2.574285E-04 -4.890324E-04 -2.574285E-04 +6.974779E-03 
 +3.413655E-04 -2.045087E-04 -2.730648E-04 -2.045087E-04 -1.786390E-04 -5.893159E-04 -2.730648E-04 -5.893159E-04 +7.467811E-03 
 +5.359738E-05 +3.749305E-04 -2.722935E-04 +3.749305E-04 +1.202020E-04 -3.507264E-04 -2.722935E-04 -3.507264E-04 +7.064818E-03 
 -1.424233E-04 +6.887763E-04 -2.387630E-04 +6.887763E-04 +2.295376E-04 -7.434282E-04 -2.387630E-04 -7.434282E-04 +7.141760E-03 
 -3.259244E-05 -8.913591E-04 +5.869625E-04 -8.913591E-04 +2.306440E-04 -5.757760E-04 +5.869625E-04 -5.757760E-04 +7.308012E-03 
 +4.870051E-04 +1.942325E-04 +4.544245E-04 +1.942325E-04 -2.748953E-04 -2.089150E-04 +4.544245E-04 -2.089150E-04 +7.412419E-03 
 +1.437912E-04 -1.282519E-04 -3.732348E-04 -1.282519E-04 -3.024569E-04 -2.933248E-04 -3.732348E-04 -2.933248E-04 +7.837647E-03 
 +3.369425E-06 -2.092946E-04 -5.290431E-04 -2.092946E-04 -1.032808E-05 +1.774918E-04 -5.290431E-04 +1.774918E-04 +7.679021E-03 
 +1.325752E-04 +3.696987E-05 -2.904558E-04 +3.696987E-05 -3.233281E-04 +3.529549E-04 -2.904558E-04 +3.529549E-04 +7.383691E-03 
 +1.581133E-04 -3.256134E-05 -1.184098E-04 -3.256134E-05 -2.086800E-04 -5.928959E-04 -1.184098E-04 -5.928959E-04 +7.456541E-03 
 +5.745708E-05 +2.598567E-05 -1.613271E-05 +2.598567E-05 -2.297507E-04 -1.011438E-04 -1.613271E-05 -1.011438E-04 +7.505646E-03 
 +2.250156E-05 -7.415238E-04 +8.228527E-05 -7.415238E-04 +1.326103E-04 -1.019972E-04 +8.228527E-05 -1.019972E-04 +7.318384E-03 
 +5.309928E-05 -6.966299E-04 -1.553224E-04 -6.966299E-04 -3.949550E-04 -1.865208E-04 -1.553224E-04 -1.865208E-04 +7.128359E-03 
 -9.752955E-06 +3.414898E-05 -3.746199E-04 +3.414898E-05 +6.852555E-04 +1.120236E-04 -3.746199E-04 +1.120236E-04 +7.158317E-03 
 -2.720893E-05 -6.296712E-04 +2.094284E-04 -6.296712E-04 -2.231704E-04 +5.964500E-05 +2.094284E-04 +5.964500E-05 +7.357247E-03 
 +2.972069E-04 +8.292298E-04 +1.670448E-04 +8.292298E-04 +4.113411E-05 +5.072178E-04 +1.670448E-04 +5.072178E-04 +7.568258E-03 
 +1.597653E-04 +4.669963E-04 -3.138688E-04 +4.669963E-04 -4.353250E-04 -2.721778E-04 -3.138688E-04 -2.721778E-04 +7.430835E-03 
 +2.576245E-04 +8.995859E-04 -4.457156E-04 +8.995859E-04 +2.299579E-04 -4.375385E-04 -4.457156E-04 -4.375385E-04 +7.165246E-03 
 +5.549860E-05 +5.455561E-04 -1.198815E-04 +5.455561E-04 +2.036391E-04 -1.538196E-04 -1.198815E-04 -1.538196E-04 +7.139977E-03 
 +2.795822E-04 +3.607192E-04 -1.311300E-04 +3.607192E-04 +9.136720E-05 +2.097353E-04 -1.311300E-04 +2.097353E-04 +6.884974E-03 
 -1.920091E-04 +2.981937E-04 -6.610943E-04 +2.981937E-04 -7.979040E-05 -3.855907E-05 -6.610943E-04 -3.855907E-05 +7.719412E-03 
 -2.817943E-04 +1.083589E-03 +1.763795E-04 +1.083589E-03 -6.002444E-04 +2.622626E-05 +1.763795E-04 +2.622626E-05 +8.088750E-03 
 +8.337597E-04 +4.973914E-04 +2.766480E-04 +4.973914E-04 +2.903446E-04 -4.599329E-04 +2.766480E-04 -4.599329E-04 +7.406747E-03 
 +7.635140E-06 +5.809415E-04 -1.473324E-04 +5.809415E-04 -1.146666E-04 +1.141889E-04 -1.473324E-04 +1.141889E-04 +7.610213E-03 
 -6.233355E-04 +3.478828E-04 +4.541851E-04 +3.478828E-04 +3.564705E-04 +2.177143E-04 +4.541851E-04 +2.177143E-04 +7.730489E-03 
 -1.040361E-04 -7.244450E-04 +2.917873E-04 -7.244450E-04 +1.501386E-04 +2.461870E-04 +2.917873E-04 +2.461870E-04 +7.582759E-03 
 +1.346536E-04 -5.565738E-04 +1.275171E-04 -5.565738E-04 -1.478000E-04 +6.309809E-05 +1.275171E-04 +6.309809E-05 +7.453681E-03 
 -8.621955E-05 +1.060308E-04 +3.122843E-04 +1.060308E-04 +1.171217E-04 +5.250386E-05 +3.122843E-04 +5.250386E-05 +7.386737E-03 
 -6.677496E-05 +5.956244E-05 -1.263065E-04 +5.956244E-05 +4.602695E-04 +4.724325E-04 -1.263065E-04 +4.724325E-04 +7.138249E-03 
 +2.983985E-04 -8.138394E-04 -1.515074E-04 -8.138394E-04 -2.178650E-04 -1.600734E-04 -1.515074E-04 -1.600734E-04 +7.765170E-03 
 +3.112860E-04 +7.057116E-04 +1.138280E-04 +7.057116E-04 -3.370745E-04 +1.415357E-04 +1.138280E-04 +1.415357E-04 +8.019402E-03 
 -4.197149E-04 -7.801134E-04 -8.613139E-05 -7.801134E-04 -5.444333E-05 +1.141363E-04 -8.613139E-05 +1.141363E-04 +7.771346E-03 
 -1.452966E-04 -3.271522E-04 -3.884443E-04 -3.271522E-04 +1.272797E-04 +2.884011E-04 -3.884443E-04 +2.884011E-04 +7.598514E-03 
 -3.928222E-04 -1.608260E-03 +3.058200E-05 -1.608260E-03 -5.035095E-04 -1.602703E-04 +3.058200E-05 -1.602703E-04 +7.984292E-03 
 -1.222011E-04 -7.662195E-04 -1.438943E-04 -7.662195E-04 +2.478329E-04 +1.497699E-04 -1.438943E-04 +1.497699E-04 +7.812005E-03 
 -9.605884E-05 +2.402809E-04 -2.158079E-04 +2.402809E-04 -3.769105E-05 -4.495693E-04 -2.158079E-04 -4.495693E-04 +7.382400E-03 
 +2.507188E-04 +4.261397E-04 +3.300947E-05 +4.261397E-04 +3.335098E-04 -3.082028E-04 +3.300947E-05 -3.082028E-04 +6.987062E-03 
 +1.227508E-04 +1.077116E-03 +1.879669E-04 +1.077116E-03 -2.490300E-04 +2.372119E-04 +1.879669E-04 +2.372119E-04 +7.679310E-03 
 +6.393756E-05 +9.857358E-05 +3.095825E-04 +9.857358E-05 +1.599203E-05 -4.048609E-06 +3.095825E-04 -4.048609E-06 +7.816498E-03 
 +1.784105E-04 +2.038437E-04 +2.062941E-04 +2.038437E-04 +3.829617E-04 +2.696299E-04 +2.062941E-04 +2.696299E-04 +7.217668E-03 
 +4.807732E-04 -1.603824E-04 +4.527445E-05 -1.603824E-04 -3.192103E-04 -1.807800E-04 +4.527445E-05 -1.807800E-04 +7.417675E-03 
 -1.503887E-04 -1.622222E-04 +3.931708E-04 -1.622222E-04 +1.639849E-04 +7.321347E-04 +3.931708E-04 +7.321347E-04 +7.420137E-03 
 -2.027060E-04 +5.545394E-04 +7.858213E-05 +5.545394E-04 -2.597933E-04 -3.943278E-05 +7.858213E-05 -3.943278E-05 +7.420620E-03 
 +2.812202E-04 +8.760698E-05 -7.754304E-05 +8.760698E-05 -8.374386E-05 +1.539033E-04 -7.754304E-05 +1.539033E-04 +7.320365E-03 
 -1.841212E-04 -2.229315E-04 +2.101388E-04 -2.229315E-04 +2.373212E-05 +6.244114E-04 +2.101388E-04 +6.244114E-04 +7.568562E-03 
 -1.573425E-04 +1.766911E-04 +4.537946E-04 +1.766911E-04 +3.173882E-04 -3.297551E-04 +4.537946E-04 -3.297551E-04 +7.437146E-03 
 -1.594944E-05 -3.002727E-04 +2.787152E-04 -3.002727E-04 +1.199360E-04 +8.338618E-05 +2.787152E-04 +8.338618E-05 +7.345357E-03 
 -1.965106E-04 +5.668416E-04 -3.399056E-04 +5.668416E-04 +1.176803E-04 +5.859889E-04 -3.399056E-04 +5.859889E-04 +7.586444E-03 
 +2.725047E-04 +1.201221E-04 -4.273781E-04 +1.201221E-04 +3.504787E-04 +3.539247E-04 -4.273781E-04 +3.539247E-04 +7.230142E-03 
 +8.791227E-05 +4.701734E-04 +9.693648E-05 +4.701734E-04 -1.375225E-04 -4.952878E-04 +9.693648E-05 -4.952878E-04 +7.656167E-03 
 +3.091112E-04 -6.178807E-04 -5.104503E-06 -6.178807E-04 -1.108183E-04 -3.215670E-04 -5.104503E-06 -3.215670E-04 +7.600500E-03 
 +6.535646E-05 +1.479087E-04 -2.157869E-04 +1.479087E-04 +1.078433E-04 -1.739302E-04 -2.157869E-04 -1.739302E-04 +7.161963E-03 
 +8.342734E-05 -2.223879E-04 -1.191892E-04 -2.223879E-04 -3.199170E-04 -3.116193E-04 -1.191892E-04 -3.116193E-04 +7.510423E-03 
 -5.228154E-04 +5.888552E-04 -3.920871E-05 +5.888552E-04 +1.107997E-04 -1.802883E-04 -3.920871E-05 -1.802883E-04 +7.766729E-03 
 -9.683926E-05 -5.242297E-04 -2.083299E-04 -5.242297E-04 -1.934121E-04 +2.119437E-04 -2.083299E-04 +2.119437E-04 +7.562632E-03 
 +7.008448E-05 -4.123109E-04 +7.440723E-04 -4.123109E-04 -2.704680E-04 +3.261531E-05 +7.440723E-04 +3.261531E-05 +7.509777E-03 
 -6.660132E-05 +2.645201E-04 +2.809512E-04 +2.645201E-04 +8.483404E-05 +2.582023E-04 +2.809512E-04 +2.582023E-04 +7.408273E-03 
 +3.678336E-05 -1.742775E-04 -2.267855E-05 -1.742775E-04 +1.401148E-05 +6.184696E-05 -2.267855E-05 +6.184696E-05 +7.677682E-03 
 +2.672038E-04 +5.813118E-04 -4.854720E-04 +5.813118E-04 +2.760321E-04 -7.482654E-05 -4.854720E-04 -7.482654E-05 +7.064287E-03 
 +2.052377E-04 +2.233551E-04 +4.222501E-05 +2.233551E-04 +3.941894E-04 -7.763520E-04 +4.222501E-05 -7.763520E-04 +7.137966E-03 
 -1.509461E-04 +1.296005E-04 +5.310129E-04 +1.296005E-04 -8.687127E-05 +5.979331E-05 +5.310129E-04 +5.979331E-05 +7.583739E-03 
 +1.351933E-05 -8.294214E-04 +4.080228E-06 -8.294214E-04 -4.737845E-04 +6.378472E-04 +4.080228E-06 +6.378472E-04 +7.878085E-03 
 -3.725165E-04 -2.398409E-05 -1.105704E-04 -2.398409E-05 +2.452467E-04 -4.505590E-05 -1.105704E-04 -4.505590E-05 +7.557634E-03 
 +1.141445E-04 -1.010339E-04 -2.070145E-04 -1.010339E-04 +4.679676E-05 -3.204895E-04 -2.070145E-04 -3.204895E-04 +7.033198E-03 
 +9.018980E-05 -6.181633E-04 +3.747890E-04 -6.181633E-04 -2.221232E-04 -2.410411E-04 +3.747890E-04 -2.410411E-04 +7.981449E-03 
 +7.845206E-05 -3.462262E-04 +2.842507E-04 -3.462262E-04 +3.088181E-04 +3.825104E-04 +2.842507E-04 +3.825104E-04 +7.376876E-03 
 +3.930935E-04 -6.905990E-04 -2.836469E-04 -6.905990E-04 -3.096100E-04 +1.182583E-05 -2.836469E-04 +1.182583E-05 +7.248128E-03 
 +2.510035E-04 -4.512346E-05 -3.053972E-04 -4.512346E-05 +3.033881E-04 -2.200962E-04 -3.053972E-04 -2.200962E-04 +7.390000E-03 
 +3.157372E-04 +3.124123E-04 -3.842277E-04 +3.124123E-04 +4.320582E-04 -3.653851E-04 -3.842277E-04 -3.653851E-04 +6.735775E-03 
 -5.855890E-05 -3.855488E-04 -2.388961E-04 -3.855488E-04 +1.833033E-04 -1.204286E-04 -2.388961E-04 -1.204286E-04 +7.597047E-03 
 +3.763470E-04 +4.325868E-04 -2.300202E-04 +4.325868E-04 -5.205557E-04 +2.265478E-04 -2.300202E-04 +2.265478E-04 +7.794343E-03 
 -1.858710E-05 +3.044485E-04 +6.626355E-05 +3.044485E-04 -1.611526E-05 +2.639846E-04 +6.626355E-05 +2.639846E-04 +7.408711E-03 
 +1.823457E-04 -1.260090E-03 -1.452169E-04 -1.260090E-03 -3.060982E-04 -1.275611E-04 -1.452169E-04 -1.275611E-04 +7.599395E-03 
 +7.669193E-05 +5.925732E-04 -2.693946E-04 +5.925732E-04 -3.648949E-04 +2.488755E-05 -2.693946E-04 +2.488755E-05 +7.716276E-03 
 -4.958291E-04 -5.331194E-04 +2.272124E-04 -5.331194E-04 +4.254310E-04 -2.227728E-04 +2.272124E-04 -2.227728E-04 +7.786101E-03 
 -6.724786E-05 +3.565977E-04 +1.495296E-04 +3.565977E-04 -4.444111E-04 -5.384466E-04 +1.495296E-04 -5.384466E-04 +7.607115E-03 
 -3.168262E-04 +1.737547E-04 -7.032647E-04 +1.737547E-04 +1.663423E-04 -3.366073E-04 -7.032647E-04 -3.366073E-04 +7.544204E-03 
 -1.061374E-04 -1.283508E-05 +2.317115E-04 -1.283508E-05 -8.575412E-05 +7.909120E-05 +2.317115E-04 +7.909120E-05 +7.686046E-03 
 +3.678112E-04 +3.063784E-04 +7.822583E-04 +3.063784E-04 -1.726966E-04 -1.494360E-04 +7.822583E-04 -1.494360E-04 +7.195754E-03 
 +5.677636E-04 -3.400903E-04 -8.026850E-05 -3.400903E-04 +3.412035E-04 -1.402506E-04 -8.026850E-05 -1.402506E-04 +6.965136E-03 
 +7.055092E-06 -1.100419E-04 +1.439075E-04 -1.100419E-04 +5.108761E-04 +2.106507E-04 +1.439075E-04 +2.106507E-04 +7.021851E-03 
 +1.787385E-05 +8.663986E-04 -1.891892E-04 +8.663986E-04 -3.945692E-04 -1.889844E-04 -1.891892E-04 -1.889844E-04 +7.811033E-03 
 -7.228815E-05 -1.195347E-03 -2.815493E-04 -1.195347E-03 -8.355049E-06 +2.501529E-04 -2.815493E-04 +2.501529E-04 +7.638086E-03 
 +5.589907E-05 -4.100527E-04 -9.933805E-05 -4.100527E-04 -1.905917E-04 -1.701772E-04 -9.933805E-05 -1.701772E-04 +7.562439E-03 
 -1.176644E-05 +1.109186E-04 +1.098890E-06 +1.109186E-04 +1.920673E-04 -1.617554E-04 +1.098890E-06 -1.617554E-04 +7.919051E-03 
 -9.009727E-05 -3.789366E-04 +2.042942E-04 -3.789366E-04 +7.036599E-05 +5.846069E-04 +2.042942E-04 +5.846069E-04 +7.173705E-03 
 +1.248020E-04 -9.161971E-06 +1.168770E-04 -9.161971E-06 +1.184579E-05 -6.136901E-04 +1.168770E-04 -6.136901E-04 +7.951925E-03 
 -2.588774E-04 -1.116189E-03 +4.991523E-05 -1.116189E-03 -8.939161E-05 +6.815568E-05 +4.991523E-05 +6.815568E-05 +8.010598E-03 
 -1.991284E-04 -2.083546E-04 -1.082469E-05 -2.083546E-04 +3.613480E-04 -3.117165E-04 -1.082469E-05 -3.117165E-04 +7.344030E-03 
 +7.552162E-05 -6.661556E-04 +5.998997E-04 -6.661556E-04 +8.537420E-05 +5.607904E-04 +5.998997E-04 +5.607904E-04 +7.576931E-03 
 -6.795711E-05 -1.271210E-04 +8.416492E-04 -1.271210E-04 +1.104643E-04 +4.417727E-04 +8.416492E-04 +4.417727E-04 +7.214198E-03 
 +2.503695E-04 -4.756961E-04 +2.167645E-04 -4.756961E-04 -2.031564E-04 -3.544939E-04 +2.167645E-04 -3.544939E-04 +7.334619E-03 
 +1.010085E-05 +4.868712E-04 -3.182375E-04 +4.868712E-04 +1.702148E-04 -9.032510E-04 -3.182375E-04 -9.032510E-04 +7.547319E-03 
 +3.364191E-04 -9.140320E-04 +2.209334E-04 -9.140320E-04 -8.513413E-04 -1.890172E-04 +2.209334E-04 -1.890172E-04 +7.732152E-03 
 -3.504608E-04 +3.452823E-04 -6.682362E-05 +3.452823E-04 +2.454733E-04 +1.697164E-04 -6.682362E-05 +1.697164E-04 +7.856847E-03 
 -2.698917E-04 +1.643125E-04 -2.119004E-04 +1.643125E-04 +1.260041E-04 -1.816078E-04 -2.119004E-04 -1.816078E-04 +7.615905E-03 
 -1.582694E-04 -3.135987E-04 +1.834496E-06 -3.135987E-04 -1.838278E-04 -3.408615E-05 +1.834496E-06 -3.408615E-05 +7.666749E-03 
 -3.147713E-04 +1.593303E-04 +2.100369E-04 +1.593303E-04 +1.504835E-04 +2.592621E-04 +2.100369E-04 +2.592621E-04 +7.606275E-03 
 +1.382814E-04 -5.272650E-04 +4.780291E-05 -5.272650E-04 -3.964734E-05 +1.226495E-04 +4.780291E-05 +1.226495E-04 +7.473580E-03 
 +3.850770E-04 -5.664937E-04 -7.544699E-04 -5.664937E-04 -2.880065E-05 +1.651377E-04 -7.544699E-04 +1.651377E-04 +7.798320E-03 
 -3.998156E-04 +8.366792E-04 -2.489905E-05 +8.366792E-04 +8.352892E-05 -2.772404E-04 -2.489905E-05 -2.772404E-04 +7.865487E-03 
 -6.849323E-04 -6.004515E-04 +2.797557E-04 -6.004515E-04 +1.208778E-04 -4.702601E-04 +2.797557E-04 -4.702601E-04 +7.694444E-03 
 +1.455099E-04 +2.995822E-04 +1.377293E-04 +2.995822E-04 +2.191880E-04 +6.851203E-04 +1.377293E-04 +6.851203E-04 +6.929246E-03 
 +5.540462E-04 +5.082414E-04 -1.624759E-04 +5.082414E-04 -1.839358E-04 +3.708626E-04 -1.624759E-04 +3.708626E-04 +6.972153E-03 
 +5.804141E-04 +3.178978E-04 -3.778655E-04 +3.178978E-04 -2.541529E-04 +2.736085E-04 -3.778655E-04 +2.736085E-04 +7.116992E-03 
 -7.455939E-05 +1.935959E-04 +1.534572E-04 +1.935959E-04 +5.702236E-04 +4.363648E-04 +1.534572E-04 +4.363648E-04 +7.289921E-03 
 +4.070729E-05 +2.620279E-05 -2.925288E-04 +2.620279E-05 -3.893680E-04 -2.069724E-04 -2.925288E-04 -2.069724E-04 +7.822751E-03 
 +7.855961E-05 -6.312598E-05 -1.205734E-04 -6.312598E-05 +8.168320E-05 +4.765338E-04 -1.205734E-04 +4.765338E-04 +7.102348E-03 
 +3.381650E-05 +1.408069E-04 +1.249058E-04 +1.408069E-04 +3.663891E-04 -6.407823E-06 +1.249058E-04 -6.407823E-06 +7.077955E-03 
 -3.429689E-04 -1.283146E-03 +4.222567E-04 -1.283146E-03 -9.415278E-05 -3.637742E-04 +4.222567E-04 -3.637742E-04 +7.672056E-03 
 -4.780309E-06 -6.931574E-04 +4.014088E-04 -6.931574E-04 -1.199683E-05 -4.135823E-04 +4.014088E-04 -4.135823E-04 +7.773957E-03 
 +5.714601E-04 +1.098908E-03 +1.553581E-04 +1.098908E-03 -3.551608E-04 -4.190306E-04 +1.553581E-04 -4.190306E-04 +7.806788E-03 
 +6.757111E-05 -6.984847E-04 -1.093534E-04 -6.984847E-04 +2.575147E-04 -1.807490E-04 -1.093534E-04 -1.807490E-04 +7.570317E-03 
 +1.450354E-04 -2.723867E-04 +8.921645E-04 -2.723867E-04 +5.210455E-06 -2.217705E-04 +8.921645E-04 -2.217705E-04 +7.260373E-03 
 +1.990198E-04 +1.027663E-04 +5.284254E-04 +1.027663E-04 -3.323046E-04 +4.509742E-04 +5.284254E-04 +4.509742E-04 +7.424379E-03 
 +3.051351E-04 -4.475051E-04 +7.534191E-05 -4.475051E-04 +2.605391E-04 -8.418858E-05 +7.534191E-05 -8.418858E-05 +6.977946E-03 
 +1.090896E-04 +9.646170E-04 -1.712576E-04 +9.646170E-04 +1.734413E-04 +2.875085E-04 -1.712576E-04 +2.875085E-04 +7.020962E-03 
 +4.960754E-06 -5.174770E-04 +2.881906E-04 -5.174770E-04 +1.828664E-04 +1.711209E-04 +2.881906E-04 +1.711209E-04 +7.342942E-03 
 +4.830768E-04 +4.766731E-04 +3.243902E-04 +4.766731E-04 -6.076502E-06 +2.161343E-04 +3.243902E-04 +2.161343E-04 +7.394814E-03 
 +3.230660E-04 -8.172078E-05 +2.412574E-04 -8.172078E-05 -2.841246E-04 +3.457168E-04 +2.412574E-04 +3.457168E-04 +7.410145E-03 
 -6.816286E-06 +1.060333E-04 -1.047680E-04 +1.060333E-04 +2.127669E-04 -2.225529E-05 -1.047680E-04 -2.225529E-05 +7.340685E-03 
 -3.491451E-04 +1.296825E-03 -6.093622E-04 +1.296825E-03 -1.140414E-04 +2.253931E-04 -6.093622E-04 +2.253931E-04 +7.661810E-03 
 -1.021293E-04 -3.587632E-04 -5.505661E-04 -3.587632E-04 +8.098144E-05 +5.883687E-05 -5.505661E-04 +5.883687E-05 +7.326161E-03 
 +1.094168E-04 +1.853556E-04 +1.026781E-04 +1.853556E-04 -9.242414E-05 -2.335847E-04 +1.026781E-04 -2.335847E-04 +7.201960E-03 
 +2.574995E-04 -4.485988E-05 +5.832225E-05 -4.485988E-05 +1.597374E-04 -1.877366E-05 +5.832225E-05 -1.877366E-05 +7.288097E-03 
 +3.394348E-04 +5.297561E-04 -4.655852E-04 +5.297561E-04 -1.372343E-04 +2.399726E-04 -4.655852E-04 +2.399726E-04 +7.233211E-03 
 -3.505910E-06 -1.675845E-04 -5.434843E-04 -1.675845E-04 +1.790478E-04 +7.483461E-05 -5.434843E-04 +7.483461E-05 +7.083917E-03 
 +4.705049E-04 +6.676333E-07 -3.492326E-04 +6.676333E-07 -4.713300E-05 +2.420130E-04 -3.492326E-04 +2.420130E-04 +7.121163E-03 
 +1.545055E-04 +3.623631E-04 +5.584485E-04 +3.623631E-04 +4.672822E-05 -2.562580E-04 +5.584485E-04 -2.562580E-04 +7.533521E-03 
 +3.079362E-04 +4.028212E-04 +5.666440E-04 +4.028212E-04 +2.317836E-04 -2.455326E-04 +5.666440E-04 -2.455326E-04 +7.300002E-03 
 +5.161355E-05 -3.421524E-04 +1.468208E-04 -3.421524E-04 -3.322584E-04 -2.517011E-04 +1.468208E-04 -2.517011E-04 +7.323854E-03 
 -9.909348E-05 -6.346853E-04 +2.115036E-04 -6.346853E-04 +8.240370E-07 +1.856086E-04 +2.115036E-04 +1.856086E-04 +7.414976E-03 
 +1.908857E-04 +2.031208E-04 -4.787262E-04 +2.031208E-04 -7.390877E-05 +9.128109E-04 -4.787262E-04 +9.128109E-04 +7.465793E-03 
 -4.975863E-05 +6.754728E-04 +3.140364E-04 +6.754728E-04 -1.149083E-04 -1.346481E-04 +3.140364E-04 -1.346481E-04 +7.396657E-03 
 -4.281778E-04 -5.792702E-04 +2.752332E-04 -5.792702E-04 -1.172096E-04 +2.254710E-04 +2.752332E-04 +2.254710E-04 +7.718201E-03 
 -6.810059E-05 +2.173079E-04 -7.946008E-05 +2.173079E-04 +6.087334E-05 -9.702332E-05 -7.946008E-05 -9.702332E-05 +7.305227E-03 
 +3.231505E-04 +1.291044E-04 -4.041484E-04 +1.291044E-04 +1.067444E-04 -2.095331E-04 -4.041484E-04 -2.095331E-04 +7.042188E-03 
 +1.074685E-04 -7.332390E-05 -1.218878E-04 -7.332390E-05 +3.484197E-05 +3.712416E-04 -1.218878E-04 +3.712416E-04 +7.277143E-03 
 -4.304505E-04 -4.102247E-04 +3.498200E-05 -4.102247E-04 +3.523959E-04 -3.511880E-04 +3.498200E-05 -3.511880E-04 +7.464102E-03 
 -1.843632E-05 -2.464778E-04 +2.592095E-04 -2.464778E-04 +9.088707E-05 -3.430507E-04 +2.592095E-04 -3.430507E-04 +7.474334E-03 
 +2.252923E-04 +1.869076E-04 +3.564093E-04 +1.869076E-04 -2.701438E-04 +1.394513E-04 +3.564093E-04 +1.394513E-04 +7.394997E-03 
 -2.102510E-04 -1.849618E-04 +4.411387E-04 -1.849618E-04 -1.051294E-04 +1.241066E-04 +4.411387E-04 +1.241066E-04 +7.377849E-03 
 +3.316577E-04 +2.687719E-04 -5.292884E-05 +2.687719E-04 +4.374874E-04 -2.946799E-04 -5.292884E-05 -2.946799E-04 +6.913930E-03 
 +1.929564E-04 -4.830102E-04 -7.784300E-04 -4.830102E-04 -3.425751E-04 -4.194340E-04 -7.784300E-04 -4.194340E-04 +7.538448E-03 
 -1.035820E-04 +5.040923E-04 -4.024312E-04 +5.040923E-04 -2.134720E-04 +4.555309E-04 -4.024312E-04 +4.555309E-04 +7.945736E-03 
 +2.178408E-05 -1.467614E-04 -4.287105E-04 -1.467614E-04 -2.902523E-05 +6.892407E-05 -4.287105E-04 +6.892407E-05 +7.307195E-03 
 -1.188359E-04 -4.351888E-04 -3.250954E-04 -4.351888E-04 +3.392264E-04 +1.949377E-05 -3.250954E-04 +1.949377E-05 +7.338624E-03 
 +4.286302E-04 -1.081087E-04 +3.695118E-04 -1.081087E-04 -3.354110E-04 +3.063020E-05 +3.695118E-04 +3.063020E-05 +7.362590E-03 
 +5.458232E-04 +5.168166E-05 -2.084033E-04 +5.168166E-05 +2.457952E-04 +4.498341E-05 -2.084033E-04 +4.498341E-05 +7.095720E-03 
 +1.592027E-04 -2.799415E-04 -7.113272E-04 -2.799415E-04 +2.719349E-04 -5.931370E-05 -7.113272E-04 -5.931370E-05 +7.163151E-03 
 -1.833632E-04 -1.845469E-04 -5.051783E-05 -1.845469E-04 +5.284401E-05 +4.506993E-04 -5.051783E-05 +4.506993E-04 +7.606429E-03 
 -1.326909E-04 +5.294349E-04 +1.729452E-04 +5.294349E-04 -4.945092E-04 +3.702590E-05 +1.729452E-04 +3.702590E-05 +7.606021E-03 
 -2.747050E-04 +3.254213E-04 -3.678288E-04 +3.254213E-04 +7.442307E-05 -2.373842E-04 -3.678288E-04 -2.373842E-04 +7.515172E-03 
 +1.776157E-04 -4.511067E-04 +2.893328E-04 -4.511067E-04 +1.468309E-04 -2.712279E-04 +2.893328E-04 -2.712279E-04 +7.184681E-03 
 +1.939410E-04 +4.052168E-04 +3.414888E-04 +4.052168E-04 -3.070820E-04 -7.815369E-05 +3.414888E-04 -7.815369E-05 +7.172001E-03 
 +1.318415E-04 +3.638940E-04 -4.443428E-04 +3.638940E-04 -9.609137E-05 +2.079230E-04 -4.443428E-04 +2.079230E-04 +7.486112E-03 
 -5.066507E-04 -2.151860E-04 -1.129171E-04 -2.151860E-04 +1.216889E-04 -3.317727E-04 -1.129171E-04 -3.317727E-04 +7.676240E-03 
 -5.826964E-04 -2.723838E-04 +6.444468E-04 -2.723838E-04 +1.427464E-04 -3.401226E-04 +6.444468E-04 -3.401226E-04 +7.822608E-03 
 -1.797803E-04 -6.094346E-04 -2.202862E-04 -6.094346E-04 +1.161552E-05 +8.867874E-04 -2.202862E-04 +8.867874E-04 +7.702501E-03 
 -3.627769E-04 +5.613756E-04 -7.268579E-04 +5.613756E-04 +1.144255E-04 +1.758250E-04 -7.268579E-04 +1.758250E-04 +7.645492E-03 
 -1.301172E-04 -3.725406E-05 +6.972402E-05 -3.725406E-05 +1.148692E-04 -7.744459E-04 +6.972402E-05 -7.744459E-04 +7.394067E-03 
 +3.102099E-04 -2.927210E-04 +2.653967E-04 -2.927210E-04 -1.932102E-04 -2.464478E-05 +2.653967E-04 -2.464478E-05 +7.473799E-03 
 -8.672368E-05 -9.776909E-04 +2.390012E-04 -9.776909E-04 +1.920740E-04 -3.028553E-04 +2.390012E-04 -3.028553E-04 +7.555965E-03 
 -1.025090E-04 -4.363927E-04 -2.225846E-05 -4.363927E-04 -1.916692E-04 -3.399495E-04 -2.225846E-05 -3.399495E-04 +7.833833E-03 
 -8.053947E-04 -1.168339E-03 -6.563012E-04 -1.168339E-03 -1.494277E-05 +1.253591E-04 -6.563012E-04 +1.253591E-04 +7.935849E-03 
 -4.312680E-04 +3.839063E-04 -2.739706E-04 +3.839063E-04 +2.246012E-04 -4.635039E-04 -2.739706E-04 -4.635039E-04 +7.714396E-03 
 +2.152437E-04 -5.856325E-05 -3.559996E-04 -5.856325E-05 -7.922074E-04 +8.883308E-05 -3.559996E-04 +8.883308E-05 +8.122376E-03 
 -1.019013E-03 -2.320740E-04 -3.322564E-04 -2.320740E-04 +6.580317E-04 -1.259770E-04 -3.322564E-04 -1.259770E-04 +7.941875E-03 
 +2.008029E-04 +5.025791E-04 -3.192705E-04 +5.025791E-04 -3.455433E-04 -4.897838E-04 -3.192705E-04 -4.897838E-04 +7.583441E-03 
 +2.815227E-04 +5.272077E-04 -6.427137E-04 +5.272077E-04 +1.875462E-05 -2.220120E-04 -6.427137E-04 -2.220120E-04 +7.192017E-03 
 +8.241711E-05 -4.309625E-05 +5.302484E-05 -4.309625E-05 +4.788257E-04 -1.103825E-04 +5.302484E-05 -1.103825E-04 +7.019712E-03 
 +5.563072E-04 +1.689646E-05 -1.556496E-04 +1.689646E-05 -5.639612E-05 -6.740049E-04 -1.556496E-04 -6.740049E-04 +7.265008E-03 
 -1.239960E-04 +5.804921E-04 -3.520397E-04 +5.804921E-04 -2.441919E-04 -3.349358E-05 -3.520397E-04 -3.349358E-05 +7.678628E-03 
 +2.291860E-04 +7.234832E-05 -2.715953E-05 +7.234832E-05 -4.099158E-04 -4.080343E-04 -2.715953E-05 -4.080343E-04 +7.703392E-03 
 -1.260685E-05 -1.149464E-04 -3.672267E-04 -1.149464E-04 +3.705045E-04 -3.846955E-04 -3.672267E-04 -3.846955E-04 +7.431432E-03 
 +1.111039E-04 -9.100612E-04 -3.258344E-04 -9.100612E-04 -1.047678E-04 +5.870044E-05 -3.258344E-04 +5.870044E-05 +7.588271E-03 
 +1.663717E-04 +5.311955E-05 +3.250637E-04 +5.311955E-05 +4.455168E-05 +2.143242E-05 +3.250637E-04 +2.143242E-05 +7.375768E-03 
 +6.586698E-05 -5.020563E-04 +5.729423E-04 -5.020563E-04 +1.286537E-04 -2.245594E-04 +5.729423E-04 -2.245594E-04 +7.254064E-03 
 -5.277121E-04 -1.025839E-03 -4.421850E-05 -1.025839E-03 +2.996026E-04 +1.548269E-04 -4.421850E-05 +1.548269E-04 +7.506037E-03 
 -1.496953E-04 -4.862814E-04 +1.359500E-04 -4.862814E-04 -9.785877E-05 +1.001199E-04 +1.359500E-04 +1.001199E-04 +7.548635E-03 
 -8.190769E-06 -1.334489E-04 -1.577309E-04 -1.334489E-04 -2.203102E-05 -3.458799E-04 -1.577309E-04 -3.458799E-04 +7.105288E-03 
 -1.585574E-04 +6.124623E-04 -5.312884E-04 +6.124623E-04 +5.572908E-05 -2.011967E-04 -5.312884E-04 -2.011967E-04 +7.608237E-03 
 -2.649802E-04 -1.811923E-04 -3.064794E-04 -1.811923E-04 +9.181835E-05 +4.594314E-04 -3.064794E-04 +4.594314E-04 +7.709641E-03 
 +4.445319E-04 +1.315188E-04 -5.129973E-04 +1.315188E-04 +2.330724E-05 -4.111613E-04 -5.129973E-04 -4.111613E-04 +7.199510E-03 
 -5.534189E-05 -1.197689E-04 -2.272235E-04 -1.197689E-04 -2.762356E-04 +5.903587E-04 -2.272235E-04 +5.903587E-04 +7.487856E-03 
 -2.795627E-04 +6.582103E-05 -8.377081E-05 +6.582103E-05 +4.049345E-04 +3.038186E-04 -8.377081E-05 +3.038186E-04 +7.583087E-03 
 -4.105156E-05 +5.803819E-04 +1.747902E-05 +5.803819E-04 -6.290271E-04 +3.731704E-05 +1.747902E-05 +3.731704E-05 +7.802055E-03 
 -2.621571E-04 -2.588860E-04 -2.468692E-04 -2.588860E-04 +5.893997E-05 -2.674144E-04 -2.468692E-04 -2.674144E-04 +7.626019E-03 
 -2.229172E-04 -3.840938E-04 -7.274080E-04 -3.840938E-04 +2.953693E-04 +4.224512E-04 -7.274080E-04 +4.224512E-04 +7.524899E-03 
 +7.467972E-05 +6.930521E-04 -3.388520E-04 +6.930521E-04 -1.410429E-04 -2.172598E-04 -3.388520E-04 -2.172598E-04 +7.410636E-03 
 +7.053639E-05 +2.721911E-04 +3.734797E-04 +2.721911E-04 -3.353725E-04 +1.029862E-04 +3.734797E-04 +1.029862E-04 +7.687556E-03 
 -1.587553E-04 +2.755214E-04 -1.303227E-04 +2.755214E-04 +2.098540E-04 -1.290580E-04 -1.303227E-04 -1.290580E-04 +7.884461E-03 
 +1.083779E-05 +3.322375E-04 +6.393717E-05 +3.322375E-04 +1.146779E-04 +2.294847E-04 +6.393717E-05 +2.294847E-04 +7.388285E-03 
 -7.506684E-06 +8.281413E-04 +2.437857E-04 +8.281413E-04 -7.996962E-05 +3.734879E-04 +2.437857E-04 +3.734879E-04 +7.405736E-03 
 -2.429610E-04 -5.231550E-04 +3.176985E-04 -5.231550E-04 -1.097892E-04 -2.920150E-04 +3.176985E-04 -2.920150E-04 +7.564538E-03 
 -4.862281E-04 +2.759257E-06 +4.201041E-04 +2.759257E-06 +4.941085E-05 +4.110390E-04 +4.201041E-04 +4.110390E-04 +7.964350E-03 
 -4.014259E-04 -4.686704E-04 -2.402830E-04 -4.686704E-04 -8.596978E-05 -7.305401E-05 -2.402830E-04 -7.305401E-05 +7.737752E-03 
 -3.406224E-04 +1.181881E-04 +1.535027E-04 +1.181881E-04 -1.951316E-05 +8.962574E-04 +1.535027E-04 +8.962574E-04 +7.713400E-03 
 -1.147663E-04 -1.325938E-03 -1.694584E-04 -1.325938E-03 +1.070701E-04 +1.956808E-04 -1.694584E-04 +1.956808E-04 +7.836255E-03 
 -2.696800E-04 +5.328200E-06 -4.397173E-04 +5.328200E-06 +2.346732E-04 +1.525817E-06 -4.397173E-04 +1.525817E-06 +7.391667E-03 
 +3.042361E-04 -4.733617E-04 -2.579620E-04 -4.733617E-04 -3.078526E-04 +2.504658E-04 -2.579620E-04 +2.504658E-04 +7.039756E-03 
 -1.210706E-04 -2.610721E-04 +3.000343E-04 -2.610721E-04 +5.308361E-05 +1.672037E-04 +3.000343E-04 +1.672037E-04 +7.456887E-03 
 -7.289817E-04 +3.393895E-04 +4.506971E-04 +3.393895E-04 +2.982205E-04 +3.435868E-04 +4.506971E-04 +3.435868E-04 +7.306696E-03 
 -3.307592E-04 -8.564679E-05 -3.765605E-04 -8.564679E-05 +3.388370E-04 +5.274036E-04 -3.765605E-04 +5.274036E-04 +7.411977E-03 
 +2.623099E-04 +3.914447E-05 -5.371573E-04 +3.914447E-05 -7.794276E-04 -3.044318E-04 -5.371573E-04 -3.044318E-04 +8.026722E-03 
 -2.863834E-04 +6.758792E-04 -4.243935E-04 +6.758792E-04 +2.208162E-04 +2.876590E-04 -4.243935E-04 +2.876590E-04 +7.649157E-03 
 -4.148705E-04 +5.115780E-05 -3.870228E-04 +5.115780E-05 -9.798198E-05 -5.009814E-04 -3.870228E-04 -5.009814E-04 +7.602149E-03 
 -4.118748E-04 +1.049400E-03 -4.607445E-04 +1.049400E-03 -1.418506E-04 +5.053395E-04 -4.607445E-04 +5.053395E-04 +7.895013E-03 
 -2.355399E-04 +7.228880E-04 +5.727418E-05 +7.228880E-04 +8.648303E-05 -1.742375E-04 +5.727418E-05 -1.742375E-04 +7.776652E-03 
 +5.969785E-05 -2.353613E-04 +3.283588E-05 -2.353613E-04 +4.082782E-04 +1.273841E-04 +3.283588E-05 +1.273841E-04 +7.213068E-03 
 +4.454447E-04 +6.238692E-04 +1.266501E-04 +6.238692E-04 -3.896229E-04 -3.326315E-04 +1.266501E-04 -3.326315E-04 +7.599448E-03 
 +3.782802E-04 +5.346530E-05 +3.458978E-04 +5.346530E-05 -4.275665E-04 +1.651986E-04 +3.458978E-04 +1.651986E-04 +7.536978E-03 
 -4.640320E-05 +2.990594E-04 -2.143693E-04 +2.990594E-04 +4.807900E-05 -1.665633E-05 -2.143693E-04 -1.665633E-05 +7.175700E-03 
 -3.930053E-04 +6.022314E-04 -3.339746E-04 +6.022314E-04 +2.107941E-04 +2.573441E-05 -3.339746E-04 +2.573441E-05 +7.695307E-03 
 -1.680373E-04 +1.030617E-03 -1.152572E-05 +1.030617E-03 -1.683212E-04 +5.406932E-05 -1.152572E-05 +5.406932E-05 +7.309512E-03 
 -6.299595E-05 +2.337044E-04 -1.036718E-04 +2.337044E-04 +3.345307E-04 -9.093204E-05 -1.036718E-04 -9.093204E-05 +7.084379E-03 
 +2.114857E-04 -7.430759E-05 +3.984383E-04 -7.430759E-05 -6.522734E-05 +6.393996E-04 +3.984383E-04 +6.393996E-04 +7.368583E-03 
 -7.436163E-05 -4.795138E-04 +3.355198E-04 -4.795138E-04 +5.671834E-05 +1.492512E-04 +3.355198E-04 +1.492512E-04 +7.568989E-03 
 +3.228739E-04 +4.370351E-04 +4.679115E-04 +4.370351E-04 +1.018512E-04 -3.068702E-04 +4.679115E-04 -3.068702E-04 +7.112776E-03 
 -9.966841E-05 -2.883676E-04 +6.068723E-04 -2.883676E-04 +8.698126E-05 -3.257483E-04 +6.068723E-04 -3.257483E-04 +6.981172E-03 
 +4.644375E-05 +1.585135E-04 +7.530909E-05 +1.585135E-04 +3.799344E-04 -2.127838E-04 +7.530909E-05 -2.127838E-04 +7.174364E-03 
 +4.470433E-04 -4.887146E-05 -2.123306E-04 -4.887146E-05 -6.297064E-04 +4.250062E-04 -2.123306E-04 +4.250062E-04 +7.506972E-03 
 +1.026904E-04 +3.653148E-04 -6.741919E-05 +3.653148E-04 +3.338347E-04 -3.435671E-05 -6.741919E-05 -3.435671E-05 +7.274238E-03 
 +6.789168E-05 +3.347974E-04 -1.488518E-04 +3.347974E-04 -1.078905E-04 -1.539671E-04 -1.488518E-04 -1.539671E-04 +7.301991E-03 
 +2.953374E-04 -2.343767E-04 -2.540809E-04 -2.343767E-04 -2.106502E-04 -1.019197E-03 -2.540809E-04 -1.019197E-03 +7.318772E-03 
 +1.382932E-05 -4.100130E-04 -1.718293E-04 -4.100130E-04 +1.876803E-04 -5.316871E-04 -1.718293E-04 -5.316871E-04 +7.233134E-03 
 -4.613821E-05 -1.901218E-04 -3.118757E-04 -1.901218E-04 -2.746740E-04 +2.514870E-04 -3.118757E-04 +2.514870E-04 +7.723686E-03 
 -1.212198E-04 -6.948568E-04 +1.490184E-04 -6.948568E-04 -1.400117E-04 +3.827688E-04 +1.490184E-04 +3.827688E-04 +7.697997E-03 
 +7.333192E-05 +4.969917E-04 +6.166977E-04 +4.969917E-04 +2.885969E-04 -2.103314E-04 +6.166977E-04 -2.103314E-04 +7.087662E-03 
 +2.374398E-04 +2.184445E-04 +1.996240E-04 +2.184445E-04 +2.384652E-04 -4.360926E-04 +1.996240E-04 -4.360926E-04 +6.975412E-03 
 -1.490344E-05 +2.352189E-04 +1.615216E-04 +2.352189E-04 -2.582727E-04 -2.197172E-04 +1.615216E-04 -2.197172E-04 +7.868104E-03 
 +9.379809E-05 +4.428662E-04 +1.642065E-05 +4.428662E-04 -1.144368E-04 -5.083846E-04 +1.642065E-05 -5.083846E-04 +7.662431E-03 
 -9.756212E-05 +1.277053E-03 -3.372648E-04 +1.277053E-03 -5.513994E-06 +2.751015E-04 -3.372648E-04 +2.751015E-04 +7.995468E-03 
 -5.378712E-05 +4.639315E-04 +9.792158E-05 +4.639315E-04 -4.322841E-04 -2.736418E-04 +9.792158E-05 -2.736418E-04 +7.920289E-03 
 +2.956380E-04 +5.793888E-04 +1.274421E-03 +5.793888E-04 +3.906856E-04 +5.240961E-04 +1.274421E-03 +5.240961E-04 +6.937262E-03 
 -8.996929E-05 +4.107639E-04 +4.238654E-04 +4.107639E-04 +1.605688E-04 +4.964343E-04 +4.238654E-04 +4.964343E-04 +7.252849E-03 
 +3.082918E-04 +6.773252E-04 +1.936461E-04 +6.773252E-04 -2.297793E-04 +3.186098E-04 +1.936461E-04 +3.186098E-04 +7.511410E-03 
 +1.866231E-04 -4.467239E-04 -3.915247E-06 -4.467239E-04 +3.803474E-04 +7.679166E-05 -3.915247E-06 +7.679166E-05 +7.092089E-03 
 +1.861097E-04 +8.344805E-05 -2.958168E-04 +8.344805E-05 -1.454754E-04 -1.582527E-04 -2.958168E-04 -1.582527E-04 +7.003782E-03 
 -4.021106E-05 -7.767037E-05 -5.518400E-04 -7.767037E-05 +4.730349E-04 -2.429684E-04 -5.518400E-04 -2.429684E-04 +6.874302E-03 
 +3.530210E-05 +4.657570E-04 -9.864062E-05 +4.657570E-04 +4.678167E-04 -3.372873E-04 -9.864062E-05 -3.372873E-04 +7.150245E-03 
 -3.215249E-04 -5.983630E-04 -9.159299E-05 -5.983630E-04 +1.061620E-04 -1.210397E-04 -9.159299E-05 -1.210397E-04 +7.884930E-03 
 +1.546162E-04 +1.475320E-04 +2.471317E-04 +1.475320E-04 -7.574704E-05 -2.308152E-04 +2.471317E-04 -2.308152E-04 +7.405214E-03 
 +2.527424E-04 -5.867175E-05 -6.037323E-05 -5.867175E-05 -7.347076E-04 -2.292838E-04 -6.037323E-05 -2.292838E-04 +7.702207E-03 
 -6.964638E-04 -7.951254E-04 -2.128901E-04 -7.951254E-04 +8.638693E-05 +4.739300E-06 -2.128901E-04 +4.739300E-06 +8.004023E-03 
 -6.459444E-04 -3.598146E-04 +2.612392E-04 -3.598146E-04 -6.435445E-06 -5.911845E-05 +2.612392E-04 -5.911845E-05 +7.687632E-03 
 -4.919824E-04 +7.920341E-04 -1.210181E-04 +7.920341E-04 -9.139684E-05 -3.100423E-04 -1.210181E-04 -3.100423E-04 +7.679414E-03 
 -5.790317E-04 -3.247937E-04 -9.328893E-05 -3.247937E-04 -1.548066E-05 -3.219912E-04 -9.328893E-05 -3.219912E-04 +7.857236E-03 
 -3.789918E-04 +1.078476E-04 +4.223035E-05 +1.078476E-04 +2.156538E-04 -4.129696E-04 +4.223035E-05 -4.129696E-04 +7.914197E-03 
 -2.208935E-04 +8.932107E-05 +4.377823E-05 +8.932107E-05 +4.033129E-04 +3.994452E-04 +4.377823E-05 +3.994452E-04 +7.473386E-03 
 +1.214082E-04 +2.121052E-04 +3.105982E-04 +2.121052E-04 -2.286453E-05 -5.638649E-04 +3.105982E-04 -5.638649E-04 +7.302837E-03 
 -6.969481E-05 -2.909483E-04 -2.166120E-04 -2.909483E-04 -3.940277E-04 -5.604342E-04 -2.166120E-04 -5.604342E-04 +7.512850E-03 
 -8.010300E-04 +1.093175E-04 +1.801042E-04 +1.093175E-04 +2.279353E-04 -2.536079E-04 +1.801042E-04 -2.536079E-04 +7.533768E-03 
 -2.904446E-04 -1.154194E-03 +1.330539E-04 -1.154194E-03 +5.464353E-05 -5.257246E-06 +1.330539E-04 -5.257246E-06 +7.760594E-03 
 +1.244172E-04 +4.120323E-04 +2.542454E-05 +4.120323E-04 -4.522103E-04 -2.082654E-04 +2.542454E-05 -2.082654E-04 +8.030694E-03 
 +1.047553E-04 -4.183920E-05 -9.365272E-05 -4.183920E-05 +3.283258E-04 -8.290087E-05 -9.365272E-05 -8.290087E-05 +7.117606E-03 
 +2.872416E-04 -4.579805E-06 -2.929246E-04 -4.579805E-06 +1.352087E-04 +1.698594E-04 -2.929246E-04 +1.698594E-04 +7.301487E-03 
 +5.536280E-05 +4.781982E-05 -1.068072E-04 +4.781982E-05 +1.948224E-04 +2.769689E-04 -1.068072E-04 +2.769689E-04 +7.786251E-03 
 +1.251130E-04 -1.179483E-03 +2.333759E-04 -1.179483E-03 -1.094127E-04 +1.681788E-04 +2.333759E-04 +1.681788E-04 +7.542670E-03 
 +1.361857E-04 +4.061855E-05 -3.693386E-04 +4.061855E-05 -7.916964E-04 +2.605459E-04 -3.693386E-04 +2.605459E-04 +7.514604E-03 
 +2.895580E-04 +4.221222E-05 -1.795423E-04 +4.221222E-05 -9.935025E-06 -3.432377E-05 -1.795423E-04 -3.432377E-05 +7.463940E-03 
 +3.553994E-04 -3.377360E-04 -1.412250E-05 -3.377360E-04 +5.471853E-05 -6.457694E-05 -1.412250E-05 -6.457694E-05 +6.949152E-03 
 +1.931830E-04 +4.957421E-04 -7.880290E-06 +4.957421E-04 +4.882683E-04 +5.464813E-04 -7.880290E-06 +5.464813E-04 +6.836007E-03 
 +1.572738E-04 +3.618306E-06 +1.798862E-04 +3.618306E-06 -3.915323E-04 -2.018301E-04 +1.798862E-04 -2.018301E-04 +7.621485E-03 
 +1.807344E-04 -6.008219E-04 +1.655794E-04 -6.008219E-04 -4.994507E-04 -3.599869E-04 +1.655794E-04 -3.599869E-04 +7.616636E-03 
 -6.748695E-05 -5.749050E-04 +1.609885E-05 -5.749050E-04 +1.831350E-04 +5.790451E-04 +1.609885E-05 +5.790451E-04 +7.513808E-03 
 -1.235657E-05 -1.120454E-03 +1.924525E-04 -1.120454E-03 -6.876543E-05 +2.229344E-04 +1.924525E-04 +2.229344E-04 +7.709838E-03 
 -4.755843E-04 +5.426476E-04 +1.059115E-04 +5.426476E-04 +3.035375E-05 +3.919263E-04 +1.059115E-04 +3.919263E-04 +7.781385E-03 
 -1.043227E-04 -2.185844E-04 -1.875327E-04 -2.185844E-04 -1.399547E-04 +4.334978E-04 -1.875327E-04 +4.334978E-04 +7.348315E-03 
 +5.487521E-04 +1.033572E-04 -2.110295E-04 +1.033572E-04 +1.047403E-04 +2.171600E-05 -2.110295E-04 +2.171600E-05 +6.845613E-03 
 +3.362626E-05 -4.418374E-04 +2.743269E-05 -4.418374E-04 +5.031489E-04 -2.076180E-04 +2.743269E-05 -2.076180E-04 +7.050226E-03 
 +1.383099E-04 +1.561949E-04 +3.054703E-04 +1.561949E-04 -6.727341E-05 -3.824949E-05 +3.054703E-04 -3.824949E-05 +7.516161E-03 
 +2.243532E-04 -3.854488E-04 +2.815320E-04 -3.854488E-04 -3.950556E-04 +5.075842E-04 +2.815320E-04 +5.075842E-04 +7.720833E-03 
 -2.037325E-04 +8.262279E-04 +8.228463E-05 +8.262279E-04 +1.909810E-04 +6.533670E-05 +8.228463E-05 +6.533670E-05 +7.571561E-03 
 +4.609423E-04 -7.335509E-04 -2.439642E-04 -7.335509E-04 -5.608821E-05 +4.178853E-04 -2.439642E-04 +4.178853E-04 +7.387949E-03 
 +2.508726E-04 -1.762403E-05 -2.270386E-04 -1.762403E-05 +9.147137E-05 -3.720997E-04 -2.270386E-04 -3.720997E-04 +7.061119E-03 
 -3.709454E-04 -1.161178E-03 +2.450943E-04 -1.161178E-03 -6.779275E-05 +5.621199E-05 +2.450943E-04 +5.621199E-05 +7.773134E-03 
 +2.642133E-04 -5.006467E-05 -1.999395E-04 -5.006467E-05 +3.703124E-05 +2.892309E-04 -1.999395E-04 +2.892309E-04 +7.469560E-03 
 +1.629115E-04 +1.396839E-06 -2.544945E-04 +1.396839E-06 +9.975376E-05 -2.961794E-04 -2.544945E-04 -2.961794E-04 +6.797278E-03 
 +7.498121E-05 -4.036531E-04 +1.679953E-04 -4.036531E-04 +2.333794E-04 -3.396778E-04 +1.679953E-04 -3.396778E-04 +7.070602E-03 
 +2.596118E-04 +3.725755E-04 -4.280431E-05 +3.725755E-04 -3.209787E-04 +1.837634E-04 -4.280431E-05 +1.837634E-04 +7.297854E-03 
 +2.270097E-04 +3.286784E-04 -7.407904E-05 +3.286784E-04 -1.193274E-04 -1.572709E-04 -7.407904E-05 -1.572709E-04 +7.357294E-03 
 -1.842603E-04 -2.014724E-04 +6.928373E-04 -2.014724E-04 -1.347895E-04 +4.600803E-04 +6.928373E-04 +4.600803E-04 +7.872187E-03 
 +8.042239E-05 -6.907125E-04 -1.826040E-05 -6.907125E-04 -1.524117E-04 +1.502425E-04 -1.826040E-05 +1.502425E-04 +7.512677E-03 
 -3.554636E-05 +6.571593E-04 -5.460307E-04 +6.571593E-04 -1.127078E-04 +2.429066E-04 -5.460307E-04 +2.429066E-04 +7.473973E-03 
 -5.972201E-04 -4.937630E-04 +1.135069E-04 -4.937630E-04 -6.912138E-05 +2.167506E-04 +1.135069E-04 +2.167506E-04 +8.052007E-03 
 -2.727073E-04 +6.170341E-04 +1.339511E-04 +6.170341E-04 -1.156293E-04 -2.793669E-04 +1.339511E-04 -2.793669E-04 +7.474306E-03 
 -1.789044E-04 -1.392590E-04 +3.000133E-04 -1.392590E-04 +3.125265E-04 +4.257658E-04 +3.000133E-04 +4.257658E-04 +7.108934E-03 
 -2.911609E-05 -5.870428E-04 -3.964153E-04 -5.870428E-04 +1.105884E-04 +5.553295E-04 -3.964153E-04 +5.553295E-04 +7.385362E-03 
 +2.859468E-04 +2.377170E-04 -7.185814E-04 +2.377170E-04 -1.222404E-04 -2.835199E-04 -7.185814E-04 -2.835199E-04 +7.536498E-03 
 +4.155812E-04 -1.230205E-03 -1.095771E-04 -1.230205E-03 -4.557565E-04 -5.457763E-05 -1.095771E-04 -5.457763E-05 +7.647023E-03 
 +1.302244E-04 -1.368124E-05 +1.241989E-04 -1.368124E-05 +2.711538E-04 -1.178808E-04 +1.241989E-04 -1.178808E-04 +7.376051E-03 
 +1.321784E-05 +3.853514E-04 -3.837216E-04 +3.853514E-04 +1.981755E-04 -3.067557E-04 -3.837216E-04 -3.067557E-04 +7.014030E-03 
 -7.614703E-05 -2.781745E-04 -4.994052E-04 -2.781745E-04 +2.519107E-04 +1.882901E-04 -4.994052E-04 +1.882901E-04 +7.123633E-03 
 +1.113094E-04 -4.427788E-04 -4.281614E-05 -4.427788E-04 -4.361793E-04 +1.885348E-04 -4.281614E-05 +1.885348E-04 +7.301227E-03 
 +1.363899E-04 +1.185257E-04 -5.894632E-04 +1.185257E-04 +4.485193E-04 +6.901484E-04 -5.894632E-04 +6.901484E-04 +7.207454E-03 
 +2.703695E-04 +3.182153E-04 -2.572817E-04 +3.182153E-04 -5.350576E-04 +4.427106E-05 -2.572817E-04 +4.427106E-05 +7.696889E-03 
 -2.775890E-04 -3.764397E-04 -9.362459E-05 -3.764397E-04 -1.400623E-05 -4.639827E-04 -9.362459E-05 -4.639827E-04 +7.489397E-03 
 +1.808090E-04 -1.392126E-04 +1.765906E-04 -1.392126E-04 +7.815503E-05 -4.371789E-04 +1.765906E-04 -4.371789E-04 +7.486042E-03 
 +1.280187E-04 +1.110178E-03 +1.900799E-04 +1.110178E-03 -1.492717E-04 +2.133879E-04 +1.900799E-04 +2.133879E-04 +7.660010E-03 
 -4.978593E-04 +5.972665E-04 +1.211758E-04 +5.972665E-04 +5.143728E-04 +5.902730E-05 +1.211758E-04 +5.902730E-05 +7.399136E-03 
 +1.087633E-04 +1.161121E-04 +1.107089E-04 +1.161121E-04 +2.314386E-04 +1.388384E-04 +1.107089E-04 +1.388384E-04 +7.151588E-03 
 -3.266052E-05 +1.283001E-04 -1.563229E-05 +1.283001E-04 -2.502267E-04 -6.428125E-04 -1.563229E-05 -6.428125E-04 +7.556502E-03 
 -5.040040E-04 +4.639601E-04 -1.767378E-04 +4.639601E-04 +1.881382E-04 -5.445968E-04 -1.767378E-04 -5.445968E-04 +7.702131E-03 
 -3.219775E-04 -1.564895E-03 -1.470344E-05 -1.564895E-03 -6.179899E-04 +1.536642E-04 -1.470344E-05 +1.536642E-04 +8.233095E-03 
 -4.872269E-05 +7.648595E-04 -7.434370E-05 +7.648595E-04 -1.207293E-04 +2.769328E-04 -7.434370E-05 +2.769328E-04 +7.605013E-03 
 +9.307484E-05 -4.349111E-05 +3.907100E-04 -4.349111E-05 +6.619235E-04 -3.195873E-04 +3.907100E-04 -3.195873E-04 +7.061701E-03 
 -1.433781E-05 +5.293963E-04 +2.298335E-04 +5.293963E-04 -2.731290E-04 +3.974446E-04 +2.298335E-04 +3.974446E-04 +7.811070E-03 
 -1.168025E-04 +4.699256E-04 -9.729704E-05 +4.699256E-04 +7.896537E-05 -7.074702E-08 -9.729704E-05 -7.074702E-08 +7.604774E-03 
 +2.015301E-04 -7.180464E-04 +3.213008E-04 -7.180464E-04 +2.541016E-04 -2.193108E-04 +3.213008E-04 -2.193108E-04 +6.835443E-03 
 +3.385081E-04 -5.153836E-04 -2.654114E-04 -5.153836E-04 -1.867894E-04 -4.194207E-05 -2.654114E-04 -4.194207E-05 +7.139675E-03 
 -2.725284E-04 -8.134432E-04 -1.368928E-04 -8.134432E-04 -2.147481E-04 +7.646469E-05 -1.368928E-04 +7.646469E-05 +7.558676E-03 
 -1.887698E-05 +7.687768E-04 -4.191069E-04 +7.687768E-04 -1.344903E-04 +1.160731E-04 -4.191069E-04 +1.160731E-04 +7.485281E-03 
 -5.861878E-05 -3.661262E-04 -4.929450E-04 -3.661262E-04 +1.281355E-04 +2.889520E-04 -4.929450E-04 +2.889520E-04 +7.485000E-03 
 -4.876736E-04 -3.081182E-04 -2.259145E-04 -3.081182E-04 +4.099508E-04 +2.512471E-04 -2.259145E-04 +2.512471E-04 +7.555663E-03 
 +5.481742E-05 -4.332486E-04 +2.282556E-04 -4.332486E-04 -3.974719E-04 -4.206192E-04 +2.282556E-04 -4.206192E-04 +7.678388E-03 
 -1.290234E-05 -4.023603E-04 +2.446224E-04 -4.023603E-04 +1.674290E-04 -6.027801E-04 +2.446224E-04 -6.027801E-04 +7.554544E-03 
 -1.128695E-04 +3.992848E-04 -4.969572E-04 +3.992848E-04 +1.070393E-04 +6.753294E-04 -4.969572E-04 +6.753294E-04 +7.578227E-03 
 -4.766552E-05 -6.266598E-04 +2.915168E-04 -6.266598E-04 -6.322694E-04 -4.844557E-05 +2.915168E-04 -4.844557E-05 +7.793047E-03 
 +8.823173E-05 +5.192466E-04 +5.165823E-04 +5.192466E-04 +2.981635E-04 -1.606954E-04 +5.165823E-04 -1.606954E-04 +7.014988E-03 
 +4.050417E-04 +7.375257E-05 +3.925998E-04 +7.375257E-05 -8.554984E-05 +3.475050E-04 +3.925998E-04 +3.475050E-04 +7.002042E-03 
 -2.998700E-04 +7.382712E-04 -3.437951E-04 +7.382712E-04 +2.423579E-04 -1.933093E-04 -3.437951E-04 -1.933093E-04 +7.258824E-03 
 -2.854557E-04 +5.766000E-04 -4.195771E-04 +5.766000E-04 +3.761229E-04 -3.976129E-04 -4.195771E-04 -3.976129E-04 +7.512429E-03 
 -1.190553E-04 -5.596580E-04 +3.004697E-04 -5.596580E-04 -3.156590E-04 +5.286354E-05 +3.004697E-04 +5.286354E-05 +7.808412E-03 
 -5.368070E-04 -1.854999E-04 -1.763419E-04 -1.854999E-04 +2.955317E-04 -1.913608E-04 -1.763419E-04 -1.913608E-04 +7.878690E-03 
 -1.972610E-04 -7.213645E-04 -9.426528E-04 -7.213645E-04 -5.431535E-05 +3.144901E-04 -9.426528E-04 +3.144901E-04 +7.344656E-03 
 +1.162585E-04 -3.490135E-04 +2.477108E-04 -3.490135E-04 -1.527321E-04 +1.820259E-04 +2.477108E-04 +1.820259E-04 +7.582708E-03 
 +1.644318E-04 -4.655324E-04 -3.794063E-05 -4.655324E-04 +3.288582E-04 +5.636011E-04 -3.794063E-05 +5.636011E-04 +7.301311E-03 
 +4.943183E-05 +2.229377E-04 -5.395149E-04 +2.229377E-04 +4.141109E-04 -1.273068E-04 -5.395149E-04 -1.273068E-04 +7.112039E-03 
 +8.890612E-05 +8.855375E-04 -3.461834E-04 +8.855375E-04 -2.134738E-04 +3.470297E-04 -3.461834E-04 +3.470297E-04 +7.629322E-03 
 +7.110066E-05 -6.324043E-04 -7.440516E-05 -6.324043E-04 -6.319717E-05 +1.597990E-04 -7.440516E-05 +1.597990E-04 +7.817473E-03 
 +3.716604E-04 -1.313338E-03 +5.479623E-04 -1.313338E-03 -1.356684E-04 +2.781350E-04 +5.479623E-04 +2.781350E-04 +7.490437E-03 
 -3.873846E-04 +4.278372E-04 +4.679174E-05 +4.278372E-04 +6.923175E-05 -6.286739E-05 +4.679174E-05 -6.286739E-05 +7.546828E-03 
 -2.436681E-04 -1.322211E-04 -3.208151E-04 -1.322211E-04 -4.686977E-05 -9.421432E-05 -3.208151E-04 -9.421432E-05 +7.736996E-03 
 +1.968866E-04 -4.900128E-04 +3.216144E-04 -4.900128E-04 -4.244146E-04 +2.813678E-05 +3.216144E-04 +2.813678E-05 +7.668667E-03 
 -3.438926E-04 -2.492151E-04 +7.349189E-04 -2.492151E-04 +1.098062E-04 -4.543751E-04 +7.349189E-04 -4.543751E-04 +7.251837E-03 
 +3.400697E-04 +4.001287E-04 +5.536632E-04 +4.001287E-04 +3.022320E-04 +4.396287E-04 +5.536632E-04 +4.396287E-04 +7.317482E-03 
 +2.271035E-04 -3.279604E-04 +3.414389E-04 -3.279604E-04 -3.882699E-04 +8.433744E-06 +3.414389E-04 +8.433744E-06 +7.519948E-03 
 +1.085985E-04 +1.835755E-04 +2.238831E-05 +1.835755E-04 +5.685349E-04 +3.696107E-04 +2.238831E-05 +3.696107E-04 +6.988579E-03 
 +2.238223E-04 -1.318007E-04 -5.202262E-04 -1.318007E-04 -2.969457E-05 -3.417019E-04 -5.202262E-04 -3.417019E-04 +6.990163E-03 
 -1.693232E-04 +1.135690E-03 -1.093028E-05 +1.135690E-03 -4.069953E-04 +3.717172E-04 -1.093028E-05 +3.717172E-04 +7.920289E-03 
 -2.157450E-04 -9.937669E-04 -1.640311E-04 -9.937669E-04 +1.032232E-04 +3.949709E-04 -1.640311E-04 +3.949709E-04 +7.706943E-03 
 +2.147479E-04 +7.259520E-04 +1.646584E-04 +7.259520E-04 +6.312388E-05 +5.021525E-04 +1.646584E-04 +5.021525E-04 +7.604605E-03 
 +1.157326E-05 +8.721004E-04 -9.437030E-05 +8.721004E-04 -2.377844E-05 -3.372304E-05 -9.437030E-05 -3.372304E-05 +7.375241E-03 
 +2.171142E-04 +3.706209E-04 +3.124652E-04 +3.706209E-04 -9.082238E-05 +8.201595E-04 +3.124652E-04 +8.201595E-04 +7.243814E-03 
 +4.172155E-04 +3.773642E-05 +2.828316E-04 +3.773642E-05 +2.423794E-04 +4.305619E-04 +2.828316E-04 +4.305619E-04 +7.072916E-03 
 -2.760352E-04 -3.508097E-04 +3.895150E-04 -3.508097E-04 -6.970714E-07 +7.263593E-04 +3.895150E-04 +7.263593E-04 +7.376791E-03 
 +2.512057E-04 -1.779392E-04 -3.944627E-04 -1.779392E-04 +1.080075E-04 +1.416911E-04 -3.944627E-04 +1.416911E-04 +7.071584E-03 
 +1.282599E-04 +1.153013E-04 -4.023566E-04 +1.153013E-04 -1.240725E-04 +2.140815E-05 -4.023566E-04 +2.140815E-05 +7.530429E-03 
 -3.460935E-04 +1.039463E-04 -1.815497E-04 +1.039463E-04 +2.221398E-04 +3.767963E-04 -1.815497E-04 +3.767963E-04 +7.453411E-03 
 +2.978513E-05 +1.221992E-03 +4.954784E-05 +1.221992E-03 -2.749410E-05 -5.301418E-04 +4.954784E-05 -5.301418E-04 +7.448310E-03 
 +1.481415E-04 -7.579456E-04 +5.535972E-04 -7.579456E-04 -4.952076E-05 -8.920899E-04 +5.535972E-04 -8.920899E-04 +7.602212E-03 
 +1.883319E-04 -3.584867E-04 +1.780246E-04 -3.584867E-04 -4.099772E-04 +9.281941E-05 +1.780246E-04 +9.281941E-05 +7.562902E-03 
 -2.453777E-04 -1.119922E-03 +1.254183E-04 -1.119922E-03 +1.613820E-04 +1.032685E-05 +1.254183E-04 +1.032685E-05 +7.760918E-03 
 -3.811891E-04 +6.484568E-05 -2.553036E-04 +6.484568E-05 -2.342809E-05 -6.976711E-04 -2.553036E-04 -6.976711E-04 +8.009195E-03 
 +3.914037E-05 -5.847997E-04 -5.801573E-07 -5.847997E-04 -4.483331E-04 -3.478677E-04 -5.801573E-07 -3.478677E-04 +7.920928E-03 
 -2.595703E-04 -1.144433E-04 -5.091346E-05 -1.144433E-04 +2.214212E-04 -5.614350E-05 -5.091346E-05 -5.614350E-05 +7.559787E-03 
 +1.174091E-04 -3.864948E-06 -2.868802E-04 -3.864948E-06 +3.128729E-04 +8.393201E-04 -2.868802E-04 +8.393201E-04 +7.413924E-03 
 +2.845959E-04 +5.968129E-05 +1.969182E-04 +5.968129E-05 -1.053298E-06 -7.073649E-04 +1.969182E-04 -7.073649E-04 +7.467590E-03 
 +2.344485E-04 +2.094656E-04 +4.787871E-04 +2.094656E-04 +1.193076E-04 +5.887076E-04 +4.787871E-04 +5.887076E-04 +7.209272E-03 
 -4.820230E-05 -2.270511E-04 +1.766284E-04 -2.270511E-04 -1.168208E-04 -7.727518E-05 +1.766284E-04 -7.727518E-05 +7.337912E-03 
 -6.606895E-05 +1.306444E-03 -5.827558E-04 +1.306444E-03 +1.802459E-05 -5.000002E-04 -5.827558E-04 -5.000002E-04 +7.509267E-03 
 +4.493353E-05 -2.122071E-04 -7.393839E-04 -2.122071E-04 -2.332670E-04 -2.637104E-04 -7.393839E-04 -2.637104E-04 +7.576435E-03 
 +8.694561E-05 +5.232021E-04 -2.607515E-04 +5.232021E-04 +3.199481E-04 +8.809067E-05 -2.607515E-04 +8.809067E-05 +7.258961E-03 
 -2.375020E-04 +6.215894E-04 +3.739031E-04 +6.215894E-04 -1.997604E-04 +1.675679E-04 +3.739031E-04 +1.675679E-04 +7.805648E-03 
 -1.687879E-05 +1.668840E-04 +5.354250E-04 +1.668840E-04 +6.107984E-05 -1.960409E-04 +5.354250E-04 -1.960409E-04 +7.767149E-03 
 +2.728317E-05 +1.362779E-03 -5.827754E-05 +1.362779E-03 -6.887202E-05 -5.243704E-05 -5.827754E-05 -5.243704E-05 +7.862540E-03 
 -5.195985E-04 +2.684823E-04 -4.654754E-05 +2.684823E-04 +2.123016E-04 -4.935559E-04 -4.654754E-05 -4.935559E-04 +7.484808E-03 
 +1.943361E-04 -3.233234E-04 +1.077935E-04 -3.233234E-04 -2.971732E-04 +4.911207E-05 +1.077935E-04 +4.911207E-05 +7.886850E-03 
 +1.310177E-04 +2.512353E-04 -2.240533E-04 +2.512353E-04 +3.623019E-04 -3.428439E-04 -2.240533E-04 -3.428439E-04 +7.414247E-03 
 +1.880587E-04 -4.199277E-04 -2.496576E-04 -4.199277E-04 -3.419140E-04 +2.617710E-04 -2.496576E-04 +2.617710E-04 +7.601728E-03 
 +3.480515E-04 +9.947224E-04 -1.085974E-04 +9.947224E-04 -2.396035E-04 -3.490677E-04 -1.085974E-04 -3.490677E-04 +7.352415E-03 
 -2.127977E-04 +3.864460E-04 +3.021889E-04 +3.864460E-04 +5.903358E-04 +2.306514E-04 +3.021889E-04 +2.306514E-04 +7.337359E-03 
 +8.878216E-05 -2.673800E-04 +1.696734E-04 -2.673800E-04 -6.774245E-04 -2.172167E-04 +1.696734E-04 -2.172167E-04 +7.562741E-03 
 +1.740681E-04 -5.967022E-04 +8.185544E-04 -5.967022E-04 +9.635172E-05 +5.930968E-04 +8.185544E-04 +5.930968E-04 +7.030721E-03 
 -5.616985E-05 -2.416061E-04 +3.231929E-04 -2.416061E-04 +2.081126E-04 +1.035480E-04 +3.231929E-04 +1.035480E-04 +7.056951E-03 
 +8.311210E-05 -4.434756E-04 -3.196334E-04 -4.434756E-04 -1.298359E-04 +3.964238E-04 -3.196334E-04 +3.964238E-04 +7.126632E-03 
 -4.627205E-04 -1.910329E-04 +6.581796E-04 -1.910329E-04 +1.612699E-04 +7.172641E-05 +6.581796E-04 +7.172641E-05 +7.699827E-03 
 -1.931954E-04 -3.403529E-04 +3.384700E-04 -3.403529E-04 -1.977266E-05 +5.560724E-04 +3.384700E-04 +5.560724E-04 +7.452414E-03 
 +7.162381E-05 -1.793126E-04 +2.787242E-04 -1.793126E-04 +1.985023E-04 -2.067776E-05 +2.787242E-04 -2.067776E-05 +7.161529E-03 
 -6.922050E-04 -1.131097E-03 +2.004129E-04 -1.131097E-03 -2.244959E-04 -2.953270E-04 +2.004129E-04 -2.953270E-04 +8.060365E-03 
 -6.079954E-04 +1.762391E-04 +1.414530E-05 +1.762391E-04 +1.058468E-04 +1.632045E-04 +1.414530E-05 +1.632045E-04 +7.852696E-03 
 +1.595832E-04 +5.759313E-04 -9.739942E-05 +5.759313E-04 -2.521909E-04 +4.453542E-04 -9.739942E-05 +4.453542E-04 +7.339320E-03 
 +6.666042E-05 +1.950428E-04 -2.575541E-04 +1.950428E-04 +1.348106E-04 -3.788405E-04 -2.575541E-04 -3.788405E-04 +7.275611E-03 
 +1.554058E-04 -2.730521E-04 +9.241950E-05 -2.730521E-04 -5.974268E-05 +3.753172E-04 +9.241950E-05 +3.753172E-04 +7.591091E-03 
 +8.569846E-05 +4.079394E-04 +4.264044E-04 +4.079394E-04 +1.810472E-04 +4.163048E-05 +4.264044E-04 +4.163048E-05 +7.164977E-03 
 +1.609024E-04 +3.550402E-04 +7.248235E-05 +3.550402E-04 +9.498969E-05 +7.374336E-04 +7.248235E-05 +7.374336E-04 +7.343992E-03 
 -1.922796E-04 +1.162200E-03 -4.141992E-04 +1.162200E-03 -1.062607E-04 -3.919422E-04 -4.141992E-04 -3.919422E-04 +7.811215E-03 
 -4.253763E-04 +8.254946E-04 +7.975462E-05 +8.254946E-04 +4.283324E-04 +1.539721E-04 +7.975462E-05 +1.539721E-04 +7.827061E-03 
 +3.898667E-04 -6.049552E-04 +4.353029E-04 -6.049552E-04 -1.074364E-04 +2.412641E-04 +4.353029E-04 +2.412641E-04 +6.939456E-03 
 +1.108508E-04 +2.580229E-04 -1.570703E-04 +2.580229E-04 -1.453291E-04 -7.666845E-05 -1.570703E-04 -7.666845E-05 +7.314195E-03 
 +3.230165E-04 +2.115670E-04 +3.859533E-04 +2.115670E-04 +1.381542E-04 +2.584397E-04 +3.859533E-04 +2.584397E-04 +7.035256E-03 
 +3.074879E-04 -9.117220E-05 +8.928416E-05 -9.117220E-05 -1.750910E-05 +4.696110E-04 +8.928416E-05 +4.696110E-04 +7.128491E-03 
 -8.499911E-05 +6.085600E-04 +1.646559E-04 +6.085600E-04 -6.669893E-05 +4.008232E-04 +1.646559E-04 +4.008232E-04 +7.391811E-03 
 +2.272779E-05 -4.357891E-04 +1.349271E-03 -4.357891E-04 -2.063794E-04 -3.728177E-04 +1.349271E-03 -3.728177E-04 +7.323916E-03 
 -1.023989E-05 -3.728814E-04 -1.488599E-04 -3.728814E-04 +4.496306E-05 +6.792852E-04 -1.488599E-04 +6.792852E-04 +7.717477E-03 
 +2.094333E-04 +3.895597E-04 -4.032880E-04 +3.895597E-04 +3.910300E-06 -3.127701E-04 -4.032880E-04 -3.127701E-04 +7.465684E-03 
 +1.274181E-04 -9.496283E-04 +2.851577E-06 -9.496283E-04 -8.383796E-05 -4.688700E-04 +2.851577E-06 -4.688700E-04 +7.802015E-03 
 -5.419576E-04 +1.401070E-04 -4.513246E-04 +1.401070E-04 +3.259130E-04 -1.957247E-04 -4.513246E-04 -1.957247E-04 +7.634767E-03 
 -3.848356E-04 -1.278154E-03 +5.330162E-04 -1.278154E-03 -3.323200E-05 -4.947771E-05 +5.330162E-04 -4.947771E-05 +7.627559E-03 
 -4.379953E-04 +8.572452E-04 +3.053887E-04 +8.572452E-04 -3.475549E-04 +7.394324E-05 +3.053887E-04 +7.394324E-05 +8.311336E-03 
 -5.081439E-04 +3.788476E-05 +1.500273E-04 +3.788476E-05 +1.444000E-04 +7.261881E-05 +1.500273E-04 +7.261881E-05 +7.757746E-03 
 -4.516280E-04 +4.159921E-04 -4.715602E-04 +4.159921E-04 +4.813567E-04 +1.834735E-04 -4.715602E-04 +1.834735E-04 +7.676000E-03 
 +9.859802E-05 +8.446798E-05 +5.750090E-05 +8.446798E-05 -5.899980E-04 -2.649238E-04 +5.750090E-05 -2.649238E-04 +7.963471E-03 
 -3.462039E-04 -8.871032E-04 +4.876539E-04 -8.871032E-04 +1.268615E-04 -1.485815E-04 +4.876539E-04 -1.485815E-04 +7.667509E-03 
 -3.979105E-05 -9.836557E-05 -2.573417E-04 -9.836557E-05 +1.356723E-04 +6.039111E-04 -2.573417E-04 +6.039111E-04 +7.522927E-03 
 +3.111342E-04 +9.260303E-05 -1.648535E-04 +9.260303E-05 -2.194819E-04 -6.721976E-05 -1.648535E-04 -6.721976E-05 +7.654023E-03 
 +1.185387E-04 +5.444891E-04 +3.635677E-05 +5.444891E-04 -3.422242E-04 -3.585878E-04 +3.635677E-05 -3.585878E-04 +7.888973E-03 
 +2.130317E-04 -2.556057E-04 +4.765943E-04 -2.556057E-04 +4.435365E-04 -4.540567E-04 +4.765943E-04 -4.540567E-04 +7.027993E-03 
 +6.218663E-05 +2.276232E-04 +1.798919E-04 +2.276232E-04 +6.886985E-04 -6.316573E-04 +1.798919E-04 -6.316573E-04 +6.819649E-03 
 +3.690475E-04 +1.853072E-04 -1.273733E-04 +1.853072E-04 -2.679208E-04 -1.427951E-04 -1.273733E-04 -1.427951E-04 +7.521632E-03 
 +2.879253E-04 -2.267491E-04 -1.114804E-05 -2.267491E-04 -1.138387E-05 +3.285590E-04 -1.114804E-05 +3.285590E-04 +7.397810E-03 
 -1.586825E-04 +9.725835E-05 -4.886175E-04 +9.725835E-05 +1.555236E-04 +3.079440E-05 -4.886175E-04 +3.079440E-05 +7.410331E-03 
 +1.761765E-04 -5.605408E-04 +5.414380E-04 -5.605408E-04 -2.136070E-04 +3.122271E-05 +5.414380E-04 +3.122271E-05 +7.525894E-03 
 +5.018562E-05 -4.612728E-04 +9.680155E-04 -4.612728E-04 -2.019043E-04 -1.306346E-04 +9.680155E-04 -1.306346E-04 +7.714005E-03 
 -3.119249E-04 +4.716763E-04 -4.399134E-04 +4.716763E-04 -6.525537E-05 -1.309306E-04 -4.399134E-04 -1.309306E-04 +7.732759E-03 
 +4.652141E-05 -1.537800E-04 -2.058796E-04 -1.537800E-04 +1.379804E-04 -9.704015E-05 -2.058796E-04 -9.704015E-05 +7.250353E-03 
 +1.481953E-04 +9.240523E-04 -1.888900E-04 +9.240523E-04 -3.534814E-04 +3.737846E-05 -1.888900E-04 +3.737846E-05 +7.541881E-03 
 +1.572179E-04 -5.496166E-04 +9.212287E-05 -5.496166E-04 +2.256584E-04 +5.505251E-04 +9.212287E-05 +5.505251E-04 +7.356393E-03 
 -4.564754E-05 +5.062107E-04 +1.833623E-04 +5.062107E-04 +9.554414E-05 -3.618600E-04 +1.833623E-04 -3.618600E-04 +7.329587E-03 
 -7.856745E-05 -1.332621E-03 -3.700830E-04 -1.332621E-03 -2.682818E-04 -7.689881E-05 -3.700830E-04 -7.689881E-05 +7.764824E-03 
 -6.613652E-05 +5.574865E-04 +1.212353E-04 +5.574865E-04 +1.405911E-04 +1.525247E-04 +1.212353E-04 +1.525247E-04 +7.272971E-03 
 +1.497004E-05 +8.409476E-04 -5.515542E-04 +8.409476E-04 +3.991084E-04 -6.585286E-05 -5.515542E-04 -6.585286E-05 +7.197602E-03 
 -8.735101E-05 -7.809427E-04 -1.956474E-04 -7.809427E-04 +3.096987E-07 +2.709548E-04 -1.956474E-04 +2.709548E-04 +7.270168E-03 
 +9.683514E-05 -9.152919E-04 -1.915774E-05 -9.152919E-04 -1.114639E-04 +8.400020E-05 -1.915774E-05 +8.400020E-05 +7.330375E-03 
 -1.825067E-04 -6.065588E-04 -5.908250E-04 -6.065588E-04 -3.669366E-04 -1.492916E-04 -5.908250E-04 -1.492916E-04 +7.940222E-03 
 -2.459021E-04 -4.027005E-04 -1.035021E-04 -4.027005E-04 +1.209676E-04 -4.404537E-04 -1.035021E-04 -4.404537E-04 +7.780600E-03 
 -7.533927E-05 +6.416497E-04 -1.329037E-04 +6.416497E-04 -2.050083E-04 -3.754041E-04 -1.329037E-04 -3.754041E-04 +7.655337E-03 
 +3.631519E-04 +1.189382E-04 +1.824532E-04 +1.189382E-04 +2.309587E-04 +6.782533E-04 +1.824532E-04 +6.782533E-04 +6.945866E-03 
 -1.083492E-04 -6.119092E-04 +1.056190E-04 -6.119092E-04 +2.072267E-04 +5.000957E-04 +1.056190E-04 +5.000957E-04 +7.196954E-03 
 -1.516842E-04 -5.327049E-04 +3.472800E-04 -5.327049E-04 +1.987680E-04 -1.561381E-04 +3.472800E-04 -1.561381E-04 +7.658108E-03 
 +1.249588E-04 +4.377960E-04 +1.980014E-04 +4.377960E-04 -8.046089E-05 -6.476131E-04 +1.980014E-04 -6.476131E-04 +7.360834E-03 
 -1.391069E-04 -2.423807E-04 +4.930823E-04 -2.423807E-04 +2.311444E-04 -3.939628E-04 +4.930823E-04 -3.939628E-04 +7.391482E-03 
 -1.940020E-04 +1.296090E-04 +6.585754E-05 +1.296090E-04 +3.377590E-05 -7.694450E-05 +6.585754E-05 -7.694450E-05 +7.930872E-03 
 +1.375575E-04 -5.816908E-04 -6.135401E-04 -5.816908E-04 -5.159224E-04 -1.107971E-04 -6.135401E-04 -1.107971E-04 +7.905150E-03 
 -2.661774E-04 +8.256280E-05 -5.208043E-04 +8.256280E-05 +2.442737E-04 +2.160059E-04 -5.208043E-04 +2.160059E-04 +7.485413E-03 
 +8.121358E-05 +1.206357E-03 -1.550228E-04 +1.206357E-03 -1.316552E-06 -1.823268E-04 -1.550228E-04 -1.823268E-04 +7.526938E-03 
 +1.981839E-04 +1.602034E-04 +2.729689E-04 +1.602034E-04 -2.357983E-04 +3.638252E-04 +2.729689E-04 +3.638252E-04 +8.018199E-03 
 -2.216780E-04 -8.979456E-04 -4.605897E-04 -8.979456E-04 +7.847512E-05 -3.992687E-04 -4.605897E-04 -3.992687E-04 +7.551939E-03 
 +9.540021E-05 +7.136164E-04 -6.377973E-04 +7.136164E-04 +4.585019E-04 -9.624224E-07 -6.377973E-04 -9.624224E-07 +7.199226E-03 
 -3.338660E-06 -5.055878E-04 -2.093464E-04 -5.055878E-04 -3.854507E-04 +6.886023E-04 -2.093464E-04 +6.886023E-04 +7.617465E-03 
 -1.342105E-04 -8.062015E-04 -5.466369E-06 -8.062015E-04 -4.060665E-04 +4.889198E-04 -5.466369E-06 +4.889198E-04 +7.502446E-03 
 -4.273618E-04 -2.092151E-04 +3.644864E-05 -2.092151E-04 +3.360685E-04 -5.223096E-04 +3.644864E-05 -5.223096E-04 +7.415897E-03 
 -3.990553E-04 +6.143680E-04 -6.544801E-05 +6.143680E-04 +4.541720E-04 -3.265145E-04 -6.544801E-05 -3.265145E-04 +7.483183E-03 
 -2.005635E-04 +6.693347E-05 +3.016223E-04 +6.693347E-05 -2.063880E-04 -9.210780E-05 +3.016223E-04 -9.210780E-05 +7.521807E-03 
 +1.040220E-04 -3.043051E-04 +6.255735E-04 -3.043051E-04 -2.458598E-04 -6.919560E-04 +6.255735E-04 -6.919560E-04 +7.450877E-03 
 -8.948149E-05 -2.132817E-05 +3.677572E-04 -2.132817E-05 -1.135333E-04 +1.044756E-04 +3.677572E-04 +1.044756E-04 +7.595697E-03 
 -2.835416E-04 -8.140313E-04 +9.466512E-05 -8.140313E-04 -1.429569E-04 -5.306912E-04 +9.466512E-05 -5.306912E-04 +7.786985E-03 
 +1.584149E-04 +8.471043E-04 +5.241935E-04 +8.471043E-04 -1.404792E-04 +2.490465E-04 +5.241935E-04 +2.490465E-04 +7.397795E-03 
 +6.227475E-05 +8.691748E-04 +2.602135E-04 +8.691748E-04 +6.027360E-04 +6.847968E-04 +2.602135E-04 +6.847968E-04 +6.863722E-03 
 +4.377322E-04 -5.114498E-04 +2.813536E-04 -5.114498E-04 -6.284394E-04 +2.761194E-05 +2.813536E-04 +2.761194E-05 +7.335606E-03 
 +3.211193E-04 +1.556761E-04 +3.211476E-04 +1.556761E-04 -2.870782E-04 -4.419334E-04 +3.211476E-04 -4.419334E-04 +7.274789E-03 
 -2.995948E-04 +3.877492E-04 +1.882661E-04 +3.877492E-04 +1.402097E-04 -5.574296E-04 +1.882661E-04 -5.574296E-04 +7.480926E-03 
 -3.898938E-04 +8.480421E-04 +5.916934E-05 +8.480421E-04 -1.052113E-04 -2.475517E-04 +5.916934E-05 -2.475517E-04 +7.599935E-03 
 +5.073311E-06 +1.991120E-04 -9.106342E-05 +1.991120E-04 +2.358864E-04 -4.382405E-04 -9.106342E-05 -4.382405E-04 +7.311867E-03 
 -5.910186E-05 -2.361281E-04 -9.170297E-05 -2.361281E-04 -1.103573E-04 -4.974722E-04 -9.170297E-05 -4.974722E-04 +7.321650E-03 
 -2.894397E-04 -2.788591E-04 +5.000138E-04 -2.788591E-04 +2.883664E-04 +1.307167E-04 +5.000138E-04 +1.307167E-04 +7.440678E-03 
 +3.906512E-05 -7.062069E-04 -3.604014E-06 -7.062069E-04 -9.802849E-05 -3.503507E-04 -3.604014E-06 -3.503507E-04 +7.373133E-03 
 +4.151335E-04 +5.774356E-04 -4.789004E-04 +5.774356E-04 +8.345811E-05 +2.302691E-04 -4.789004E-04 +2.302691E-04 +7.002568E-03 
 -3.440176E-05 -3.684224E-04 +3.898286E-04 -3.684224E-04 -1.077415E-04 +5.505664E-05 +3.898286E-04 +5.505664E-05 +7.403979E-03 
 -5.002667E-04 +9.425536E-04 +1.693943E-04 +9.425536E-04 +4.069489E-04 -1.995722E-04 +1.693943E-04 -1.995722E-04 +7.806063E-03 
 +1.065374E-04 -1.420702E-03 -1.235271E-04 -1.420702E-03 -1.756906E-04 +3.223348E-04 -1.235271E-04 +3.223348E-04 +7.671800E-03 
 +2.680868E-04 +3.420826E-04 +1.983639E-04 +3.420826E-04 -5.824702E-04 -1.442236E-04 +1.983639E-04 -1.442236E-04 +7.766576E-03 
 -4.738328E-04 -5.803069E-04 +6.908416E-05 -5.803069E-04 +3.692539E-04 -3.437937E-05 +6.908416E-05 -3.437937E-05 +7.408503E-03 
 -9.736211E-05 +3.208247E-04 -1.159955E-04 +3.208247E-04 -4.098611E-05 +1.400198E-04 -1.159955E-04 +1.400198E-04 +7.514138E-03 
 +1.563036E-04 +3.416529E-04 -4.556247E-04 +3.416529E-04 -4.537121E-04 -8.345086E-04 -4.556247E-04 -8.345086E-04 +7.915559E-03 
 +1.630703E-05 +8.587164E-05 +9.259936E-05 +8.587164E-05 +2.801832E-04 -1.655581E-04 +9.259936E-05 -1.655581E-04 +8.064524E-03 
 +4.209236E-04 -2.383739E-04 +5.801764E-04 -2.383739E-04 -1.121742E-04 +7.210139E-05 +5.801764E-04 +7.210139E-05 +7.532821E-03 
 +4.713213E-04 -6.029470E-04 +6.316138E-04 -6.029470E-04 +6.556612E-05 -6.340434E-04 +6.316138E-04 -6.340434E-04 +7.104691E-03 
 -9.111549E-05 -5.089606E-04 +3.496527E-04 -5.089606E-04 +2.287678E-04 -3.867417E-05 +3.496527E-04 -3.867417E-05 +6.922542E-03 
 -8.404177E-04 +9.262529E-04 -4.930152E-04 +9.262529E-04 -1.428164E-05 -2.388244E-04 -4.930152E-04 -2.388244E-04 +8.217068E-03 
 -4.674669E-05 -1.429426E-03 -8.892309E-05 -1.429426E-03 -2.893080E-04 -9.339650E-05 -8.892309E-05 -9.339650E-05 +8.094030E-03 
 +3.040901E-04 +3.238200E-04 +1.219493E-04 +3.238200E-04 -4.100412E-04 -3.323072E-04 +1.219493E-04 -3.323072E-04 +7.844357E-03 
 -2.656858E-04 -1.414191E-04 +8.302914E-05 -1.414191E-04 +1.493876E-04 +3.086287E-04 +8.302914E-05 +3.086287E-04 +7.678758E-03 
 -1.274526E-04 +5.799021E-04 +1.609666E-04 +5.799021E-04 -1.486348E-04 -2.475257E-04 +1.609666E-04 -2.475257E-04 +7.448390E-03 
 +5.605746E-04 +4.745648E-04 -2.704568E-06 +4.745648E-04 +3.088894E-05 +5.913354E-04 -2.704568E-06 +5.913354E-04 +7.266673E-03 
 +2.173420E-04 +3.659102E-04 +4.292770E-05 +3.659102E-04 +1.153250E-04 -2.847275E-04 +4.292770E-05 -2.847275E-04 +7.433644E-03 
 -2.184806E-05 -2.379801E-04 -5.474444E-04 -2.379801E-04 +5.073106E-04 -7.111647E-05 -5.474444E-04 -7.111647E-05 +7.412963E-03 
 +1.017294E-04 -1.000286E-03 -1.100903E-04 -1.000286E-03 -3.829849E-05 +1.416454E-05 -1.100903E-04 +1.416454E-05 +7.348058E-03 
 +2.301906E-04 +4.555358E-04 +6.032144E-04 +4.555358E-04 +2.644075E-05 +3.021521E-05 +6.032144E-04 +3.021521E-05 +7.280986E-03 
 +5.633212E-04 +4.752499E-04 +6.704354E-07 +4.752499E-04 -9.096219E-05 -1.143195E-04 +6.704354E-07 -1.143195E-04 +7.109877E-03 
 +2.272588E-05 +1.327040E-04 -4.916571E-04 +1.327040E-04 -5.645797E-05 -4.784201E-04 -4.916571E-04 -4.784201E-04 +7.062251E-03 
 +4.161700E-05 -6.752199E-04 -5.915949E-05 -6.752199E-04 -2.335380E-04 +1.146271E-04 -5.915949E-05 +1.146271E-04 +7.348207E-03 
 +5.006109E-05 +2.249986E-04 +1.102445E-04 +2.249986E-04 +2.306289E-04 -5.762225E-04 +1.102445E-04 -5.762225E-04 +7.079629E-03 
 +5.744249E-05 -5.079883E-04 -4.195071E-05 -5.079883E-04 -8.942847E-05 -1.391876E-04 -4.195071E-05 -1.391876E-04 +7.427048E-03 
 +4.308782E-04 +3.902148E-04 +2.463167E-04 +3.902148E-04 -5.164028E-04 -3.342906E-04 +2.463167E-04 -3.342906E-04 +7.725658E-03 
 -1.159358E-04 -1.620961E-04 +7.666036E-05 -1.620961E-04 +2.190257E-04 +3.612251E-04 +7.666036E-05 +3.612251E-04 +7.062423E-03 
 +2.671096E-05 -4.062052E-04 -2.861362E-05 -4.062052E-04 +4.605607E-04 +7.070338E-04 -2.861362E-05 +7.070338E-04 +6.904755E-03 
 +5.069466E-04 -4.973026E-04 -1.133441E-04 -4.973026E-04 +8.618255E-05 +3.230195E-04 -1.133441E-04 +3.230195E-04 +7.233242E-03 
 +9.770583E-05 -2.867256E-04 -1.876007E-04 -2.867256E-04 -5.197108E-05 +7.578908E-04 -1.876007E-04 +7.578908E-04 +7.475640E-03 
 -9.142164E-04 -8.811097E-04 -3.069223E-04 -8.811097E-04 +1.137212E-04 -3.790749E-04 -3.069223E-04 -3.790749E-04 +7.900382E-03 
 -1.628190E-04 +8.016476E-05 -2.543524E-05 +8.016476E-05 -1.768130E-04 +3.895145E-04 -2.543524E-05 +3.895145E-04 +7.714618E-03 
 +3.161982E-04 -5.577558E-04 +2.379218E-04 -5.577558E-04 -7.304783E-05 +9.614747E-07 +2.379218E-04 +9.614747E-07 +7.209958E-03 
 -9.483439E-06 -4.310868E-04 +7.802892E-04 -4.310868E-04 -9.850140E-05 -5.979888E-05 +7.802892E-04 -5.979888E-05 +7.526564E-03 
 -4.339936E-05 -1.420151E-03 +9.260199E-05 -1.420151E-03 -1.612633E-04 +7.839968E-05 +9.260199E-05 +7.839968E-05 +7.645396E-03 
 -1.843621E-04 +3.096375E-04 -1.170186E-04 +3.096375E-04 -7.591557E-05 -3.367161E-04 -1.170186E-04 -3.367161E-04 +7.599708E-03 
 +1.249525E-04 -1.427704E-04 +3.350039E-04 -1.427704E-04 -5.493665E-05 +4.730678E-05 +3.350039E-04 +4.730678E-05 +7.682385E-03 
 +7.695463E-05 -2.476848E-04 +2.492851E-05 -2.476848E-04 +2.468550E-04 +2.667783E-04 +2.492851E-05 +2.667783E-04 +7.363616E-03 
 +2.999875E-04 +7.913226E-04 -7.529410E-04 +7.913226E-04 +4.745943E-05 -4.145275E-04 -7.529410E-04 -4.145275E-04 +7.028397E-03 
 -6.826772E-05 +9.018067E-04 -6.165047E-04 +9.018067E-04 +5.678284E-04 -3.684200E-04 -6.165047E-04 -3.684200E-04 +7.089818E-03 
 -2.808289E-04 -4.161777E-04 -2.303815E-04 -4.161777E-04 -2.275188E-04 +3.847551E-04 -2.303815E-04 +3.847551E-04 +7.941559E-03 
 +2.827981E-04 +1.282992E-04 +8.838919E-04 +1.282992E-04 +2.718272E-05 -2.875055E-04 +8.838919E-04 -2.875055E-04 +7.651771E-03 
 +2.176732E-04 -2.234312E-04 +8.316753E-04 -2.234312E-04 -6.944511E-04 +3.998887E-04 +8.316753E-04 +3.998887E-04 +7.726743E-03 
 +3.585221E-04 -6.197731E-04 -1.616316E-04 -6.197731E-04 +2.764823E-04 +2.323549E-04 -1.616316E-04 +2.323549E-04 +7.602949E-03 
 +1.970732E-04 -2.640183E-05 -9.452552E-05 -2.640183E-05 +1.651560E-04 -2.804281E-04 -9.452552E-05 -2.804281E-04 +7.536493E-03 
 +2.053030E-04 -5.082896E-04 -2.252510E-04 -5.082896E-04 -4.824779E-04 -2.126141E-04 -2.252510E-04 -2.126141E-04 +7.726602E-03 
 -1.146325E-04 +4.202941E-04 +4.217511E-04 +4.202941E-04 +1.614683E-04 +4.248202E-05 +4.217511E-04 +4.248202E-05 +7.184146E-03 
 -5.154416E-04 +1.712952E-04 +8.996617E-04 +1.712952E-04 +2.633150E-04 +1.413255E-04 +8.996617E-04 +1.413255E-04 +7.678192E-03 
 -3.030629E-04 -3.103104E-04 +3.451542E-04 -3.103104E-04 +3.362639E-04 -5.717287E-04 +3.451542E-04 -5.717287E-04 +7.513922E-03 
 -5.180005E-05 +1.160302E-04 +4.073147E-04 +1.160302E-04 +3.566887E-04 -1.201071E-05 +4.073147E-04 -1.201071E-05 +7.164347E-03 
 +1.570632E-04 +2.460168E-04 +4.009014E-05 +2.460168E-04 -1.428577E-04 -2.273032E-04 +4.009014E-05 -2.273032E-04 +7.826594E-03 
 -6.021275E-04 +4.739563E-04 -3.117552E-04 +4.739563E-04 -2.614989E-04 -7.768135E-05 -3.117552E-04 -7.768135E-05 +8.056274E-03 
 +1.965064E-04 +1.303420E-04 -5.037696E-04 +1.303420E-04 +5.316741E-05 -3.781604E-04 -5.037696E-04 -3.781604E-04 +7.479703E-03 
 +2.135656E-04 +5.622602E-05 +7.595976E-05 +5.622602E-05 -3.815462E-04 +1.852450E-04 +7.595976E-05 +1.852450E-04 +7.764201E-03 
 -5.245542E-05 -7.931040E-05 -7.292474E-04 -7.931040E-05 -1.174542E-04 -3.194850E-04 -7.292474E-04 -3.194850E-04 +7.672334E-03 
 -3.289400E-04 -1.148859E-05 -2.749548E-04 -1.148859E-05 -1.457368E-05 -4.624049E-04 -2.749548E-04 -4.624049E-04 +7.570844E-03 
 -2.458824E-05 -4.777182E-04 -1.882270E-04 -4.777182E-04 -1.162866E-04 +7.876091E-05 -1.882270E-04 +7.876091E-05 +7.705219E-03 
 +1.644949E-04 -1.433913E-04 -5.356438E-04 -1.433913E-04 +2.008302E-04 +8.590006E-05 -5.356438E-04 +8.590006E-05 +7.227344E-03 
 +8.722943E-05 -1.545273E-04 -2.097361E-04 -1.545273E-04 +1.400535E-04 +5.229072E-04 -2.097361E-04 +5.229072E-04 +7.354117E-03 
 +3.830070E-06 +5.558492E-04 -9.975798E-05 +5.558492E-04 -5.368955E-04 -7.051809E-04 -9.975798E-05 -7.051809E-04 +7.832097E-03 
 -5.083737E-04 +1.682247E-04 +2.344748E-04 +1.682247E-04 +3.349069E-04 -4.154691E-04 +2.344748E-04 -4.154691E-04 +7.649676E-03 
 -3.498514E-04 -7.875283E-05 +1.041719E-04 -7.875283E-05 +8.577702E-04 +7.060309E-05 +1.041719E-04 +7.060309E-05 +7.026420E-03 
 -4.537449E-05 +9.127390E-04 +1.497809E-04 +9.127390E-04 -3.348819E-04 -1.071755E-04 +1.497809E-04 -1.071755E-04 +7.867406E-03 
 +6.688574E-05 -4.458202E-05 +4.777473E-06 -4.458202E-05 -6.417267E-04 +4.623772E-04 +4.777473E-06 +4.623772E-04 +7.685625E-03 
 +2.288729E-04 -1.383982E-04 +1.549203E-04 -1.383982E-04 +4.569841E-04 +2.259975E-04 +1.549203E-04 +2.259975E-04 +7.101791E-03 
 +5.388873E-04 -1.129345E-04 -1.785826E-04 -1.129345E-04 -3.295798E-04 +3.320902E-04 -1.785826E-04 +3.320902E-04 +7.322473E-03 
 +4.982187E-05 +3.104670E-04 +2.278920E-04 +3.104670E-04 +4.600714E-05 +7.351287E-04 +2.278920E-04 +7.351287E-04 +7.443732E-03 
 -6.544868E-04 -3.403626E-05 +4.320203E-04 -3.403626E-05 -1.571407E-05 +1.747623E-05 +4.320203E-04 +1.747623E-05 +7.964473E-03 
 -6.343401E-05 +4.198230E-04 -3.943779E-04 +4.198230E-04 +1.711796E-04 +2.263300E-05 -3.943779E-04 +2.263300E-05 +7.085615E-03 
 +1.056597E-04 -1.449483E-04 +3.618176E-04 -1.449483E-04 +1.391491E-04 -2.071379E-04 +3.618176E-04 -2.071379E-04 +6.953521E-03 
 -1.871193E-04 +1.646764E-04 +3.781548E-04 +1.646764E-04 +3.555396E-05 -5.855863E-05 +3.781548E-04 -5.855863E-05 +7.537644E-03 
 -3.433614E-05 +4.657967E-04 +5.183816E-04 +4.657967E-04 +2.680785E-04 -6.568103E-05 +5.183816E-04 -6.568103E-05 +7.029303E-03 
 +1.151546E-04 +7.065869E-05 +1.592968E-04 +7.065869E-05 -2.157291E-04 +2.274483E-05 +1.592968E-04 +2.274483E-05 +7.155441E-03 
 -6.075872E-05 +3.432092E-04 +5.118409E-04 +3.432092E-04 -2.708925E-05 -2.863794E-04 +5.118409E-04 -2.863794E-04 +7.496114E-03 
 -1.397432E-04 -5.999093E-04 -2.292727E-04 -5.999093E-04 -2.823869E-04 -3.590105E-04 -2.292727E-04 -3.590105E-04 +7.259966E-03 
 +4.850791E-04 +1.900753E-04 -2.426050E-04 +1.900753E-04 -2.213085E-04 +8.037558E-05 -2.426050E-04 +8.037558E-05 +7.350851E-03 
 -9.021439E-05 +5.723169E-04 -3.132243E-04 +5.723169E-04 +1.975264E-04 +3.077777E-05 -3.132243E-04 +3.077777E-05 +7.668079E-03 
 -3.027952E-04 -4.398070E-04 -4.548101E-04 -4.398070E-04 +4.491323E-04 +1.422283E-04 -4.548101E-04 +1.422283E-04 +7.364392E-03 
 -3.633639E-05 +1.103687E-03 -3.587739E-04 +1.103687E-03 -2.737826E-04 +2.085506E-04 -3.587739E-04 +2.085506E-04 +7.817195E-03 
 -1.278738E-04 +4.566476E-04 -6.752851E-05 +4.566476E-04 -2.845165E-04 -1.369247E-04 -6.752851E-05 -1.369247E-04 +7.751998E-03 
 -1.448648E-04 +2.329248E-04 -1.987312E-05 +2.329248E-04 +7.670419E-05 +1.748020E-04 -1.987312E-05 +1.748020E-04 +7.597357E-03 
 +9.130075E-05 -4.897025E-04 -3.398807E-04 -4.897025E-04 -1.000067E-04 +3.173571E-04 -3.398807E-04 +3.173571E-04 +7.581763E-03 
 +2.083390E-04 -3.712869E-05 +5.279433E-04 -3.712869E-05 +3.970917E-04 -1.531209E-04 +5.279433E-04 -1.531209E-04 +7.283138E-03 
 +1.383744E-04 +2.915893E-04 +2.182185E-04 +2.915893E-04 +1.425668E-04 -2.881024E-04 +2.182185E-04 -2.881024E-04 +6.967102E-03 
 -1.481977E-04 -4.537230E-04 -1.871346E-04 -4.537230E-04 +1.057565E-04 -4.534195E-04 -1.871346E-04 -4.534195E-04 +7.190565E-03 
 -1.385976E-04 +1.190453E-04 +1.585627E-04 +1.190453E-04 -1.598463E-05 +8.201160E-04 +1.585627E-04 +8.201160E-04 +7.429962E-03 
 +2.664627E-04 -4.205357E-04 +9.090312E-05 -4.205357E-04 -1.577678E-04 +4.139637E-04 +9.090312E-05 +4.139637E-04 +7.496339E-03 
 +2.930334E-04 +2.132064E-04 +1.754611E-04 +2.132064E-04 -7.420329E-05 +3.136081E-04 +1.754611E-04 +3.136081E-04 +7.412059E-03 
 +3.269531E-04 +1.186446E-04 -5.536926E-04 +1.186446E-04 +5.217961E-05 +2.439131E-04 -5.536926E-04 +2.439131E-04 +7.154952E-03 
 -3.790868E-04 +3.658031E-04 -1.940627E-04 +3.658031E-04 +4.595346E-05 -5.215644E-04 -1.940627E-04 -5.215644E-04 +7.663495E-03 
 +2.135358E-04 +2.629286E-04 +2.177452E-04 +2.629286E-04 -3.931599E-04 -9.321381E-05 +2.177452E-04 -9.321381E-05 +7.769774E-03 
 +2.329209E-04 -2.985656E-04 +3.316639E-04 -2.985656E-04 +3.512036E-04 +1.206060E-05 +3.316639E-04 +1.206060E-05 +7.383205E-03 
 -5.965182E-04 +8.173277E-05 +8.265990E-05 +8.173277E-05 +1.474188E-04 +3.102338E-04 +8.265990E-05 +3.102338E-04 +7.821151E-03 
 +1.088362E-05 -5.681666E-04 +7.353783E-05 -5.681666E-04 -1.353202E-04 -7.697468E-05 +7.353783E-05 -7.697468E-05 +7.791673E-03 
 +2.632661E-05 -1.465517E-04 -1.647572E-04 -1.465517E-04 +9.208158E-06 -9.323942E-08 -1.647572E-04 -9.323942E-08 +7.538664E-03 
 +5.287401E-05 +5.541351E-04 -2.711417E-04 +5.541351E-04 -1.044048E-04 +6.773754E-05 -2.711417E-04 +6.773754E-05 +7.696643E-03 
 +2.836456E-04 -7.888077E-05 +2.040042E-04 -7.888077E-05 -1.814921E-04 +1.387036E-04 +2.040042E-04 +1.387036E-04 +7.239471E-03 
 +7.437896E-05 +9.822134E-06 -3.043471E-04 +9.822134E-06 +2.535718E-04 +1.966847E-04 -3.043471E-04 +1.966847E-04 +6.905653E-03 
 -4.696571E-04 -8.684375E-04 -6.068102E-04 -8.684375E-04 +1.625940E-04 -3.260020E-04 -6.068102E-04 -3.260020E-04 +7.735957E-03 
 -3.433306E-04 +5.532707E-04 +5.738314E-05 +5.532707E-04 -6.537985E-05 -2.304160E-04 +5.738314E-05 -2.304160E-04 +7.867451E-03 
 -2.001352E-04 -8.892532E-04 +4.775122E-06 -8.892532E-04 -2.058110E-04 +3.408823E-04 +4.775122E-06 +3.408823E-04 +7.635889E-03 
 +2.243660E-04 -5.271574E-05 +4.241405E-04 -5.271574E-05 +2.600566E-04 +8.351631E-05 +4.241405E-04 +8.351631E-05 +7.077802E-03 
 +3.170736E-04 -8.793059E-04 +1.389026E-04 -8.793059E-04 -6.432195E-05 -4.211157E-04 +1.389026E-04 -4.211157E-04 +6.963912E-03 
 +2.788332E-04 +4.048076E-04 +1.910747E-05 +4.048076E-04 -1.374327E-04 +8.807172E-04 +1.910747E-05 +8.807172E-04 +7.439215E-03 
 +3.276343E-04 -5.487648E-04 +8.375875E-04 -5.487648E-04 -1.629901E-04 +1.245022E-04 +8.375875E-04 +1.245022E-04 +7.181774E-03 
 -1.926622E-04 -5.464899E-05 +1.341694E-04 -5.464899E-05 +5.508643E-04 -4.510802E-04 +1.341694E-04 -4.510802E-04 +7.084750E-03 
 -1.697914E-04 -9.501007E-05 +5.126338E-04 -9.501007E-05 +7.431881E-05 -7.211420E-05 +5.126338E-04 -7.211420E-05 +7.651402E-03 
 +2.262416E-04 -2.203595E-04 +4.042640E-04 -2.203595E-04 -2.886324E-04 -2.448895E-04 +4.042640E-04 -2.448895E-04 +7.575347E-03 
 +3.641521E-04 +6.252267E-05 -1.717152E-04 +6.252267E-05 +6.516968E-05 -3.077787E-04 -1.717152E-04 -3.077787E-04 +6.937823E-03 
 +3.532832E-04 -4.176368E-04 -2.404447E-04 -4.176368E-04 -6.880537E-05 +1.468087E-04 -2.404447E-04 +1.468087E-04 +6.925059E-03 
 -3.863195E-04 +2.385433E-04 -8.571733E-05 +2.385433E-04 +1.417700E-04 +1.265458E-04 -8.571733E-05 +1.265458E-04 +7.824213E-03 
 -4.255135E-04 -1.387817E-04 -2.994244E-04 -1.387817E-04 -2.270024E-04 -1.374713E-04 -2.994244E-04 -1.374713E-04 +7.768856E-03 
 +1.867521E-04 -5.432250E-05 -6.043027E-04 -5.432250E-05 -7.934733E-05 +4.152729E-04 -6.043027E-04 +4.152729E-04 +7.482289E-03 
 +4.927739E-04 -5.657726E-04 -6.287817E-04 -5.657726E-04 +4.501164E-05 -1.472418E-04 -6.287817E-04 -1.472418E-04 +7.264232E-03 
 +3.683846E-04 +2.910162E-06 -1.057859E-04 +2.910162E-06 +2.332372E-05 -3.320512E-04 -1.057859E-04 -3.320512E-04 +7.149680E-03 
 +4.491139E-04 -3.512276E-04 -3.029388E-04 -3.512276E-04 -8.900368E-06 -5.551245E-04 -3.029388E-04 -5.551245E-04 +7.167161E-03 
 +3.524667E-04 +4.947528E-04 +3.896299E-05 +4.947528E-04 +3.402275E-04 -2.689659E-04 +3.896299E-05 -2.689659E-04 +7.270545E-03 
 -3.670097E-05 -3.776538E-04 +3.799146E-04 -3.776538E-04 +4.444480E-05 -8.356912E-05 +3.799146E-04 -8.356912E-05 +7.716379E-03 
 +1.324552E-04 +3.728790E-04 -2.324066E-04 +3.728790E-04 -3.501076E-04 +2.057083E-04 -2.324066E-04 +2.057083E-04 +7.794277E-03 
 +3.983267E-04 -6.174829E-04 -2.138151E-04 -6.174829E-04 +9.607540E-05 +2.614719E-04 -2.138151E-04 +2.614719E-04 +7.361893E-03 
 +3.746046E-04 +4.246911E-05 -1.890248E-04 +4.246911E-05 +2.601436E-04 -3.932064E-04 -1.890248E-04 -3.932064E-04 +6.896347E-03 
 +1.397675E-04 -8.559405E-05 +1.064702E-04 -8.559405E-05 +1.296769E-04 -6.171853E-05 +1.064702E-04 -6.171853E-05 +6.918757E-03 
 +5.926945E-05 +7.034254E-05 -9.092011E-05 +7.034254E-05 -2.211106E-04 -4.237814E-04 -9.092011E-05 -4.237814E-04 +7.721167E-03 
 -4.270842E-04 -8.180740E-04 -2.797593E-04 -8.180740E-04 -2.096934E-05 -2.750726E-04 -2.797593E-04 -2.750726E-04 +7.892633E-03 
 -3.040279E-04 -8.142673E-04 +3.875252E-04 -8.142673E-04 +4.872852E-05 -2.970271E-04 +3.875252E-04 -2.970271E-04 +7.554644E-03 
 -1.425085E-04 +3.768532E-04 -4.658289E-04 +3.768532E-04 -1.332319E-04 +9.501111E-05 -4.658289E-04 +9.501111E-05 +7.891604E-03 
 -3.069161E-04 +2.504963E-04 +3.703389E-04 +2.504963E-04 +5.419447E-06 +7.341885E-05 +3.703389E-04 +7.341885E-05 +7.637973E-03 
 +1.754075E-04 -2.597460E-04 +2.858158E-04 -2.597460E-04 +1.602325E-04 +6.092414E-04 +2.858158E-04 +6.092414E-04 +7.096769E-03 
 +2.076483E-04 +3.533598E-04 +3.033362E-04 +3.533598E-04 -5.818217E-05 -6.415690E-04 +3.033362E-04 -6.415690E-04 +7.068511E-03 
 -8.688577E-05 +1.753625E-05 +2.633340E-04 +1.753625E-05 +1.548442E-04 +2.973775E-06 +2.633340E-04 +2.973775E-06 +7.545493E-03 
 -1.461491E-04 -4.992615E-04 -1.535751E-04 -4.992615E-04 -4.329841E-04 +3.199154E-04 -1.535751E-04 +3.199154E-04 +8.058593E-03 
 +2.532659E-04 -3.881064E-04 -2.408464E-04 -3.881064E-04 +5.036465E-04 -1.564691E-04 -2.408464E-04 -1.564691E-04 +6.928092E-03 
 -2.172937E-04 +2.568416E-04 -4.426058E-05 +2.568416E-04 +1.709458E-04 -1.267790E-04 -4.426058E-05 -1.267790E-04 +7.477500E-03 
 -5.526398E-05 -6.313837E-04 +3.887620E-04 -6.313837E-04 -4.943765E-04 -8.769331E-05 +3.887620E-04 -8.769331E-05 +7.770204E-03 
 +3.403732E-04 +1.590924E-04 +2.453275E-04 +1.590924E-04 -5.745147E-05 +6.039056E-04 +2.453275E-04 +6.039056E-04 +7.165581E-03 
 +2.738078E-04 -6.135227E-05 -1.643374E-04 -6.135227E-05 -1.376946E-04 +1.693922E-04 -1.643374E-04 +1.693922E-04 +7.471346E-03 
 +1.717964E-04 -3.956384E-04 -2.218549E-04 -3.956384E-04 -2.582996E-04 -5.457639E-05 -2.218549E-04 -5.457639E-05 +7.685959E-03 
 +2.638428E-04 +6.651283E-05 -4.971498E-04 +6.651283E-05 +2.812751E-04 +4.224662E-04 -4.971498E-04 +4.224662E-04 +7.192665E-03 
 +2.433778E-04 +1.367111E-04 -5.952023E-05 +1.367111E-04 +1.587584E-04 -4.173905E-04 -5.952023E-05 -4.173905E-04 +7.478470E-03 
 +2.322811E-04 -6.744589E-05 -1.560696E-04 -6.744589E-05 -1.854792E-04 -3.049171E-04 -1.560696E-04 -3.049171E-04 +7.478097E-03 
 +3.399396E-04 -2.867934E-04 -3.832917E-04 -2.867934E-04 -1.472134E-07 +3.435817E-04 -3.832917E-04 +3.435817E-04 +7.166424E-03 
 -4.232792E-04 -2.323864E-04 +1.565099E-04 -2.323864E-04 +1.250579E-04 -2.261270E-04 +1.565099E-04 -2.261270E-04 +7.878707E-03 
 -1.849855E-04 +1.196371E-03 +8.292762E-05 +1.196371E-03 +6.922195E-05 -2.406794E-04 +8.292762E-05 -2.406794E-04 +8.072386E-03 
 +3.759140E-04 -2.545864E-04 +1.214301E-04 -2.545864E-04 -1.917588E-04 -2.207567E-04 +1.214301E-04 -2.207567E-04 +7.467616E-03 
 -1.828470E-04 -1.725199E-04 +4.291561E-04 -1.725199E-04 +2.028627E-04 -8.899390E-05 +4.291561E-04 -8.899390E-05 +7.785685E-03 
 +3.393361E-04 -7.259413E-04 +1.582368E-04 -7.259413E-04 -3.519480E-04 +1.099827E-04 +1.582368E-04 +1.099827E-04 +7.783738E-03 
 -9.503384E-05 +6.746935E-04 +3.611836E-04 +6.746935E-04 +4.200674E-04 +2.532667E-05 +3.611836E-04 +2.532667E-05 +7.199885E-03 
 -6.295311E-04 +4.626013E-04 -2.112944E-04 +4.626013E-04 -1.700284E-04 -4.780032E-04 -2.112944E-04 -4.780032E-04 +7.550428E-03 
 +7.034914E-04 +9.049039E-05 -3.487111E-04 +9.049039E-05 -1.764375E-05 +3.732892E-04 -3.487111E-04 +3.732892E-04 +7.357642E-03 
 +1.944520E-04 +2.928324E-04 -4.700172E-04 +2.928324E-04 +2.167598E-04 -1.738123E-04 -4.700172E-04 -1.738123E-04 +6.992339E-03 
 +1.775485E-04 -7.854145E-04 +1.884585E-04 -7.854145E-04 -3.349068E-04 +5.246099E-04 +1.884585E-04 +5.246099E-04 +7.320240E-03 
 +8.000951E-05 -1.223798E-04 +7.675968E-04 -1.223798E-04 +3.177575E-04 +3.357297E-04 +7.675968E-04 +3.357297E-04 +7.068208E-03 
 -2.324028E-04 +2.046284E-04 +3.867281E-04 +2.046284E-04 +5.316729E-05 +1.130941E-04 +3.867281E-04 +1.130941E-04 +7.509091E-03 
 +1.019037E-04 +2.021962E-04 -1.318113E-05 +2.021962E-04 +2.507592E-04 +7.945452E-04 -1.318113E-05 +7.945452E-04 +7.116715E-03 
 +1.068367E-04 +8.336089E-04 +1.239456E-04 +8.336089E-04 -2.002053E-04 -7.270003E-05 +1.239456E-04 -7.270003E-05 +7.734288E-03 
 +1.655571E-04 +9.751762E-04 +5.121680E-04 +9.751762E-04 -6.535624E-04 -4.105298E-04 +5.121680E-04 -4.105298E-04 +8.276979E-03 
 +1.098185E-05 +2.888131E-04 +5.302086E-04 +2.888131E-04 +2.680036E-04 +2.943640E-04 +5.302086E-04 +2.943640E-04 +7.723313E-03 
 -2.841331E-04 +1.233133E-03 +1.851269E-04 +1.233133E-03 +2.752690E-05 -1.448891E-04 +1.851269E-04 -1.448891E-04 +7.512811E-03 
 -4.135292E-04 +7.976448E-04 +1.656145E-04 +7.976448E-04 -7.416814E-05 +1.163652E-04 +1.656145E-04 +1.163652E-04 +8.063782E-03 
 +1.820868E-04 +2.689301E-04 +4.254502E-04 +2.689301E-04 -2.097720E-05 +4.637376E-04 +4.254502E-04 +4.637376E-04 +7.204666E-03 
 +2.313219E-04 +3.022352E-04 +4.355125E-04 +3.022352E-04 +3.495048E-04 -5.333161E-05 +4.355125E-04 -5.333161E-05 +7.154928E-03 
 +3.166261E-04 -3.907901E-04 -5.661950E-05 -3.907901E-04 -6.140971E-04 +9.742760E-05 -5.661950E-05 +9.742760E-05 +7.596729E-03 
 -2.856214E-04 -1.932644E-04 +1.364671E-04 -1.932644E-04 +3.299985E-04 +2.940480E-04 +1.364671E-04 +2.940480E-04 +7.294145E-03 
 +2.581517E-04 +6.005779E-04 +9.091156E-05 +6.005779E-04 +8.375258E-05 -3.229186E-04 +9.091156E-05 -3.229186E-04 +7.206230E-03 
 -3.500414E-05 -8.262754E-04 +4.588916E-05 -8.262754E-04 -6.332093E-05 +1.981476E-04 +4.588916E-05 +1.981476E-04 +7.285464E-03 
 -2.498642E-04 -4.937705E-04 +8.349681E-05 -4.937705E-04 +5.159944E-04 +9.133370E-04 +8.349681E-05 +9.133370E-04 +7.235272E-03 
 +3.639321E-04 -2.072837E-04 +5.410342E-04 -2.072837E-04 -5.332060E-04 +1.079250E-04 +5.410342E-04 +1.079250E-04 +7.620694E-03 
 -4.453768E-04 -2.063942E-04 -5.868306E-05 -2.063942E-04 -9.067247E-06 +4.327741E-04 -5.868306E-05 +4.327741E-04 +8.098372E-03 
 -7.319262E-04 +9.443956E-04 -4.557461E-05 +9.443956E-04 +3.128184E-04 +3.258087E-04 -4.557461E-05 +3.258087E-04 +8.234906E-03 
 -1.289651E-04 +8.610996E-04 -1.087468E-04 +8.610996E-04 -1.732618E-04 -4.563217E-04 -1.087468E-04 -4.563217E-04 +7.985808E-03 
 +1.246343E-04 -1.361961E-04 -2.494305E-04 -1.361961E-04 -1.157664E-04 -1.689965E-04 -2.494305E-04 -1.689965E-04 +7.692496E-03 
 +5.853643E-04 -4.713980E-04 +2.209331E-04 -4.713980E-04 -2.011686E-04 +1.546004E-04 +2.209331E-04 +1.546004E-04 +7.295370E-03 
 +3.631488E-04 -4.523760E-05 +3.007032E-04 -4.523760E-05 +2.129090E-04 -3.097916E-04 +3.007032E-04 -3.097916E-04 +7.135857E-03 
 +6.065669E-05 +7.648529E-04 -1.293367E-05 +7.648529E-04 +3.450894E-04 -2.626146E-04 -1.293367E-05 -2.626146E-04 +7.321978E-03 
 +2.088393E-04 -2.498888E-05 -3.747896E-04 -2.498888E-05 -3.799130E-04 -6.625499E-04 -3.747896E-04 -6.625499E-04 +7.668877E-03 
 +6.501977E-04 +5.488761E-04 -6.733718E-05 +5.488761E-04 -1.343244E-04 -3.638904E-04 -6.733718E-05 -3.638904E-04 +6.989592E-03 
 +7.405477E-04 +6.110297E-05 +1.744839E-05 +6.110297E-05 -1.771440E-04 -4.947105E-04 +1.744839E-05 -4.947105E-04 +6.887970E-03 
 +6.781836E-05 +3.094524E-04 -5.141221E-05 +3.094524E-04 +3.190804E-04 +4.944340E-04 -5.141221E-05 +4.944340E-04 +7.108001E-03 
 +1.738537E-04 +1.079748E-03 +4.625012E-04 +1.079748E-03 -3.402736E-04 +1.678966E-05 +4.625012E-04 +1.678966E-05 +7.605552E-03 
 -7.132427E-05 -1.622841E-04 -6.137803E-05 -1.622841E-04 +5.223952E-04 -6.602345E-04 -6.137803E-05 -6.602345E-04 +7.317716E-03 
 +3.788992E-04 +7.400494E-04 +5.392008E-04 +7.400494E-04 -1.163401E-04 -5.443806E-04 +5.392008E-04 -5.443806E-04 +7.536206E-03 
 +2.351661E-04 -4.972027E-04 +7.393443E-05 -4.972027E-04 -3.762421E-06 -3.458538E-04 +7.393443E-05 -3.458538E-04 +7.230159E-03 
 +5.908502E-04 -7.780825E-05 -4.341771E-04 -7.780825E-05 -8.497488E-05 +4.363653E-04 -4.341771E-04 +4.363653E-04 +7.020488E-03 
 +8.126106E-04 -3.191789E-04 +4.097951E-05 -3.191789E-04 -4.591636E-05 +1.848791E-04 +4.097951E-05 +1.848791E-04 +6.911301E-03 
 +3.327986E-04 -3.103473E-04 -2.746499E-05 -3.103473E-04 +3.513075E-04 +3.351705E-04 -2.746499E-05 +3.351705E-04 +7.140221E-03 
 -3.868707E-04 -1.346570E-03 -3.076415E-04 -1.346570E-03 -2.502521E-04 -2.634146E-04 -3.076415E-04 -2.634146E-04 +7.770110E-03 
 -5.611823E-05 -1.524685E-04 +2.545407E-04 -1.524685E-04 +2.118765E-04 -3.692771E-04 +2.545407E-04 -3.692771E-04 +7.874144E-03 
 +2.417096E-04 -1.008714E-03 -2.660483E-04 -1.008714E-03 -2.743293E-04 -7.812699E-04 -2.660483E-04 -7.812699E-04 +7.689737E-03 
 +6.524323E-06 -1.061679E-04 -3.072775E-04 -1.061679E-04 +1.184438E-06 +1.027781E-04 -3.072775E-04 +1.027781E-04 +7.557700E-03 
 -2.392367E-05 -4.167395E-04 +5.429933E-04 -4.167395E-04 +3.316579E-04 -3.510637E-04 +5.429933E-04 -3.510637E-04 +7.336678E-03 
 -7.481344E-06 -8.367594E-05 +1.949024E-04 -8.367594E-05 -1.084763E-04 -7.533097E-04 +1.949024E-04 -7.533097E-04 +7.495639E-03 
 -3.784219E-04 +3.956551E-04 -2.861081E-04 +3.956551E-04 -2.067250E-04 +7.873232E-05 -2.861081E-04 +7.873232E-05 +7.820894E-03 
 -2.233600E-04 -5.039945E-04 -3.532381E-04 -5.039945E-04 -1.255926E-04 +1.527842E-04 -3.532381E-04 +1.527842E-04 +7.769180E-03 
 +4.139276E-05 -3.727662E-04 +1.436518E-04 -3.727662E-04 -1.706521E-04 +1.105027E-04 +1.436518E-04 +1.105027E-04 +7.496856E-03 
 +2.772694E-04 -5.902871E-05 +2.030746E-05 -5.902871E-05 +3.052807E-04 +1.626852E-04 +2.030746E-05 +1.626852E-04 +7.209301E-03 
 +1.308188E-04 +1.793998E-05 -3.285209E-04 +1.793998E-05 -2.386814E-04 +1.138574E-04 -3.285209E-04 +1.138574E-04 +7.148125E-03 
 +3.117897E-04 -1.986034E-04 +3.624741E-04 -1.986034E-04 +1.041833E-05 +2.989504E-04 +3.624741E-04 +2.989504E-04 +7.161546E-03 
 -5.102517E-05 -6.189795E-04 -2.296902E-04 -6.189795E-04 +1.775959E-04 +8.875321E-04 -2.296902E-04 +8.875321E-04 +7.265051E-03 
 -3.040357E-04 -8.560101E-05 +3.289423E-05 -8.560101E-05 +5.397713E-05 +1.511475E-04 +3.289423E-05 +1.511475E-04 +7.788276E-03 
 -1.104963E-04 -1.098955E-03 -1.662110E-04 -1.098955E-03 -1.111696E-05 +4.425062E-05 -1.662110E-04 +4.425062E-05 +7.379908E-03 
 -2.135955E-04 +1.136275E-05 +2.388383E-04 +1.136275E-05 +5.602356E-04 -2.737168E-05 +2.388383E-04 -2.737168E-05 +7.181932E-03 
 +1.274723E-04 -2.459584E-04 +7.309196E-04 -2.459584E-04 +1.901295E-04 +3.418077E-04 +7.309196E-04 +3.418077E-04 +7.090173E-03 
 -6.875335E-05 -9.188763E-04 -6.458395E-05 -9.188763E-04 -4.221585E-04 +5.799879E-04 -6.458395E-05 +5.799879E-04 +7.836568E-03 
 +2.253469E-05 -1.186355E-04 -1.112349E-04 -1.186355E-04 +8.933152E-05 -4.758774E-04 -1.112349E-04 -4.758774E-04 +7.531398E-03 
 +1.861456E-04 -6.601783E-04 -2.768548E-04 -6.601783E-04 -2.099222E-04 +7.516539E-06 -2.768548E-04 +7.516539E-06 +7.411996E-03 
 -2.114212E-04 -3.073368E-04 -1.937698E-04 -3.073368E-04 +1.776707E-04 -5.706847E-05 -1.937698E-04 -5.706847E-05 +7.612283E-03 
 -4.318723E-05 -3.960003E-04 +4.173177E-04 -3.960003E-04 -2.258773E-04 -1.417517E-04 +4.173177E-04 -1.417517E-04 +7.248871E-03 
 +7.721012E-05 +1.238882E-06 +6.003992E-04 +1.238882E-06 -3.724116E-05 +1.848209E-04 +6.003992E-04 +1.848209E-04 +7.036366E-03 
 +1.917654E-04 +3.105222E-07 +3.538463E-04 +3.105222E-07 +5.898886E-05 +1.969161E-04 +3.538463E-04 +1.969161E-04 +6.998752E-03 
 +3.821679E-05 +2.106031E-04 -1.073453E-04 +2.106031E-04 +8.751007E-05 +4.557432E-04 -1.073453E-04 +4.557432E-04 +7.235477E-03 
 +7.023559E-05 -7.693228E-05 -1.792761E-04 -7.693228E-05 +4.089833E-04 -8.529243E-05 -1.792761E-04 -8.529243E-05 +7.203825E-03 
 +2.965520E-04 -5.136090E-04 +2.903567E-04 -5.136090E-04 -2.212280E-04 -5.186081E-05 +2.903567E-04 -5.186081E-05 +7.164865E-03 
 -1.657008E-04 +5.493097E-04 -1.989620E-04 +5.493097E-04 +1.558199E-05 -3.603478E-06 -1.989620E-04 -3.603478E-06 +7.397432E-03 
 -1.285767E-04 -1.098444E-03 -1.227777E-04 -1.098444E-03 -4.948853E-05 +8.656552E-05 -1.227777E-04 +8.656552E-05 +7.566029E-03 
 -1.570079E-04 -5.074260E-04 +1.222839E-05 -5.074260E-04 -4.972011E-04 -9.112481E-05 +1.222839E-05 -9.112481E-05 +7.620587E-03 
 -1.844584E-04 +6.172796E-04 +1.562839E-04 +6.172796E-04 +3.639176E-04 +4.143869E-04 +1.562839E-04 +4.143869E-04 +7.892768E-03 
 -3.535324E-05 -4.928128E-04 +5.694859E-04 -4.928128E-04 +8.814735E-05 +1.858369E-04 +5.694859E-04 +1.858369E-04 +7.739398E-03 
 -2.767547E-04 +1.138263E-03 -5.025408E-05 +1.138263E-03 +1.796105E-04 +2.599653E-04 -5.025408E-05 +2.599653E-04 +7.914516E-03 
 -1.524237E-04 -1.112522E-03 -4.123412E-06 -1.112522E-03 -3.047980E-04 +3.978806E-04 -4.123412E-06 +3.978806E-04 +7.977996E-03 
 +1.250249E-05 -2.450446E-04 +6.048433E-04 -2.450446E-04 -2.417475E-04 -1.258899E-04 +6.048433E-04 -1.258899E-04 +7.316263E-03 
 +3.480362E-04 +4.999010E-04 +7.624361E-04 +4.999010E-04 +2.017287E-04 +5.446672E-04 +7.624361E-04 +5.446672E-04 +7.015493E-03 
 -1.943855E-04 +2.818573E-06 +7.307375E-04 +2.818573E-06 +2.239449E-04 +1.949970E-05 +7.307375E-04 +1.949970E-05 +7.569910E-03 
 -6.273173E-05 -4.661449E-04 -7.809893E-05 -4.661449E-04 +2.809339E-04 -5.884508E-05 -7.809893E-05 -5.884508E-05 +7.584301E-03 
 +3.491967E-05 -4.207248E-04 +5.341498E-04 -4.207248E-04 -2.863888E-04 -7.149170E-04 +5.341498E-04 -7.149170E-04 +7.984146E-03 
 +6.410102E-05 -3.056928E-05 +1.833475E-04 -3.056928E-05 -4.986146E-04 +4.365326E-05 +1.833475E-04 +4.365326E-05 +7.812897E-03 
 +2.476809E-04 +3.853421E-04 +1.152254E-04 +3.853421E-04 +2.143595E-04 +4.926431E-04 +1.152254E-04 +4.926431E-04 +7.103883E-03 
 +6.142644E-05 +3.915830E-04 +3.542107E-04 +3.915830E-04 +1.235977E-05 -4.814169E-04 +3.542107E-04 -4.814169E-04 +7.486850E-03 
 +1.309740E-04 -9.485565E-05 +6.686395E-05 -9.485565E-05 +1.268194E-04 -2.641258E-05 +6.686395E-05 -2.641258E-05 +7.193132E-03 
 +4.642457E-04 +1.012869E-03 +8.703752E-05 +1.012869E-03 -4.512357E-04 -1.764358E-04 +8.703752E-05 -1.764358E-04 +7.520125E-03 
 +1.431374E-05 -2.668869E-05 -2.637005E-04 -2.668869E-05 +4.441437E-04 -1.174589E-04 -2.637005E-04 -1.174589E-04 +7.206081E-03 
 -6.262327E-04 -4.705701E-04 -1.269039E-04 -4.705701E-04 +1.924519E-04 +3.613955E-04 -1.269039E-04 +3.613955E-04 +7.639768E-03 
 -2.181494E-04 +6.460802E-04 -2.837838E-04 +6.460802E-04 -1.708502E-04 -8.838792E-05 -2.837838E-04 -8.838792E-05 +7.946623E-03 
 +6.681627E-06 -7.601133E-04 -6.264774E-04 -7.601133E-04 +6.465348E-05 -4.233040E-04 -6.264774E-04 -4.233040E-04 +7.752969E-03 
 +4.141513E-04 +1.062931E-03 -3.527410E-04 +1.062931E-03 -3.588780E-04 -1.151054E-04 -3.527410E-04 -1.151054E-04 +7.442899E-03 
 +2.190724E-04 -1.136843E-04 -1.716466E-05 -1.136843E-04 +1.152612E-04 +1.124621E-04 -1.716466E-05 +1.124621E-04 +7.271518E-03 
 -5.437093E-04 -5.317957E-04 -1.336708E-04 -5.317957E-04 +6.912462E-05 -9.054645E-05 -1.336708E-04 -9.054645E-05 +7.819159E-03 
 -6.378154E-04 +1.453082E-03 +2.061660E-05 +1.453082E-03 +7.692442E-06 -2.184919E-04 +2.061660E-05 -2.184919E-04 +7.843007E-03 
 -8.298613E-04 -3.442714E-04 +3.585390E-04 -3.442714E-04 +3.096644E-04 +1.581618E-04 +3.585390E-04 +1.581618E-04 +8.048384E-03 
 -2.973216E-04 +2.531728E-04 -1.001125E-04 +2.531728E-04 -2.665513E-04 +3.910199E-04 -1.001125E-04 +3.910199E-04 +7.746038E-03 
 +3.591338E-04 -7.902024E-04 -2.573711E-04 -7.902024E-04 -3.253979E-04 +6.244733E-05 -2.573711E-04 +6.244733E-05 +7.313486E-03 
 +1.751866E-04 +3.958993E-04 +1.907216E-04 +3.958993E-04 +9.511015E-05 +7.801577E-04 +1.907216E-04 +7.801577E-04 +7.116130E-03 
 +2.854773E-04 +1.003550E-03 -2.912051E-04 +1.003550E-03 -3.521111E-04 -4.837992E-04 -2.912051E-04 -4.837992E-04 +7.364672E-03 
 -9.974765E-05 -8.368652E-05 -6.473234E-04 -8.368652E-05 +2.201244E-04 +4.048269E-04 -6.473234E-04 +4.048269E-04 +7.144018E-03 
 -2.160973E-04 -6.166406E-04 +3.120031E-05 -6.166406E-04 +1.595450E-05 +3.578547E-04 +3.120031E-05 +3.578547E-04 +7.485352E-03 
 +7.660269E-05 -2.217388E-04 -3.192021E-04 -2.217388E-04 -1.800020E-04 +1.420253E-04 -3.192021E-04 +1.420253E-04 +7.282277E-03 
 -5.096582E-04 +3.652311E-04 -2.882359E-04 +3.652311E-04 -3.252542E-05 -2.419684E-04 -2.882359E-04 -2.419684E-04 +7.866928E-03 
 -3.577547E-04 +1.056156E-03 +3.519545E-04 +1.056156E-03 -4.583603E-04 +2.564523E-04 +3.519545E-04 +2.564523E-04 +8.221357E-03 
 +8.992135E-05 +2.953714E-04 -1.872282E-04 +2.953714E-04 +5.059903E-04 +3.216392E-04 -1.872282E-04 +3.216392E-04 +7.216413E-03 
 +4.710430E-04 +3.328218E-04 -1.087006E-04 +3.328218E-04 -1.176657E-04 -9.085128E-05 -1.087006E-04 -9.085128E-05 +7.700528E-03 
 +3.773224E-04 +8.704460E-04 -2.819805E-04 +8.704460E-04 -1.949393E-04 -1.893763E-04 -2.819805E-04 -1.893763E-04 +7.272908E-03 
 -3.999734E-04 +3.444150E-04 +1.205713E-04 +3.444150E-04 +1.046896E-04 +2.542977E-04 +1.205713E-04 +2.542977E-04 +7.509183E-03 
 -1.670860E-04 -2.154413E-04 +6.927145E-04 -2.154413E-04 +5.586708E-05 -2.479342E-04 +6.927145E-04 -2.479342E-04 +7.461927E-03 
 +5.382727E-05 +6.870789E-04 +1.894319E-04 +6.870789E-04 +5.271287E-04 -5.851683E-04 +1.894319E-04 -5.851683E-04 +6.947009E-03 
 -5.086731E-05 -2.333857E-04 -4.216085E-05 -2.333857E-04 -4.092451E-04 +1.245335E-04 -4.216085E-05 +1.245335E-04 +7.441220E-03 
 -1.008020E-04 +8.019489E-04 -3.157878E-04 +8.019489E-04 -3.171421E-04 +4.583665E-04 -3.157878E-04 +4.583665E-04 +7.804503E-03 
 -4.678259E-04 -4.674372E-04 +2.781662E-05 -4.674372E-04 +1.476798E-05 -8.404451E-05 +2.781662E-05 -8.404451E-05 +7.658089E-03 
 -2.657948E-04 -7.052522E-04 +1.334171E-04 -7.052522E-04 +1.589183E-05 -3.041837E-04 +1.334171E-04 -3.041837E-04 +7.201315E-03 
 -4.752948E-05 +1.143360E-03 -2.938265E-04 +1.143360E-03 +2.581993E-05 -5.378053E-05 -2.938265E-04 -5.378053E-05 +7.319763E-03 
 -3.088324E-04 -1.467948E-04 -5.709074E-04 -1.467948E-04 +1.723123E-04 -5.467980E-04 -5.709074E-04 -5.467980E-04 +7.624280E-03 
 +1.644741E-05 -2.522021E-04 -5.242999E-04 -2.522021E-04 -1.215972E-04 -7.913757E-05 -5.242999E-04 -7.913757E-05 +7.338327E-03 
 +3.937018E-04 -1.525223E-04 -2.577979E-04 -1.525223E-04 +2.393015E-04 +1.350776E-04 -2.577979E-04 +1.350776E-04 +6.678492E-03 
 +1.667619E-04 -2.359190E-04 +3.837355E-05 -2.359190E-04 +2.857810E-04 -3.881163E-04 +3.837355E-05 -3.881163E-04 +7.037662E-03 
 +1.260138E-04 -1.064254E-03 -4.146931E-05 -1.064254E-03 -2.423009E-04 -1.884226E-04 -4.146931E-05 -1.884226E-04 +7.368291E-03 
 -2.855910E-04 -6.422133E-04 +2.599752E-04 -6.422133E-04 +2.778289E-05 +1.608713E-05 +2.599752E-04 +1.608713E-05 +7.499439E-03 
 +2.300147E-04 +3.874579E-04 +6.686033E-04 +3.874579E-04 +4.172920E-04 +2.750441E-04 +6.686033E-04 +2.750441E-04 +7.161239E-03 
 +3.341523E-04 -4.109966E-04 +1.767749E-05 -4.109966E-04 -5.930192E-04 +9.556384E-05 +1.767749E-05 +9.556384E-05 +7.713645E-03 
 -1.570332E-04 +3.676307E-04 -3.161687E-04 +3.676307E-04 +4.607406E-05 +4.454463E-05 -3.161687E-04 +4.454463E-05 +7.688372E-03 
 +1.893992E-05 +6.363307E-04 +1.839249E-04 +6.363307E-04 +3.146417E-04 -4.875838E-05 +1.839249E-04 -4.875838E-05 +7.157481E-03 
 -1.050216E-04 +1.380330E-04 +4.713135E-04 +1.380330E-04 -2.094372E-04 +2.757355E-05 +4.713135E-04 +2.757355E-05 +7.468093E-03 
 +3.401254E-04 -3.361382E-04 -1.230283E-04 -3.361382E-04 +1.693917E-04 +3.005228E-04 -1.230283E-04 +3.005228E-04 +6.785810E-03 
 +1.458451E-04 +2.798103E-04 +4.757512E-05 +2.798103E-04 -2.294575E-04 +2.078541E-04 +4.757512E-05 +2.078541E-04 +7.618512E-03 
 -1.180854E-04 +1.093852E-03 +5.119451E-04 +1.093852E-03 -4.455280E-04 +5.847080E-05 +5.119451E-04 +5.847080E-05 +7.873571E-03 
 +3.019850E-04 -7.351828E-05 +5.976772E-05 -7.351828E-05 +3.766904E-04 -7.294573E-04 +5.976772E-05 -7.294573E-04 +6.727253E-03 
 +4.416498E-04 +4.194522E-04 +3.885892E-04 +4.194522E-04 +2.418307E-04 +1.762630E-04 +3.885892E-04 +1.762630E-04 +7.010782E-03 
 +8.077300E-05 -1.273934E-03 +5.319436E-04 -1.273934E-03 -6.559100E-05 -1.040363E-04 +5.319436E-04 -1.040363E-04 +7.879038E-03 
 -3.923778E-04 +6.738383E-04 -5.379098E-04 +6.738383E-04 -1.330012E-04 -4.604602E-04 -5.379098E-04 -4.604602E-04 +7.720201E-03 
 +6.669325E-05 -5.309921E-04 -8.394702E-04 -5.309921E-04 +5.733386E-05 +7.659807E-04 -8.394702E-04 +7.659807E-04 +7.530824E-03 
 -3.351899E-06 -1.944522E-04 +3.424391E-05 -1.944522E-04 +1.958058E-05 +6.714257E-04 +3.424391E-05 +6.714257E-04 +7.866012E-03 
 +3.533248E-04 -4.776256E-04 -1.536382E-05 -4.776256E-04 -4.373270E-04 +2.366675E-04 -1.536382E-05 +2.366675E-04 +7.600240E-03 
 +1.529276E-04 -6.839396E-06 -7.597408E-05 -6.839396E-06 +1.682571E-04 +3.184249E-04 -7.597408E-05 +3.184249E-04 +6.949793E-03 
 +1.493375E-05 -4.287210E-04 +2.867313E-04 -4.287210E-04 +4.575962E-04 +1.394412E-04 +2.867313E-04 +1.394412E-04 +7.061823E-03 
 +1.931205E-05 -1.491185E-04 -4.536854E-04 -1.491185E-04 -2.465915E-04 -2.497240E-04 -4.536854E-04 -2.497240E-04 +7.625722E-03 
 +2.892055E-05 -6.618332E-04 -5.087011E-04 -6.618332E-04 +3.055209E-04 +1.315176E-04 -5.087011E-04 +1.315176E-04 +7.358010E-03 
 -3.156184E-04 -1.433939E-03 -3.519602E-04 -1.433939E-03 -1.837076E-04 +1.341138E-04 -3.519602E-04 +1.341138E-04 +7.792054E-03 
 -4.803847E-04 +2.797260E-04 -1.983817E-04 +2.797260E-04 -7.765061E-05 +2.691128E-04 -1.983817E-04 +2.691128E-04 +7.678944E-03 
 +2.863894E-04 +4.588998E-05 +5.415870E-04 +4.588998E-05 +7.665258E-05 -1.274728E-04 +5.415870E-04 -1.274728E-04 +7.458430E-03 
 +5.937404E-04 -5.230030E-05 +7.116006E-04 -5.230030E-05 -3.863258E-04 +3.151537E-04 +7.116006E-04 +3.151537E-04 +7.087338E-03 
 +4.149664E-05 +4.797339E-05 -1.803544E-04 +4.797339E-05 +6.575411E-04 +1.843424E-04 -1.803544E-04 +1.843424E-04 +6.968266E-03 
 +1.628767E-04 +4.953603E-04 -4.687111E-04 +4.953603E-04 -7.383924E-05 +4.118755E-04 -4.687111E-04 +4.118755E-04 +7.549072E-03 
 -4.645118E-05 +8.776421E-04 -2.603817E-05 +8.776421E-04 +2.446205E-05 -2.188883E-04 -2.603817E-05 -2.188883E-04 +7.678888E-03 
 +1.831420E-05 -8.199762E-04 +1.549131E-04 -8.199762E-04 -3.144215E-04 -4.371129E-04 +1.549131E-04 -4.371129E-04 +7.836431E-03 
 +1.324546E-04 -9.195240E-06 +5.190329E-04 -9.195240E-06 -9.472734E-05 +3.813014E-04 +5.190329E-04 +3.813014E-04 +7.411284E-03 
 +4.235027E-04 +2.659418E-04 -2.318399E-04 +2.659418E-04 -5.967972E-05 -5.674446E-05 -2.318399E-04 -5.674446E-05 +7.009532E-03 
 -4.624084E-05 +4.390838E-04 -1.903934E-04 +4.390838E-04 +1.438475E-05 -5.425437E-04 -1.903934E-04 -5.425437E-04 +7.471710E-03 
 -4.580927E-05 -6.983771E-05 -4.093225E-04 -6.983771E-05 -3.706349E-06 +7.135672E-04 -4.093225E-04 +7.135672E-04 +7.542339E-03 
 +3.871194E-04 -6.119497E-04 +1.516819E-04 -6.119497E-04 -2.961374E-05 +4.051506E-04 +1.516819E-04 +4.051506E-04 +6.921279E-03 
 -1.086092E-04 -1.103482E-04 +6.787288E-04 -1.103482E-04 +1.140776E-04 -2.440203E-04 +6.787288E-04 -2.440203E-04 +6.997417E-03 
 +8.578465E-05 +1.695617E-04 +3.907082E-04 +1.695617E-04 +2.258329E-04 -3.651302E-04 +3.907082E-04 -3.651302E-04 +7.139203E-03 
 +3.655966E-05 +7.728148E-04 +1.043584E-04 +7.728148E-04 +7.026391E-05 +8.393944E-05 +1.043584E-04 +8.393944E-05 +7.270235E-03 
 +1.457297E-04 +2.495240E-04 -5.809819E-05 +2.495240E-04 -1.537089E-04 +1.674676E-04 -5.809819E-05 +1.674676E-04 +7.561521E-03 
 +9.533982E-05 +7.869149E-04 +4.523460E-04 +7.869149E-04 -1.936121E-04 +1.813692E-04 +4.523460E-04 +1.813692E-04 +7.593754E-03 
 -3.137480E-04 +9.485614E-05 +2.052040E-04 +9.485614E-05 +3.489281E-04 +5.172039E-04 +2.052040E-04 +5.172039E-04 +7.724538E-03 
 +2.805677E-04 -3.544019E-04 -1.278997E-04 -3.544019E-04 -1.994424E-04 -3.677776E-04 -1.278997E-04 -3.677776E-04 +7.294815E-03 
 +1.335391E-04 -4.767595E-05 -1.025250E-04 -4.767595E-05 +2.379619E-04 +3.892861E-04 -1.025250E-04 +3.892861E-04 +7.399096E-03 
 -1.801025E-04 +5.390550E-04 +1.981249E-04 +5.390550E-04 -2.108821E-05 +1.913056E-05 +1.981249E-04 +1.913056E-05 +7.388465E-03 
 +1.130803E-04 +8.262125E-04 -1.144998E-04 +8.262125E-04 -4.238153E-05 -2.976420E-04 -1.144998E-04 -2.976420E-04 +7.515999E-03 
 -1.106808E-04 +6.265429E-04 -3.052706E-04 +6.265429E-04 -1.307306E-04 +5.658124E-04 -3.052706E-04 +5.658124E-04 +7.893771E-03 
 +2.992964E-05 +1.141826E-03 +1.936006E-04 +1.141826E-03 +3.089839E-05 +1.974155E-04 +1.936006E-04 +1.974155E-04 +7.479316E-03 
 +7.561714E-05 -1.324391E-04 +3.184804E-04 -1.324391E-04 +4.486532E-04 +1.742047E-04 +3.184804E-04 +1.742047E-04 +7.242293E-03 
 +1.812537E-04 -2.996571E-05 +1.990015E-04 -2.996571E-05 -1.225299E-04 +2.648066E-04 +1.990015E-04 +2.648066E-04 +7.412377E-03 
 +2.793459E-04 +1.112486E-04 +1.294824E-04 +1.112486E-04 +1.702166E-04 -8.020906E-05 +1.294824E-04 -8.020906E-05 +7.634343E-03 
 +3.462092E-04 +8.752601E-05 +3.068465E-04 +8.752601E-05 -7.970945E-04 -2.796898E-04 +3.068465E-04 -2.796898E-04 +7.735964E-03 
 +5.128453E-05 -2.664157E-04 +1.375290E-04 -2.664157E-04 +4.790121E-04 +3.557128E-04 +1.375290E-04 +3.557128E-04 +7.392071E-03 
 -1.048075E-04 -7.271225E-04 +1.002107E-04 -7.271225E-04 -1.112775E-04 -1.452955E-04 +1.002107E-04 -1.452955E-04 +7.512454E-03 
 -1.310895E-04 +1.185722E-03 -6.069792E-05 +1.185722E-03 -1.898512E-04 -3.211836E-04 -6.069792E-05 -3.211836E-04 +7.842094E-03 
 -4.891199E-04 -4.926783E-04 -8.521877E-05 -4.926783E-04 -1.293295E-04 +2.919142E-04 -8.521877E-05 +2.919142E-04 +7.844184E-03 
 -2.461034E-04 +9.019230E-04 -1.503727E-04 +9.019230E-04 +2.202915E-04 -1.437165E-04 -1.503727E-04 -1.437165E-04 +7.585692E-03 
 -4.351911E-04 -1.491206E-04 -1.887164E-04 -1.491206E-04 -1.050938E-04 +4.148279E-04 -1.887164E-04 +4.148279E-04 +7.636453E-03 
 -3.141923E-04 -7.441778E-04 +1.998288E-04 -7.441778E-04 -2.719299E-05 -1.790944E-04 +1.998288E-04 -1.790944E-04 +7.821232E-03 
 -3.561606E-04 +2.388077E-04 +1.389722E-04 +2.388077E-04 +4.708252E-04 +5.960687E-04 +1.389722E-04 +5.960687E-04 +7.512582E-03 
 -4.133004E-04 -2.310961E-04 +5.223506E-05 -2.310961E-04 +5.693770E-05 -3.778714E-04 +5.223506E-05 -3.778714E-04 +7.608393E-03 
 -1.722854E-04 +4.517447E-04 +5.833668E-04 +4.517447E-04 -1.746159E-04 +1.760727E-04 +5.833668E-04 +1.760727E-04 +7.954732E-03 
 +8.418450E-05 +6.914773E-04 +5.051040E-04 +6.914773E-04 +1.760393E-04 -1.030736E-04 +5.051040E-04 -1.030736E-04 +7.088306E-03 
 -6.115074E-06 -9.654449E-05 -5.933084E-04 -9.654449E-05 +1.221552E-04 +6.248441E-04 -5.933084E-04 +6.248441E-04 +7.382313E-03 
 -2.309426E-04 +5.521009E-04 -2.821113E-04 +5.521009E-04 -3.245611E-04 +2.782094E-04 -2.821113E-04 +2.782094E-04 +7.839997E-03 
 -5.297939E-05 -7.966893E-05 -5.065945E-04 -7.966893E-05 +1.873676E-04 -3.573080E-04 -5.065945E-04 -3.573080E-04 +7.864495E-03 
 -2.875934E-04 -2.684591E-04 +1.381956E-05 -2.684591E-04 -5.373169E-05 +3.935773E-04 +1.381956E-05 +3.935773E-04 +7.555928E-03 
 +2.656915E-04 -6.987417E-05 +3.833798E-04 -6.987417E-05 -7.679260E-05 -1.430674E-04 +3.833798E-04 -1.430674E-04 +7.113831E-03 
 -1.548144E-04 +1.034325E-04 -9.161624E-04 +1.034325E-04 +8.720632E-06 -4.156356E-04 -9.161624E-04 -4.156356E-04 +7.515197E-03 
 -5.186127E-05 -1.359169E-03 -2.890588E-04 -1.359169E-03 +3.856893E-05 -7.925658E-05 -2.890588E-04 -7.925658E-05 +7.879323E-03 
 +5.650184E-04 -3.437802E-04 +3.299034E-04 -3.437802E-04 +2.858372E-04 -4.245958E-04 +3.299034E-04 -4.245958E-04 +7.008818E-03 
 +3.365822E-04 -3.574114E-04 +9.441327E-05 -3.574114E-04 -1.363424E-04 +2.951228E-04 +9.441327E-05 +2.951228E-04 +7.002444E-03 
 +3.948617E-04 +1.818465E-04 -1.982485E-04 +1.818465E-04 -3.332870E-04 -5.925214E-04 -1.982485E-04 -5.925214E-04 +7.392822E-03 
 -1.703017E-04 -1.906076E-04 +2.589922E-04 -1.906076E-04 -1.100032E-05 -4.950274E-04 +2.589922E-04 -4.950274E-04 +7.490876E-03 
 -4.429076E-04 +2.308615E-04 +3.146016E-04 +2.308615E-04 +3.785263E-04 +2.722754E-04 +3.146016E-04 +2.722754E-04 +7.761966E-03 
 +1.351923E-04 +9.062638E-04 -2.533184E-04 +9.062638E-04 -5.912600E-04 -4.999537E-04 -2.533184E-04 -4.999537E-04 +7.849691E-03 
 -3.329919E-04 +4.155440E-04 -4.960114E-04 +4.155440E-04 +1.861801E-04 +4.483075E-05 -4.960114E-04 +4.483075E-05 +7.399175E-03 
 -2.920415E-04 +4.438960E-04 +2.948182E-04 +4.438960E-04 -1.722721E-05 +1.111237E-04 +2.948182E-04 +1.111237E-04 +7.628676E-03 
 -5.642376E-04 +2.089957E-04 +1.554478E-04 +2.089957E-04 -1.427668E-05 +1.378907E-04 +1.554478E-04 +1.378907E-04 +7.816863E-03 
 -5.092465E-04 -1.275851E-03 -2.254662E-04 -1.275851E-03 +2.077889E-04 -3.028800E-05 -2.254662E-04 -3.028800E-05 +7.680533E-03 
 -5.845177E-04 -4.551377E-04 +3.166765E-04 -4.551377E-04 +6.926191E-06 -5.425942E-05 +3.166765E-04 -5.425942E-05 +7.601588E-03 
 +4.428341E-05 -4.581429E-04 +8.720426E-04 -4.581429E-04 +1.739533E-04 -1.480114E-04 +8.720426E-04 -1.480114E-04 +7.237284E-03 
 +3.140538E-04 -1.888156E-04 +3.638809E-04 -1.888156E-04 +5.549628E-05 -3.723323E-04 +3.638809E-04 -3.723323E-04 +7.058163E-03 
 +1.621836E-04 +4.019183E-04 +3.604566E-04 +4.019183E-04 -1.135616E-05 -9.243289E-04 +3.604566E-04 -9.243289E-04 +7.765526E-03 
 -2.262338E-04 -9.673526E-05 +6.749228E-04 -9.673526E-05 +2.759174E-04 +5.111402E-05 +6.749228E-04 +5.111402E-05 +7.669053E-03 
 +1.518196E-04 +1.100978E-04 +3.011462E-04 +1.100978E-04 -5.598797E-04 -6.389982E-05 +3.011462E-04 -6.389982E-05 +7.723612E-03 
 -1.261911E-04 +2.961157E-04 +3.326327E-04 +2.961157E-04 +4.447801E-05 +1.725545E-04 +3.326327E-04 +1.725545E-04 +7.144064E-03 
 -2.077084E-04 -1.523513E-03 +2.002534E-04 -1.523513E-03 -9.150418E-05 +4.202093E-04 +2.002534E-04 +4.202093E-04 +7.579590E-03 
 -7.563538E-06 -1.003450E-03 -8.603741E-05 -1.003450E-03 -4.049175E-04 -8.757460E-05 -8.603741E-05 -8.757460E-05 +8.011686E-03 
 -2.031736E-04 -1.370090E-03 +1.918081E-04 -1.370090E-03 +5.680877E-05 +1.652745E-04 +1.918081E-04 +1.652745E-04 +7.521578E-03 
 -1.031242E-04 -4.555154E-05 +2.804284E-04 -4.555154E-05 +5.480965E-04 +3.341605E-04 +2.804284E-04 +3.341605E-04 +7.064470E-03 
 +3.496326E-04 +1.174351E-04 +2.052517E-04 +1.174351E-04 -3.803679E-04 +2.225993E-04 +2.052517E-04 +2.225993E-04 +7.825195E-03 
 -3.132799E-07 +4.220938E-04 +2.376434E-04 +4.220938E-04 +1.914329E-04 +4.460735E-04 +2.376434E-04 +4.460735E-04 +7.766136E-03 
 -6.123350E-06 -5.214938E-04 +3.698952E-04 -5.214938E-04 -6.767010E-05 +3.789601E-04 +3.698952E-04 +3.789601E-04 +7.738657E-03 
 +6.494198E-06 +1.067465E-04 +1.052159E-04 +1.067465E-04 -5.908310E-04 +4.150539E-05 +1.052159E-04 +4.150539E-05 +7.750215E-03 
 -3.130185E-04 +4.401791E-04 +4.456183E-04 +4.401791E-04 +4.632768E-04 +9.625482E-05 +4.456183E-04 +9.625482E-05 +7.315928E-03 
 -8.383139E-05 +9.691356E-05 +6.847148E-04 +9.691356E-05 +7.483246E-05 -2.725779E-04 +6.847148E-04 -2.725779E-04 +7.234043E-03 
 -1.335193E-04 +5.799228E-04 +4.514346E-05 +5.799228E-04 -3.309079E-04 +4.978799E-04 +4.514346E-05 +4.978799E-04 +7.623040E-03 
 -1.411579E-04 -6.246142E-04 -3.409336E-05 -6.246142E-04 -8.150703E-06 +3.308820E-04 -3.409336E-05 +3.308820E-04 +7.689464E-03 
 -1.658829E-04 -3.837344E-04 -2.749919E-04 -3.837344E-04 +2.907523E-04 +2.920362E-04 -2.749919E-04 +2.920362E-04 +7.324798E-03 
 -2.389315E-04 +2.191234E-04 -2.357184E-04 +2.191234E-04 +2.840010E-05 +2.767264E-04 -2.357184E-04 +2.767264E-04 +7.196342E-03 
 +1.105790E-04 +3.368800E-04 +1.044093E-04 +3.368800E-04 -4.304215E-05 +3.550452E-04 +1.044093E-04 +3.550452E-04 +7.529959E-03 
 +7.267609E-05 +3.843431E-05 -6.176985E-04 +3.843431E-05 +3.319238E-04 +1.092584E-04 -6.176985E-04 +1.092584E-04 +7.605685E-03 
 +3.094368E-04 -1.062326E-05 +1.971605E-05 -1.062326E-05 -3.268759E-04 +3.449606E-04 +1.971605E-05 +3.449606E-04 +7.587946E-03 
 +4.112925E-04 +4.819348E-05 -3.102683E-04 +4.819348E-05 -2.424317E-06 -1.994643E-04 -3.102683E-04 -1.994643E-04 +7.414463E-03 
 -1.306459E-04 +8.700414E-04 -4.536633E-04 +8.700414E-04 -1.092640E-04 -3.023158E-04 -4.536633E-04 -3.023158E-04 +7.350375E-03 
 -3.124447E-04 -1.087320E-04 +2.023276E-05 -1.087320E-04 +3.267401E-04 +6.181985E-04 +2.023276E-05 +6.181985E-04 +7.015878E-03 
 -4.087228E-04 +1.214242E-03 -1.164129E-04 +1.214242E-03 +3.780797E-04 -2.891524E-04 -1.164129E-04 -2.891524E-04 +7.871179E-03 
 +1.191366E-04 -1.960118E-03 -2.804818E-05 -1.960118E-03 -4.191838E-04 +3.464614E-04 -2.804818E-05 +3.464614E-04 +7.702058E-03 
 +1.439498E-05 -1.698469E-05 +5.316847E-04 -1.698469E-05 -1.023941E-04 +1.743215E-04 +5.316847E-04 +1.743215E-04 +7.391072E-03 
 -4.438486E-04 -9.501238E-04 +4.088418E-04 -9.501238E-04 +6.378535E-05 -1.535786E-04 +4.088418E-04 -1.535786E-04 +7.458785E-03 
 -8.708090E-05 -1.770544E-04 +8.398278E-04 -1.770544E-04 +1.468150E-04 -7.172077E-05 +8.398278E-04 -7.172077E-05 +7.548446E-03 
 +2.081364E-04 -6.429812E-05 +1.333015E-04 -6.429812E-05 +3.380141E-05 -2.235990E-04 +1.333015E-04 -2.235990E-04 +7.158434E-03 
 +4.323175E-04 +1.523605E-04 -1.677112E-04 +1.523605E-04 -1.058530E-04 +3.382491E-04 -1.677112E-04 +3.382491E-04 +6.955288E-03 
 +2.112889E-04 -3.122278E-04 -3.003994E-04 -3.122278E-04 +9.222695E-05 +8.650409E-05 -3.003994E-04 +8.650409E-05 +7.046452E-03 
 -8.549914E-05 +9.351245E-04 -2.655876E-04 +9.351245E-04 -4.210949E-04 -1.797042E-05 -2.655876E-04 -1.797042E-05 +7.871500E-03 
 +6.033313E-06 -2.922383E-05 -3.334088E-04 -2.922383E-05 +1.844661E-04 +2.623672E-04 -3.334088E-04 +2.623672E-04 +7.697759E-03 
 -4.712154E-04 +3.683504E-04 -9.539680E-05 +3.683504E-04 +2.987209E-04 +8.147238E-05 -9.539680E-05 +8.147238E-05 +7.527061E-03 
 +5.030219E-05 -4.700034E-05 +3.141836E-05 -4.700034E-05 -4.049048E-04 -5.708616E-05 +3.141836E-05 -5.708616E-05 +7.665317E-03 
 +2.148303E-04 +1.285260E-04 +9.374497E-05 +1.285260E-04 -9.347741E-05 +5.139657E-04 +9.374497E-05 +5.139657E-04 +7.239914E-03 
 -1.654802E-04 -5.606498E-04 +1.857669E-04 -5.606498E-04 +4.296317E-04 -2.185799E-04 +1.857669E-04 -2.185799E-04 +7.374299E-03 
 -5.977752E-05 +1.532303E-04 -1.891102E-04 +1.532303E-04 -3.884315E-04 +8.872253E-05 -1.891102E-04 +8.872253E-05 +7.740487E-03 
 -3.617681E-04 -4.510549E-04 +2.547660E-04 -4.510549E-04 +5.202072E-04 -1.211663E-04 +2.547660E-04 -1.211663E-04 +7.442382E-03 
 +1.827084E-04 -6.875312E-04 +6.540665E-04 -6.875312E-04 -1.554589E-04 -3.652955E-04 +6.540665E-04 -3.652955E-04 +7.262744E-03 
 +2.175154E-04 +5.772395E-04 -2.159666E-04 +5.772395E-04 -3.255414E-04 -4.934598E-04 -2.159666E-04 -4.934598E-04 +7.324316E-03 
 +4.655753E-04 +2.220671E-05 +4.271775E-04 +2.220671E-05 -2.625096E-05 -3.113096E-04 +4.271775E-04 -3.113096E-04 +7.551634E-03 
 +2.941557E-04 +6.217371E-04 +2.698113E-04 +6.217371E-04 -2.576495E-04 -2.280573E-04 +2.698113E-04 -2.280573E-04 +7.650843E-03 
 -6.461550E-04 -1.893461E-04 +1.456989E-04 -1.893461E-04 +5.509431E-04 -2.448795E-05 +1.456989E-04 -2.448795E-05 +7.787968E-03 
 -2.640591E-04 +6.138933E-04 -6.150733E-04 +6.138933E-04 +2.863328E-04 -6.791226E-04 -6.150733E-04 -6.791226E-04 +7.142957E-03 
 -1.042483E-04 +4.389249E-04 -5.472352E-04 +4.389249E-04 +7.327253E-05 -2.783752E-04 -5.472352E-04 -2.783752E-04 +7.289739E-03 
 +3.751346E-04 -2.425531E-04 -5.906617E-04 -2.425531E-04 +1.943217E-04 -4.554046E-04 -5.906617E-04 -4.554046E-04 +7.002426E-03 
 +2.109196E-04 -5.537541E-04 -2.927501E-04 -5.537541E-04 -1.164758E-04 +4.582101E-04 -2.927501E-04 +4.582101E-04 +7.252004E-03 
 -8.437762E-05 -1.045119E-03 -6.213117E-05 -1.045119E-03 -4.764015E-04 -5.069830E-04 -6.213117E-05 -5.069830E-04 +7.552568E-03 
 +1.879483E-05 -3.670646E-04 +6.834629E-05 -3.670646E-04 +5.656164E-04 -4.124193E-04 +6.834629E-05 -4.124193E-04 +7.180769E-03 
 +5.851285E-05 +5.042104E-04 +2.867784E-04 +5.042104E-04 -1.994792E-05 +3.657748E-04 +2.867784E-04 +3.657748E-04 +7.618693E-03 
 +3.167588E-04 -1.668642E-04 -1.695763E-04 -1.668642E-04 -4.427971E-04 +3.858611E-04 -1.695763E-04 +3.858611E-04 +7.889119E-03 
 +2.363996E-04 +3.654429E-04 +5.577600E-05 +3.654429E-04 +4.433274E-04 -2.030160E-04 +5.577600E-05 -2.030160E-04 +6.800716E-03 
 +3.353212E-04 -2.384236E-04 +2.505256E-04 -2.384236E-04 +3.635387E-06 -4.003056E-05 +2.505256E-04 -4.003056E-05 +7.220494E-03 
 +4.161937E-05 +8.018202E-04 +1.672505E-04 +8.018202E-04 -5.104723E-04 -2.016489E-04 +1.672505E-04 -2.016489E-04 +7.737407E-03 
 -1.271666E-04 -7.815307E-04 +2.701698E-04 -7.815307E-04 +1.393158E-04 -7.625997E-04 +2.701698E-04 -7.625997E-04 +7.391516E-03 
 +1.889048E-04 -1.801361E-04 +7.987560E-04 -1.801361E-04 -2.149367E-04 -4.427925E-04 +7.987560E-04 -4.427925E-04 +7.484102E-03 
 -6.763267E-04 -5.999448E-04 +6.994673E-04 -5.999448E-04 +2.328862E-04 +1.251470E-04 +6.994673E-04 +1.251470E-04 +7.772305E-03 
 -5.682721E-04 +1.973858E-04 -1.641295E-04 +1.973858E-04 +1.188193E-04 +9.083073E-05 -1.641295E-04 +9.083073E-05 +7.732303E-03 
 -4.101405E-04 -1.120662E-03 -2.111768E-04 -1.120662E-03 +6.653884E-05 -7.844271E-04 -2.111768E-04 -7.844271E-04 +7.093431E-03 
 +1.113221E-04 -1.909768E-04 -3.093173E-04 -1.909768E-04 +1.716372E-05 +1.958416E-04 -3.093173E-04 +1.958416E-04 +7.197408E-03 
 +3.070366E-04 +4.638490E-04 -7.239939E-04 +4.638490E-04 -3.549593E-04 +2.138540E-04 -7.239939E-04 +2.138540E-04 +7.649149E-03 
 +3.837444E-04 +3.773832E-04 -2.010417E-04 +3.773832E-04 +5.173108E-06 -1.654216E-05 -2.010417E-04 -1.654216E-05 +7.368114E-03 
 +5.166956E-04 -5.239323E-04 -1.583666E-04 -5.239323E-04 -3.759028E-04 +1.117956E-04 -1.583666E-04 +1.117956E-04 +7.669377E-03 
 -1.748253E-05 -2.219695E-04 -4.292632E-04 -2.219695E-04 +3.652278E-04 -5.003961E-05 -4.292632E-04 -5.003961E-05 +7.609267E-03 
 -9.570044E-05 +8.733025E-04 +2.371758E-05 +8.733025E-04 -7.589064E-06 +1.373171E-04 +2.371758E-05 +1.373171E-04 +7.574714E-03 
 +9.064443E-05 +2.906011E-05 +9.582585E-05 +2.906011E-05 +4.591633E-04 +2.463653E-05 +9.582585E-05 +2.463653E-05 +7.031614E-03 
 +1.210377E-04 +8.711518E-05 -4.117283E-04 +8.711518E-05 +2.127675E-04 -2.655518E-04 -4.117283E-04 -2.655518E-04 +7.322840E-03 
 +5.443635E-04 +1.449898E-05 -2.173587E-05 +1.449898E-05 -5.040987E-04 -1.690879E-04 -2.173587E-05 -1.690879E-04 +7.337762E-03 
 +1.286249E-04 -1.019504E-03 +2.021342E-04 -1.019504E-03 +1.783485E-04 +2.447844E-04 +2.021342E-04 +2.447844E-04 +7.400150E-03 
 -2.495547E-04 +5.390887E-05 +7.688774E-05 +5.390887E-05 -1.049498E-04 -5.506964E-04 +7.688774E-05 -5.506964E-04 +7.829278E-03 
 -1.653515E-04 -9.346598E-05 -4.195141E-04 -9.346598E-05 +2.794629E-05 +2.876693E-04 -4.195141E-04 +2.876693E-04 +7.250856E-03 
 +4.466627E-04 -5.880017E-04 -4.175128E-04 -5.880017E-04 +2.997879E-04 -1.926683E-07 -4.175128E-04 -1.926683E-07 +6.954935E-03 
 +2.511478E-04 -1.633600E-04 -5.487840E-05 -1.633600E-04 -1.886712E-04 -2.283608E-04 -5.487840E-05 -2.283608E-04 +7.463680E-03 
 -1.330351E-04 -1.316475E-04 -2.646175E-04 -1.316475E-04 +1.433044E-04 +2.454865E-04 -2.646175E-04 +2.454865E-04 +7.419973E-03 
 +3.913714E-04 +8.217273E-04 -5.892310E-04 +8.217273E-04 -3.150535E-04 +1.463402E-04 -5.892310E-04 +1.463402E-04 +7.304331E-03 
 +4.547240E-07 -1.603141E-04 -3.422788E-04 -1.603141E-04 -1.728982E-04 +3.548150E-04 -3.422788E-04 +3.548150E-04 +7.561700E-03 
 -3.413463E-04 -1.379152E-03 -4.077339E-04 -1.379152E-03 -1.510503E-04 +4.466925E-04 -4.077339E-04 +4.466925E-04 +7.897396E-03 
 -1.316045E-04 +1.631019E-04 +5.647193E-05 +1.631019E-04 +1.235295E-04 +1.047939E-04 +5.647193E-05 +1.047939E-04 +7.591947E-03 
 +1.171244E-04 -1.706078E-04 +3.113713E-04 -1.706078E-04 +4.874672E-04 -4.017072E-04 +3.113713E-04 -4.017072E-04 +7.063501E-03 
 +4.628931E-05 -4.407477E-04 -4.824224E-04 -4.407477E-04 -2.093150E-04 -4.071248E-04 -4.824224E-04 -4.071248E-04 +7.799392E-03 
 -2.939543E-04 -9.947087E-04 -5.081915E-04 -9.947087E-04 -1.629825E-04 +1.508848E-04 -5.081915E-04 +1.508848E-04 +8.073981E-03 
 -2.617209E-04 -4.742583E-05 -2.167883E-05 -4.742583E-05 +8.663444E-05 -6.988229E-04 -2.167883E-05 -6.988229E-04 +7.549678E-03 
 +5.080171E-05 +6.247374E-05 -4.041199E-04 +6.247374E-05 -1.930120E-04 +1.034429E-04 -4.041199E-04 +1.034429E-04 +7.864219E-03 
 +4.465668E-04 -8.974034E-05 -1.667464E-04 -8.974034E-05 -3.356326E-04 +2.528464E-04 -1.667464E-04 +2.528464E-04 +7.658426E-03 
 +1.484398E-04 +8.998175E-05 +1.084953E-04 +8.998175E-05 +3.263696E-04 -1.764144E-04 +1.084953E-04 -1.764144E-04 +7.336468E-03 
 +4.697223E-05 +4.562938E-04 -3.621858E-04 +4.562938E-04 +4.990101E-05 +4.406775E-04 -3.621858E-04 +4.406775E-04 +7.044427E-03 
 -3.002996E-04 -1.612869E-03 -2.893785E-04 -1.612869E-03 -3.295779E-05 -2.031057E-04 -2.893785E-04 -2.031057E-04 +7.862394E-03 
 -1.884963E-04 +9.961830E-04 +3.130482E-04 +9.961830E-04 +3.080274E-04 -1.890086E-04 +3.130482E-04 -1.890086E-04 +7.920125E-03 
 +4.024313E-04 -1.150290E-03 -9.228108E-05 -1.150290E-03 -5.385934E-04 -2.387190E-04 -9.228108E-05 -2.387190E-04 +7.591426E-03 
 +1.867788E-04 +4.930129E-05 -4.544948E-04 +4.930129E-05 +3.584471E-04 +1.990775E-04 -4.544948E-04 +1.990775E-04 +7.246753E-03 
 -4.675971E-05 +1.572586E-04 -4.015101E-04 +1.572586E-04 -2.026062E-04 -2.755899E-04 -4.015101E-04 -2.755899E-04 +7.698304E-03 
 +5.045089E-05 -2.800574E-04 -9.618363E-04 -2.800574E-04 -4.983569E-05 -2.971782E-05 -9.618363E-04 -2.971782E-05 +7.707832E-03 
 +1.174362E-04 +4.175972E-04 -1.753725E-04 +4.175972E-04 +1.156582E-04 -2.152142E-04 -1.753725E-04 -2.152142E-04 +7.185283E-03 
 +1.701648E-04 +5.035182E-04 -5.280604E-04 +5.035182E-04 +1.771732E-04 -5.887878E-04 -5.280604E-04 -5.887878E-04 +7.404244E-03 
 -6.484504E-05 +2.658188E-04 -3.976034E-04 +2.658188E-04 +2.180822E-04 +5.211164E-04 -3.976034E-04 +5.211164E-04 +7.378020E-03 
 +2.311596E-04 -1.031310E-04 +8.482450E-04 -1.031310E-04 -1.837001E-04 +1.408458E-04 +8.482450E-04 +1.408458E-04 +7.321903E-03 
 +2.043148E-04 -2.203566E-04 +7.847399E-04 -2.203566E-04 -4.777881E-05 +1.280923E-04 +7.847399E-04 +1.280923E-04 +7.467725E-03 
 +1.368595E-04 -4.337101E-04 +1.726944E-04 -4.337101E-04 -4.552357E-04 +7.562982E-04 +1.726944E-04 +7.562982E-04 +7.432453E-03 
 +3.167932E-04 -1.289011E-04 -7.212021E-04 -1.289011E-04 +2.050352E-04 -3.142875E-04 -7.212021E-04 -3.142875E-04 +7.263014E-03 
 +3.385114E-04 +1.943964E-04 -3.080174E-04 +1.943964E-04 +2.824498E-04 +8.431744E-05 -3.080174E-04 +8.431744E-05 +7.221997E-03 
 +3.396050E-05 -3.166595E-04 +2.743611E-04 -3.166595E-04 -5.817846E-05 +4.696542E-04 +2.743611E-04 +4.696542E-04 +7.474252E-03 
 -3.079918E-04 +3.105010E-04 +3.239792E-04 +3.105010E-04 -5.643058E-04 -7.168826E-05 +3.239792E-04 -7.168826E-05 +7.584631E-03 
 -2.720580E-04 +5.089803E-05 -1.135020E-04 +5.089803E-05 +3.202412E-05 -1.777012E-04 -1.135020E-04 -1.777012E-04 +7.810012E-03 
 -4.588454E-04 -4.240496E-05 -1.482642E-04 -4.240496E-05 -5.544920E-05 -4.876092E-04 -1.482642E-04 -4.876092E-04 +7.764564E-03 
 -8.929729E-05 +5.282085E-05 +5.229593E-04 +5.282085E-05 +1.345449E-04 -5.203362E-04 +5.229593E-04 -5.203362E-04 +7.331554E-03 
 +1.779466E-04 +5.700524E-05 -3.676493E-04 +5.700524E-05 +3.069388E-04 +2.791452E-04 -3.676493E-04 +2.791452E-04 +7.078579E-03 
 +4.700304E-04 +5.188162E-04 +3.028615E-04 +5.188162E-04 -2.160563E-04 -5.538837E-05 +3.028615E-04 -5.538837E-05 +7.557771E-03 
 +1.899566E-04 +1.671365E-04 -1.094844E-04 +1.671365E-04 +5.285526E-05 +2.349921E-04 -1.094844E-04 +2.349921E-04 +7.204843E-03 
 +3.559615E-04 +3.621693E-04 -5.895123E-04 +3.621693E-04 +4.555175E-05 -3.687915E-04 -5.895123E-04 -3.687915E-04 +7.153875E-03 
 +1.189695E-04 -7.504125E-04 -4.433311E-04 -7.504125E-04 -3.895090E-04 -5.123157E-04 -4.433311E-04 -5.123157E-04 +7.555230E-03 
 +2.125439E-04 +2.051892E-04 +7.244013E-06 +2.051892E-04 -3.833777E-05 -7.930727E-04 +7.244013E-06 -7.930727E-04 +7.575340E-03 
 -1.672836E-04 -6.843804E-04 -2.640241E-04 -6.843804E-04 +2.249860E-04 -7.644647E-05 -2.640241E-04 -7.644647E-05 +6.899850E-03 
 -4.792706E-04 +2.577512E-04 -2.908123E-04 +2.577512E-04 +1.352681E-04 -3.725651E-04 -2.908123E-04 -3.725651E-04 +7.756285E-03 
 -2.500723E-04 +9.445905E-04 -5.545898E-04 +9.445905E-04 -9.682390E-05 -5.651386E-05 -5.545898E-04 -5.651386E-05 +7.840659E-03 
 -5.826211E-06 -2.147614E-04 -3.570862E-04 -2.147614E-04 +2.855627E-04 +3.306270E-04 -3.570862E-04 +3.306270E-04 +6.907485E-03 
 +2.814252E-04 +6.970205E-05 -5.784017E-04 +6.970205E-05 -7.549971E-05 -4.806721E-04 -5.784017E-04 -4.806721E-04 +7.259206E-03 
 -1.112171E-04 -7.803896E-04 -4.656438E-04 -7.803896E-04 -4.867662E-05 -4.366285E-04 -4.656438E-04 -4.366285E-04 +7.591255E-03 
 -1.754456E-04 -6.986161E-04 +4.720930E-04 -6.986161E-04 +9.279363E-06 -4.792865E-04 +4.720930E-04 -4.792865E-04 +7.468959E-03 
 +2.401328E-04 +8.410370E-05 -3.698284E-04 +8.410370E-05 -1.881907E-04 -1.558121E-04 -3.698284E-04 -1.558121E-04 +7.171148E-03 
 +1.484365E-04 +4.238505E-04 -5.772627E-04 +4.238505E-04 +3.885322E-04 -1.507577E-05 -5.772627E-04 -1.507577E-05 +7.321454E-03 
 +2.475418E-04 +6.935176E-04 -1.189674E-05 +6.935176E-04 -2.375927E-04 -8.623052E-05 -1.189674E-05 -8.623052E-05 +7.894962E-03 
 -2.074700E-04 -7.832268E-04 -9.591859E-06 -7.832268E-04 -9.649100E-05 -7.714002E-05 -9.591859E-06 -7.714002E-05 +7.785160E-03 
 -3.187680E-04 +1.543823E-03 +1.044127E-04 +1.543823E-03 +1.077642E-04 +2.021239E-04 +1.044127E-04 +2.021239E-04 +7.775812E-03 
 -1.600946E-04 +5.919037E-04 -7.463963E-05 +5.919037E-04 -4.430212E-04 +5.916249E-04 -7.463963E-05 +5.916249E-04 +7.760234E-03 
 +1.400667E-05 -9.614589E-05 -1.063908E-04 -9.614589E-05 +1.554757E-04 +4.396127E-04 -1.063908E-04 +4.396127E-04 +7.427750E-03 
 -1.757869E-04 -7.439185E-04 -7.541056E-04 -7.439185E-04 +3.251600E-04 +6.677500E-05 -7.541056E-04 +6.677500E-05 +7.466986E-03 
 +2.537209E-04 -3.380625E-05 +2.045102E-04 -3.380625E-05 +1.002904E-04 -2.490746E-04 +2.045102E-04 -2.490746E-04 +7.526590E-03 
 -4.754773E-04 +3.672852E-04 -1.853923E-05 +3.672852E-04 -6.510183E-05 +8.176205E-04 -1.853923E-05 +8.176205E-04 +7.773903E-03 
 -3.729766E-04 +5.313373E-04 -8.744094E-04 +5.313373E-04 -2.277180E-04 -1.089032E-04 -8.744094E-04 -1.089032E-04 +7.807228E-03 
 +4.442462E-05 -3.296467E-04 -5.692203E-04 -3.296467E-04 -1.656963E-04 -1.891869E-04 -5.692203E-04 -1.891869E-04 +7.883564E-03 
 +1.918395E-04 +2.150024E-04 -1.243199E-04 +2.150024E-04 -3.306798E-04 -3.923230E-04 -1.243199E-04 -3.923230E-04 +7.547404E-03 
 +1.315676E-04 +5.743384E-05 -3.953368E-04 +5.743384E-05 +2.050802E-04 -2.847115E-05 -3.953368E-04 -2.847115E-05 +7.250991E-03 
 -3.922009E-04 -3.051679E-04 -4.409424E-04 -3.051679E-04 +3.278349E-05 +4.821783E-04 -4.409424E-04 +4.821783E-04 +7.890658E-03 
 -9.684941E-05 +5.667467E-04 -7.287086E-06 +5.667467E-04 +4.200429E-04 +3.969124E-04 -7.287086E-06 +3.969124E-04 +7.060623E-03 
 -1.491430E-04 +3.650720E-04 +5.614534E-04 +3.650720E-04 +1.844545E-04 -6.723905E-04 +5.614534E-04 -6.723905E-04 +7.019593E-03 
 -1.335699E-04 -1.102263E-03 -5.158546E-05 -1.102263E-03 -3.565097E-04 +3.273486E-05 -5.158546E-05 +3.273486E-05 +8.129514E-03 
 -2.982299E-04 -1.044366E-03 -3.574631E-04 -1.044366E-03 -1.646101E-04 +3.210614E-04 -3.574631E-04 +3.210614E-04 +7.974638E-03 
 -4.084199E-04 +4.396373E-04 -8.008959E-05 +4.396373E-04 +6.684941E-04 +5.893384E-04 -8.008959E-05 +5.893384E-04 +7.473107E-03 
 +1.709895E-04 +1.222924E-04 +5.147057E-04 +1.222924E-04 -3.881549E-04 +6.701453E-04 +5.147057E-04 +6.701453E-04 +7.504953E-03 
 -1.150228E-04 +5.634527E-04 +1.840984E-04 +5.634527E-04 +8.765909E-06 +2.057858E-04 +1.840984E-04 +2.057858E-04 +7.468065E-03 
 -2.262875E-04 +9.181344E-04 -4.148306E-06 +9.181344E-04 -1.842297E-05 -2.344255E-04 -4.148306E-06 -2.344255E-04 +7.393587E-03 
 +1.559910E-04 +1.499415E-04 -6.111392E-05 +1.499415E-04 +1.946554E-05 +2.072790E-04 -6.111392E-05 +2.072790E-04 +7.491361E-03 
 +7.971506E-05 +6.010338E-04 -3.991635E-04 +6.010338E-04 -1.758011E-04 -2.804153E-06 -3.991635E-04 -2.804153E-06 +7.189876E-03 
 +7.604116E-05 +1.999536E-04 +2.866586E-04 +1.999536E-04 +3.391817E-04 +3.916496E-04 +2.866586E-04 +3.916496E-04 +6.915433E-03 
 +2.336361E-04 +2.150296E-04 +3.746356E-04 +2.150296E-04 -6.311213E-05 -1.680685E-04 +3.746356E-04 -1.680685E-04 +7.087872E-03 
 +2.086864E-04 -1.795265E-04 -5.032078E-04 -1.795265E-04 +1.591436E-04 +9.708057E-05 -5.032078E-04 +9.708057E-05 +7.225503E-03 
 -2.491393E-04 -1.216732E-03 -2.575236E-04 -1.216732E-03 +7.307601E-05 +1.175799E-04 -2.575236E-04 +1.175799E-04 +7.636306E-03 
 -1.137538E-04 +2.177282E-04 +1.609721E-04 +2.177282E-04 -1.540079E-04 -2.460795E-04 +1.609721E-04 -2.460795E-04 +7.856176E-03 
 -3.283322E-04 -7.106441E-05 -2.747580E-04 -7.106441E-05 -1.289037E-04 +5.247340E-05 -2.747580E-04 +5.247340E-05 +7.859021E-03 
 -1.988009E-04 -3.598836E-04 -7.024551E-05 -3.598836E-04 -3.031204E-04 -1.738050E-04 -7.024551E-05 -1.738050E-04 +7.924972E-03 
 +3.425155E-04 -1.343371E-04 -6.203398E-04 -1.343371E-04 +1.835239E-04 +1.139999E-04 -6.203398E-04 +1.139999E-04 +7.223177E-03 
 +4.031660E-04 -9.687877E-05 -6.223773E-04 -9.687877E-05 -2.132835E-04 +7.618713E-04 -6.223773E-04 +7.618713E-04 +7.191478E-03 
 -4.287233E-04 +1.070058E-03 -2.590375E-04 +1.070058E-03 -1.535386E-04 +1.392519E-04 -2.590375E-04 +1.392519E-04 +7.836810E-03 
 -3.565412E-04 +3.180759E-04 +3.178751E-04 +3.180759E-04 +4.369219E-04 +5.097343E-04 +3.178751E-04 +5.097343E-04 +7.168312E-03 
 -1.013133E-04 +4.714667E-04 +3.144147E-04 +4.714667E-04 -1.196367E-05 +1.064189E-04 +3.144147E-04 +1.064189E-04 +7.579922E-03 
 -1.970142E-04 +3.049122E-04 +1.283564E-04 +3.049122E-04 -3.924669E-04 -3.924096E-04 +1.283564E-04 -3.924096E-04 +7.960574E-03 
 -6.735273E-05 -4.179821E-04 +5.319778E-05 -4.179821E-04 +3.435540E-05 -3.631932E-04 +5.319778E-05 -3.631932E-04 +7.284278E-03 
 -7.306510E-05 -6.494984E-04 -2.575532E-04 -6.494984E-04 +3.022191E-04 +2.899662E-04 -2.575532E-04 +2.899662E-04 +7.196121E-03 
 -1.139543E-04 +3.097923E-04 -3.282566E-04 +3.097923E-04 +5.191775E-04 -3.076167E-04 -3.282566E-04 -3.076167E-04 +7.365974E-03 
 +1.701751E-04 +7.129245E-05 -2.850223E-04 +7.129245E-05 +5.768994E-06 +3.204888E-04 -2.850223E-04 +3.204888E-04 +7.339119E-03 
 +3.437656E-04 +9.079006E-04 +7.015140E-05 +9.079006E-04 -5.850640E-04 -2.590471E-04 +7.015140E-05 -2.590471E-04 +7.467833E-03 
 -2.012748E-04 -6.219471E-04 -3.617337E-04 -6.219471E-04 -1.336784E-04 +4.486290E-04 -3.617337E-04 +4.486290E-04 +7.382215E-03 
 +7.618381E-05 +3.108071E-04 -4.566582E-04 +3.108071E-04 +4.354519E-04 +4.074695E-04 -4.566582E-04 +4.074695E-04 +7.171967E-03 
 +5.008230E-04 +5.633884E-04 -3.129950E-04 +5.633884E-04 -2.934524E-04 +5.193525E-05 -3.129950E-04 +5.193525E-05 +7.536541E-03 
 +7.567059E-05 +2.655105E-04 -2.272378E-04 +2.655105E-04 +6.867299E-05 -4.426559E-05 -2.272378E-04 -4.426559E-05 +7.425099E-03 
 +4.723686E-04 +2.615768E-04 +7.556444E-04 +2.615768E-04 +3.697147E-04 +1.883675E-04 +7.556444E-04 +1.883675E-04 +6.882594E-03 
 +4.711265E-04 -1.777975E-04 +4.063287E-04 -1.777975E-04 -3.434198E-04 -3.409218E-04 +4.063287E-04 -3.409218E-04 +7.094811E-03 
 -9.870898E-05 -2.320178E-04 -2.819512E-04 -2.320178E-04 +1.526424E-04 -2.527415E-04 -2.819512E-04 -2.527415E-04 +7.099046E-03 
 -4.233784E-04 +1.173225E-04 -2.719620E-04 +1.173225E-04 +5.106054E-05 -4.120304E-04 -2.719620E-04 -4.120304E-04 +7.466459E-03 
 +3.614860E-04 +4.089413E-05 -2.093860E-04 +4.089413E-05 -8.511511E-05 -4.996086E-05 -2.093860E-04 -4.996086E-05 +7.338337E-03 
 +3.120661E-04 +1.847614E-04 -8.583565E-05 +1.847614E-04 +1.955472E-04 +7.119932E-05 -8.583565E-05 +7.119932E-05 +6.723565E-03 
 +1.692870E-04 +1.030829E-03 -2.190676E-04 +1.030829E-03 +1.847059E-04 -4.088726E-04 -2.190676E-04 -4.088726E-04 +7.341658E-03 
 -2.816689E-05 +6.051333E-04 +2.816780E-04 +6.051333E-04 -3.554902E-04 +3.733393E-04 +2.816780E-04 +3.733393E-04 +7.997843E-03 
 +4.622161E-05 -1.265483E-04 -5.704544E-05 -1.265483E-04 -6.840259E-05 -4.624697E-04 -5.704544E-05 -4.624697E-04 +7.470514E-03 
 +8.302691E-05 -7.651700E-04 -4.784742E-04 -7.651700E-04 +2.096921E-04 +2.723632E-04 -4.784742E-04 +2.723632E-04 +7.660866E-03 
 +5.831158E-05 +3.721978E-04 +3.790889E-04 +3.721978E-04 -3.126275E-04 -9.152500E-05 +3.790889E-04 -9.152500E-05 +7.794873E-03 
 +2.269782E-04 -4.281623E-04 +1.817375E-05 -4.281623E-04 -2.330389E-04 -2.086027E-04 +1.817375E-05 -2.086027E-04 +7.506563E-03 
 -1.096925E-04 +4.135032E-04 +1.167948E-04 +4.135032E-04 +3.700560E-05 -3.240661E-05 +1.167948E-04 -3.240661E-05 +7.387408E-03 
 +1.081064E-04 +3.204716E-04 +3.478242E-04 +3.204716E-04 +4.118214E-04 +9.448347E-05 +3.478242E-04 +9.448347E-05 +7.062876E-03 
 +1.119291E-04 +1.356601E-04 -5.193112E-04 +1.356601E-04 -6.094808E-07 -1.117095E-04 -5.193112E-04 -1.117095E-04 +7.406259E-03 
 -6.735408E-05 -1.278526E-04 +5.736631E-05 -1.278526E-04 +2.707717E-04 -7.634184E-04 +5.736631E-05 -7.634184E-04 +7.629315E-03 
 -8.832422E-05 -3.281166E-04 +1.245450E-04 -3.281166E-04 -3.125979E-04 -1.207160E-04 +1.245450E-04 -1.207160E-04 +7.748039E-03 
 -2.319599E-04 -1.088169E-03 -1.277732E-05 -1.088169E-03 -3.231120E-04 -5.829915E-04 -1.277732E-05 -5.829915E-04 +7.889252E-03 
 -4.246514E-05 +3.763906E-04 -2.114790E-04 +3.763906E-04 +2.998344E-04 -5.480042E-04 -2.114790E-04 -5.480042E-04 +7.514182E-03 
 -2.642045E-04 -9.647992E-04 +2.889577E-04 -9.647992E-04 +1.952305E-04 -8.971951E-05 +2.889577E-04 -8.971951E-05 +7.221249E-03 
 -1.458460E-05 +2.459880E-04 +1.993262E-04 +2.459880E-04 +1.670519E-04 -9.114523E-05 +1.993262E-04 -9.114523E-05 +7.097056E-03 
 -8.763536E-05 +1.086598E-03 -4.076034E-04 +1.086598E-03 -4.190672E-04 -1.569334E-04 -4.076034E-04 -1.569334E-04 +7.363164E-03 
 -8.463267E-05 -5.197731E-04 +1.070474E-04 -5.197731E-04 +1.513157E-04 -7.810262E-05 +1.070474E-04 -7.810262E-05 +7.539151E-03 
 +1.884606E-04 +6.941570E-04 +4.030938E-05 +6.941570E-04 -8.243564E-05 +3.343645E-04 +4.030938E-05 +3.343645E-04 +7.605352E-03 
 +1.409876E-04 -4.833693E-04 -4.406752E-04 -4.833693E-04 +6.943823E-05 +2.229245E-04 -4.406752E-04 +2.229245E-04 +7.598842E-03 
 -1.936221E-05 +1.574165E-04 -3.371168E-04 +1.574165E-04 +4.157583E-04 +1.921185E-04 -3.371168E-04 +1.921185E-04 +7.109784E-03 
 -3.288845E-04 +1.197869E-04 -2.189872E-04 +1.197869E-04 -1.194667E-04 -4.361291E-06 -2.189872E-04 -4.361291E-06 +7.629489E-03 
 -5.949931E-05 +1.267118E-03 +1.909904E-04 +1.267118E-03 -2.949844E-04 -1.957017E-05 +1.909904E-04 -1.957017E-05 +7.829953E-03 
 +1.459891E-04 +9.552913E-05 +4.073151E-04 +9.552913E-05 +2.792611E-04 -1.330596E-04 +4.073151E-04 -1.330596E-04 +7.215981E-03 
 +2.962985E-04 +1.876136E-04 +3.116259E-04 +1.876136E-04 -4.553728E-04 -2.278020E-04 +3.116259E-04 -2.278020E-04 +7.457874E-03 
 -2.948701E-05 -1.399095E-04 +1.620607E-04 -1.399095E-04 -6.672763E-05 -5.750599E-04 +1.620607E-04 -5.750599E-04 +7.603221E-03 
 +6.417355E-05 +5.063359E-04 -3.412337E-04 +5.063359E-04 +4.203653E-04 +4.576350E-04 -3.412337E-04 +4.576350E-04 +7.037933E-03 
 +3.513033E-04 +5.588019E-04 -1.893008E-04 +5.588019E-04 -3.625338E-04 +2.488408E-04 -1.893008E-04 +2.488408E-04 +7.344472E-03 
 -5.283491E-05 -2.261784E-04 +1.717364E-04 -2.261784E-04 +3.272251E-05 -5.183713E-04 +1.717364E-04 -5.183713E-04 +7.414561E-03 
 -3.564658E-04 +1.541717E-04 -3.206437E-04 +1.541717E-04 -1.467475E-04 +6.374901E-04 -3.206437E-04 +6.374901E-04 +7.984987E-03 
 -2.762205E-04 +2.059134E-04 +1.049809E-04 +2.059134E-04 +3.201825E-04 -1.034377E-04 +1.049809E-04 -1.034377E-04 +7.825159E-03 
 -3.029246E-05 -2.448156E-04 +2.110601E-04 -2.448156E-04 -4.967945E-05 +2.919238E-04 +2.110601E-04 +2.919238E-04 +7.297141E-03 
 -1.038861E-04 -2.761707E-04 +1.358298E-04 -2.761707E-04 +1.870575E-04 +3.608002E-04 +1.358298E-04 +3.608002E-04 +7.341151E-03 
 +3.437257E-04 -2.716692E-04 +6.189181E-04 -2.716692E-04 -3.131737E-04 +2.917155E-04 +6.189181E-04 +2.917155E-04 +7.357710E-03 
 -9.398263E-05 -6.940531E-04 +2.800367E-04 -6.940531E-04 +8.572327E-05 +5.791751E-04 +2.800367E-04 +5.791751E-04 +7.537514E-03 
 -3.792429E-04 +7.293409E-05 -4.206467E-04 +7.293409E-05 +3.075716E-04 -9.943952E-05 -4.206467E-04 -9.943952E-05 +7.317640E-03 
 -9.962217E-05 +3.117324E-04 -5.067827E-04 +3.117324E-04 +1.860337E-04 -3.379486E-05 -5.067827E-04 -3.379486E-05 +7.987241E-03 
 -1.259343E-04 +1.843205E-04 -3.357765E-04 +1.843205E-04 -7.513460E-04 -2.619648E-04 -3.357765E-04 -2.619648E-04 +8.087357E-03 
 -4.532106E-04 -2.581515E-04 +7.226672E-05 -2.581515E-04 +3.245705E-04 +2.396202E-04 +7.226672E-05 +2.396202E-04 +7.671672E-03 
 -4.572529E-04 +1.083610E-03 +4.171667E-04 +1.083610E-03 +2.530995E-05 -2.939678E-04 +4.171667E-04 -2.939678E-04 +7.937275E-03 
 -6.653087E-05 +7.601354E-05 +2.808690E-04 +7.601354E-05 -2.420467E-05 -8.545844E-05 +2.808690E-04 -8.545844E-05 +7.479982E-03 
 -4.346608E-04 +6.012628E-04 +1.844524E-05 +6.012628E-04 +1.239823E-04 -7.252702E-04 +1.844524E-05 -7.252702E-04 +7.841934E-03 
 -8.253002E-04 +1.968853E-04 -3.295064E-04 +1.968853E-04 +1.696172E-04 -8.788387E-05 -3.295064E-04 -8.788387E-05 +7.807331E-03 
 -3.305723E-05 +9.372729E-04 -8.365610E-04 +9.372729E-04 -1.433213E-04 +3.589623E-04 -8.365610E-04 +3.589623E-04 +7.575075E-03 
 +5.110876E-05 -1.072312E-04 -1.378052E-04 -1.072312E-04 +1.503636E-04 -8.113089E-05 -1.378052E-04 -8.113089E-05 +7.535393E-03 
 -5.254284E-04 +1.043669E-03 +7.747934E-07 +1.043669E-03 -3.709104E-04 +7.313967E-04 +7.747934E-07 +7.313967E-04 +7.818587E-03 
 -5.532172E-04 +7.089666E-04 -7.013385E-04 +7.089666E-04 +3.898751E-05 +3.482891E-04 -7.013385E-04 +3.482891E-04 +7.545546E-03 
 -5.342910E-04 -2.326197E-04 -1.835921E-04 -2.326197E-04 +1.907948E-04 +1.421440E-04 -1.835921E-04 +1.421440E-04 +7.517094E-03 
 +2.051760E-04 +4.001056E-04 +2.011332E-04 +4.001056E-04 +1.206324E-05 -3.075055E-04 +2.011332E-04 -3.075055E-04 +7.032947E-03 
 +2.629269E-04 -3.952803E-04 +2.914608E-04 -3.952803E-04 -5.699317E-04 +5.358736E-04 +2.914608E-04 +5.358736E-04 +7.740836E-03 
 +1.523204E-04 +4.501046E-04 -2.982572E-04 +4.501046E-04 +2.497860E-04 +1.526000E-04 -2.982572E-04 +1.526000E-04 +7.546567E-03 
 +4.789203E-04 -1.913628E-04 -4.732477E-04 -1.913628E-04 +2.980191E-05 +5.940301E-05 -4.732477E-04 +5.940301E-05 +7.047579E-03 
 +2.047695E-04 -5.071082E-05 +4.298089E-04 -5.071082E-05 +5.524644E-05 -5.186077E-04 +4.298089E-04 -5.186077E-04 +7.434963E-03 
 +1.562503E-04 +2.011637E-04 -3.400423E-04 +2.011637E-04 -5.258211E-05 -2.545871E-04 -3.400423E-04 -2.545871E-04 +6.977057E-03 
 +3.705087E-04 -2.233723E-05 -9.383767E-04 -2.233723E-05 +2.109862E-04 -4.198015E-04 -9.383767E-04 -4.198015E-04 +7.007369E-03 
 -2.252533E-04 -1.201601E-03 -1.328577E-04 -1.201601E-03 +1.184862E-04 +1.754308E-05 -1.328577E-04 +1.754308E-05 +7.391320E-03 
 -1.033591E-04 +1.612708E-03 -2.684820E-05 +1.612708E-03 -1.183544E-04 -2.825118E-06 -2.684820E-05 -2.825118E-06 +7.943921E-03 
 -1.542929E-04 +4.375689E-04 -2.554065E-04 +4.375689E-04 -5.005598E-05 +1.304372E-04 -2.554065E-04 +1.304372E-04 +7.287619E-03 
 +3.750146E-05 -4.408936E-04 +1.469904E-05 -4.408936E-04 +6.682007E-05 +1.133585E-04 +1.469904E-05 +1.133585E-04 +7.460004E-03 
 +2.502730E-04 +1.224928E-04 +4.005696E-04 +1.224928E-04 -4.365422E-04 +1.979558E-04 +4.005696E-04 +1.979558E-04 +7.698381E-03 
 -2.608993E-04 +1.955609E-04 +3.346917E-04 +1.955609E-04 +5.358670E-04 +6.668457E-04 +3.346917E-04 +6.668457E-04 +7.061750E-03 
 -5.233814E-04 +1.070547E-03 -1.858050E-04 +1.070547E-03 -2.108090E-04 -3.815321E-05 -1.858050E-04 -3.815321E-05 +7.628592E-03 
 -3.776654E-04 +8.521969E-04 +1.168602E-04 +8.521969E-04 -1.575281E-04 -6.900061E-04 +1.168602E-04 -6.900061E-04 +7.727729E-03 
 -4.127467E-04 -5.941587E-05 +2.962291E-04 -5.941587E-05 +3.604741E-04 +4.566444E-04 +2.962291E-04 +4.566444E-04 +7.101600E-03 
 -3.530128E-04 +8.878717E-04 -3.639206E-04 +8.878717E-04 +3.118051E-04 -5.924354E-04 -3.639206E-04 -5.924354E-04 +7.380467E-03 
 +3.690828E-04 +8.035750E-04 -2.232957E-04 +8.035750E-04 -4.804024E-04 -1.661667E-04 -2.232957E-04 -1.661667E-04 +7.589148E-03 
 +1.085774E-04 +1.050923E-03 +2.991374E-04 +1.050923E-03 +6.040199E-04 +2.318790E-04 +2.991374E-04 +2.318790E-04 +7.139244E-03 
 +2.475111E-04 +1.067047E-03 -2.528216E-04 +1.067047E-03 -5.860000E-04 -1.558483E-04 -2.528216E-04 -1.558483E-04 +7.803299E-03 
 -4.016269E-04 +3.605977E-04 -4.587079E-04 +3.605977E-04 -2.025038E-04 -8.824468E-04 -4.587079E-04 -8.824468E-04 +7.622276E-03 
 -3.828566E-04 -4.603550E-04 +1.000675E-05 -4.603550E-04 +1.547191E-04 -1.839594E-04 +1.000675E-05 -1.839594E-04 +7.918071E-03 
 +7.763709E-05 -1.140858E-03 -6.049070E-05 -1.140858E-03 -2.697831E-04 +2.009840E-05 -6.049070E-05 +2.009840E-05 +7.671130E-03 
 -4.674526E-06 +3.270986E-04 +9.227492E-05 +3.270986E-04 +3.600871E-04 +3.515026E-05 +9.227492E-05 +3.515026E-05 +7.271437E-03 
 +4.959737E-04 -1.145826E-04 +6.389216E-05 -1.145826E-04 -1.554082E-04 +4.116225E-04 +6.389216E-05 +4.116225E-04 +7.750676E-03 
 +4.084444E-05 -4.068654E-04 -8.752376E-04 -4.068654E-04 -1.500123E-05 -4.399366E-05 -8.752376E-04 -4.399366E-05 +7.345066E-03 
 -2.397456E-04 +2.247705E-04 +2.754838E-05 +2.247705E-04 -6.267751E-05 +5.492263E-04 +2.754838E-05 +5.492263E-04 +7.746997E-03 
 +1.244746E-04 -4.623598E-04 +7.332861E-04 -4.623598E-04 -4.607112E-05 -2.845861E-04 +7.332861E-04 -2.845861E-04 +7.456627E-03 
 -9.348605E-05 +8.641135E-05 +5.544106E-04 +8.641135E-05 +1.714784E-04 +2.455236E-04 +5.544106E-04 +2.455236E-04 +7.087790E-03 
 +2.527073E-04 +1.586471E-04 -4.077317E-04 +1.586471E-04 +3.065814E-04 -1.414435E-04 -4.077317E-04 -1.414435E-04 +7.206567E-03 
 +9.735297E-05 +3.463923E-05 -5.585551E-04 +3.463923E-05 -2.788716E-04 -7.238016E-05 -5.585551E-04 -7.238016E-05 +7.422976E-03 
 +1.272048E-04 -1.221452E-04 +1.310245E-04 -1.221452E-04 +2.495633E-04 +4.594756E-04 +1.310245E-04 +4.594756E-04 +7.083772E-03 
 +2.970151E-04 -5.875541E-04 -3.827910E-04 -5.875541E-04 +2.507100E-04 +5.077713E-04 -3.827910E-04 +5.077713E-04 +7.249768E-03 
 +2.984458E-04 -2.780533E-04 -1.155946E-04 -2.780533E-04 -4.682821E-04 +3.214165E-04 -1.155946E-04 +3.214165E-04 +7.631062E-03 
 -5.099374E-05 -8.049097E-06 +5.952116E-05 -8.049097E-06 -4.572851E-05 +3.415995E-04 +5.952116E-05 +3.415995E-04 +7.718351E-03 
 -3.661142E-05 -3.243777E-05 -9.372601E-05 -3.243777E-05 +2.908957E-04 -8.945174E-05 -9.372601E-05 -8.945174E-05 +7.177462E-03 
 -1.200987E-04 -1.167892E-03 +3.083291E-04 -1.167892E-03 -4.045928E-04 -1.573419E-04 +3.083291E-04 -1.573419E-04 +7.788854E-03 
 -3.244190E-04 +4.883985E-04 +1.347919E-04 +4.883985E-04 +3.961226E-04 -1.363203E-04 +1.347919E-04 -1.363203E-04 +7.210684E-03 
 +5.848842E-04 +3.515205E-04 +2.790268E-04 +3.515205E-04 -4.189322E-05 -3.481063E-04 +2.790268E-04 -3.481063E-04 +7.012447E-03 
 +4.391575E-04 +1.738693E-04 +4.618242E-04 +1.738693E-04 -2.544843E-04 -4.111678E-04 +4.618242E-04 -4.111678E-04 +7.225285E-03 
 +5.274314E-04 +6.375004E-04 -1.133774E-04 +6.375004E-04 +1.623980E-04 -8.853697E-05 -1.133774E-04 -8.853697E-05 +6.819745E-03 
 -2.764091E-04 +1.248676E-03 +9.080658E-05 +1.248676E-03 -3.137218E-04 +1.333832E-04 +9.080658E-05 +1.333832E-04 +7.797263E-03 
 -2.111567E-04 -6.793121E-04 -5.464271E-04 -6.793121E-04 +2.214508E-04 +6.607455E-04 -5.464271E-04 +6.607455E-04 +7.818040E-03 
 +2.347540E-04 -2.348939E-04 -4.728156E-04 -2.348939E-04 +8.169133E-05 +4.316640E-04 -4.728156E-04 +4.316640E-04 +7.453064E-03 
 -1.888988E-04 -3.987115E-04 +1.602253E-04 -3.987115E-04 -1.061176E-04 +1.821072E-04 +1.602253E-04 +1.821072E-04 +7.907400E-03 
 +2.734673E-04 +1.158846E-04 -1.515952E-04 +1.158846E-04 +2.544150E-04 -1.848313E-04 -1.515952E-04 -1.848313E-04 +7.272761E-03 
 +2.419259E-04 -8.831433E-04 +3.351889E-05 -8.831433E-04 -3.380336E-04 +2.787677E-04 +3.351889E-05 +2.787677E-04 +7.929253E-03 
 +2.565292E-04 -2.525363E-04 +4.319799E-05 -2.525363E-04 +3.733203E-05 -8.182508E-04 +4.319799E-05 -8.182508E-04 +7.297121E-03 
 +2.284992E-04 -1.343356E-04 +3.055118E-04 -1.343356E-04 -2.653897E-04 +6.611231E-05 +3.055118E-04 +6.611231E-05 +7.244924E-03 
 -3.429472E-04 +5.620873E-04 -2.935069E-04 +5.620873E-04 +1.925763E-04 +1.380103E-04 -2.935069E-04 +1.380103E-04 +7.526643E-03 
 +1.527630E-04 -5.769557E-04 +9.156718E-07 -5.769557E-04 +3.713614E-04 +6.055147E-04 +9.156718E-07 +6.055147E-04 +7.170823E-03 
 -5.637894E-05 -1.195416E-05 +5.703478E-04 -1.195416E-05 -1.636000E-04 -2.631889E-04 +5.703478E-04 -2.631889E-04 +7.721767E-03 
 -1.616580E-05 +1.784176E-04 +2.047569E-04 +1.784176E-04 -1.180581E-04 -6.243052E-04 +2.047569E-04 -6.243052E-04 +7.431549E-03 
 +1.266580E-04 +3.772574E-04 -8.506602E-05 +3.772574E-04 +2.296705E-04 -6.948086E-04 -8.506602E-05 -6.948086E-04 +7.031467E-03 
 +3.327782E-04 +1.921884E-04 -3.284003E-04 +1.921884E-04 -2.561581E-04 -5.030385E-04 -3.284003E-04 -5.030385E-04 +7.395542E-03 
 +3.629947E-04 -9.588049E-04 -5.080244E-04 -9.588049E-04 +2.450564E-05 +5.605033E-04 -5.080244E-04 +5.605033E-04 +7.007296E-03 
 -5.034860E-04 +1.530628E-04 +3.508161E-04 +1.530628E-04 +1.327895E-04 -4.810437E-04 +3.508161E-04 -4.810437E-04 +7.759479E-03 
 -3.582386E-04 -6.184971E-04 -4.925372E-05 -6.184971E-04 -8.507233E-05 -5.790686E-04 -4.925372E-05 -5.790686E-04 +7.533881E-03 
 -3.740719E-04 +1.875693E-04 -5.009442E-05 +1.875693E-04 +8.294369E-05 -4.234545E-04 -5.009442E-05 -4.234545E-04 +7.577185E-03 
 -1.622338E-04 -1.321003E-04 +1.261114E-04 -1.321003E-04 +8.874850E-05 -6.526366E-04 +1.261114E-04 -6.526366E-04 +7.498755E-03 
 -7.912266E-05 +1.995345E-04 +1.775465E-04 +1.995345E-04 +5.794859E-05 +7.310383E-04 +1.775465E-04 +7.310383E-04 +7.429725E-03 
 +4.467239E-05 +9.114335E-04 +8.860934E-04 +9.114335E-04 -9.977976E-05 +4.331590E-04 +8.860934E-04 +4.331590E-04 +7.536205E-03 
 +5.347237E-05 +4.114488E-04 -3.279423E-05 +4.114488E-04 +5.191423E-05 +3.380225E-04 -3.279423E-05 +3.380225E-04 +6.817585E-03 
 +3.091579E-04 +1.206359E-04 +9.148187E-06 +1.206359E-04 +1.581975E-04 -2.185585E-04 +9.148187E-06 -2.185585E-04 +7.102292E-03 
 +3.565478E-04 +1.014336E-03 +1.223435E-04 +1.014336E-03 -1.518097E-04 -2.315841E-04 +1.223435E-04 -2.315841E-04 +7.600838E-03 
 +1.905086E-04 +3.548911E-05 -5.129486E-04 +3.548911E-05 +1.421376E-04 -4.494153E-05 -5.129486E-04 -4.494153E-05 +7.156182E-03 
 +1.229288E-04 +7.596246E-04 +2.802512E-04 +7.596246E-04 -4.790282E-04 -2.615522E-04 +2.802512E-04 -2.615522E-04 +7.887778E-03 
 +1.250515E-05 +3.887753E-04 +5.661196E-05 +3.887753E-04 +3.717284E-04 -3.987655E-04 +5.661196E-05 -3.987655E-04 +7.187186E-03 
 +3.254195E-04 -6.270903E-04 -1.071777E-04 -6.270903E-04 -3.304213E-04 -2.879384E-04 -1.071777E-04 -2.879384E-04 +7.636516E-03 
 +1.910986E-05 -4.956117E-04 -1.267634E-04 -4.956117E-04 +1.105514E-04 +2.607055E-04 -1.267634E-04 +2.607055E-04 +7.823702E-03 
 -3.756028E-04 +6.564843E-04 +1.976695E-04 +6.564843E-04 +9.676092E-05 +6.091829E-05 +1.976695E-04 +6.091829E-05 +7.468164E-03 
 +3.606323E-04 +2.579012E-04 +9.941219E-05 +2.579012E-04 -2.783205E-04 -3.657598E-04 +9.941219E-05 -3.657598E-04 +7.483369E-03 
 +2.200874E-04 +5.054162E-04 +2.285796E-04 +5.054162E-04 +4.139106E-04 -2.619573E-04 +2.285796E-04 -2.619573E-04 +6.665705E-03 
 +1.776883E-04 +1.153669E-03 +2.630897E-04 +1.153669E-03 -1.891463E-04 +2.144201E-04 +2.630897E-04 +2.144201E-04 +7.560851E-03 
 +3.268397E-05 +8.363202E-04 -2.805312E-04 +8.363202E-04 -3.012441E-04 +4.294684E-04 -2.805312E-04 +4.294684E-04 +7.735529E-03 
 +7.666041E-05 -5.341095E-04 +6.117925E-05 -5.341095E-04 +4.219498E-04 +4.053577E-04 +6.117925E-05 +4.053577E-04 +6.750173E-03 
 +4.116182E-04 -1.755430E-04 +5.821929E-04 -1.755430E-04 -2.139008E-04 +1.481646E-04 +5.821929E-04 +1.481646E-04 +7.332596E-03 
 -9.628378E-05 +2.227539E-06 +2.091411E-04 +2.227539E-06 +3.129657E-04 -3.606603E-04 +2.091411E-04 -3.606603E-04 +7.195242E-03 
 +6.222920E-05 +5.716000E-04 +1.917206E-04 +5.716000E-04 +4.319993E-04 -1.395396E-04 +1.917206E-04 -1.395396E-04 +6.960447E-03 
 -1.847821E-04 +1.802998E-04 +1.394629E-04 +1.802998E-04 +1.711099E-04 +7.421930E-04 +1.394629E-04 +7.421930E-04 +7.391181E-03 
 -2.398641E-04 -1.163504E-04 -5.402404E-04 -1.163504E-04 -2.542817E-04 +5.662104E-05 -5.402404E-04 +5.662104E-05 +7.544632E-03 
 +1.419218E-04 +9.866378E-04 +4.211424E-04 +9.866378E-04 +8.644239E-05 -1.937725E-04 +4.211424E-04 -1.937725E-04 +7.437116E-03 
 -7.927211E-05 +7.416754E-04 +7.425037E-04 +7.416754E-04 -1.324091E-04 -2.532988E-04 +7.425037E-04 -2.532988E-04 +7.839886E-03 
 -4.829280E-04 -4.171556E-04 -4.011314E-05 -4.171556E-04 +2.050028E-04 -5.328694E-05 -4.011314E-05 -5.328694E-05 +8.142232E-03 
 -2.898059E-04 +8.603905E-04 +2.684437E-04 +8.603905E-04 -4.528979E-04 +2.679569E-04 +2.684437E-04 +2.679569E-04 +7.909372E-03 
 +3.200773E-05 +3.867646E-05 -2.036582E-04 +3.867646E-05 +3.461473E-04 -6.368795E-04 -2.036582E-04 -6.368795E-04 +7.326920E-03 
 -1.296878E-04 +1.227900E-04 +6.220274E-04 +1.227900E-04 -1.623751E-04 -1.038700E-05 +6.220274E-04 -1.038700E-05 +7.649014E-03 
 -1.359946E-04 +3.690900E-05 +3.599682E-04 +3.690900E-05 +1.646633E-06 +5.468341E-05 +3.599682E-04 +5.468341E-05 +7.174218E-03 
 -4.305371E-05 +6.794101E-04 -5.170938E-04 +6.794101E-04 -2.834925E-05 -4.481766E-05 -5.170938E-04 -4.481766E-05 +7.376166E-03 
 -4.062070E-05 -1.047260E-03 -2.823903E-04 -1.047260E-03 +2.114135E-04 -1.351353E-04 -2.823903E-04 -1.351353E-04 +7.106534E-03 
 -1.849568E-04 -2.988965E-04 +3.665304E-04 -2.988965E-04 -7.705679E-05 +3.978306E-04 +3.665304E-04 +3.978306E-04 +7.290414E-03 
 -8.546116E-05 +6.514355E-04 +5.357630E-04 +6.514355E-04 -3.304070E-04 -1.828598E-04 +5.357630E-04 -1.828598E-04 +7.771948E-03 
 +1.854598E-04 -5.000402E-06 +2.136629E-04 -5.000402E-06 +1.344550E-04 +7.108098E-05 +2.136629E-04 +7.108098E-05 +7.447300E-03 
 -5.969094E-05 +6.546373E-04 +1.820751E-04 +6.546373E-04 +9.074331E-05 +1.461571E-04 +1.820751E-04 +1.461571E-04 +7.718238E-03 
 -1.000053E-04 +1.820550E-04 -5.593823E-04 +1.820550E-04 +2.289542E-04 +2.299151E-04 -5.593823E-04 +2.299151E-04 +7.043624E-03 
 -2.269337E-04 +3.661345E-04 +1.603500E-04 +3.661345E-04 +1.072869E-04 +3.637253E-04 +1.603500E-04 +3.637253E-04 +7.551013E-03 
 -3.474650E-04 -9.803512E-04 +3.404117E-04 -9.803512E-04 -7.598138E-04 -5.106825E-05 +3.404117E-04 -5.106825E-05 +8.703195E-03 
 +5.057278E-05 +6.784716E-04 -1.166080E-04 +6.784716E-04 -1.309435E-04 -3.188182E-04 -1.166080E-04 -3.188182E-04 +7.995104E-03 
TENSORS Strain_pl float 
 -1.838391E-07 -8.205489E-08 -1.827675E-07 -8.205489E-08 -9.826244E-09 +2.009762E-08 -1.827675E-07 +2.009762E-08 +1.936654E-07 
 -2.662694E-05 +8.833769E-06 +1.052389E-05 +8.833769E-06 -1.387392E-06 +3.669214E-06 +1.052389E-05 +3.669214E-06 +2.801433E-05 
 -4.237377E-06 -1.370840E-06 -9.072979E-07 -1.370840E-06 -2.809373E-07 -1.176546E-06 -9.072979E-07 -1.176546E-06 +4.518315E-06 
 -7.475358E-07 -2.481599E-06 +7.173650E-07 -2.481599E-06 -4.950344E-06 -2.437193E-06 +7.173650E-07 -2.437193E-06 +5.697879E-06 
 -2.168411E-04 +3.382686E-05 +2.455980E-05 +3.382686E-05 +1.646514E-06 -4.282146E-05 +2.455980E-05 -4.282146E-05 +2.151946E-04 
 -1.039305E-07 +1.770633E-09 -3.243224E-08 +1.770633E-09 -4.301938E-08 +5.540228E-09 -3.243224E-08 +5.540228E-09 +1.469499E-07 
 -1.373892E-05 -1.696417E-05 -4.352766E-06 -1.696417E-05 -2.029494E-05 -5.573044E-07 -4.352766E-06 -5.573044E-07 +3.403386E-05 
 -9.823940E-08 -7.196168E-09 -9.576589E-09 -7.196168E-09 -3.696732E-08 -4.242235E-09 -9.576589E-09 -4.242235E-09 +1.352067E-07 
 -5.047497E-08 -8.664469E-08 -3.992551E-08 -8.664469E-08 -2.303796E-07 -1.430860E-07 -3.992551E-08 -1.430860E-07 +2.808546E-07 
 -1.622316E-05 -2.808443E-05 -7.712825E-08 -2.808443E-05 -4.669488E-05 -1.114161E-05 -7.712825E-08 -1.114161E-05 +6.291804E-05 
 -8.263631E-09 -6.849824E-09 -9.495367E-09 -6.849824E-09 -6.390094E-08 +3.933044E-08 -9.495367E-09 +3.933044E-08 +7.216457E-08 
 -1.315250E-07 +1.770914E-07 +1.611440E-07 +1.770914E-07 -1.269081E-07 +1.184501E-08 +1.611440E-07 +1.184501E-08 +2.584331E-07 
 -2.200221E-08 -6.167495E-09 -1.267906E-08 -6.167495E-09 -2.359513E-08 -4.308547E-09 -1.267906E-08 -4.308547E-09 +4.559734E-08 
 -3.786424E-09 +4.771608E-08 -1.455371E-07 +4.771608E-08 -8.735752E-07 +4.758610E-07 -1.455371E-07 +4.758610E-07 +8.773616E-07 
 -8.785758E-07 +1.395598E-06 +7.441354E-07 +1.395598E-06 -2.254705E-06 -8.536937E-07 +7.441354E-07 -8.536937E-07 +3.133281E-06 
 -2.188364E-08 +4.474798E-09 -4.861303E-09 +4.474798E-09 -4.404471E-08 +1.334555E-08 -4.861303E-09 +1.334555E-08 +6.592835E-08 
 -9.268354E-07 +4.396057E-07 +2.057808E-07 +4.396057E-07 -4.795392E-08 -5.172646E-07 +2.057808E-07 -5.172646E-07 +9.747894E-07 
 -2.718759E-06 +2.538185E-07 +1.579024E-06 +2.538185E-07 -5.433988E-08 +1.028893E-07 +1.579024E-06 +1.028893E-07 +2.773099E-06 
 +2.101725E-07 +2.938170E-07 +5.252194E-07 +2.938170E-07 -1.451560E-06 +5.575174E-07 +5.252194E-07 +5.575174E-07 +1.241387E-06 
 -5.578912E-07 -2.978576E-06 +1.361151E-06 -2.978576E-06 -1.216525E-05 -4.959386E-07 +1.361151E-06 -4.959386E-07 +1.272314E-05 
 -8.967736E-08 +3.789999E-09 -1.523397E-08 +3.789999E-09 -6.890151E-08 +4.851375E-09 -1.523397E-08 +4.851375E-09 +1.585789E-07 
 -4.780823E-08 -1.131376E-08 -1.036161E-08 -1.131376E-08 -3.959441E-08 -1.701696E-08 -1.036161E-08 -1.701696E-08 +8.740265E-08 
 +1.739757E-08 -7.463833E-08 -9.305020E-08 -7.463833E-08 -3.249687E-07 +1.265722E-07 -9.305020E-08 +1.265722E-07 +3.075712E-07 
 -1.582358E-06 -1.804443E-05 -2.764576E-06 -1.804443E-05 -2.062554E-04 -3.159397E-05 -2.764576E-06 -3.159397E-05 +2.078378E-04 
 +5.065218E-09 +7.747117E-09 -8.830939E-09 +7.747117E-09 -5.750539E-08 -2.071353E-08 -8.830939E-09 -2.071353E-08 +5.244017E-08 
 -3.410952E-08 -4.364453E-09 -3.077944E-09 -4.364453E-09 -4.121568E-08 +7.825920E-09 -3.077944E-09 +7.825920E-09 +7.532520E-08 
 +9.110422E-07 +3.255634E-08 +2.586018E-06 +3.255634E-08 -7.679076E-06 -1.739518E-06 +2.586018E-06 -1.739518E-06 +6.768033E-06 
 -6.351425E-08 +6.480646E-08 -4.922048E-08 +6.480646E-08 -8.544293E-08 +5.719049E-08 -4.922048E-08 +5.719049E-08 +1.489572E-07 
 +2.997028E-09 +1.708000E-08 +2.587426E-08 +1.708000E-08 -1.358620E-07 +8.710006E-08 +2.587426E-08 +8.710006E-08 +1.328650E-07 
 -2.338843E-08 -2.606053E-10 -2.291917E-09 -2.606053E-10 -3.246577E-08 -1.153437E-08 -2.291917E-09 -1.153437E-08 +5.585420E-08 
 -1.506742E-07 -1.136892E-06 -1.221970E-06 -1.136892E-06 -2.259243E-06 -3.780083E-07 -1.221970E-06 -3.780083E-07 +2.409917E-06 
 -3.633973E-08 +2.334730E-08 -5.496760E-09 +2.334730E-08 -4.962129E-08 +2.132944E-08 -5.496760E-09 +2.132944E-08 +8.596103E-08 
 -1.765881E-08 +5.495228E-10 -1.127024E-09 +5.495228E-10 -8.215530E-09 -1.598302E-09 -1.127024E-09 -1.598302E-09 +2.587434E-08 
 -4.999121E-05 -1.523605E-04 -5.880760E-05 -1.523605E-04 -4.286339E-04 -3.916806E-05 -5.880760E-05 -3.916806E-05 +4.786251E-04 
 -3.458262E-06 -1.929013E-06 +7.581953E-07 -1.929013E-06 -8.734508E-07 +1.502570E-06 +7.581953E-07 +1.502570E-06 +4.331713E-06 
 -7.575170E-06 -2.547803E-06 -2.982438E-06 -2.547803E-06 -8.546440E-07 -7.692913E-07 -2.982438E-06 -7.692913E-07 +8.429814E-06 
 -1.117713E-05 -1.682712E-06 -3.162551E-06 -1.682712E-06 +2.423733E-07 -2.922361E-06 -3.162551E-06 -2.922361E-06 +1.093476E-05 
 -2.385155E-08 +1.415652E-09 +7.638240E-09 +1.415652E-09 -8.709124E-08 -3.551125E-08 +7.638240E-09 -3.551125E-08 +1.109428E-07 
 -2.462341E-06 -9.961573E-06 -5.801895E-06 -9.961573E-06 -3.382810E-05 -5.474236E-06 -5.801895E-06 -5.474236E-06 +3.629044E-05 
 -2.587795E-05 +4.481845E-05 -7.927375E-06 +4.481845E-05 -7.762955E-05 +1.373154E-05 -7.927375E-06 +1.373154E-05 +1.035075E-04 
 -3.544299E-05 -4.492555E-06 -6.828474E-06 -4.492555E-06 +1.056087E-06 -8.486223E-06 -6.828474E-06 -8.486223E-06 +3.438690E-05 
 -5.300696E-08 -5.128412E-10 -1.867054E-08 -5.128412E-10 -3.212450E-08 -2.309622E-09 -1.867054E-08 -2.309622E-09 +8.513147E-08 
 -7.014987E-07 +7.553102E-06 +3.608310E-07 +7.553102E-06 -8.223109E-05 +2.711364E-08 +3.608310E-07 +2.711364E-08 +8.293259E-05 
 -3.115776E-08 -1.396478E-08 +2.654385E-09 -1.396478E-08 -2.999827E-08 +2.987405E-09 +2.654385E-09 +2.987405E-09 +6.115603E-08 
 -4.664987E-08 +1.746874E-08 +5.997844E-09 +1.746874E-08 -1.826408E-08 +8.934575E-10 +5.997844E-09 +8.934575E-10 +6.491395E-08 
 -2.889946E-08 -1.460159E-07 +1.419465E-07 -1.460159E-07 -5.877816E-07 -7.846091E-08 +1.419465E-07 -7.846091E-08 +6.166811E-07 
 -8.766162E-08 +6.450345E-09 +3.046447E-08 +6.450345E-09 +1.156432E-09 -1.135753E-08 +3.046447E-08 -1.135753E-08 +8.650519E-08 
 -2.254521E-08 +6.988272E-09 +4.639527E-09 +6.988272E-09 -8.335517E-09 -2.659257E-09 +4.639527E-09 -2.659257E-09 +3.088073E-08 
 -1.186831E-05 -1.619668E-06 +2.090203E-06 -1.619668E-06 -6.042918E-09 -1.359376E-06 +2.090203E-06 -1.359376E-06 +1.187435E-05 
 -2.419745E-08 -9.721743E-10 +1.271850E-08 -9.721743E-10 -1.707568E-08 +1.626971E-09 +1.271850E-08 +1.626971E-09 +4.127313E-08 
 -1.308099E-04 -3.496373E-05 -6.644341E-05 -3.496373E-05 -3.990692E-06 +1.238844E-05 -6.644341E-05 +1.238844E-05 +1.348006E-04 
 -1.919887E-05 +4.614016E-05 +1.203697E-05 +4.614016E-05 -9.063710E-05 +1.995495E-05 +1.203697E-05 +1.995495E-05 +1.098360E-04 
 +1.224500E-06 +8.572098E-07 -5.432792E-06 +8.572098E-07 -2.361690E-05 -9.884989E-06 -5.432792E-06 -9.884989E-06 +2.239240E-05 
 -1.457486E-05 +1.375887E-05 +1.460911E-06 +1.375887E-05 -7.274419E-06 -1.263520E-05 +1.460911E-06 -1.263520E-05 +2.184928E-05 
 -4.825947E-06 -2.926333E-06 -6.922198E-07 -2.926333E-06 -1.510223E-06 +8.890185E-07 -6.922198E-07 +8.890185E-07 +6.336169E-06 
 -2.315207E-05 -8.637971E-05 -1.220587E-05 -8.637971E-05 -3.223813E-04 -4.555738E-05 -1.220587E-05 -4.555738E-05 +3.455333E-04 
 -2.188190E-06 -8.349299E-07 -5.546401E-07 -8.349299E-07 +1.291057E-07 +7.863442E-07 -5.546401E-07 +7.863442E-07 +2.059084E-06 
 -1.063341E-04 +2.044405E-05 -1.908162E-05 +2.044405E-05 -3.048498E-06 -6.347420E-06 -1.908162E-05 -6.347420E-06 +1.093826E-04 
 -4.259196E-05 -7.175263E-07 -7.068318E-06 -7.175263E-07 +4.295651E-07 +4.359592E-06 -7.068318E-06 +4.359592E-06 +4.216240E-05 
 -5.102246E-08 +2.320479E-08 -1.208680E-08 +2.320479E-08 -2.592225E-08 +2.995974E-08 -1.208680E-08 +2.995974E-08 +7.694472E-08 
 -4.938620E-08 +1.339858E-08 +5.183642E-09 +1.339858E-08 -2.319013E-08 +7.930411E-12 +5.183642E-09 +7.930411E-12 +7.257633E-08 
 -2.531043E-08 +4.582007E-09 +1.115185E-08 +4.582007E-09 -1.030588E-08 -8.761978E-09 +1.115185E-08 -8.761978E-09 +3.561631E-08 
 -8.318769E-08 +7.189326E-09 +2.330529E-08 +7.189326E-09 -7.988924E-08 +6.034979E-09 +2.330529E-08 +6.034979E-09 +1.630769E-07 
 -2.314951E-08 +1.144176E-08 -1.958544E-09 +1.144176E-08 -7.248508E-08 -6.624332E-09 -1.958544E-09 -6.624332E-09 +9.563459E-08 
 -3.142347E-07 -1.954324E-07 +1.650449E-07 -1.954324E-07 -9.509832E-08 +2.449314E-07 +1.650449E-07 +2.449314E-07 +4.093330E-07 
 -7.311770E-06 +4.625018E-06 +1.992931E-06 +4.625018E-06 -2.502220E-06 +8.450281E-07 +1.992931E-06 +8.450281E-07 +9.813991E-06 
 -3.617582E-06 -4.944401E-06 +1.383053E-06 -4.944401E-06 -5.151086E-06 -1.975449E-06 +1.383053E-06 -1.975449E-06 +8.768668E-06 
 -1.594299E-08 -3.726172E-09 +8.826882E-09 -3.726172E-09 -1.370543E-08 +4.784292E-09 +8.826882E-09 +4.784292E-09 +2.964841E-08 
 -4.123456E-06 +9.822772E-07 -1.348782E-06 +9.822772E-07 -1.963829E-07 +7.520017E-07 -1.348782E-06 +7.520017E-07 +4.319838E-06 
 -1.304917E-07 +2.236073E-08 +3.704804E-08 +2.236073E-08 -1.276811E-07 -4.051745E-08 +3.704804E-08 -4.051745E-08 +2.581728E-07 
 -5.413096E-07 -7.080519E-07 -1.442278E-07 -7.080519E-07 -5.996699E-07 +4.559157E-07 -1.442278E-07 +4.559157E-07 +1.140979E-06 
 -4.943866E-08 +6.684445E-09 -1.638387E-09 +6.684445E-09 -3.747359E-08 +6.255707E-10 -1.638387E-09 +6.255707E-10 +8.691225E-08 
 -1.588150E-06 +1.325968E-06 -1.376653E-06 +1.325968E-06 -1.096260E-06 +7.696614E-07 -1.376653E-06 +7.696614E-07 +2.684410E-06 
 -3.382117E-08 -2.826424E-08 +1.610638E-08 -2.826424E-08 -9.600129E-08 +5.211266E-08 +1.610638E-08 +5.211266E-08 +1.298225E-07 
 -2.578594E-08 -2.118365E-08 +2.139168E-08 -2.118365E-08 -5.979279E-08 +3.718073E-08 +2.139168E-08 +3.718073E-08 +8.557873E-08 
 -1.056405E-06 +1.495600E-06 -3.243008E-07 +1.495600E-06 -1.938954E-06 +1.214857E-06 -3.243008E-07 +1.214857E-06 +2.995360E-06 
 -1.577424E-08 -3.262159E-09 +1.834300E-09 -3.262159E-09 -3.504192E-08 -1.095743E-08 +1.834300E-09 -1.095743E-08 +5.081617E-08 
 -4.651913E-08 -8.438032E-09 +8.313382E-09 -8.438032E-09 -6.842490E-08 +2.413899E-08 +8.313382E-09 +2.413899E-08 +1.149440E-07 
 -3.509687E-08 -1.112127E-08 +1.960499E-08 -1.112127E-08 -7.553283E-08 +2.962291E-08 +1.960499E-08 +2.962291E-08 +1.106297E-07 
 -1.595119E-04 -9.209313E-05 -3.348726E-05 -9.209313E-05 -5.317169E-05 -1.933383E-05 -3.348726E-05 -1.933383E-05 +2.126836E-04 
 +1.507227E-07 -1.468513E-08 +2.436990E-08 -1.468513E-08 -2.260290E-07 -1.569793E-07 +2.436990E-08 -1.569793E-07 +7.530630E-08 
 -6.920280E-06 +6.960528E-07 -2.176414E-06 +6.960528E-07 +1.107542E-07 +1.419400E-06 -2.176414E-06 +1.419400E-06 +6.809526E-06 
 -2.122106E-09 -2.783455E-08 +7.358325E-08 -2.783455E-08 -1.787897E-07 +5.568744E-08 +7.358325E-08 +5.568744E-08 +1.809118E-07 
 -3.129759E-08 -1.913375E-08 -3.572108E-08 -1.913375E-08 -2.220240E-07 +1.223312E-07 -3.572108E-08 +1.223312E-07 +2.533216E-07 
 -1.446797E-07 -3.393552E-08 +1.152764E-08 -3.393552E-08 -4.375075E-08 +7.155996E-10 +1.152764E-08 +7.155996E-10 +1.884305E-07 
 +4.440766E-08 -1.315410E-07 -2.314128E-07 -1.315410E-07 -6.861830E-07 -2.333120E-08 -2.314128E-07 -2.333120E-08 +6.417754E-07 
 -1.438042E-07 -3.399367E-08 -7.814086E-08 -3.399367E-08 -1.695164E-08 -1.212758E-08 -7.814086E-08 -1.212758E-08 +1.607559E-07 
 -1.588974E-08 -5.884210E-09 -2.034690E-09 -5.884210E-09 -8.063313E-09 -7.788161E-10 -2.034690E-09 -7.788161E-10 +2.395305E-08 
 -1.684549E-06 -3.858503E-06 +6.077503E-07 -3.858503E-06 -7.264939E-06 -2.425641E-06 +6.077503E-07 -2.425641E-06 +8.949489E-06 
 -5.590529E-07 +7.315931E-08 -3.191793E-07 +7.315931E-08 -1.193837E-08 -4.025608E-08 -3.191793E-07 -4.025608E-08 +5.709912E-07 
 -5.707057E-06 +1.963133E-06 -1.994670E-06 +1.963133E-06 -3.020761E-07 +2.272645E-06 -1.994670E-06 +2.272645E-06 +6.009133E-06 
 -1.612407E-07 +3.241255E-08 +3.355069E-08 +3.241255E-08 -1.133244E-08 -4.758120E-08 +3.355069E-08 -4.758120E-08 +1.725731E-07 
 -4.615732E-06 +1.223784E-06 +1.784945E-06 +1.223784E-06 -1.888819E-07 +4.197218E-07 +1.784945E-06 +4.197218E-07 +4.804614E-06 
 -2.021973E-08 +1.119899E-08 -1.213117E-09 +1.119899E-08 -8.525006E-08 -2.887341E-08 -1.213117E-09 -2.887341E-08 +1.054698E-07 
 +1.760646E-06 -7.437883E-06 +8.246059E-06 -7.437883E-06 -3.106427E-05 -1.072668E-05 +8.246059E-06 -1.072668E-05 +2.930362E-05 
 -4.170305E-07 -4.014505E-07 +2.204059E-07 -4.014505E-07 -3.376999E-07 +4.573865E-07 +2.204059E-07 +4.573865E-07 +7.547304E-07 
 -4.170938E-06 +1.166999E-06 +7.344735E-07 +1.166999E-06 -2.348337E-09 +9.788650E-07 +7.344735E-07 +9.788650E-07 +4.173286E-06 
 -2.846663E-07 +1.070671E-08 +2.504133E-08 +1.070671E-08 +3.667911E-08 +1.012828E-07 +2.504133E-08 +1.012828E-07 +2.479872E-07 
 -7.523837E-05 +1.057863E-04 +5.898210E-05 +1.057863E-04 -1.299806E-04 -1.405021E-05 +5.898210E-05 -1.405021E-05 +2.052190E-04 
 -1.483711E-06 +4.767122E-07 -3.564435E-07 +4.767122E-07 -8.252115E-08 +4.941995E-07 -3.564435E-07 +4.941995E-07 +1.566232E-06 
 -3.133579E-06 +1.099757E-06 -4.276621E-07 +1.099757E-06 -3.456113E-07 +5.329364E-07 -4.276621E-07 +5.329364E-07 +3.479190E-06 
 -1.014061E-07 +8.853577E-09 -7.061793E-09 +8.853577E-09 -1.470362E-07 -1.261600E-08 -7.061793E-09 -1.261600E-08 +2.484423E-07 
 -1.053696E-06 +8.566053E-07 -1.067765E-07 +8.566053E-07 -6.844567E-07 +3.161517E-07 -1.067765E-07 +3.161517E-07 +1.738152E-06 
 -2.190952E-06 -8.171548E-06 +2.807692E-06 -8.171548E-06 -3.049800E-05 +1.047955E-05 +2.807692E-06 +1.047955E-05 +3.268896E-05 
 -1.136653E-07 -1.550970E-07 +8.802613E-08 -1.550970E-07 -1.414856E-07 -3.640090E-08 +8.802613E-08 -3.640090E-08 +2.551508E-07 
 +5.031680E-06 -4.978614E-06 -2.339504E-05 -4.978614E-06 -1.066562E-04 -4.143230E-06 -2.339504E-05 -4.143230E-06 +1.016245E-04 
 -1.676637E-06 +2.134547E-06 -1.240129E-06 +2.134547E-06 -2.083036E-06 -1.718731E-07 -1.240129E-06 -1.718731E-07 +3.759673E-06 
 -4.292162E-05 -4.099243E-05 -1.557958E-05 -4.099243E-05 -3.783007E-05 -2.556950E-05 -1.557958E-05 -2.556950E-05 +8.075169E-05 
 -1.155599E-04 -1.672910E-05 +2.036709E-05 -1.672910E-05 -2.197965E-08 -1.403800E-05 +2.036709E-05 -1.403800E-05 +1.155819E-04 
 -1.827204E-07 +1.472126E-07 -1.203814E-07 +1.472126E-07 -4.928856E-08 -5.247392E-08 -1.203814E-07 -5.247392E-08 +2.320089E-07 
 -3.286314E-07 +1.402723E-06 -1.654300E-07 +1.402723E-06 -4.517281E-06 -2.020025E-06 -1.654300E-07 -2.020025E-06 +4.845913E-06 
 -4.856333E-07 -2.903023E-07 -3.479732E-07 -2.903023E-07 -1.843625E-07 -1.550730E-07 -3.479732E-07 -1.550730E-07 +6.699958E-07 
 -1.666398E-07 +2.119476E-08 -5.028072E-09 +2.119476E-08 -1.407170E-07 -1.641911E-10 -5.028072E-09 -1.641911E-10 +3.073569E-07 
 -4.462994E-07 +8.261720E-07 +5.122473E-07 +8.261720E-07 -1.489965E-06 -4.900517E-07 +5.122473E-07 -4.900517E-07 +1.936264E-06 
 -3.837459E-08 -1.384258E-08 -1.322877E-08 -1.384258E-08 -3.307252E-08 -7.065783E-09 -1.322877E-08 -7.065783E-09 +7.144711E-08 
 -7.180383E-06 +3.923410E-06 +1.685937E-06 +3.923410E-06 -2.102284E-06 -2.521636E-07 +1.685937E-06 -2.521636E-07 +9.282667E-06 
 -1.393474E-07 -2.677722E-08 +1.364317E-08 -2.677722E-08 -1.617364E-07 -1.614025E-08 +1.364317E-08 -1.614025E-08 +3.010838E-07 
 -5.646945E-08 +1.112658E-08 +1.331066E-08 +1.112658E-08 -2.789990E-08 -6.545156E-10 +1.331066E-08 -6.545156E-10 +8.436935E-08 
 -1.097941E-05 +4.948972E-05 +2.531556E-05 +4.948972E-05 -1.933144E-04 -2.545225E-05 +2.531556E-05 -2.545225E-05 +2.042938E-04 
 -5.907653E-08 +1.818536E-08 +7.998581E-09 +1.818536E-08 -8.742202E-08 -7.017891E-09 +7.998581E-09 -7.017891E-09 +1.464985E-07 
 -1.819269E-08 -2.406770E-09 +6.637073E-09 -2.406770E-09 -1.818215E-08 +1.062506E-08 +6.637073E-09 +1.062506E-08 +3.637485E-08 
 -4.649118E-06 -6.046876E-06 +9.893020E-07 -6.046876E-06 -7.450176E-06 -9.907096E-07 +9.893020E-07 -9.907096E-07 +1.209929E-05 
 -1.368501E-07 -1.682029E-07 +1.447254E-07 -1.682029E-07 -2.573964E-07 +1.474417E-07 +1.447254E-07 +1.474417E-07 +3.942465E-07 
 -2.547787E-06 +5.462926E-08 +3.099004E-07 +5.462926E-08 +7.534430E-08 +4.349469E-07 +3.099004E-07 +4.349469E-07 +2.472442E-06 
 -2.416589E-06 +2.514152E-06 -9.292306E-07 +2.514152E-06 -2.527967E-06 +2.434192E-07 -9.292306E-07 +2.434192E-07 +4.944556E-06 
 -3.677434E-06 -1.206475E-06 +9.065811E-07 -1.206475E-06 -2.626958E-07 +1.195724E-06 +9.065811E-07 +1.195724E-06 +3.940130E-06 
 -5.463309E-08 +1.873061E-09 +3.031715E-09 +1.873061E-09 -3.497938E-08 +2.805184E-09 +3.031715E-09 +2.805184E-09 +8.961248E-08 
 -7.431160E-06 -1.181014E-06 -1.368852E-06 -1.181014E-06 -1.539295E-07 +3.286906E-07 -1.368852E-06 +3.286906E-07 +7.585089E-06 
 -2.808551E-07 +1.195725E-06 -7.167633E-07 +1.195725E-06 -2.128364E-06 -5.185448E-07 -7.167633E-07 -5.185448E-07 +2.409219E-06 
 -3.047871E-06 +1.671736E-06 -4.103442E-07 +1.671736E-06 -8.135463E-07 +8.627588E-07 -4.103442E-07 +8.627588E-07 +3.861417E-06 
 -4.780004E-08 +2.532504E-08 +3.650688E-09 +2.532504E-08 -4.173917E-08 -4.118240E-09 +3.650688E-09 -4.118240E-09 +8.953921E-08 
 -1.071400E-05 -1.864910E-05 +3.918941E-06 -1.864910E-05 -3.072480E-05 -1.826366E-06 +3.918941E-06 -1.826366E-06 +4.143880E-05 
 -1.589317E-07 -1.369417E-07 +9.671412E-08 -1.369417E-07 -1.426206E-07 +1.889786E-07 +9.671412E-08 +1.889786E-07 +3.015522E-07 
 -7.006991E-08 +4.202878E-08 -3.438230E-08 +4.202878E-08 -8.975603E-08 +4.928584E-08 -3.438230E-08 +4.928584E-08 +1.598259E-07 
 -1.888657E-05 +4.093140E-06 +9.057999E-06 +4.093140E-06 +7.154233E-07 +4.077844E-06 +9.057999E-06 +4.077844E-06 +1.817115E-05 
 -2.467021E-07 -6.240091E-07 +2.070544E-07 -6.240091E-07 -1.194764E-06 -5.798377E-07 +2.070544E-07 -5.798377E-07 +1.441466E-06 
 -5.280478E-07 +1.770076E-07 -2.736356E-07 +1.770076E-07 +5.358768E-08 -1.745804E-07 -2.736356E-07 -1.745804E-07 +4.744601E-07 
 -2.696244E-05 +7.766421E-06 +6.947469E-06 +7.766421E-06 -1.387663E-06 +3.074849E-06 +6.947469E-06 +3.074849E-06 +2.835010E-05 
 -6.212379E-05 +4.349831E-05 -1.416276E-05 +4.349831E-05 -3.046001E-05 +9.917294E-06 -1.416276E-05 +9.917294E-06 +9.258380E-05 
 -6.054678E-07 -3.763313E-07 +1.959899E-07 -3.763313E-07 -1.964346E-07 +3.092794E-07 +1.959899E-07 +3.092794E-07 +8.019024E-07 
 -9.967198E-06 -1.324836E-06 +1.145771E-06 -1.324836E-06 +7.734371E-07 -2.825422E-06 +1.145771E-06 -2.825422E-06 +9.193761E-06 
 -2.899670E-06 +4.635180E-06 -2.408862E-06 +4.635180E-06 -6.558218E-06 +7.156158E-07 -2.408862E-06 +7.156158E-07 +9.457888E-06 
 -1.913132E-08 -4.259888E-09 -1.061435E-08 -4.259888E-09 -3.399031E-08 -7.446573E-09 -1.061435E-08 -7.446573E-09 +5.312163E-08 
 -5.039558E-08 -1.995837E-08 -5.490157E-09 -1.995837E-08 -5.356575E-08 -4.998918E-09 -5.490157E-09 -4.998918E-09 +1.039613E-07 
 -3.172273E-07 -1.429164E-07 -9.196592E-09 -1.429164E-07 +7.959712E-09 -1.555229E-07 -9.196592E-09 -1.555229E-07 +3.092676E-07 
 -4.419393E-06 +5.646419E-06 +9.672077E-07 +5.646419E-06 -7.184212E-06 -1.858845E-06 +9.672077E-07 -1.858845E-06 +1.160360E-05 
 -1.295480E-07 +4.160998E-08 -8.993990E-09 +4.160998E-08 -8.609874E-08 +1.398849E-08 -8.993990E-09 +1.398849E-08 +2.156468E-07 
 -3.721092E-06 +2.416410E-06 -1.923892E-06 +2.416410E-06 -1.041398E-06 -5.178837E-07 -1.923892E-06 -5.178837E-07 +4.762490E-06 
 -9.105116E-08 -1.201370E-07 -9.663279E-08 -1.201370E-07 -8.469024E-08 +1.743081E-08 -9.663279E-08 +1.743081E-08 +1.757414E-07 
 -1.538717E-08 +2.879162E-09 -4.096367E-09 +2.879162E-09 -1.682395E-08 -6.767561E-09 -4.096367E-09 -6.767561E-09 +3.221113E-08 
 -4.704569E-06 -1.008841E-05 +3.310574E-07 -1.008841E-05 -2.163492E-05 +7.100426E-07 +3.310574E-07 +7.100426E-07 +2.633949E-05 
 -9.796887E-08 +2.467613E-08 -3.018615E-08 +2.467613E-08 -2.741097E-08 +2.734947E-08 -3.018615E-08 +2.734947E-08 +1.253798E-07 
 -7.665525E-06 -1.609309E-06 -1.495704E-06 -1.609309E-06 -3.126653E-07 +1.476464E-07 -1.495704E-06 +1.476464E-07 +7.978190E-06 
 -1.075580E-07 +3.124361E-08 -1.386252E-08 +3.124361E-08 -1.247495E-07 +6.863168E-09 -1.386252E-08 +6.863168E-09 +2.323075E-07 
 -1.238405E-08 -4.523433E-09 -7.370389E-10 -4.523433E-09 -2.280178E-08 -1.029021E-08 -7.370389E-10 -1.029021E-08 +3.518582E-08 
 -2.253488E-07 +3.796167E-07 -4.506382E-07 +3.796167E-07 -5.351117E-07 +2.805996E-07 -4.506382E-07 +2.805996E-07 +7.604605E-07 
 -3.318552E-06 +3.955339E-07 -3.919326E-07 +3.955339E-07 +1.576868E-07 -8.027675E-07 -3.919326E-07 -8.027675E-07 +3.160865E-06 
 -2.885916E-06 +1.341732E-06 +1.043554E-06 +1.341732E-06 -6.049836E-07 -8.269657E-07 +1.043554E-06 -8.269657E-07 +3.490899E-06 
 -6.170726E-07 -6.060100E-07 -3.122605E-07 -6.060100E-07 -2.754298E-07 +2.739405E-07 -3.122605E-07 +2.739405E-07 +8.925024E-07 
 -2.671087E-05 -6.120756E-06 +4.709637E-06 -6.120756E-06 -7.331020E-10 +7.294402E-06 +4.709637E-06 +7.294402E-06 +2.671160E-05 
 -1.166993E-06 +6.216174E-08 -4.267332E-07 +6.216174E-08 -6.273959E-09 -1.892324E-08 -4.267332E-07 -1.892324E-08 +1.173267E-06 
 -1.454687E-06 -8.590258E-07 +7.052865E-07 -8.590258E-07 -4.983058E-07 +2.227389E-07 +7.052865E-07 +2.227389E-07 +1.952993E-06 
 -3.903169E-08 -1.446506E-08 -3.341877E-09 -1.446506E-08 -3.878248E-08 -5.392521E-09 -3.341877E-09 -5.392521E-09 +7.781417E-08 
 -3.490610E-08 -1.695352E-08 -1.448425E-08 -1.695352E-08 -1.013327E-07 -2.579782E-08 -1.448425E-08 -2.579782E-08 +1.362388E-07 
 -4.749094E-08 -5.358868E-09 -1.715618E-08 -5.358868E-09 -3.311735E-08 -1.210102E-09 -1.715618E-08 -1.210102E-09 +8.060830E-08 
 -3.807263E-05 -4.686488E-05 -5.452683E-06 -4.686488E-05 -5.094022E-05 +1.791455E-05 -5.452683E-06 +1.791455E-05 +8.901284E-05 
 -4.177198E-06 -5.944472E-06 +2.728600E-06 -5.944472E-06 -6.292797E-06 -1.271857E-06 +2.728600E-06 -1.271857E-06 +1.046999E-05 
 -8.178865E-08 +7.017796E-08 +6.010383E-08 +7.017796E-08 -7.639373E-08 -5.363091E-08 +6.010383E-08 -5.363091E-08 +1.581824E-07 
 -5.045858E-09 -6.120982E-11 -1.291791E-10 -6.120982E-11 -2.923537E-09 -1.846179E-09 -1.291791E-10 -1.846179E-09 +7.969395E-09 
 -2.749894E-05 -4.691655E-05 +1.994065E-06 -4.691655E-05 -6.815275E-05 +3.717164E-05 +1.994065E-06 +3.717164E-05 +9.565168E-05 
 +3.000736E-08 -8.323357E-08 +4.568327E-07 -8.323357E-08 -6.199021E-06 -4.136511E-08 +4.568327E-07 -4.136511E-08 +6.169013E-06 
 -5.123634E-08 -2.765742E-08 +2.654336E-08 -2.765742E-08 -1.467659E-07 +7.520676E-08 +2.654336E-08 +7.520676E-08 +1.980023E-07 
 +1.666279E-07 +6.839217E-07 +1.644367E-06 +6.839217E-07 -7.213699E-06 -2.709974E-06 +1.644367E-06 -2.709974E-06 +7.047071E-06 
 -7.565600E-08 +4.848812E-07 +5.184943E-07 +4.848812E-07 -1.864437E-06 -6.583412E-07 +5.184943E-07 -6.583412E-07 +1.940093E-06 
 -6.127995E-07 +1.182975E-06 +3.571039E-07 +1.182975E-06 -2.293478E-06 -1.006392E-06 +3.571039E-07 -1.006392E-06 +2.906278E-06 
 -1.628260E-07 -5.583520E-08 -5.064290E-08 -5.583520E-08 -1.144698E-07 -3.034283E-08 -5.064290E-08 -3.034283E-08 +2.772958E-07 
 -4.066762E-07 -5.237840E-07 -3.958090E-07 -5.237840E-07 -4.199375E-07 +5.432538E-08 -3.958090E-07 +5.432538E-08 +8.266136E-07 
 -2.229481E-05 +1.706887E-05 +6.778683E-06 +1.706887E-05 -1.141406E-05 +2.506557E-06 +6.778683E-06 +2.506557E-06 +3.370887E-05 
 -5.320019E-07 -2.659840E-05 +2.051129E-05 -2.659840E-05 -2.684190E-04 -3.546570E-05 +2.051129E-05 -3.546570E-05 +2.689510E-04 
 -1.911709E-06 -8.655416E-07 +6.868247E-08 -8.655416E-07 -2.196542E-07 +6.563903E-07 +6.868247E-08 +6.563903E-07 +2.131363E-06 
 -1.249732E-04 +6.415965E-05 +3.026264E-05 +6.415965E-05 -2.692637E-05 +1.542680E-05 +3.026264E-05 +1.542680E-05 +1.518996E-04 
 -2.325009E-07 +2.373273E-08 +6.243892E-08 +2.373273E-08 -1.631251E-07 -8.376524E-08 +6.243892E-08 -8.376524E-08 +3.956260E-07 
 -1.163339E-08 +3.140370E-09 -5.240641E-09 +3.140370E-09 -5.541375E-08 -1.392971E-08 -5.240641E-09 -1.392971E-08 +6.704715E-08 
 -4.134094E-08 -1.227621E-08 -1.047724E-08 -1.227621E-08 -6.251329E-08 -2.040518E-08 -1.047724E-08 -2.040518E-08 +1.038542E-07 
 -2.707669E-07 -1.159932E-07 -1.028398E-07 -1.159932E-07 -2.981903E-07 -7.747690E-08 -1.028398E-07 -7.747690E-08 +5.689571E-07 
 -3.018508E-04 -7.469313E-05 -3.380091E-05 -7.469313E-05 -8.135549E-06 -6.557916E-05 -3.380091E-05 -6.557916E-05 +3.099864E-04 
 -1.052724E-05 +1.075268E-05 +8.424869E-06 +1.075268E-05 -9.612628E-06 -2.449362E-06 +8.424869E-06 -2.449362E-06 +2.013987E-05 
 -9.322926E-09 +1.177185E-08 +7.016257E-08 +1.177185E-08 -6.030118E-07 +3.338722E-07 +7.016257E-08 +3.338722E-07 +6.123347E-07 
 -5.158276E-05 +2.580921E-05 +4.055045E-06 +2.580921E-05 -1.086428E-05 -1.339825E-05 +4.055045E-06 -1.339825E-05 +6.244704E-05 
 -7.983558E-06 -2.461672E-07 -1.666249E-06 -2.461672E-07 +5.402285E-07 -2.137074E-06 -1.666249E-06 -2.137074E-06 +7.443329E-06 
 -5.034616E-06 -1.411771E-06 +1.921945E-06 -1.411771E-06 +2.682510E-08 -1.020338E-06 +1.921945E-06 -1.020338E-06 +5.007791E-06 
 -2.456135E-06 -3.890356E-07 +8.843267E-07 -3.890356E-07 -5.443921E-08 +3.274156E-07 +8.843267E-07 +3.274156E-07 +2.510574E-06 
 -3.419249E-07 +4.898185E-07 -1.045566E-07 +4.898185E-07 -5.788373E-07 +5.281777E-07 -1.045566E-07 +5.281777E-07 +9.207622E-07 
 +9.850294E-07 -4.521016E-06 -8.887794E-06 -4.521016E-06 -2.616130E-05 -9.969550E-06 -8.887794E-06 -9.969550E-06 +2.517627E-05 
 -4.482332E-08 +3.082660E-10 +6.943690E-09 +3.082660E-10 -8.566828E-08 +2.594614E-08 +6.943690E-09 +2.594614E-08 +1.304916E-07 
 -2.846529E-07 -7.082946E-08 +1.780463E-07 -7.082946E-08 -1.865256E-08 +7.531320E-09 +1.780463E-07 +7.531320E-09 +3.033054E-07 
 -4.790851E-08 +2.262103E-08 +8.562646E-09 +2.262103E-08 -6.178532E-08 -2.097279E-08 +8.562646E-09 -2.097279E-08 +1.096938E-07 
 -3.302207E-08 -9.377574E-09 +1.061581E-08 -9.377574E-09 -5.643214E-08 +1.585640E-08 +1.061581E-08 +1.585640E-08 +8.945420E-08 
 -1.187395E-08 -2.418389E-11 -7.005797E-11 -2.418389E-11 -2.335354E-08 +7.333656E-09 -7.005797E-11 +7.333656E-09 +3.522748E-08 
 +9.524059E-08 +8.966535E-08 -5.157955E-07 +8.966535E-08 -2.077654E-06 +8.226533E-07 -5.157955E-07 +8.226533E-07 +1.982414E-06 
 -7.942410E-06 +2.865273E-05 -1.348725E-05 +2.865273E-05 -7.569483E-05 -5.978105E-06 -1.348725E-05 -5.978105E-06 +8.363723E-05 
 -7.087767E-07 -5.687107E-07 -1.070973E-07 -5.687107E-07 -3.749232E-07 -4.149908E-07 -1.070973E-07 -4.149908E-07 +1.083700E-06 
 -1.403839E-08 +1.761565E-08 +1.191561E-08 +1.761565E-08 -3.376347E-08 -3.052282E-08 +1.191561E-08 -3.052282E-08 +4.780185E-08 
 -2.594985E-08 -8.598860E-08 +5.052388E-08 -8.598860E-08 -1.575524E-07 -3.705968E-08 +5.052388E-08 -3.705968E-08 +1.835022E-07 
 +5.878771E-07 -7.714261E-07 -2.037649E-06 -7.714261E-07 -5.850039E-06 -6.724449E-07 -2.037649E-06 -6.724449E-07 +5.262162E-06 
 -1.022241E-04 -7.157392E-05 +3.459945E-05 -7.157392E-05 -5.012274E-05 +2.422399E-05 +3.459945E-05 +2.422399E-05 +1.523469E-04 
 -1.032577E-07 -1.600153E-08 +3.683702E-08 -1.600153E-08 -5.438522E-08 +4.892191E-09 +3.683702E-08 +4.892191E-09 +1.576429E-07 
 -1.877824E-07 +4.300621E-07 -3.355634E-07 +4.300621E-07 -7.822335E-07 +1.700798E-07 -3.355634E-07 +1.700798E-07 +9.700159E-07 
 -3.557810E-08 +1.011570E-08 +1.694449E-09 +1.011570E-08 -8.530556E-08 -8.206195E-09 +1.694449E-09 -8.206195E-09 +1.208837E-07 
 -3.288917E-08 -1.103309E-08 -2.994193E-09 -1.103309E-08 -5.838756E-08 -1.917877E-08 -2.994193E-09 -1.917877E-08 +9.127672E-08 
 -2.107897E-06 +1.058071E-05 +4.189405E-06 +1.058071E-05 -3.362913E-05 +8.643717E-06 +4.189405E-06 +8.643717E-06 +3.573703E-05 
 -8.998454E-06 +1.205373E-11 +3.230213E-06 +1.205373E-11 -8.388958E-11 -6.487566E-11 +3.230213E-06 -6.487566E-11 +8.998538E-06 
 -1.277946E-07 +4.211457E-08 -8.716624E-10 +4.211457E-08 -1.875901E-07 -3.148096E-08 -8.716624E-10 -3.148096E-08 +3.153847E-07 
 -2.590566E-06 -3.737825E-06 -7.700341E-07 -3.737825E-06 -5.393009E-06 -1.179266E-06 -7.700341E-07 -1.179266E-06 +7.983575E-06 
 -6.734334E-09 -9.073146E-10 +1.882293E-09 -9.073146E-10 -8.413731E-09 +3.817247E-09 +1.882293E-09 +3.817247E-09 +1.514807E-08 
 -7.292693E-08 +1.569910E-09 +1.735652E-08 +1.569910E-09 -1.966157E-07 +6.253617E-08 +1.735652E-08 +6.253617E-08 +2.695427E-07 
 -2.329889E-05 +3.356759E-05 -1.446787E-05 +3.356759E-05 -4.386507E-05 +2.268293E-06 -1.446787E-05 +2.268293E-06 +6.716396E-05 
 -2.350655E-08 +3.338090E-09 +1.194230E-08 +3.338090E-09 -1.591514E-08 -4.382114E-09 +1.194230E-08 -4.382114E-09 +3.942169E-08 
 -3.700199E-08 -7.109486E-09 +5.428260E-09 -7.109486E-09 -3.427445E-08 -7.056304E-09 +5.428260E-09 -7.056304E-09 +7.127644E-08 
 -7.271863E-07 -4.618916E-08 +4.146891E-07 -4.618916E-08 -1.131595E-08 +7.777017E-08 +4.146891E-07 +7.777017E-08 +7.385022E-07 
 -1.037248E-07 -2.413156E-07 +1.205312E-07 -2.413156E-07 -2.573125E-07 -1.114859E-07 +1.205312E-07 -1.114859E-07 +3.610373E-07 
 -7.784035E-08 -1.342223E-07 -9.591015E-08 -1.342223E-07 -1.301748E-07 +2.077053E-08 -9.591015E-08 +2.077053E-08 +2.080152E-07 
 -6.090170E-06 -5.211264E-06 +6.199334E-07 -5.211264E-06 -4.340108E-06 -6.173574E-07 +6.199334E-07 -6.173574E-07 +1.043028E-05 
 -4.370307E-07 -1.485779E-06 +4.409927E-07 -1.485779E-06 -3.004575E-06 -1.345153E-06 +4.409927E-07 -1.345153E-06 +3.441605E-06 
 -6.673957E-08 -1.506807E-08 -1.677431E-08 -1.506807E-08 -1.939559E-08 -9.002137E-09 -1.677431E-08 -9.002137E-09 +8.613516E-08 
 -3.051351E-05 -7.881090E-05 +1.959258E-05 -7.881090E-05 -1.884383E-04 +1.098276E-04 +1.959258E-05 +1.098276E-04 +2.189518E-04 
 -5.470141E-07 -4.398411E-07 -5.560071E-07 -4.398411E-07 -8.474536E-07 -2.613798E-07 -5.560071E-07 -2.613798E-07 +1.394468E-06 
 -3.971182E-06 +5.333622E-06 -2.248878E-06 +5.333622E-06 -6.332853E-06 -1.354827E-07 -2.248878E-06 -1.354827E-07 +1.030403E-05 
 -3.169792E-06 +3.454947E-06 -1.151328E-06 +3.454947E-06 -3.339928E-06 -4.699522E-07 -1.151328E-06 -4.699522E-07 +6.509719E-06 
 -1.022896E-07 +4.579228E-08 -4.599431E-08 +4.579228E-08 -8.171028E-08 +1.551063E-08 -4.599431E-08 +1.551063E-08 +1.839999E-07 
 -1.091353E-07 +1.796193E-07 +1.625624E-07 +1.796193E-07 -5.698471E-07 -3.039680E-07 +1.625624E-07 -3.039680E-07 +6.789825E-07 
 -3.670020E-06 +9.037606E-07 +2.776534E-07 +9.037606E-07 +4.842873E-08 -1.074150E-06 +2.776534E-07 -1.074150E-06 +3.621592E-06 
 -3.123519E-05 -1.647502E-05 +7.787673E-07 -1.647502E-05 -8.618656E-06 -1.344227E-06 +7.787673E-07 -1.344227E-06 +3.985385E-05 
 +1.725765E-07 -2.942000E-07 +6.946455E-07 -2.942000E-07 -2.754575E-06 -8.198924E-07 +6.946455E-07 -8.198924E-07 +2.581998E-06 
 -1.416839E-05 -3.100302E-05 +3.055957E-06 -3.100302E-05 -6.448178E-05 -9.716719E-06 +3.055957E-06 -9.716719E-06 +7.865018E-05 
 -2.743341E-07 -1.052098E-07 -1.851796E-07 -1.052098E-07 -5.208847E-08 -2.522136E-08 -1.851796E-07 -2.522136E-08 +3.264225E-07 
 -3.147670E-08 -1.165118E-09 -9.737742E-09 -1.165118E-09 -2.115021E-08 -1.071477E-08 -9.737742E-09 -1.071477E-08 +5.262691E-08 
 -2.409620E-07 -6.809402E-07 +7.239845E-07 -6.809402E-07 -1.035576E-06 +2.330319E-07 +7.239845E-07 +2.330319E-07 +1.276538E-06 
 -6.297633E-08 +7.183811E-08 -3.177541E-08 +7.183811E-08 -1.005686E-07 +7.830195E-08 -3.177541E-08 +7.830195E-08 +1.635449E-07 
 -1.601107E-06 -4.216474E-07 +9.310473E-07 -4.216474E-07 -1.394643E-07 +2.450132E-07 +9.310473E-07 +2.450132E-07 +1.740571E-06 
 -1.362873E-07 -7.971842E-08 +1.016883E-07 -7.971842E-08 -2.000680E-08 +2.867147E-08 +1.016883E-07 +2.867147E-08 +1.562941E-07 
 -4.348061E-05 -4.356736E-05 -3.702512E-07 -4.356736E-05 -3.856388E-05 +2.008138E-05 -3.702512E-07 +2.008138E-05 +8.204449E-05 
 -5.376605E-08 -8.823005E-10 -5.261793E-09 -8.823005E-10 -1.906977E-08 -3.211740E-09 -5.261793E-09 -3.211740E-09 +7.283582E-08 
 -5.692607E-07 -1.528198E-07 -1.506313E-07 -1.528198E-07 -1.886478E-08 +7.777081E-08 -1.506313E-07 +7.777081E-08 +5.881255E-07 
 +1.472347E-07 +1.417668E-06 +1.385672E-06 +1.417668E-06 -8.998052E-06 +3.922794E-06 +1.385672E-06 +3.922794E-06 +8.850818E-06 
 -2.112764E-04 +4.489552E-07 +5.120648E-06 +4.489552E-07 +1.548193E-06 +1.831932E-05 +5.120648E-06 +1.831932E-05 +2.097282E-04 
 -3.210976E-06 +2.086406E-06 +2.489512E-07 +2.086406E-06 -1.249191E-06 +5.352424E-07 +2.489512E-07 +5.352424E-07 +4.460167E-06 
 -5.071382E-09 +1.428361E-09 +1.655889E-09 +1.428361E-09 -6.754524E-09 -3.530960E-09 +1.655889E-09 -3.530960E-09 +1.182591E-08 
 -6.548146E-06 +2.400164E-05 +1.177512E-05 +2.400164E-05 -6.393711E-05 +3.944215E-06 +1.177512E-05 +3.944215E-06 +7.048525E-05 
 -1.267760E-04 +1.196644E-04 -3.815199E-05 +1.196644E-04 -8.569735E-05 -4.221397E-05 -3.815199E-05 -4.221397E-05 +2.124733E-04 
 -1.862807E-06 -4.085156E-06 -1.275628E-06 -4.085156E-06 -4.766033E-06 +2.828671E-06 -1.275628E-06 +2.828671E-06 +6.628839E-06 
 -4.228599E-05 -2.959704E-05 -4.171947E-06 -2.959704E-05 -1.841779E-05 +8.955766E-06 -4.171947E-06 +8.955766E-06 +6.070378E-05 
 -4.168500E-08 -1.031336E-08 +5.742058E-09 -1.031336E-08 -3.165836E-08 +1.160217E-09 +5.742058E-09 +1.160217E-09 +7.334336E-08 
 -6.190627E-08 +3.775646E-08 -1.506383E-08 +3.775646E-08 -6.872217E-08 -1.260652E-10 -1.506383E-08 -1.260652E-10 +1.306284E-07 
 -4.877380E-07 -1.103767E-06 -4.366640E-07 -1.103767E-06 -2.387126E-06 -3.803657E-07 -4.366640E-07 -3.803657E-07 +2.874864E-06 
 -2.274042E-06 +2.684222E-06 +1.101919E-06 +2.684222E-06 -2.437383E-06 +6.747100E-07 +1.101919E-06 +6.747100E-07 +4.711424E-06 
 -4.011567E-08 -1.351776E-07 -1.208962E-07 -1.351776E-07 -1.342404E-07 -6.301300E-08 -1.208962E-07 -6.301300E-08 +1.743561E-07 
 -3.301148E-05 -1.412277E-06 -5.948581E-06 -1.412277E-06 +4.568050E-10 +1.244074E-06 -5.948581E-06 +1.244074E-06 +3.301102E-05 
 -5.550528E-09 +1.776809E-08 +8.927132E-09 +1.776809E-08 -5.852390E-08 -2.158090E-08 +8.927132E-09 -2.158090E-08 +6.407443E-08 
 -1.023436E-06 -7.854936E-07 -5.802930E-07 -7.854936E-07 -6.253732E-07 -7.662405E-07 -5.802930E-07 -7.662405E-07 +1.648809E-06 
 -1.162982E-04 -8.970344E-06 +2.250034E-05 -8.970344E-06 +4.383909E-07 -9.989050E-06 +2.250034E-05 -9.989050E-06 +1.158598E-04 
 -3.917613E-07 -9.120366E-07 +6.549008E-08 -9.120366E-07 -2.111531E-06 -3.066317E-08 +6.549008E-08 -3.066317E-08 +2.503292E-06 
 -5.293294E-08 -2.175750E-08 +2.519072E-09 -2.175750E-08 -5.361610E-08 +7.760711E-09 +2.519072E-09 +7.760711E-09 +1.065490E-07 
 -8.488682E-07 -2.191594E-07 +1.614230E-08 -2.191594E-07 +4.849644E-08 +2.986044E-07 +1.614230E-08 +2.986044E-07 +8.003718E-07 
 -1.130230E-08 +2.875137E-09 +6.435394E-10 +2.875137E-09 -2.381294E-08 +8.691578E-09 +6.435394E-10 +8.691578E-09 +3.511524E-08 
 -1.449451E-08 +4.457261E-09 +2.688795E-09 +4.457261E-09 -2.684347E-08 -2.250712E-09 +2.688795E-09 -2.250712E-09 +4.133799E-08 
 -1.114444E-07 +8.841381E-08 -5.736846E-08 +8.841381E-08 -5.066099E-08 -2.656448E-08 -5.736846E-08 -2.656448E-08 +1.621054E-07 
 -2.873179E-06 -1.622026E-06 +9.711105E-07 -1.622026E-06 -8.086038E-07 +1.230954E-06 +9.711105E-07 +1.230954E-06 +3.681783E-06 
 -5.377041E-08 +9.652789E-09 +6.503941E-09 +9.652789E-09 -3.160365E-08 +6.371655E-09 +6.503941E-09 +6.371655E-09 +8.537406E-08 
 -1.749742E-08 +5.182549E-09 +1.000225E-09 +5.182549E-09 -1.416793E-08 -2.078199E-09 +1.000225E-09 -2.078199E-09 +3.166535E-08 
 -1.643880E-08 -3.969931E-09 -1.853476E-09 -3.969931E-09 -2.379968E-08 -1.437045E-09 -1.853476E-09 -1.437045E-09 +4.023848E-08 
 -1.027072E-05 -6.711570E-07 +1.664230E-09 -6.711570E-07 -3.415797E-09 +6.713317E-07 +1.664230E-09 +6.713317E-07 +1.027414E-05 
 -5.077577E-08 -1.208822E-08 +3.084797E-08 -1.208822E-08 -1.611286E-08 +7.686411E-09 +3.084797E-08 +7.686411E-09 +6.688862E-08 
 -2.795520E-06 +1.041222E-06 +9.627162E-07 +1.041222E-06 -3.715972E-07 -6.510466E-07 +9.627162E-07 -6.510466E-07 +3.167117E-06 
 -9.837458E-08 -7.569991E-08 +6.973580E-08 -7.569991E-08 +4.848004E-08 +5.668069E-08 +6.973580E-08 +5.668069E-08 +4.989454E-08 
 -2.104994E-05 +1.215291E-05 +4.186804E-06 +1.215291E-05 -7.016900E-06 -2.417171E-06 +4.186804E-06 -2.417171E-06 +2.806684E-05 
 -2.002007E-07 +1.674986E-07 +6.881809E-08 +1.674986E-07 -1.428358E-07 -1.680561E-07 +6.881809E-08 -1.680561E-07 +3.430365E-07 
 +1.748170E-07 -1.842184E-07 +3.989851E-07 -1.842184E-07 -1.076248E-06 -3.904423E-07 +3.989851E-07 -3.904423E-07 +9.014310E-07 
 -4.119422E-08 -2.183430E-08 -1.086712E-08 -2.183430E-08 -5.814162E-08 -1.611978E-08 -1.086712E-08 -1.611978E-08 +9.933584E-08 
 -9.698114E-07 -1.521083E-06 -1.463441E-06 -1.521083E-06 -1.064757E-06 +7.473232E-08 -1.463441E-06 +7.473232E-08 +2.034569E-06 
 -5.477679E-08 +1.213201E-08 -7.429355E-09 +1.213201E-08 -4.042492E-08 +1.925673E-09 -7.429355E-09 +1.925673E-09 +9.520171E-08 
 -2.103122E-08 -4.459086E-09 +5.644604E-09 -4.459086E-09 -2.014892E-08 +6.936784E-09 +5.644604E-09 +6.936784E-09 +4.118014E-08 
 -6.596834E-07 -7.275529E-07 -2.855502E-07 -7.275529E-07 -7.638196E-07 -4.621087E-08 -2.855502E-07 -4.621087E-08 +1.423503E-06 
 -1.154814E-06 -1.055631E-06 +8.239512E-07 -1.055631E-06 -8.792634E-07 +2.737171E-07 +8.239512E-07 +2.737171E-07 +2.034077E-06 
 -5.990608E-06 -3.132928E-06 +1.151255E-06 -3.132928E-06 -1.010336E-06 -1.529361E-06 +1.151255E-06 -1.529361E-06 +7.000944E-06 
 -3.818918E-05 -6.017035E-05 +2.639781E-05 -6.017035E-05 -5.896398E-05 -2.304223E-05 +2.639781E-05 -2.304223E-05 +9.715316E-05 
 -7.261219E-07 -3.429055E-07 -3.937411E-07 -3.429055E-07 -4.867313E-08 +1.726861E-07 -3.937411E-07 +1.726861E-07 +7.747951E-07 
 -1.329729E-08 -1.042597E-09 +4.068275E-09 -1.042597E-09 -8.453304E-09 +2.290976E-09 +4.068275E-09 +2.290976E-09 +2.175059E-08 
 -4.848382E-06 -2.802594E-06 +1.843047E-08 -2.802594E-06 -1.061219E-06 -1.814303E-06 +1.843047E-08 -1.814303E-06 +5.909601E-06 
 +1.761430E-06 -1.709201E-06 -7.943647E-06 -1.709201E-06 -3.742702E-05 +8.635974E-06 -7.943647E-06 +8.635974E-06 +3.566559E-05 
 -4.617907E-06 -3.651057E-06 +1.417063E-06 -3.651057E-06 -2.148028E-06 -1.187948E-06 +1.417063E-06 -1.187948E-06 +6.765935E-06 
 -4.430332E-07 -1.794214E-06 +1.133450E-06 -1.794214E-06 -5.073831E-06 +2.739950E-07 +1.133450E-06 +2.739950E-07 +5.516865E-06 
 -7.338563E-09 +1.155803E-09 +2.213229E-09 +1.155803E-09 -1.809145E-08 +7.715717E-09 +2.213229E-09 +7.715717E-09 +2.543002E-08 
 -1.647579E-08 -1.580455E-09 -1.093200E-09 -1.580455E-09 -3.032055E-08 -1.607766E-08 -1.093200E-09 -1.607766E-08 +4.679634E-08 
 -7.558583E-05 -4.492576E-07 -5.135033E-06 -4.492576E-07 +5.676895E-07 +6.559715E-06 -5.135033E-06 +6.559715E-06 +7.501814E-05 
 -1.421807E-07 +4.088026E-08 -7.814491E-08 +4.088026E-08 -2.979501E-08 +6.601238E-08 -7.814491E-08 +6.601238E-08 +1.719758E-07 
 -3.601949E-05 -5.144056E-05 +3.362563E-06 -5.144056E-05 -7.346506E-05 +4.802831E-06 +3.362563E-06 +4.802831E-06 +1.094846E-04 
 -1.418262E-05 -4.504099E-05 +2.376632E-05 -4.504099E-05 -1.309575E-04 +2.817526E-05 +2.376632E-05 +2.817526E-05 +1.451402E-04 
 -4.200070E-06 +3.651125E-06 -1.390675E-06 +3.651125E-06 -3.068325E-06 +2.382351E-07 -1.390675E-06 +2.382351E-07 +7.268395E-06 
 -1.191803E-06 +8.060854E-07 -2.876243E-07 +8.060854E-07 -2.840083E-07 -4.465976E-07 -2.876243E-07 -4.465976E-07 +1.475812E-06 
 +3.436307E-07 -1.079486E-06 +1.699016E-06 -1.079486E-06 -7.239981E-06 -1.656890E-06 +1.699016E-06 -1.656890E-06 +6.896350E-06 
 -5.479827E-06 +1.467564E-06 +4.721232E-09 +1.467564E-06 -2.098010E-07 +1.034341E-06 +4.721232E-09 +1.034341E-06 +5.689627E-06 
 -6.734714E-08 +4.768221E-09 +2.852613E-08 +4.768221E-09 -2.665297E-08 -4.957570E-10 +2.852613E-08 -4.957570E-10 +9.400011E-08 
 -5.918065E-05 +4.403959E-05 +2.437758E-05 +4.403959E-05 -3.162929E-05 -7.374549E-06 +2.437758E-05 -7.374549E-06 +9.080994E-05 
 -1.005742E-05 -1.416205E-05 -2.263779E-07 -1.416205E-05 -1.898092E-05 -5.765418E-06 -2.263779E-07 -5.765418E-06 +2.903834E-05 
 -1.355450E-07 +1.370193E-07 +8.304739E-08 +1.370193E-07 -1.863779E-07 -1.429508E-07 +8.304739E-08 -1.429508E-07 +3.219229E-07 
 -2.794171E-08 +1.138251E-08 -4.729941E-09 +1.138251E-08 -6.801555E-08 +6.397639E-09 -4.729941E-09 +6.397639E-09 +9.595726E-08 
 -2.928291E-06 +1.659715E-05 +4.395371E-06 +1.659715E-05 -9.412865E-05 -2.492824E-05 +4.395371E-06 -2.492824E-05 +9.705694E-05 
 -2.577586E-06 +3.868552E-06 +4.512285E-07 +3.868552E-06 -4.334793E-06 +2.569629E-06 +4.512285E-07 +2.569629E-06 +6.912379E-06 
 -8.585135E-06 -3.548425E-06 -3.229274E-07 -3.548425E-06 -1.285591E-06 +1.205799E-06 -3.229274E-07 +1.205799E-06 +9.870726E-06 
 -4.022762E-08 +2.578432E-08 +9.115638E-10 +2.578432E-08 -5.083460E-08 -7.248254E-09 +9.115638E-10 -7.248254E-09 +9.106222E-08 
 -3.266471E-08 -3.625579E-09 +1.768763E-08 -3.625579E-09 -2.687485E-08 +5.117270E-09 +1.768763E-08 +5.117270E-09 +5.953956E-08 
 -3.395133E-05 +9.095403E-06 +5.351411E-06 +9.095403E-06 -2.443492E-06 -1.435676E-06 +5.351411E-06 -1.435676E-06 +3.639482E-05 
 -2.895898E-05 +2.671821E-05 +5.575041E-06 +2.671821E-05 -1.799026E-05 -2.328464E-05 +5.575041E-06 -2.328464E-05 +4.694923E-05 
 -1.209431E-04 +1.014817E-04 -9.928403E-06 +1.014817E-04 -8.515513E-05 +8.331856E-06 -9.928403E-06 +8.331856E-06 +2.060982E-04 
 -4.272651E-07 -6.506712E-09 +1.323436E-07 -6.506712E-09 +7.293040E-08 +1.766397E-07 +1.323436E-07 +1.766397E-07 +3.543347E-07 
 -3.225482E-10 -2.040439E-11 -5.683224E-11 -2.040439E-11 -3.717796E-05 -2.518074E-06 -5.683224E-11 -2.518074E-06 +3.717828E-05 
 -1.925579E-05 -2.082078E-05 +1.627386E-06 -2.082078E-05 -2.229116E-05 -1.362270E-06 +1.627386E-06 -1.362270E-06 +4.154695E-05 
 -8.596863E-05 -8.596754E-05 +2.635590E-05 -8.596754E-05 -8.596858E-05 +2.635564E-05 +2.635590E-05 +2.635564E-05 +1.719372E-04 
 -1.519807E-05 +1.436483E-05 +2.136073E-06 +1.436483E-05 -1.267264E-05 +3.053288E-06 +2.136073E-06 +3.053288E-06 +2.787072E-05 
 -9.604064E-08 -2.918158E-08 +1.109168E-08 -2.918158E-08 -1.472935E-07 -1.894074E-08 +1.109168E-08 -1.894074E-08 +2.433342E-07 
 +8.503097E-08 +1.448913E-07 -3.332197E-07 +1.448913E-07 -1.098192E-06 +5.884959E-08 -3.332197E-07 +5.884959E-08 +1.013161E-06 
 -3.882881E-05 -8.325952E-05 +1.494200E-05 -8.325952E-05 -1.785540E-04 +3.204016E-05 +1.494200E-05 +3.204016E-05 +2.173828E-04 
 -5.072095E-07 +1.299569E-07 +3.777316E-08 +1.299569E-07 +1.304914E-08 -1.799392E-07 +3.777316E-08 -1.799392E-07 +4.941604E-07 
 -5.945299E-06 +1.406978E-05 +3.186894E-06 +1.406978E-05 -2.725170E-05 +7.006768E-06 +3.186894E-06 +7.006768E-06 +3.319700E-05 
 -8.207883E-06 -3.454188E-06 -2.509785E-06 -3.454188E-06 -1.113777E-06 +8.287858E-07 -2.509785E-06 +8.287858E-07 +9.321661E-06 
 -3.262411E-08 +1.980782E-08 -7.423860E-09 +1.980782E-08 -6.889171E-08 +1.045885E-08 -7.423860E-09 +1.045885E-08 +1.015158E-07 
 -2.812291E-08 +2.693318E-09 +5.019803E-09 +2.693318E-09 -2.996796E-08 +1.978627E-09 +5.019803E-09 +1.978627E-09 +5.809087E-08 
 -4.844714E-05 +2.380537E-05 +1.257877E-05 +2.380537E-05 -1.111235E-05 -1.165160E-07 +1.257877E-05 -1.165160E-07 +5.955949E-05 
 -8.548999E-06 +7.606717E-07 -7.097697E-08 +7.606717E-07 +4.221597E-07 -2.142261E-06 -7.097697E-08 -2.142261E-06 +8.126840E-06 
 -4.208257E-08 +5.052781E-09 -2.454704E-10 +5.052781E-09 -5.337423E-08 -5.855596E-09 -2.454704E-10 -5.855596E-09 +9.545680E-08 
 -8.732466E-08 -9.535945E-07 +6.176773E-07 -9.535945E-07 -2.829749E-06 -7.059158E-07 +6.176773E-07 -7.059158E-07 +2.917074E-06 
 +2.850431E-08 -1.518194E-06 -1.138224E-06 -1.518194E-06 -5.534649E-06 +1.998098E-06 -1.138224E-06 +1.998098E-06 +5.506145E-06 
 -1.008345E-07 +3.137899E-08 +5.797519E-08 +3.137899E-08 -1.054193E-08 -2.374650E-08 +5.797519E-08 -2.374650E-08 +1.113764E-07 
 -6.206073E-05 -2.937026E-05 +2.369549E-06 -2.937026E-05 -1.120377E-05 -1.311349E-05 +2.369549E-06 -1.311349E-05 +7.326451E-05 
 -2.475376E-04 +1.902310E-05 -1.078043E-04 +1.902310E-05 +7.438580E-06 -4.230350E-05 -1.078043E-04 -4.230350E-05 +2.400990E-04 
 -6.114937E-05 +1.165107E-05 -9.781284E-06 +1.165107E-05 -1.714500E-06 -3.858047E-06 -9.781284E-06 -3.858047E-06 +6.286387E-05 
 +1.171809E-07 -6.266868E-08 -3.996647E-07 -6.266868E-08 -1.019274E-06 +8.860737E-07 -3.996647E-07 +8.860737E-07 +9.020928E-07 
 -2.865098E-05 +4.205788E-05 -7.499041E-06 +4.205788E-05 -5.964679E-05 -2.754891E-06 -7.499041E-06 -2.754891E-06 +8.829777E-05 
 -9.692236E-09 +8.172934E-09 -9.306739E-10 +8.172934E-09 -2.414506E-08 +1.494789E-08 -9.306739E-10 +1.494789E-08 +3.383729E-08 
 -2.256408E-08 -1.248711E-08 +8.041742E-10 -1.248711E-08 -1.809189E-07 +1.109972E-08 +8.041742E-10 +1.109972E-08 +2.034830E-07 
 -3.649551E-08 -1.114913E-08 +1.205298E-08 -1.114913E-08 -8.870993E-08 +1.029353E-08 +1.205298E-08 +1.029353E-08 +1.252054E-07 
 -1.442988E-08 -1.034173E-08 -2.022242E-08 -1.034173E-08 -1.215825E-07 -2.008782E-08 -2.022242E-08 -2.008782E-08 +1.360124E-07 
 -4.275243E-08 -1.139199E-09 +3.703384E-09 -1.139199E-09 -1.441107E-08 -2.136649E-09 +3.703384E-09 -2.136649E-09 +5.716350E-08 
 -2.384002E-07 +2.864145E-07 -9.610909E-08 +2.864145E-07 -3.557089E-07 +1.898326E-07 -9.610909E-08 +1.898326E-07 +5.941092E-07 
 -8.861726E-06 +3.610855E-05 -9.019005E-06 +3.610855E-05 -1.302470E-04 -1.335274E-05 -9.019005E-06 -1.335274E-05 +1.391087E-04 
 -3.245956E-06 -2.451072E-07 +2.191802E-07 -2.451072E-07 +8.015289E-08 +5.790132E-07 +2.191802E-07 +5.790132E-07 +3.165803E-06 
 -1.002365E-06 -5.193463E-07 -6.156411E-07 -5.193463E-07 -2.807641E-07 -3.991172E-07 -6.156411E-07 -3.991172E-07 +1.283129E-06 
 -3.823596E-07 +4.718523E-07 +5.139302E-08 +4.718523E-07 -3.703439E-07 +3.525992E-07 +5.139302E-08 +3.525992E-07 +7.527034E-07 
 -1.645606E-07 -9.127998E-07 +4.724623E-07 -9.127998E-07 -4.592411E-06 +7.388447E-07 +4.724623E-07 +7.388447E-07 +4.756972E-06 
 -3.601995E-09 -2.964051E-10 -6.899841E-10 -2.964051E-10 -6.320149E-09 +2.987385E-09 -6.899841E-10 +2.987385E-09 +9.922144E-09 
 -1.818648E-07 -5.613500E-08 +2.321192E-08 -5.613500E-08 -1.145662E-07 -1.586641E-09 +2.321192E-08 -1.586641E-09 +2.964309E-07 
 -3.428351E-08 +1.841032E-08 +2.536880E-08 +1.841032E-08 +1.282046E-08 -1.493083E-08 +2.536880E-08 -1.493083E-08 +2.146305E-08 
 -3.195252E-08 -8.591739E-08 -9.719073E-08 -8.591739E-08 -2.033783E-07 -8.941359E-08 -9.719073E-08 -8.941359E-08 +2.353308E-07 
 -9.409305E-07 -4.537907E-07 +5.800972E-07 -4.537907E-07 -2.382454E-07 +3.162896E-07 +5.800972E-07 +3.162896E-07 +1.179176E-06 
 -9.390443E-09 +3.898020E-10 +4.816697E-09 +3.898020E-10 -4.501721E-09 -1.313795E-10 +4.816697E-09 -1.313795E-10 +1.389216E-08 
 -3.110039E-07 +5.492097E-08 +1.710726E-07 +5.492097E-08 -1.336124E-08 -6.531479E-08 +1.710726E-07 -6.531479E-08 +3.243651E-07 
 -2.071929E-06 -2.051757E-06 -5.695783E-07 -2.051757E-06 -1.682531E-06 -1.741865E-06 -5.695783E-07 -1.741865E-06 +3.754460E-06 
 -7.334941E-08 -7.994658E-09 +7.223854E-09 -7.994658E-09 -2.747209E-08 -3.857730E-09 +7.223854E-09 -3.857730E-09 +1.008215E-07 
 -2.044504E-07 +3.698461E-07 +7.869593E-08 +3.698461E-07 -4.796190E-07 -5.169088E-07 +7.869593E-08 -5.169088E-07 +6.840694E-07 
 -3.185969E-06 -3.185549E-06 +7.930498E-07 -3.185549E-06 -3.185944E-06 +7.930004E-07 +7.930498E-07 +7.930004E-07 +6.371913E-06 
 -6.501243E-08 -4.276496E-08 -2.884622E-09 -4.276496E-08 -3.020713E-08 -2.487405E-08 -2.884622E-09 -2.487405E-08 +9.521956E-08 
 -3.302967E-05 -7.082894E-05 +6.231735E-06 -7.082894E-05 -1.518950E-04 +1.336443E-05 +6.231735E-06 +1.336443E-05 +1.849247E-04 
 -3.019186E-06 -3.278883E-06 -6.677599E-07 -3.278883E-06 -3.115244E-06 +9.556312E-07 -6.677599E-07 +9.556312E-07 +6.134430E-06 
 -4.597705E-05 +2.570848E-05 -2.194823E-05 +2.570848E-05 -1.180065E-05 -9.995986E-07 -2.194823E-05 -9.995986E-07 +5.777770E-05 
 -1.272966E-06 +2.539384E-06 -6.754683E-07 +2.539384E-06 -5.038684E-06 +9.129264E-07 -6.754683E-07 +9.129264E-07 +6.311650E-06 
 -3.506577E-09 +2.694810E-09 -1.594249E-08 +2.694810E-09 -6.748101E-08 +2.167768E-08 -1.594249E-08 +2.167768E-08 +7.098759E-08 
 -6.174377E-06 -6.336577E-07 -2.535847E-06 -6.336577E-07 +1.566221E-07 -1.522241E-06 -2.535847E-06 -1.522241E-06 +6.017755E-06 
 -2.186388E-06 -1.112810E-06 +1.080469E-07 -1.112810E-06 -5.217389E-07 -2.984785E-07 +1.080469E-07 -2.984785E-07 +2.708127E-06 
 -5.089736E-08 -1.234462E-08 +3.145906E-09 -1.234462E-08 -4.569524E-08 +2.869184E-08 +3.145906E-09 +2.869184E-08 +9.659260E-08 
 -4.388225E-07 -5.919421E-08 +2.544944E-07 -5.919421E-08 -1.530985E-08 +7.330182E-09 +2.544944E-07 +7.330182E-09 +4.541323E-07 
 -8.617666E-06 +5.219810E-07 -1.120313E-06 +5.219810E-07 +4.514290E-07 -1.936666E-06 -1.120313E-06 -1.936666E-06 +8.166237E-06 
 -1.240718E-05 -1.693114E-06 -8.598226E-08 -1.693114E-06 -2.117103E-07 +4.869792E-07 -8.598226E-08 +4.869792E-07 +1.261890E-05 
 -1.909351E-08 -3.076778E-08 +3.313319E-08 -3.076778E-08 -1.867574E-07 -8.777429E-09 +3.313319E-08 -8.777429E-09 +2.058509E-07 
 -6.962197E-08 -2.148223E-08 +8.604909E-09 -2.148223E-08 +5.251197E-09 +2.956087E-08 +8.604909E-09 +2.956087E-08 +6.437077E-08 
 -2.527667E-08 -7.822865E-09 -1.486428E-09 -7.822865E-09 -5.034707E-08 -5.046684E-09 -1.486428E-09 -5.046684E-09 +7.562374E-08 
 -6.335119E-08 +2.742291E-08 +3.535630E-08 +2.742291E-08 -2.667640E-08 -4.860516E-09 +3.535630E-08 -4.860516E-09 +9.002758E-08 
 -9.446543E-07 -2.360155E-06 -8.128477E-07 -2.360155E-06 -4.793233E-06 +6.480092E-07 -8.128477E-07 +6.480092E-07 +5.737887E-06 
 -5.075990E-06 -1.697412E-09 -9.307134E-07 -1.697412E-09 +3.751315E-08 +4.475978E-07 -9.307134E-07 +4.475978E-07 +5.038477E-06 
 -2.730487E-06 -1.870827E-07 -1.656490E-06 -1.870827E-07 +1.361950E-07 -8.764203E-07 -1.656490E-06 -8.764203E-07 +2.594292E-06 
 +3.937597E-08 -5.762322E-08 -2.477957E-07 -5.762322E-08 -7.277388E-07 -4.423257E-07 -2.477957E-07 -4.423257E-07 +6.883628E-07 
 -5.653017E-05 +9.967765E-06 -1.164978E-05 +9.967765E-06 -1.757726E-06 +2.054206E-06 -1.164978E-05 +2.054206E-06 +5.828789E-05 
 +1.859649E-07 +4.630755E-08 +1.124015E-06 +4.630755E-08 -5.672245E-06 -2.220479E-06 +1.124015E-06 -2.220479E-06 +5.486280E-06 
 -1.601070E-06 +1.475897E-06 +4.898064E-07 +1.475897E-06 -1.183887E-06 -1.182151E-06 +4.898064E-07 -1.182151E-06 +2.784957E-06 
 -5.036495E-07 +5.717149E-06 +9.946186E-07 +5.717149E-06 -6.535101E-05 -1.135096E-05 +9.946186E-07 -1.135096E-05 +6.585466E-05 
 -8.105912E-05 +1.701692E-05 -2.570950E-05 +1.701692E-05 -6.025287E-07 +2.177924E-05 -2.570950E-05 +2.177924E-05 +8.166165E-05 
 -2.193578E-07 +3.557547E-07 -3.634404E-07 +3.557547E-07 -3.248418E-07 +5.027501E-08 -3.634404E-07 +5.027501E-08 +5.441996E-07 
 -4.947182E-07 -2.417964E-06 -8.495240E-07 -2.417964E-06 -7.485042E-06 +2.260435E-06 -8.495240E-07 +2.260435E-06 +7.979760E-06 
 -6.110923E-08 +4.876340E-08 -6.692077E-09 +4.876340E-08 -2.568185E-08 +3.706642E-08 -6.692077E-09 +3.706642E-08 +8.679108E-08 
 -6.487559E-07 +1.394773E-07 -3.327952E-07 +1.394773E-07 -1.432168E-07 -1.215799E-07 -3.327952E-07 -1.215799E-07 +7.919727E-07 
 -6.636497E-06 +5.568672E-06 -8.301203E-07 +5.568672E-06 -4.672689E-06 +6.965355E-07 -8.301203E-07 +6.965355E-07 +1.130919E-05 
 -1.023762E-05 +1.520160E-06 -3.537455E-07 +1.520160E-06 +8.000954E-07 +3.169425E-06 -3.537455E-07 +3.169425E-06 +9.437528E-06 
 -2.179137E-07 +9.857631E-08 +3.372973E-08 +9.857631E-08 -6.418188E-09 -1.192927E-07 +3.372973E-08 -1.192927E-07 +2.243319E-07 
 -1.436542E-08 -2.516407E-08 +2.019605E-08 -2.516407E-08 -1.239904E-07 +6.745925E-08 +2.019605E-08 +6.745925E-08 +1.383558E-07 
 -5.872607E-08 +5.625130E-08 -5.727707E-08 +5.625130E-08 -4.593981E-08 +9.205197E-09 -5.727707E-08 +9.205197E-09 +1.046659E-07 
 -8.119540E-06 +2.293137E-05 -2.460231E-06 +2.293137E-05 -6.026072E-05 -1.072676E-05 -2.460231E-06 -1.072676E-05 +6.838026E-05 
 -1.484710E-07 -4.932021E-08 -1.162514E-08 -4.932021E-08 -6.177427E-08 -4.917013E-09 -1.162514E-08 -4.917013E-09 +2.102453E-07 
 -1.101200E-07 -7.340691E-09 -2.637577E-08 -7.340691E-09 -7.162732E-08 +4.815715E-08 -2.637577E-08 +4.815715E-08 +1.817474E-07 
 -2.116525E-05 -2.081232E-05 -3.223671E-06 -2.081232E-05 -2.002974E-05 -7.456767E-06 -3.223671E-06 -7.456767E-06 +4.119498E-05 
 -2.877325E-06 +9.380589E-07 +1.167147E-06 +9.380589E-07 -2.506458E-07 +1.000444E-07 +1.167147E-06 +1.000444E-07 +3.127971E-06 
 -1.296879E-05 +1.892593E-06 +2.286678E-06 +1.892593E-06 -7.281291E-10 -2.255257E-06 +2.286678E-06 -2.255257E-06 +1.296952E-05 
 -6.064876E-08 +4.549743E-07 +2.743702E-07 +4.549743E-07 -1.580043E-06 +8.937745E-07 +2.743702E-07 +8.937745E-07 +1.640692E-06 
 -8.731288E-06 +3.523610E-06 -1.846760E-06 +3.523610E-06 -1.066608E-06 -1.164572E-06 -1.846760E-06 -1.164572E-06 +9.797896E-06 
 -4.872062E-08 -1.339293E-09 +5.703254E-09 -1.339293E-09 -2.096777E-08 +4.939515E-09 +5.703254E-09 +4.939515E-09 +6.968839E-08 
 -4.903970E-06 -4.298145E-06 +2.696984E-06 -4.298145E-06 -2.831875E-06 -6.273133E-07 +2.696984E-06 -6.273133E-07 +7.735845E-06 
 -1.159978E-04 -8.122157E-05 -9.466942E-06 -8.122157E-05 -5.687329E-05 -6.629096E-06 -9.466942E-06 -6.629096E-06 +1.728711E-04 
 -3.636103E-06 -2.379030E-06 +1.334396E-06 -2.379030E-06 -4.175127E-07 -1.405300E-06 +1.334396E-06 -1.405300E-06 +4.053616E-06 
 -5.595269E-07 -3.095282E-08 -3.373547E-08 -3.095282E-08 +7.267715E-08 -2.046936E-07 -3.373547E-08 -2.046936E-07 +4.868497E-07 
 -3.901722E-05 -3.779518E-05 +2.279275E-06 -3.779518E-05 -2.084559E-05 +3.298669E-05 +2.279275E-06 +3.298669E-05 +5.986281E-05 
 -5.055154E-06 -2.894231E-06 +1.822268E-06 -2.894231E-06 -1.072612E-06 -9.576839E-07 +1.822268E-06 -9.576839E-07 +6.127766E-06 
 -1.598717E-07 +2.070529E-08 +5.449575E-08 +2.070529E-08 -9.476110E-08 -7.496200E-09 +5.449575E-08 -7.496200E-09 +2.546328E-07 
 +3.197278E-08 +2.060892E-07 +2.935872E-07 +2.060892E-07 -1.747256E-06 +9.526340E-07 +2.935872E-07 +9.526340E-07 +1.715283E-06 
 -3.402958E-08 +6.847567E-09 -2.381285E-09 +6.847567E-09 -1.560786E-08 +3.481442E-09 -2.381285E-09 +3.481442E-09 +4.963744E-08 
 -2.204321E-09 -1.999579E-08 -2.132860E-08 -1.999579E-08 -4.993898E-08 -4.205036E-09 -2.132860E-08 -4.205036E-09 +5.214330E-08 
 -2.759416E-05 +5.552000E-06 -1.324007E-05 +5.552000E-06 +8.134755E-07 -5.345969E-06 -1.324007E-05 -5.345969E-06 +2.678068E-05 
 -1.428990E-07 -8.886628E-07 -8.933654E-07 -8.886628E-07 -2.252171E-06 -4.371045E-07 -8.933654E-07 -4.371045E-07 +2.395071E-06 
 -2.917644E-08 -2.168602E-08 +8.834658E-09 -2.168602E-08 -9.366323E-08 -3.834737E-08 +8.834658E-09 -3.834737E-08 +1.228397E-07 
 -1.618310E-06 +3.281981E-06 +1.225672E-06 +3.281981E-06 -6.853617E-06 -2.799584E-06 +1.225672E-06 -2.799584E-06 +8.471928E-06 
 -5.844707E-06 +5.211999E-07 +1.033708E-06 +5.211999E-07 -5.072161E-08 -8.294670E-08 +1.033708E-06 -8.294670E-08 +5.895429E-06 
 -2.785265E-10 -1.253271E-09 -9.640490E-10 -1.253271E-09 +1.181127E-09 +2.575955E-09 -9.640490E-10 +2.575955E-09 -9.026002E-10 
 -4.284511E-08 -1.030851E-08 +5.057585E-09 -1.030851E-08 -3.090789E-08 +5.447847E-10 +5.057585E-09 +5.447847E-10 +7.375301E-08 
 -8.434689E-07 -2.262268E-06 -1.290958E-06 -2.262268E-06 -5.143438E-06 -7.469160E-07 -1.290958E-06 -7.469160E-07 +5.986907E-06 
 -1.530451E-08 -1.541458E-08 +8.703377E-08 -1.541458E-08 -4.870628E-07 -1.450758E-07 +8.703377E-08 -1.450758E-07 +5.023673E-07 
 -1.226606E-06 -8.740846E-07 +8.318463E-07 -8.740846E-07 -6.625927E-07 +6.493516E-07 +8.318463E-07 +6.493516E-07 +1.889199E-06 
 -1.005432E-07 -3.817646E-08 +2.720228E-08 -3.817646E-08 -6.702928E-08 +2.216513E-08 +2.720228E-08 +2.216513E-08 +1.675725E-07 
 -6.419572E-06 +1.234960E-06 -3.772747E-07 +1.234960E-06 -5.295812E-08 -1.030969E-06 -3.772747E-07 -1.030969E-06 +6.472530E-06 
 -2.794137E-06 -1.012085E-05 -4.744404E-06 -1.012085E-05 -2.669156E-05 +2.162135E-06 -4.744404E-06 +2.162135E-06 +2.948569E-05 
 -3.365263E-08 -6.866437E-09 +5.844278E-09 -6.866437E-09 -4.222748E-08 +1.450489E-08 +5.844278E-09 +1.450489E-08 +7.588011E-08 
 -3.871281E-08 -9.784990E-07 +5.177687E-07 -9.784990E-07 -6.794898E-06 -2.711795E-06 +5.177687E-07 -2.711795E-06 +6.833611E-06 
 -2.492904E-08 +5.944965E-08 -2.296947E-08 +5.944965E-08 -1.592879E-07 +1.021932E-07 -2.296947E-08 +1.021932E-07 +1.842169E-07 
 -1.717597E-07 -9.682318E-08 -1.886830E-08 -9.682318E-08 -2.594910E-07 -2.282876E-08 -1.886830E-08 -2.282876E-08 +4.312507E-07 
 -1.179970E-06 +6.423971E-07 +6.536293E-07 +6.423971E-07 -1.375781E-07 +2.858665E-07 +6.536293E-07 +2.858665E-07 +1.317548E-06 
 -9.093525E-08 +5.847379E-09 +9.977830E-09 +5.847379E-09 -7.672057E-08 +6.043980E-09 +9.977830E-09 +6.043980E-09 +1.676558E-07 
 -1.281556E-07 +4.173940E-10 -7.176828E-08 +4.173940E-10 -3.732134E-09 -1.158046E-08 -7.176828E-08 -1.158046E-08 +1.318878E-07 
 -1.062904E-07 -2.062143E-08 -6.307980E-08 -2.062143E-08 -2.635869E-08 +1.245376E-08 -6.307980E-08 +1.245376E-08 +1.326491E-07 
 -6.091137E-07 -7.364412E-09 -2.218941E-07 -7.364412E-09 +4.044253E-08 +1.696854E-07 -2.218941E-07 +1.696854E-07 +5.686712E-07 
 -9.710069E-07 +3.362493E-06 -1.509671E-06 +3.362493E-06 -7.026412E-06 -1.695958E-06 -1.509671E-06 -1.695958E-06 +7.997419E-06 
 -7.811587E-08 +2.726404E-08 -1.311335E-08 +2.726404E-08 -1.130171E-07 +1.085735E-08 -1.311335E-08 +1.085735E-08 +1.911330E-07 
 +1.578445E-07 +6.203999E-07 -1.102761E-06 +6.203999E-07 -6.631277E-06 -1.048450E-06 -1.102761E-06 -1.048450E-06 +6.473433E-06 
 +2.019497E-07 +7.347537E-07 +7.456718E-07 +7.347537E-07 -2.148494E-06 +7.671903E-07 +7.456718E-07 +7.671903E-07 +1.946544E-06 
 -1.704512E-07 -1.261292E-07 +7.365225E-08 -1.261292E-07 -1.043034E-07 +1.238090E-07 +7.365225E-08 +1.238090E-07 +2.747546E-07 
 -7.227943E-08 +5.134694E-08 +9.878803E-09 +5.134694E-08 -3.681083E-07 +2.516202E-07 +9.878803E-09 +2.516202E-07 +4.403877E-07 
 -2.418950E-05 -9.641527E-05 +1.839324E-05 -9.641527E-05 -3.413022E-04 -5.484933E-05 +1.839324E-05 -5.484933E-05 +3.654917E-04 
 -1.632070E-06 +3.857336E-07 +1.114289E-06 +3.857336E-07 -2.599156E-08 +1.757979E-07 +1.114289E-06 +1.757979E-07 +1.658061E-06 
 -2.241593E-06 +3.165619E-07 +8.111342E-07 +3.165619E-07 -3.903831E-08 -2.436780E-07 +8.111342E-07 -2.436780E-07 +2.280631E-06 
 -4.185944E-05 -7.250176E-05 -4.198887E-06 -7.250176E-05 -1.255772E-04 -7.272368E-06 -4.198887E-06 -7.272368E-06 +1.674367E-04 
 -1.645241E-07 +2.051521E-07 +4.064209E-08 +2.051521E-07 -5.730037E-07 -3.493087E-07 +4.064209E-08 -3.493087E-07 +7.375278E-07 
 -1.836469E-05 +1.342879E-05 -5.293635E-06 +1.342879E-05 -9.610304E-06 +1.363465E-06 -5.293635E-06 +1.363465E-06 +2.797499E-05 
 -1.418473E-07 -6.978785E-08 -5.865517E-08 -6.978785E-08 -3.699591E-08 -2.441128E-08 -5.865517E-08 -2.441128E-08 +1.788432E-07 
 -1.532096E-06 +3.440247E-07 -2.596411E-07 +3.440247E-07 +1.058365E-07 +5.803357E-07 -2.596411E-07 +5.803357E-07 +1.426259E-06 
 -1.341252E-06 +7.054887E-07 -8.568416E-07 +7.054887E-07 -1.400335E-07 -2.677296E-07 -8.568416E-07 -2.677296E-07 +1.481285E-06 
 -2.536656E-08 -1.037139E-08 -1.019226E-10 -1.037139E-08 -4.728589E-08 +6.412712E-09 -1.019226E-10 +6.412712E-09 +7.265245E-08 
 -1.461021E-08 +7.937380E-10 -7.003508E-09 +7.937380E-10 -2.284598E-08 -7.696964E-09 -7.003508E-09 -7.696964E-09 +3.745619E-08 
 -5.318400E-07 -6.497449E-08 +2.410000E-08 -6.497449E-08 -1.324975E-08 +1.261691E-07 +2.410000E-08 +1.261691E-07 +5.450897E-07 
 -2.829316E-04 +7.580889E-05 +5.711977E-05 +7.580889E-05 -2.032448E-05 -1.530910E-05 +5.711977E-05 -1.530910E-05 +3.032561E-04 
 -3.374503E-05 -6.139291E-06 +1.227345E-05 -6.139291E-06 -1.119946E-08 +8.765421E-06 +1.227345E-05 +8.765421E-06 +3.375623E-05 
 -5.605371E-08 +7.287071E-09 +2.691628E-08 +7.287071E-09 -1.590410E-08 +2.351258E-08 +2.691628E-08 +2.351258E-08 +7.195781E-08 
 -2.185430E-07 -6.726774E-07 +2.516883E-07 -6.726774E-07 -1.010839E-06 -5.063470E-07 +2.516883E-07 -5.063470E-07 +1.229382E-06 
 -5.637376E-06 +1.874114E-06 -1.974635E-06 +1.874114E-06 -4.901441E-07 +1.625385E-06 -1.974635E-06 +1.625385E-06 +6.127520E-06 
 -6.877706E-06 -2.324648E-06 -4.079860E-06 -2.324648E-06 -9.957881E-08 +1.172048E-06 -4.079860E-06 +1.172048E-06 +6.977285E-06 
 -6.085158E-08 +3.774861E-07 -3.829737E-07 +3.774861E-07 -1.676716E-06 +5.945410E-07 -3.829737E-07 +5.945410E-07 +1.737567E-06 
 -1.863690E-08 -1.815414E-08 +1.174803E-10 -1.815414E-08 -9.955167E-08 +5.410454E-08 +1.174803E-10 +5.410454E-08 +1.181886E-07 
 -1.438963E-06 -1.580370E-06 +8.830181E-07 -1.580370E-06 -1.729831E-06 +7.613230E-07 +8.830181E-07 +7.613230E-07 +3.168795E-06 
 -1.891761E-07 +6.041019E-08 -1.060534E-08 +6.041019E-08 -1.157272E-07 +2.523307E-08 -1.060534E-08 +2.523307E-08 +3.049032E-07 
 -2.588864E-04 -2.172237E-04 +3.280078E-06 -2.172237E-04 -1.822826E-04 +2.758369E-06 +3.280078E-06 +2.758369E-06 +4.411690E-04 
 -2.369138E-06 +4.271252E-07 +1.066735E-07 +4.271252E-07 -5.855381E-08 +1.965068E-07 +1.066735E-07 +1.965068E-07 +2.427692E-06 
 -3.830826E-08 -1.711331E-08 +1.075161E-08 -1.711331E-08 -7.946988E-08 +2.278856E-08 +1.075161E-08 +2.278856E-08 +1.177781E-07 
 -3.816006E-05 -4.001098E-05 +7.463420E-06 -4.001098E-05 -3.720128E-05 -1.131714E-05 +7.463420E-06 -1.131714E-05 +7.536134E-05 
 -1.629583E-05 +9.408181E-06 +7.262538E-06 +9.408181E-06 -5.432145E-06 -4.192893E-06 +7.262538E-06 -4.192893E-06 +2.172798E-05 
 -4.380618E-06 -4.864434E-06 +6.303900E-09 -4.864434E-06 -4.972008E-06 -2.014634E-06 +6.303900E-09 -2.014634E-06 +9.352626E-06 
 -3.171997E-06 +3.436508E-06 -2.622681E-07 +3.436508E-06 -3.691959E-06 -2.185457E-07 -2.622681E-07 -2.185457E-07 +6.863957E-06 
 -6.724681E-08 +1.389610E-08 +3.872406E-09 +1.389610E-08 -6.338438E-08 -1.238546E-08 +3.872406E-09 -1.238546E-08 +1.306312E-07 
 -7.178682E-07 -1.710448E-06 +1.331091E-06 -1.710448E-06 -3.280753E-06 +8.971626E-07 +1.331091E-06 +8.971626E-07 +3.998621E-06 
 -5.721887E-08 -1.118977E-08 -1.247840E-08 -1.118977E-08 -5.985001E-08 -2.202638E-08 -1.247840E-08 -2.202638E-08 +1.170689E-07 
 -7.167512E-06 -9.723312E-07 +1.100664E-06 -9.723312E-07 +2.198895E-07 -1.440741E-06 +1.100664E-06 -1.440741E-06 +6.947623E-06 
 -7.954069E-07 +1.757102E-06 +1.014497E-06 +1.757102E-06 -2.238920E-06 +4.445073E-07 +1.014497E-06 +4.445073E-07 +3.034327E-06 
 -3.370436E-04 -5.942978E-05 -3.197766E-05 -5.942978E-05 -1.048039E-05 -5.638633E-06 -3.197766E-05 -5.638633E-06 +3.475240E-04 
 -8.260807E-06 +1.699807E-05 -9.551031E-07 +1.699807E-05 -3.410961E-05 +8.074333E-06 -9.551031E-07 +8.074333E-06 +4.237042E-05 
 -5.534735E-06 +4.659766E-06 -5.427764E-08 +4.659766E-06 -2.898443E-06 -2.899244E-06 -5.427764E-08 -2.899244E-06 +8.433179E-06 
 -1.843877E-06 -4.561002E-06 +1.362888E-06 -4.561002E-06 -8.592672E-06 -2.260804E-06 +1.362888E-06 -2.260804E-06 +1.043655E-05 
 +4.261023E-08 -1.860691E-07 -3.188344E-07 -1.860691E-07 -1.123210E-06 +1.755603E-07 -3.188344E-07 +1.755603E-07 +1.080600E-06 
 +6.034199E-08 -1.875914E-07 -6.062996E-07 -1.875914E-07 -4.321156E-06 -8.048068E-07 -6.062996E-07 -8.048068E-07 +4.260814E-06 
 -1.404486E-04 +1.178498E-04 -4.805403E-06 +1.178498E-04 -9.888795E-05 +4.031911E-06 -4.805403E-06 +4.031911E-06 +2.393366E-04 
 -1.996580E-07 -4.979042E-07 -6.821893E-09 -4.979042E-07 -1.171617E-06 +5.067390E-07 -6.821893E-09 +5.067390E-07 +1.371275E-06 
 -1.453902E-08 +4.595386E-09 -9.613936E-09 +4.595386E-09 -1.186432E-08 +3.309012E-09 -9.613936E-09 +3.309012E-09 +2.640334E-08 
 -1.260996E-08 +4.523686E-09 +3.492117E-09 +4.523686E-09 -2.203118E-08 -6.312383E-09 +3.492117E-09 -6.312383E-09 +3.464114E-08 
 -1.013114E-05 +2.291971E-05 +1.543650E-05 +2.291971E-05 -4.263033E-05 -8.174800E-06 +1.543650E-05 -8.174800E-06 +5.276147E-05 
 -1.948759E-05 +1.441897E-05 -5.525935E-06 +1.441897E-05 -1.048186E-05 +1.634178E-06 -5.525935E-06 +1.634178E-06 +2.996946E-05 
 -2.616114E-07 +3.437450E-07 -2.394367E-07 +3.437450E-07 -4.030596E-07 +8.423999E-08 -2.394367E-07 +8.423999E-08 +6.646711E-07 
 -7.665673E-06 +1.527301E-06 -2.787420E-06 +1.527301E-06 -4.023314E-09 +2.179903E-06 -2.787420E-06 +2.179903E-06 +7.669697E-06 
 -1.473282E-06 -5.011952E-07 -2.232000E-07 -5.011952E-07 +1.368029E-07 +5.744622E-07 -2.232000E-07 +5.744622E-07 +1.336479E-06 
 +8.253911E-08 +5.722380E-06 +6.117399E-06 +5.722380E-06 -3.337542E-05 -9.050278E-07 +6.117399E-06 -9.050278E-07 +3.329288E-05 
 -2.152602E-08 -1.684236E-06 +1.601968E-06 -1.684236E-06 -9.255894E-06 -3.031858E-07 +1.601968E-06 -3.031858E-07 +9.277420E-06 
 -2.418552E-06 -3.572102E-07 +3.964290E-07 -3.572102E-07 +2.354634E-07 -7.520090E-07 +3.964290E-07 -7.520090E-07 +2.183088E-06 
 -9.858287E-08 +4.052925E-09 +5.269159E-09 +4.052925E-09 -1.778267E-07 -2.125276E-08 +5.269159E-09 -2.125276E-08 +2.764096E-07 
 +1.634336E-08 +8.524085E-08 -3.092775E-07 +8.524085E-08 -4.311350E-06 +7.321289E-07 -3.092775E-07 +7.321289E-07 +4.295007E-06 
 -6.503213E-07 +8.771152E-07 +7.673590E-07 +8.771152E-07 -6.017483E-07 +1.066859E-07 +7.673590E-07 +1.066859E-07 +1.252070E-06 
 -3.491332E-08 -8.582506E-09 -1.101564E-08 -8.582506E-09 -1.127891E-08 -1.075573E-08 -1.101564E-08 -1.075573E-08 +4.619223E-08 
 -6.564826E-08 -2.417764E-07 +1.744551E-07 -2.417764E-07 -9.180143E-07 +3.099411E-07 +1.744551E-07 +3.099411E-07 +9.836625E-07 
 -2.064440E-07 +1.190135E-07 -1.031258E-07 +1.190135E-07 -3.283951E-07 +1.124973E-07 -1.031258E-07 +1.124973E-07 +5.348392E-07 
 -1.243014E-06 +2.700048E-07 -1.662190E-07 +2.700048E-07 +9.048458E-08 +4.629712E-07 -1.662190E-07 +4.629712E-07 +1.152529E-06 
 -1.256758E-07 +2.874946E-08 -1.262445E-08 +2.874946E-08 -8.866720E-08 +1.037727E-08 -1.262445E-08 +1.037727E-08 +2.143430E-07 
 -1.884809E-07 +1.272667E-06 +1.330904E-06 +1.272667E-06 -5.231185E-06 -1.858725E-06 +1.330904E-06 -1.858725E-06 +5.419666E-06 
 -1.264049E-04 -3.386983E-05 +1.895618E-05 -3.386983E-05 -9.076542E-06 +5.079557E-06 +1.895618E-05 +5.079557E-06 +1.354814E-04 
 -3.701307E-05 -2.137560E-11 +5.419369E-06 -2.137560E-11 -5.594414E-10 +6.680669E-11 +5.419369E-06 +6.680669E-11 +3.701363E-05 
 -4.348370E-05 +2.983353E-05 +1.533565E-05 +2.983353E-05 -1.447464E-05 +9.033072E-06 +1.533565E-05 +9.033072E-06 +5.795834E-05 
 +2.465814E-08 +7.565028E-08 -1.270623E-07 +7.565028E-08 -2.509069E-07 +6.018834E-08 -1.270623E-07 +6.018834E-08 +2.262488E-07 
 -1.119058E-07 -3.707716E-08 -2.625003E-08 -3.707716E-08 -7.064453E-08 -4.258697E-08 -2.625003E-08 -4.258697E-08 +1.825503E-07 
 -8.228579E-09 -4.139749E-09 +4.373963E-09 -4.139749E-09 -1.141361E-08 -1.019572E-09 +4.373963E-09 -1.019572E-09 +1.964219E-08 
 -2.250812E-08 +1.718036E-08 +7.356030E-09 +1.718036E-08 -2.769074E-08 -7.860307E-09 +7.356030E-09 -7.860307E-09 +5.019885E-08 
 -6.302227E-06 +2.620633E-06 +1.751194E-06 +2.620633E-06 -8.293464E-07 +6.969966E-07 +1.751194E-06 +6.969966E-07 +7.131574E-06 
 -4.819545E-08 +5.918431E-09 -1.314199E-08 +5.918431E-09 -1.812792E-08 +3.721694E-09 -1.314199E-08 +3.721694E-09 +6.632337E-08 
 -6.361480E-09 +1.421301E-09 +2.792312E-09 +1.421301E-09 -1.355428E-08 -6.142613E-09 +2.792312E-09 -6.142613E-09 +1.991576E-08 
 -3.848699E-08 +2.247665E-07 +9.008622E-08 +2.247665E-07 -5.583908E-07 +2.741749E-07 +9.008622E-08 +2.741749E-07 +5.968777E-07 
 -7.228955E-06 +4.337975E-07 +1.273832E-06 +4.337975E-07 -1.968995E-09 +3.644125E-07 +1.273832E-06 +3.644125E-07 +7.230924E-06 
 -5.959234E-05 -2.449082E-05 -1.629021E-05 -2.449082E-05 -8.422594E-06 +4.232416E-06 -1.629021E-05 +4.232416E-06 +6.801493E-05 
 -3.983051E-06 +4.410632E-07 -1.282905E-06 +4.410632E-07 +7.675552E-07 +1.865719E-06 -1.282905E-06 +1.865719E-06 +3.215496E-06 
 -2.892513E-06 +1.638820E-05 -6.856050E-06 +1.638820E-05 -9.294379E-05 +3.887549E-05 -6.856050E-06 +3.887549E-05 +9.583630E-05 
 -6.151632E-05 -6.453243E-06 +2.318756E-05 -6.453243E-06 +1.580414E-06 +1.493673E-05 +2.318756E-05 +1.493673E-05 +5.993590E-05 
 -2.000094E-04 +3.996749E-05 -5.290826E-05 +3.996749E-05 -6.258595E-06 -8.987294E-06 -5.290826E-05 -8.987294E-06 +2.062680E-04 
 -5.028132E-08 +7.838046E-07 -1.347643E-06 +7.838046E-07 -3.076772E-06 +1.726484E-06 -1.347643E-06 +1.726484E-06 +3.127054E-06 
 -7.467373E-08 -1.415298E-08 +9.909045E-09 -1.415298E-08 +6.462501E-10 +2.776233E-08 +9.909045E-09 +2.776233E-08 +7.402748E-08 
 -1.771404E-07 +6.713691E-08 +1.283992E-08 +6.713691E-08 -1.132217E-07 -1.572748E-08 +1.283992E-08 -1.572748E-08 +2.903621E-07 
 -8.253114E-07 -5.662548E-07 -3.084342E-07 -5.662548E-07 -2.893817E-07 +1.599579E-07 -3.084342E-07 +1.599579E-07 +1.114693E-06 
 -4.580328E-08 -1.073021E-08 +1.208620E-08 -1.073021E-08 -2.155696E-08 +7.608976E-09 +1.208620E-08 +7.608976E-09 +6.736024E-08 
 -3.788642E-08 +1.178079E-08 -3.443324E-09 +1.178079E-08 -6.755914E-08 -8.691812E-09 -3.443324E-09 -8.691812E-09 +1.054456E-07 
 -9.181825E-07 -1.234285E-06 +1.265820E-06 -1.234285E-06 -1.291057E-06 +1.342334E-07 +1.265820E-06 +1.342334E-07 +2.209239E-06 
 -1.223990E-04 +1.027034E-04 +4.687415E-05 +1.027034E-04 -8.618043E-05 -3.933283E-05 +4.687415E-05 -3.933283E-05 +2.085795E-04 
 -1.167457E-07 -3.885147E-08 -6.596561E-08 -3.885147E-08 -4.007470E-08 +1.415735E-08 -6.596561E-08 +1.415735E-08 +1.568204E-07 
 -3.466120E-08 -1.686460E-07 -1.408866E-07 -1.686460E-07 -1.498596E-06 -8.488028E-07 -1.408866E-07 -8.488028E-07 +1.533257E-06 
 -4.980635E-08 +2.997944E-09 -3.994588E-09 +2.997944E-09 -3.505790E-08 +2.838193E-09 -3.994588E-09 +2.838193E-09 +8.486425E-08 
 -2.284269E-07 +7.133323E-07 +2.205237E-08 +7.133323E-07 -2.250304E-06 -4.421337E-07 +2.205237E-08 -4.421337E-07 +2.478731E-06 
 -1.142656E-06 -8.117959E-07 -3.385758E-07 -8.117959E-07 -3.476983E-07 +4.049961E-07 -3.385758E-07 +4.049961E-07 +1.490355E-06 
 -3.810122E-05 -5.441123E-05 +4.494257E-07 -5.441123E-05 -7.770929E-05 +6.425833E-07 +4.494257E-07 +6.425833E-07 +1.158105E-04 
 -4.403546E-06 -8.645320E-06 -5.829288E-06 -8.645320E-06 -1.611410E-05 -6.507866E-06 -5.829288E-06 -6.507866E-06 +2.051765E-05 
 -4.013066E-08 +2.342488E-07 +1.682372E-07 +2.342488E-07 -6.120432E-07 +4.444286E-08 +1.682372E-07 +4.444286E-08 +6.521739E-07 
 -3.161075E-08 -1.161646E-09 -3.353707E-09 -1.161646E-09 -9.881616E-09 +1.550005E-08 -3.353707E-09 +1.550005E-08 +4.149237E-08 
 -9.858062E-06 -5.258962E-06 -2.157128E-07 -5.258962E-06 -2.790751E-06 +3.707660E-07 -2.157128E-07 +3.707660E-07 +1.264881E-05 
 -1.261828E-08 -2.608842E-09 -4.333728E-10 -2.608842E-09 -2.479701E-08 -4.524001E-09 -4.333728E-10 -4.524001E-09 +3.741529E-08 
 -7.792941E-05 +7.792825E-05 -3.124108E-05 +7.792825E-05 -7.792957E-05 +3.124153E-05 -3.124108E-05 +3.124153E-05 +1.558590E-04 
 -4.721327E-05 -3.523931E-05 -2.278413E-05 -3.523931E-05 -2.653452E-05 -1.397934E-05 -2.278413E-05 -1.397934E-05 +7.374780E-05 
 -2.608143E-08 +1.142274E-08 +6.658447E-09 +1.142274E-08 -4.101221E-08 -1.236306E-08 +6.658447E-09 -1.236306E-08 +6.709364E-08 
 -1.663042E-07 +9.400100E-07 -1.491690E-07 +9.400100E-07 -5.331612E-06 +8.461327E-07 -1.491690E-07 +8.461327E-07 +5.497916E-06 
 -3.553819E-05 +1.505132E-06 -6.406879E-06 +1.505132E-06 +6.034946E-09 -1.357764E-06 -6.406879E-06 -1.357764E-06 +3.553216E-05 
 -1.017926E-07 -9.342218E-09 +1.231690E-08 -9.342218E-09 -7.475322E-08 +6.643968E-09 +1.231690E-08 +6.643968E-09 +1.765458E-07 
 +3.074886E-08 +1.116749E-07 +2.695636E-07 +1.116749E-07 -7.291476E-07 -3.001773E-07 +2.695636E-07 -3.001773E-07 +6.983987E-07 
 -1.497792E-06 +2.200316E-07 -5.527424E-07 +2.200316E-07 -4.460000E-08 -2.057681E-08 -5.527424E-07 -2.057681E-08 +1.542392E-06 
 -1.367141E-08 +3.222411E-08 -6.366324E-10 +3.222411E-08 -6.891844E-08 +5.582732E-08 -6.366324E-10 +5.582732E-08 +8.258985E-08 
 -4.400652E-08 +9.473522E-10 +1.287058E-08 +9.473522E-10 -1.781387E-08 +1.742012E-09 +1.287058E-08 +1.742012E-09 +6.182039E-08 
 -6.757671E-08 -4.684046E-08 -2.645220E-08 -4.684046E-08 -2.078596E-08 +2.075289E-08 -2.645220E-08 +2.075289E-08 +8.836267E-08 
 -9.586499E-08 -1.070321E-08 -1.728831E-08 -1.070321E-08 -1.136542E-07 -1.317394E-08 -1.728831E-08 -1.317394E-08 +2.095192E-07 
 -2.341370E-05 -2.907299E-05 -2.276598E-05 -2.907299E-05 -3.136846E-05 -9.120103E-06 -2.276598E-05 -9.120103E-06 +5.478215E-05 
 -1.035527E-06 +4.048152E-06 +1.790365E-06 +4.048152E-06 -1.264833E-05 +3.151793E-07 +1.790365E-06 +3.151793E-07 +1.368386E-05 
 -2.162647E-06 +2.439836E-06 +5.299801E-07 +2.439836E-06 -2.561839E-06 +3.703881E-07 +5.299801E-07 +3.703881E-07 +4.724486E-06 
 -5.010951E-05 -4.977616E-05 +2.082684E-05 -4.977616E-05 -4.516557E-05 -4.731026E-07 +2.082684E-05 -4.731026E-07 +9.527509E-05 
 -1.549778E-06 -1.944726E-06 -5.173029E-07 -1.944726E-06 -2.448023E-06 -4.816825E-07 -5.173029E-07 -4.816825E-07 +3.997801E-06 
 -1.242186E-09 +4.223174E-09 +2.261786E-08 +4.223174E-09 -8.395662E-08 -4.786479E-08 +2.261786E-08 -4.786479E-08 +8.519881E-08 
 -1.761524E-07 -9.456994E-07 -7.328082E-07 -9.456994E-07 -2.345340E-06 -2.882740E-08 -7.328082E-07 -2.882740E-08 +2.521492E-06 
 -8.909765E-09 -1.339901E-09 +3.203299E-09 -1.339901E-09 -2.812439E-08 +1.241350E-08 +3.203299E-09 +1.241350E-08 +3.703415E-08 
 -8.721403E-07 -3.586804E-07 +3.438514E-07 -3.586804E-07 -4.025035E-08 -2.343608E-07 +3.438514E-07 -2.343608E-07 +9.123907E-07 
 -6.550768E-08 -6.637832E-09 -5.156284E-09 -6.637832E-09 -9.477954E-08 -3.363461E-08 -5.156284E-09 -3.363461E-08 +1.602872E-07 
 -8.216123E-09 -3.449218E-09 +2.301925E-09 -3.449218E-09 -1.533396E-08 +4.123387E-09 +2.301925E-09 +4.123387E-09 +2.355008E-08 
 -7.205851E-08 -3.998623E-07 -2.954687E-07 -3.998623E-07 -1.061828E-06 +6.100537E-08 -2.954687E-07 +6.100537E-08 +1.133887E-06 
 -2.239114E-08 -1.319100E-09 +9.046530E-09 -1.319100E-09 -1.537322E-08 +8.420968E-09 +9.046530E-09 +8.420968E-09 +3.776436E-08 
 -2.725303E-10 +9.619892E-09 +1.147366E-08 +9.619892E-09 -5.513932E-06 -9.721788E-07 +1.147366E-08 -9.721788E-07 +5.514204E-06 
 -2.831674E-07 -7.840699E-07 +3.282977E-08 -7.840699E-07 -1.803698E-06 +1.378746E-06 +3.282977E-08 +1.378746E-06 +2.086865E-06 
 -1.050989E-07 +5.686155E-09 -6.060284E-08 +5.686155E-09 +6.284501E-08 +4.893143E-08 -6.060284E-08 +4.893143E-08 +4.225391E-08 
 -3.317363E-06 -3.858152E-06 -3.348470E-07 -3.858152E-06 -3.945232E-06 -2.388775E-06 -3.348470E-07 -2.388775E-06 +7.262595E-06 
 -5.436494E-07 +1.649773E-06 +1.519162E-07 +1.649773E-06 -4.981740E-06 +5.635009E-08 +1.519162E-07 +5.635009E-08 +5.525389E-06 
 -7.000727E-08 -9.868110E-09 -4.968963E-09 -9.868110E-09 -5.201846E-08 -3.480626E-09 -4.968963E-09 -3.480626E-09 +1.220257E-07 
 -8.119631E-09 -2.479883E-09 +2.466836E-09 -2.479883E-09 -1.589121E-08 +7.020938E-09 +2.466836E-09 +7.020938E-09 +2.401084E-08 
 -2.743346E-06 -1.722516E-06 +3.722135E-07 -1.722516E-06 -9.605134E-07 -4.431201E-07 +3.722135E-07 -4.431201E-07 +3.703859E-06 
 -5.229596E-06 +4.252705E-06 +1.819983E-06 +4.252705E-06 -2.568647E-06 +1.270864E-06 +1.819983E-06 +1.270864E-06 +7.798244E-06 
 -3.028953E-08 +1.145674E-07 +5.477547E-08 +1.145674E-07 -2.175108E-07 +8.885021E-08 +5.477547E-08 +8.885021E-08 +2.478003E-07 
 -8.095169E-09 -1.568175E-09 +4.757875E-10 -1.568175E-09 -7.158936E-09 -2.519626E-09 +4.757875E-10 -2.519626E-09 +1.525411E-08 
 -3.669343E-06 -2.016435E-06 +1.005054E-06 -2.016435E-06 -1.058249E-06 +1.057275E-06 +1.005054E-06 +1.057275E-06 +4.727592E-06 
 -3.698687E-07 +6.451452E-07 +1.457836E-07 +6.451452E-07 -8.384127E-07 -8.922804E-07 +1.457836E-07 -8.922804E-07 +1.208281E-06 
 -5.152811E-07 -2.571957E-07 +2.952096E-07 -2.571957E-07 -1.365565E-07 +2.444398E-07 +2.952096E-07 +2.444398E-07 +6.518376E-07 
 -3.666296E-07 -7.299294E-09 +1.124666E-07 -7.299294E-09 +5.357899E-09 +1.008571E-07 +1.124666E-07 +1.008571E-07 +3.612717E-07 
 -1.985667E-05 +1.804845E-05 +6.128458E-06 +1.804845E-05 -1.453715E-05 +2.754568E-06 +6.128458E-06 +2.754568E-06 +3.439382E-05 
 -7.530448E-05 +4.347392E-05 -2.270464E-05 +4.347392E-05 -2.510555E-05 +1.311086E-05 -2.270464E-05 +1.311086E-05 +1.004100E-04 
 -5.400797E-08 -1.215098E-08 -2.935586E-08 -1.215098E-08 -4.733100E-08 -1.402486E-08 -2.935586E-08 -1.402486E-08 +1.013390E-07 
 -1.398092E-08 +2.163311E-09 +1.143546E-09 +2.163311E-09 -4.421537E-08 -4.013322E-09 +1.143546E-09 -4.013322E-09 +5.819629E-08 
 -3.289324E-07 +5.799648E-08 -1.437544E-07 +5.799648E-08 -1.024652E-08 +2.534578E-08 -1.437544E-07 +2.534578E-08 +3.391789E-07 
 -1.023026E-07 +4.649838E-08 -1.468021E-09 +4.649838E-08 -8.098032E-08 +9.043151E-09 -1.468021E-09 +9.043151E-09 +1.832829E-07 
 -4.598085E-08 -8.093530E-09 +8.464960E-09 -8.093530E-09 -5.578996E-08 -3.781262E-09 +8.464960E-09 -3.781262E-09 +1.017708E-07 
 -2.856022E-06 +1.958310E-06 +1.011558E-06 +1.958310E-06 -9.565825E-07 +5.885501E-07 +1.011558E-06 +5.885501E-07 +3.812604E-06 
 -1.801797E-07 +3.992741E-08 -9.267657E-08 +3.992741E-08 +4.744076E-08 -4.722330E-08 -9.267657E-08 -4.722330E-08 +1.327389E-07 
 -5.738766E-05 +3.488562E-05 +1.736125E-05 +3.488562E-05 -2.036283E-05 -2.171224E-06 +1.736125E-05 -2.171224E-06 +7.775049E-05 
 -3.124983E-07 -5.533613E-08 +7.632801E-08 -5.533613E-08 -8.116949E-08 -1.022481E-07 +7.632801E-08 -1.022481E-07 +3.936677E-07 
 -5.890316E-07 +1.287226E-06 -5.574071E-07 +1.287226E-06 -2.869563E-06 +1.120832E-06 -5.574071E-07 +1.120832E-06 +3.458595E-06 
 -2.265138E-07 -2.236108E-07 -1.811263E-07 -2.236108E-07 -2.710356E-07 -2.476069E-07 -1.811263E-07 -2.476069E-07 +4.975494E-07 
 -8.155439E-09 -4.999256E-08 -1.540953E-08 -4.999256E-08 -3.414349E-07 +2.070386E-07 -1.540953E-08 +2.070386E-07 +3.495903E-07 
 -2.324537E-07 +9.314115E-08 -1.275054E-07 +9.314115E-08 -2.932680E-08 +1.143137E-07 -1.275054E-07 +1.143137E-07 +2.617805E-07 
 -4.795083E-05 +2.768412E-05 -1.751504E-05 +2.768412E-05 -1.598405E-05 +1.011212E-05 -1.751504E-05 +1.011212E-05 +6.393487E-05 
 -5.006022E-07 -3.728096E-07 -1.808819E-07 -3.728096E-07 -2.365132E-07 +1.249029E-07 -1.808819E-07 +1.249029E-07 +7.371154E-07 
 -1.342767E-08 -5.088200E-09 +3.534110E-09 -5.088200E-09 -9.457580E-09 +6.709727E-09 +3.534110E-09 +6.709727E-09 +2.288525E-08 
 +1.735435E-07 -6.550566E-09 +4.454124E-07 -6.550566E-09 -1.156831E-06 -3.736456E-07 +4.454124E-07 -3.736456E-07 +9.832877E-07 
 -8.064429E-07 -2.877522E-07 -3.171017E-07 -2.877522E-07 -1.324713E-07 -3.626630E-07 -3.171017E-07 -3.626630E-07 +9.389142E-07 
 -7.261623E-07 -5.755624E-07 +6.363158E-07 -5.755624E-07 -4.498677E-07 +3.021161E-07 +6.363158E-07 +3.021161E-07 +1.176030E-06 
 -7.532637E-07 +9.571902E-07 -8.009071E-08 +9.571902E-07 -8.407914E-07 +9.425808E-07 -8.009071E-08 +9.425808E-07 +1.594055E-06 
 -4.695015E-08 +1.109240E-08 -6.908342E-09 +1.109240E-08 -2.330112E-08 +5.263745E-09 -6.908342E-09 +5.263745E-09 +7.025126E-08 
 -1.683671E-08 -3.766728E-09 +7.862561E-09 -3.766728E-09 -2.230556E-08 +4.202563E-09 +7.862561E-09 +4.202563E-09 +3.914227E-08 
 +3.152053E-08 +6.833851E-08 -1.414657E-07 +6.833851E-08 -3.534002E-07 +5.905719E-08 -1.414657E-07 +5.905719E-08 +3.218797E-07 
 +1.650531E-08 -7.183414E-08 +1.142921E-07 -7.183414E-08 -3.622054E-07 -1.785123E-08 +1.142921E-07 -1.785123E-08 +3.457001E-07 
 -4.836327E-05 +3.378244E-05 +7.589625E-07 +3.378244E-05 -2.278755E-05 -8.129611E-06 +7.589625E-07 -8.129611E-06 +7.115082E-05 
 -2.011291E-07 -8.493933E-08 -1.081823E-07 -8.493933E-08 -2.486323E-07 -7.595131E-08 -1.081823E-07 -7.595131E-08 +4.497614E-07 
 -5.924210E-07 +2.210136E-06 -2.855531E-07 +2.210136E-06 -8.248574E-06 +1.066133E-06 -2.855531E-07 +1.066133E-06 +8.840995E-06 
 -1.455983E-08 +6.988037E-10 +1.403308E-09 +6.988037E-10 -1.644172E-08 -1.926966E-09 +1.403308E-09 -1.926966E-09 +3.100155E-08 
 -4.844775E-06 +6.007711E-06 +7.460587E-07 +6.007711E-06 -7.279520E-06 +5.221999E-07 +7.460587E-07 +5.221999E-07 +1.212429E-05 
 -2.597740E-07 -4.985596E-07 +1.637564E-07 -4.985596E-07 -9.999462E-07 +4.215761E-07 +1.637564E-07 +4.215761E-07 +1.259720E-06 
 -3.092523E-08 +5.776896E-10 -3.705719E-09 +5.776896E-10 -3.045780E-08 -1.523351E-08 -3.705719E-09 -1.523351E-08 +6.138303E-08 
 -2.207688E-05 -3.422652E-05 +8.885118E-06 -3.422652E-05 -4.634436E-05 -8.320702E-06 +8.885118E-06 -8.320702E-06 +6.842124E-05 
 -7.910730E-07 -2.763322E-06 +1.690644E-06 -2.763322E-06 -5.933191E-06 -2.976439E-07 +1.690644E-06 -2.976439E-07 +6.724264E-06 
 +8.998553E-08 -1.356204E-07 -2.983920E-07 -1.356204E-07 -9.580664E-07 +1.400889E-07 -2.983920E-07 +1.400889E-07 +8.680809E-07 
 -8.994483E-07 +5.095658E-06 +1.316174E-06 +5.095658E-06 -2.889950E-05 -7.466823E-06 +1.316174E-06 -7.466823E-06 +2.979895E-05 
 -1.792540E-07 -4.884834E-07 -3.545192E-07 -4.884834E-07 -1.220002E-06 -4.286793E-07 -3.545192E-07 -4.286793E-07 +1.399256E-06 
 +9.468978E-07 +1.997327E-06 -5.148263E-06 +1.997327E-06 -2.818588E-05 -6.349128E-06 -5.148263E-06 -6.349128E-06 +2.723898E-05 
 -4.178370E-07 +2.244601E-07 -2.285727E-07 +2.244601E-07 -9.911578E-08 +2.639758E-07 -2.285727E-07 +2.639758E-07 +5.169528E-07 
 -4.826861E-05 -4.694506E-05 -1.854455E-05 -4.694506E-05 -3.476582E-05 +1.339802E-05 -1.854455E-05 +1.339802E-05 +8.303443E-05 
 -1.107277E-07 +1.627779E-07 -1.659746E-08 +1.627779E-07 -2.569310E-07 +1.984112E-07 -1.659746E-08 +1.984112E-07 +3.676587E-07 
 +6.909980E-08 -4.069509E-06 +4.404862E-06 -4.069509E-06 -2.389197E-05 +7.993753E-07 +4.404862E-06 +7.993753E-07 +2.382287E-05 
 -5.765807E-09 -1.000897E-06 -9.975214E-07 -1.000897E-06 -2.967048E-05 -2.840533E-09 -9.975214E-07 -2.840533E-09 +2.967624E-05 
 -1.107798E-07 +1.981226E-07 +8.194135E-08 +1.981226E-07 -3.551058E-07 -2.597075E-07 +8.194135E-08 -2.597075E-07 +4.658856E-07 
 -2.587532E-05 -3.383780E-05 +1.096629E-05 -3.383780E-05 -3.903577E-05 -4.730219E-06 +1.096629E-05 -4.730219E-06 +6.491109E-05 
 -1.818649E-07 -3.872005E-08 -8.603061E-08 -3.872005E-08 -3.579826E-08 +2.017120E-08 -8.603061E-08 +2.017120E-08 +2.176631E-07 
 -2.454794E-06 -7.106960E-07 +7.907694E-08 -7.106960E-07 -6.454617E-09 +7.273609E-07 +7.907694E-08 +7.273609E-07 +2.461249E-06 
 -2.201399E-06 -1.186652E-06 +2.356837E-07 -1.186652E-06 -6.046552E-07 +5.105832E-07 +2.356837E-07 +5.105832E-07 +2.806054E-06 
 -3.228134E-07 -1.511222E-07 +1.334065E-07 -1.511222E-07 -1.332323E-08 -9.401298E-08 +1.334065E-07 -9.401298E-08 +3.361367E-07 
 -5.295703E-06 +3.131310E-06 -1.121730E-06 +3.131310E-06 -1.854510E-06 +5.750629E-07 -1.121730E-06 +5.750629E-07 +7.150213E-06 
 -3.900423E-08 -7.022735E-09 +1.080630E-08 -7.022735E-09 -1.570547E-08 +4.758030E-09 +1.080630E-08 +4.758030E-09 +5.470971E-08 
 -4.335931E-08 +9.130462E-09 +2.692644E-09 +9.130462E-09 -4.070526E-08 +5.258687E-09 +2.692644E-09 +5.258687E-09 +8.406458E-08 
 -1.058205E-07 -9.364997E-09 +1.252499E-08 -9.364997E-09 -4.375336E-08 -2.196900E-08 +1.252499E-08 -2.196900E-08 +1.495739E-07 
 -2.482820E-05 +1.747555E-06 +4.832748E-06 +1.747555E-06 +7.411847E-08 -2.596038E-06 +4.832748E-06 -2.596038E-06 +2.475408E-05 
 -4.720441E-07 -9.432806E-07 +4.716611E-07 -9.432806E-07 -1.156703E-06 -3.334664E-07 +4.716611E-07 -3.334664E-07 +1.628747E-06 
 -2.091198E-05 -3.574584E-05 +2.668288E-06 -3.574584E-05 -5.867350E-05 +1.854178E-05 +2.668288E-06 +1.854178E-05 +7.958549E-05 
 -5.395305E-05 -1.445648E-05 +1.141599E-05 -1.445648E-05 -3.874370E-06 +3.059145E-06 +1.141599E-05 +3.059145E-06 +5.782742E-05 
 -4.175289E-06 +2.227519E-06 -8.157619E-07 +2.227519E-06 -8.154456E-07 +1.842121E-06 -8.157619E-07 +1.842121E-06 +4.990734E-06 
 -2.311859E-05 -3.396925E-05 +6.257418E-06 -3.396925E-05 -4.821793E-05 -1.942967E-06 +6.257418E-06 -1.942967E-06 +7.133652E-05 
 +1.509012E-07 -3.339542E-07 -7.870173E-07 -3.339542E-07 -2.713336E-06 -5.277080E-07 -7.870173E-07 -5.277080E-07 +2.562435E-06 
 -1.769541E-07 +2.512960E-07 -3.116223E-08 +2.512960E-07 -3.482583E-07 -2.624230E-08 -3.116223E-08 -2.624230E-08 +5.252124E-07 
 -7.911843E-07 -7.851854E-07 +2.735176E-07 -7.851854E-07 -4.676398E-07 -4.397026E-07 +2.735176E-07 -4.397026E-07 +1.258824E-06 
 -5.925586E-08 +2.052754E-08 -1.395681E-08 +2.052754E-08 -4.957886E-08 +2.135956E-08 -1.395681E-08 +2.135956E-08 +1.088347E-07 
 -4.392928E-08 +4.862076E-07 -3.128029E-07 +4.862076E-07 -3.023776E-06 -8.402018E-08 -3.128029E-07 -8.402018E-08 +3.067705E-06 
 -2.193822E-07 +3.476445E-08 +2.687812E-08 +3.476445E-08 -1.236031E-07 +4.270459E-08 +2.687812E-08 +4.270459E-08 +3.429853E-07 
 -2.119715E-07 +5.832406E-08 -5.312337E-08 +5.832406E-08 -1.011494E-07 +1.136358E-07 -5.312337E-08 +1.136358E-07 +3.131209E-07 
 -1.007156E-06 +4.487482E-07 -6.745679E-07 +4.487482E-07 -1.972345E-07 +7.536070E-08 -6.745679E-07 +7.536070E-08 +1.204391E-06 
 -4.755707E-06 -3.172649E-06 -1.224767E-06 -3.172649E-06 -2.100955E-06 -2.763642E-07 -1.224767E-06 -2.763642E-07 +6.856661E-06 
 -5.989912E-05 +4.194138E-05 +2.090916E-05 +4.194138E-05 -2.936826E-05 -1.464007E-05 +2.090916E-05 -1.464007E-05 +8.926739E-05 
 -5.173067E-06 -3.410142E-06 +2.335345E-06 -3.410142E-06 -1.648427E-06 -6.345782E-07 +2.335345E-06 -6.345782E-07 +6.821493E-06 
 -6.101091E-06 +2.710026E-06 +8.801595E-07 +2.710026E-06 -1.015004E-06 -1.562787E-06 +8.801595E-07 -1.562787E-06 +7.116095E-06 
 -2.432625E-04 +1.126562E-04 +7.948369E-06 +1.126562E-04 -4.947389E-05 -3.194614E-05 +7.948369E-06 -3.194614E-05 +2.927364E-04 
 -1.102961E-07 -1.716677E-08 -3.973321E-08 -1.716677E-08 -6.884898E-08 -3.381657E-09 -3.973321E-08 -3.381657E-09 +1.791451E-07 
 -3.357442E-06 +3.884192E-06 +1.526857E-08 +3.884192E-06 -3.793534E-06 +2.220088E-06 +1.526857E-08 +2.220088E-06 +7.150976E-06 
 -3.869836E-08 -8.344224E-09 +1.676403E-08 -8.344224E-09 -2.129495E-08 +6.189344E-09 +1.676403E-08 +6.189344E-09 +5.999331E-08 
 -1.064886E-06 +9.675370E-08 +3.309751E-07 +9.675370E-08 +6.816579E-08 -3.273114E-07 +3.309751E-07 -3.273114E-07 +9.967199E-07 
 -3.881106E-07 +2.661561E-08 +2.442086E-07 +2.661561E-08 +4.009501E-09 +9.836395E-08 +2.442086E-07 +9.836395E-08 +3.841011E-07 
 -1.618571E-08 +4.537843E-09 +2.304048E-10 +4.537843E-09 -2.969419E-08 -3.165244E-09 +2.304048E-10 -3.165244E-09 +4.587990E-08 
 +4.236746E-07 +1.124305E-05 +1.897120E-05 +1.124305E-05 -6.179811E-05 -2.905519E-05 +1.897120E-05 -2.905519E-05 +6.137443E-05 
 -2.784763E-07 +2.759500E-08 -5.328620E-08 +2.759500E-08 +2.855529E-08 +9.846627E-08 -5.328620E-08 +9.846627E-08 +2.499210E-07 
 +1.033071E-07 -1.982231E-07 -3.736389E-07 -1.982231E-07 -1.220976E-06 +2.458315E-07 -3.736389E-07 +2.458315E-07 +1.117669E-06 
 -7.246856E-05 -1.171712E-05 -1.192747E-05 -1.171712E-05 -1.305556E-06 -8.651894E-06 -1.192747E-05 -8.651894E-06 +7.377412E-05 
 -2.277446E-08 -2.371078E-09 -5.935342E-09 -2.371078E-09 -3.304320E-08 +1.877064E-09 -5.935342E-09 +1.877064E-09 +5.581765E-08 
 -4.476398E-08 +1.286709E-08 -1.341243E-08 +1.286709E-08 -3.399252E-08 +1.004793E-08 -1.341243E-08 +1.004793E-08 +7.875650E-08 
 -7.179865E-06 +3.423659E-06 -7.863949E-07 +3.423659E-06 -1.551344E-06 -4.756321E-07 -7.863949E-07 -4.756321E-07 +8.731209E-06 
 -1.573901E-07 +5.199302E-08 -2.355167E-08 +5.199302E-08 -1.460640E-07 +3.252157E-09 -2.355167E-08 +3.252157E-09 +3.034541E-07 
 -2.397194E-06 -4.483080E-08 -8.704129E-07 -4.483080E-08 -5.108062E-09 -6.365227E-08 -8.704129E-07 -6.365227E-08 +2.402302E-06 
 -8.874775E-08 +1.517022E-08 -1.043989E-08 +1.517022E-08 -9.894518E-09 +3.285286E-08 -1.043989E-08 +3.285286E-08 +9.864227E-08 
 +3.120534E-08 -1.903301E-07 +2.607587E-07 -1.903301E-07 -1.891804E-06 -7.681859E-07 +2.607587E-07 -7.681859E-07 +1.860599E-06 
 -2.180351E-08 -5.351742E-09 +3.317136E-10 -5.351742E-09 -5.430903E-08 +1.596477E-08 +3.317136E-10 +1.596477E-08 +7.611253E-08 
 +1.769836E-08 -3.793066E-07 -3.520689E-07 -3.793066E-07 -1.576199E-06 +3.787126E-07 -3.520689E-07 +3.787126E-07 +1.558500E-06 
 -7.530153E-05 -2.017656E-05 +8.608193E-06 -2.017656E-05 -5.407644E-06 +2.307259E-06 +8.608193E-06 +2.307259E-06 +8.070918E-05 
 -2.672533E-07 -1.782245E-06 +9.926962E-07 -1.782245E-06 -7.810085E-06 -3.633980E-07 +9.926962E-07 -3.633980E-07 +8.077338E-06 
 -4.396991E-06 -1.577560E-05 -6.040407E-06 -1.577560E-05 -3.893396E-05 +8.797470E-06 -6.040407E-06 +8.797470E-06 +4.333095E-05 
 -5.851420E-05 +2.795447E-05 -3.472551E-06 +2.795447E-05 -1.074773E-05 -1.184221E-05 -3.472551E-06 -1.184221E-05 +6.926194E-05 
 +6.665592E-08 -1.349103E-07 +2.286677E-07 -1.349103E-07 -6.867393E-07 -1.391297E-07 +2.286677E-07 -1.391297E-07 +6.200834E-07 
 -3.071007E-07 -1.356243E-07 +1.417836E-07 -1.356243E-07 -8.520676E-09 -7.866543E-08 +1.417836E-07 -7.866543E-08 +3.156214E-07 
 -3.565174E-06 -9.747601E-06 -1.520774E-07 -9.747601E-06 -2.482052E-05 -7.673147E-06 -1.520774E-07 -7.673147E-06 +2.838570E-05 
 -2.043071E-09 -4.394874E-11 +5.052404E-10 -4.394874E-11 -1.041084E-04 -1.061504E-05 +5.052404E-10 -1.061504E-05 +1.041105E-04 
 -8.073491E-07 -1.133313E-06 -3.789834E-07 -1.133313E-06 -1.558129E-06 -2.253409E-07 -3.789834E-07 -2.253409E-07 +2.365478E-06 
 -6.284924E-06 -3.056131E-08 +6.363849E-07 -3.056131E-08 +4.313791E-07 +1.605383E-06 +6.363849E-07 +1.605383E-06 +5.853546E-06 
 -3.024429E-07 -1.700604E-08 -6.395591E-08 -1.700604E-08 -2.298542E-09 +7.808772E-08 -6.395591E-08 +7.808772E-08 +3.047415E-07 
 -5.739942E-05 -1.899223E-05 -1.982087E-05 -1.899223E-05 -4.044803E-06 +5.888860E-06 -1.982087E-05 +5.888860E-06 +6.144422E-05 
 -2.417175E-08 +2.961041E-09 -1.639835E-10 +2.961041E-09 -1.689972E-08 +2.601194E-09 -1.639835E-10 +2.601194E-09 +4.107148E-08 
 -4.230335E-07 +2.291548E-07 -1.823207E-07 +2.291548E-07 -1.247494E-07 +8.144860E-08 -1.823207E-07 +8.144860E-08 +5.477829E-07 
 -1.044082E-06 -5.917183E-06 +1.175069E-06 -5.917183E-06 -3.355872E-05 +6.665215E-06 +1.175069E-06 +6.665215E-06 +3.460280E-05 
 -1.410614E-07 -3.733267E-09 -6.760928E-08 -3.733267E-09 -4.720385E-08 +1.228247E-10 -6.760928E-08 +1.228247E-10 +1.882652E-07 
 -9.322941E-08 -2.483412E-08 +1.189677E-08 -2.483412E-08 -2.192263E-07 -2.012978E-08 +1.189677E-08 -2.012978E-08 +3.124557E-07 
 -1.492076E-07 +1.387441E-07 -9.004004E-08 +1.387441E-07 -8.729497E-08 -3.557132E-08 -9.004004E-08 -3.557132E-08 +2.365026E-07 
 -6.557116E-05 -3.663010E-05 +1.580351E-05 -3.663010E-05 -1.992017E-05 +1.759452E-06 +1.580351E-05 +1.759452E-06 +8.549133E-05 
 -6.337871E-05 -1.126502E-04 -8.179731E-06 -1.126502E-04 -1.709725E-04 +6.845530E-05 -8.179731E-06 +6.845530E-05 +2.343512E-04 
 -4.662169E-05 +9.753199E-06 +1.726119E-05 +9.753199E-06 -1.615473E-06 +1.238167E-06 +1.726119E-05 +1.238167E-06 +4.823716E-05 
 -6.766354E-06 +4.066093E-06 +5.479524E-07 +4.066093E-06 -1.657071E-06 +2.278099E-06 +5.479524E-07 +2.278099E-06 +8.423424E-06 
 -9.829661E-08 -2.893239E-08 +7.915337E-09 -2.893239E-08 -3.966121E-08 +3.416266E-09 +7.915337E-09 +3.416266E-09 +1.379578E-07 
 -5.503815E-07 -2.773540E-07 +2.446679E-07 -2.773540E-07 -1.381061E-07 +7.575652E-08 +2.446679E-07 +7.575652E-08 +6.884876E-07 
 -1.458902E-07 +2.806279E-07 -5.892311E-08 +2.806279E-07 -5.079896E-07 +4.154666E-07 -5.892311E-08 +4.154666E-07 +6.538797E-07 
 -3.292859E-07 -7.714184E-07 +3.978238E-07 -7.714184E-07 -8.608689E-07 -3.296965E-07 +3.978238E-07 -3.296965E-07 +1.190155E-06 
 -1.798996E-05 -4.261063E-05 -1.957442E-05 -4.261063E-05 -9.522986E-05 -1.855462E-05 -1.957442E-05 -1.855462E-05 +1.132198E-04 
 -3.759810E-08 -2.139650E-08 +2.843756E-08 -2.139650E-08 -6.654288E-08 +1.509190E-08 +2.843756E-08 +1.509190E-08 +1.041410E-07 
 -3.511997E-09 +1.009698E-08 +2.405351E-08 +1.009698E-08 -4.722239E-08 -3.323735E-08 +2.405351E-08 -3.323735E-08 +5.073439E-08 
 -3.685301E-08 +2.021030E-09 +2.371310E-09 +2.021030E-09 -4.266065E-08 -1.727420E-08 +2.371310E-09 -1.727420E-08 +7.951365E-08 
 +1.946358E-07 +8.954469E-07 -1.365572E-06 +8.954469E-07 -3.147622E-06 +6.333391E-07 -1.365572E-06 +6.333391E-07 +2.952986E-06 
 -1.170183E-08 +1.983751E-09 -5.121197E-10 +1.983751E-09 -2.707747E-08 +1.294914E-08 -5.121197E-10 +1.294914E-08 +3.877930E-08 
 -1.443956E-06 -3.469664E-07 -2.772884E-07 -3.469664E-07 -7.830561E-08 +2.963329E-08 -2.772884E-07 +2.963329E-08 +1.522262E-06 
 -3.376998E-06 -5.655595E-06 -2.560116E-06 -5.655595E-06 -9.493359E-06 -3.923763E-06 -2.560116E-06 -3.923763E-06 +1.287036E-05 
 -6.803182E-05 +1.319107E-05 -1.345671E-05 +1.319107E-05 -1.987913E-06 -3.845353E-06 -1.345671E-05 -3.845353E-06 +7.001973E-05 
 +1.135673E-08 +3.720137E-08 -9.023930E-08 +3.720137E-08 -3.959301E-07 -2.565112E-07 -9.023930E-08 -2.565112E-07 +3.845734E-07 
 -6.192159E-07 +3.520507E-07 +4.472146E-07 +3.520507E-07 -2.337954E-07 -7.766081E-08 +4.472146E-07 -7.766081E-08 +8.530113E-07 
 -5.368551E-07 -5.092709E-07 +3.913439E-07 -5.092709E-07 -2.408844E-07 -1.417496E-07 +3.913439E-07 -1.417496E-07 +7.777395E-07 
 -3.185254E-06 -9.423079E-07 -1.125251E-06 -9.423079E-07 -2.820177E-07 -5.645136E-07 -1.125251E-06 -5.645136E-07 +3.467272E-06 
 -1.897768E-07 +1.222356E-07 +1.903798E-07 +1.222356E-07 -1.121905E-07 -4.246090E-08 +1.903798E-07 -4.246090E-08 +3.019673E-07 
 -6.589064E-06 -2.092463E-05 +1.104495E-05 -2.092463E-05 -6.084171E-05 +1.309974E-05 +1.104495E-05 +1.309974E-05 +6.743077E-05 
 -4.184532E-05 -4.986846E-05 +2.133331E-05 -4.986846E-05 -5.943155E-05 +2.542423E-05 +2.133331E-05 +2.542423E-05 +1.012769E-04 
 -3.581818E-07 -5.897751E-08 +9.212211E-09 -5.897751E-08 +3.071560E-08 +1.201568E-07 +9.212211E-09 +1.201568E-07 +3.274662E-07 
 -1.491304E-08 -7.228111E-10 +6.013868E-09 -7.228111E-10 -5.904621E-09 +2.091236E-09 +6.013868E-09 +2.091236E-09 +2.081766E-08 
 -7.091373E-07 +2.809090E-06 -4.815907E-07 +2.809090E-06 -9.881187E-06 -1.782226E-06 -4.815907E-07 -1.782226E-06 +1.059032E-05 
 -1.821277E-08 -3.944971E-09 +5.112998E-09 -3.944971E-09 -3.040067E-08 +8.644080E-09 +5.112998E-09 +8.644080E-09 +4.861344E-08 
 -2.260375E-06 +3.855638E-06 -3.846581E-07 +3.855638E-06 -5.457358E-06 -2.307693E-06 -3.846581E-07 -2.307693E-06 +7.717734E-06 
 -1.117051E-04 +6.540256E-05 +9.274578E-06 +6.540256E-05 -3.683697E-05 +9.621203E-06 +9.274578E-06 +9.621203E-06 +1.485421E-04 
 -7.183338E-07 +1.960199E-07 +2.193920E-07 +1.960199E-07 +1.824053E-09 -2.810274E-07 +2.193920E-07 -2.810274E-07 +7.165097E-07 
 -3.596106E-07 +6.700884E-07 -7.790229E-08 +6.700884E-07 -7.033179E-07 -6.266538E-07 -7.790229E-08 -6.266538E-07 +1.062929E-06 
 -3.066790E-08 +1.665119E-06 -1.146450E-06 +1.665119E-06 -3.729304E-06 -1.346557E-06 -1.146450E-06 -1.346557E-06 +3.759972E-06 
 -1.985100E-06 +9.238878E-07 -2.725544E-07 +9.238878E-07 -1.946680E-07 +8.820787E-07 -2.725544E-07 +8.820787E-07 +2.179768E-06 
 -8.111844E-07 +2.272983E-07 -2.334211E-07 +2.272983E-07 -4.841708E-08 +2.218575E-07 -2.334211E-07 +2.218575E-07 +8.596015E-07 
 -7.257795E-07 -9.113039E-07 -3.823506E-07 -9.113039E-07 -1.148689E-06 -5.660374E-07 -3.823506E-07 -5.660374E-07 +1.874468E-06 
 -6.844790E-08 -1.119272E-08 +4.009176E-09 -1.119272E-08 -1.551744E-07 -1.269687E-08 +4.009176E-09 -1.269687E-08 +2.236223E-07 
 -2.568530E-06 +1.016527E-05 -2.485404E-06 +1.016527E-05 -3.308667E-05 -6.814924E-06 -2.485404E-06 -6.814924E-06 +3.565520E-05 
 -3.497815E-07 +1.037090E-06 +7.308926E-08 +1.037090E-06 -2.841870E-06 +6.548474E-07 +7.308926E-08 +6.548474E-07 +3.191651E-06 
 -3.334861E-08 +7.257616E-09 -5.519077E-09 +7.257616E-09 -2.608047E-08 +7.157553E-09 -5.519077E-09 +7.157553E-09 +5.942908E-08 
 -1.531837E-08 +5.658901E-10 +6.412103E-09 +5.658901E-10 -1.430054E-08 -5.061132E-09 +6.412103E-09 -5.061132E-09 +2.961891E-08 
 -2.685513E-06 +8.520342E-07 +8.395512E-07 +8.520342E-07 -8.924583E-08 +4.760539E-07 +8.395512E-07 +4.760539E-07 +2.774759E-06 
 -1.252775E-08 +1.257037E-09 -6.987595E-09 +1.257037E-09 -1.479904E-08 -1.739796E-09 -6.987595E-09 -1.739796E-09 +2.732680E-08 
 -8.668046E-05 -6.069402E-05 -1.103223E-05 -6.069402E-05 -4.249909E-05 -7.724152E-06 -1.103223E-05 -7.724152E-06 +1.291796E-04 
 +1.311592E-08 +2.713345E-08 -1.872265E-08 +2.713345E-08 -3.170700E-08 +2.783458E-08 -1.872265E-08 +2.783458E-08 +1.859107E-08 
 -1.122050E-07 -8.531762E-09 -6.187302E-08 -8.531762E-09 -7.379817E-09 -4.681363E-09 -6.187302E-08 -4.681363E-09 +1.195849E-07 
 -4.919978E-06 -1.309225E-05 +1.589884E-06 -1.309225E-05 -3.060176E-05 -8.149594E-06 +1.589884E-06 -8.149594E-06 +3.552174E-05 
 -2.329315E-05 +4.994552E-05 +1.694188E-05 +4.994552E-05 -1.071112E-04 -3.632961E-05 +1.694188E-05 -3.632961E-05 +1.304043E-04 
 -1.771743E-07 -1.464276E-06 -2.066617E-06 -1.464276E-06 -4.229183E-06 -1.513887E-06 -2.066617E-06 -1.513887E-06 +4.406357E-06 
 -2.080311E-05 +3.017477E-05 +1.866722E-05 +3.017477E-05 -4.217084E-05 -1.566803E-05 +1.866722E-05 -1.566803E-05 +6.297395E-05 
 -9.891705E-07 +9.375173E-07 +4.263750E-07 +9.375173E-07 -8.299633E-07 -6.094180E-08 +4.263750E-07 -6.094180E-08 +1.819134E-06 
 -2.926333E-07 +3.601710E-08 -1.601736E-07 +3.601710E-08 -2.830246E-08 -2.127294E-08 -1.601736E-07 -2.127294E-08 +3.209358E-07 
 -1.181915E-04 -5.869629E-06 +3.327113E-05 -5.869629E-06 +3.516408E-06 -2.019330E-05 +3.327113E-05 -2.019330E-05 +1.146751E-04 
 -7.885928E-07 -4.248201E-07 +4.755863E-07 -4.248201E-07 -2.380769E-07 +3.424088E-07 +4.755863E-07 +3.424088E-07 +1.026670E-06 
 -6.324698E-09 -6.212661E-07 -4.315488E-07 -6.212661E-07 -1.791628E-06 +6.498753E-07 -4.315488E-07 +6.498753E-07 +1.797953E-06 
 -1.503611E-09 -2.062375E-06 -1.729693E-06 -2.062375E-06 -5.976568E-06 +1.053200E-06 -1.729693E-06 +1.053200E-06 +5.978071E-06 
 -2.366513E-08 -5.766285E-10 -3.067152E-09 -5.766285E-10 -4.531083E-08 -1.917688E-08 -3.067152E-09 -1.917688E-08 +6.897596E-08 
 -3.415047E-06 +9.561619E-07 -1.277073E-06 +9.561619E-07 -2.726574E-07 +4.049325E-07 -1.277073E-06 +4.049325E-07 +3.687705E-06 
 -2.355811E-08 -1.915644E-09 +7.324156E-10 -1.915644E-09 -1.450064E-08 -1.023651E-09 +7.324156E-10 -1.023651E-09 +3.805875E-08 
 -3.675733E-06 -1.761705E-05 +1.154751E-05 -1.761705E-05 -7.170460E-05 +1.761827E-05 +1.154751E-05 +1.761827E-05 +7.538033E-05 
 -3.468078E-06 -8.179306E-07 +1.230115E-06 -8.179306E-07 -1.277783E-07 +8.450967E-07 +1.230115E-06 +8.450967E-07 +3.595856E-06 
 +2.722602E-08 +4.294319E-08 -2.439430E-07 +4.294319E-08 -9.432437E-07 +4.670812E-07 -2.439430E-07 +4.670812E-07 +9.160177E-07 
 -2.418300E-06 +3.246041E-06 +8.128141E-07 +3.246041E-06 -3.999428E-06 +4.679194E-07 +8.128141E-07 +4.679194E-07 +6.417729E-06 
 -4.071589E-06 -6.221416E-06 -9.956090E-07 -6.221416E-06 -8.004962E-06 +2.808413E-06 -9.956090E-07 +2.808413E-06 +1.207655E-05 
 -2.425289E-06 -1.273817E-05 -7.779950E-06 -1.273817E-05 -3.115331E-05 +4.904985E-06 -7.779950E-06 +4.904985E-06 +3.357860E-05 
 -2.572861E-08 -1.352295E-09 +1.109777E-09 -1.352295E-09 -2.677758E-08 +4.319969E-09 +1.109777E-09 +4.319969E-09 +5.250619E-08 
 -1.804287E-06 -2.745843E-06 -1.355951E-06 -2.745843E-06 -4.204205E-06 -1.708426E-06 -1.355951E-06 -1.708426E-06 +6.008493E-06 
 -7.230423E-06 +4.558478E-08 -2.155277E-06 +4.558478E-08 +4.782259E-07 +1.982016E-06 -2.155277E-06 +1.982016E-06 +6.752197E-06 
 -1.130638E-04 -3.068630E-05 -1.542606E-06 -3.068630E-05 +1.541175E-07 +3.081604E-05 -1.542606E-06 +3.081604E-05 +1.129097E-04 
 -1.313083E-04 -1.101742E-04 +2.606165E-05 -1.101742E-04 -9.245510E-05 +2.187005E-05 +2.606165E-05 +2.187005E-05 +2.237634E-04 
 -6.071554E-05 +1.187654E-05 -1.026567E-05 +1.187654E-05 -1.618634E-06 +8.750607E-06 -1.026567E-05 +8.750607E-06 +6.233417E-05 
 -1.802362E-08 +1.034299E-08 -6.538046E-09 +1.034299E-08 -2.841341E-08 +1.321537E-08 -6.538046E-09 +1.321537E-08 +4.643703E-08 
 +1.996345E-08 -1.073468E-08 -5.412655E-08 -1.073468E-08 -1.554169E-07 +1.489819E-08 -5.412655E-08 +1.489819E-08 +1.354535E-07 
 -4.931829E-08 +3.210024E-08 +2.933475E-08 +3.210024E-08 -8.200340E-08 -2.523289E-08 +2.933475E-08 -2.523289E-08 +1.313217E-07 
 -1.000641E-06 -5.937715E-07 +6.568189E-07 -5.937715E-07 -4.676689E-08 -2.873451E-07 +6.568189E-07 -2.873451E-07 +1.047408E-06 
 -1.320203E-05 -4.273832E-07 +2.452376E-06 -4.273832E-07 +1.754372E-07 +1.678369E-06 +2.452376E-06 +1.678369E-06 +1.302659E-05 
 -2.091848E-05 +1.610215E-05 +2.313093E-06 +1.610215E-05 -8.690163E-06 +8.749549E-06 +2.313093E-06 +8.749549E-06 +2.960864E-05 
 -3.783533E-08 -3.251558E-07 +2.812899E-07 -3.251558E-07 -7.147823E-07 -4.997494E-08 +2.812899E-07 -4.997494E-08 +7.526176E-07 
 -6.247499E-06 +6.017506E-06 -1.622493E-07 +6.017506E-06 -5.788429E-06 -1.619523E-07 -1.622493E-07 -1.619523E-07 +1.203593E-05 
 -2.937435E-06 +2.313437E-06 +2.716451E-07 +2.313437E-06 -1.356716E-06 +1.211683E-06 +2.716451E-07 +1.211683E-06 +4.294151E-06 
 -7.858748E-08 +2.116184E-08 -7.214576E-09 +2.116184E-08 -1.031678E-07 -8.390642E-09 -7.214576E-09 -8.390642E-09 +1.817553E-07 
 -1.766602E-06 -1.728427E-06 -5.996839E-08 -1.728427E-06 -9.809294E-07 -1.460909E-06 -5.996839E-08 -1.460909E-06 +2.747531E-06 
 -3.219033E-07 -6.344561E-07 +8.668339E-08 -6.344561E-07 -8.852404E-07 +9.346334E-07 +8.668339E-08 +9.346334E-07 +1.207144E-06 
 -3.959397E-08 -4.952383E-09 +6.795580E-09 -4.952383E-09 -4.513728E-08 -5.987601E-09 +6.795580E-09 -5.987601E-09 +8.473125E-08 
 -1.429247E-08 -1.696111E-09 +2.383512E-09 -1.696111E-09 -2.101390E-08 -6.943861E-10 +2.383512E-09 -6.943861E-10 +3.530637E-08 
 -1.705851E-07 -2.655767E-08 -9.616369E-08 -2.655767E-08 -5.503172E-10 -6.127092E-08 -9.616369E-08 -6.127092E-08 +1.711354E-07 
 -9.099539E-08 -2.709441E-07 +1.649665E-07 -2.709441E-07 -7.885119E-07 +2.847568E-07 +1.649665E-07 +2.847568E-07 +8.795073E-07 
 -5.912409E-08 +2.738932E-08 -6.310001E-09 +2.738932E-08 -3.998308E-08 +1.967033E-09 -6.310001E-09 +1.967033E-09 +9.910717E-08 
 -1.985174E-08 -4.762386E-08 +4.615404E-09 -4.762386E-08 -8.805093E-08 +7.344424E-08 +4.615404E-09 +7.344424E-08 +1.079027E-07 
 -9.578598E-07 +1.041479E-07 +2.725169E-07 +1.041479E-07 -9.288572E-08 -1.880657E-07 +2.725169E-07 -1.880657E-07 +1.050746E-06 
 -5.602819E-08 -3.745008E-08 -9.403449E-10 -3.745008E-08 -9.398426E-08 -1.387752E-08 -9.403449E-10 -1.387752E-08 +1.500125E-07 
 -5.477560E-06 -1.286697E-05 +4.974143E-06 -1.286697E-05 -1.980751E-05 -5.946074E-06 +4.974143E-06 -5.946074E-06 +2.528508E-05 
 +6.872585E-08 -8.492248E-07 +8.526943E-07 -8.492248E-07 -2.653118E-06 -3.796465E-07 +8.526943E-07 -3.796465E-07 +2.584392E-06 
 -2.574306E-05 -3.481633E-05 +1.276544E-05 -3.481633E-05 -4.528997E-05 +2.906397E-05 +1.276544E-05 +2.906397E-05 +7.103303E-05 
 -2.585956E-07 +1.822301E-07 -4.811307E-08 +1.822301E-07 -6.827543E-08 +1.889189E-07 -4.811307E-08 +1.889189E-07 +3.268710E-07 
 -9.344919E-08 -1.381182E-08 -1.337148E-08 -1.381182E-08 -4.316243E-08 +4.825334E-09 -1.337148E-08 +4.825334E-09 +1.366116E-07 
 -2.795942E-07 -1.747235E-06 +2.051922E-06 -1.747235E-06 -4.750211E-06 +1.649340E-06 +2.051922E-06 +1.649340E-06 +5.029805E-06 
 -1.020898E-06 +1.867944E-06 -1.692321E-06 +1.867944E-06 -1.585662E-06 -6.782687E-08 -1.692321E-06 -6.782687E-08 +2.606560E-06 
 -2.308952E-06 -3.626954E-06 +2.066614E-07 -3.626954E-06 -4.946115E-06 -2.015454E-06 +2.066614E-07 -2.015454E-06 +7.255067E-06 
 -1.037015E-07 -7.630952E-07 -5.588540E-07 -7.630952E-07 -3.939431E-06 -6.665637E-07 -5.588540E-07 -6.665637E-07 +4.043133E-06 
 -1.093578E-07 +4.619543E-09 -3.837766E-08 +4.619543E-09 -8.628513E-08 +1.667111E-08 -3.837766E-08 +1.667111E-08 +1.956429E-07 
 -4.042617E-08 -1.014890E-09 +1.373604E-09 -1.014890E-09 -4.307357E-08 -2.670667E-09 +1.373604E-09 -2.670667E-09 +8.349974E-08 
 -6.224739E-05 +5.445803E-06 +1.918098E-05 +5.445803E-06 -4.780035E-07 -1.678427E-06 +1.918098E-05 -1.678427E-06 +6.272540E-05 
 +2.015913E-06 +1.364940E-05 +2.070266E-05 +1.364940E-05 -6.436434E-05 -1.287989E-05 +2.070266E-05 -1.287989E-05 +6.234842E-05 
 -2.371621E-06 +1.891352E-06 +7.187159E-07 +1.891352E-06 -1.123183E-06 +6.347435E-07 +7.187159E-07 +6.347435E-07 +3.494804E-06 
 -3.240078E-06 -1.014943E-05 +4.914003E-06 -1.014943E-05 -2.922023E-05 +5.203866E-06 +4.914003E-06 +5.203866E-06 +3.246031E-05 
 -2.001187E-08 +1.169301E-08 +1.895586E-09 +1.169301E-08 -3.286156E-08 -2.918151E-09 +1.895586E-09 -2.918151E-09 +5.287342E-08 
 -2.513526E-07 +2.196740E-07 -4.549523E-08 +2.196740E-07 -1.978740E-07 +2.253382E-07 -4.549523E-08 +2.253382E-07 +4.492266E-07 
 -3.145595E-06 +1.411408E-06 +1.462485E-06 +1.411408E-06 -5.833101E-07 -1.785975E-07 +1.462485E-06 -1.785975E-07 +3.728905E-06 
 -5.259084E-05 -7.112169E-05 +3.082237E-05 -7.112169E-05 -8.452973E-05 -8.687551E-07 +3.082237E-05 -8.687551E-07 +1.371206E-04 
 -1.748378E-08 -2.741134E-09 +2.078067E-09 -2.741134E-09 -2.593385E-08 +1.434611E-09 +2.078067E-09 +1.434611E-09 +4.341763E-08 
 -1.482890E-08 -2.088655E-09 -9.409415E-09 -2.088655E-09 -2.041636E-08 -6.256090E-09 -9.409415E-09 -6.256090E-09 +3.524525E-08 
 -1.280472E-08 +3.626244E-09 -1.745844E-09 +3.626244E-09 -1.345063E-08 +1.071040E-09 -1.745844E-09 +1.071040E-09 +2.625536E-08 
 -9.677440E-09 -8.553518E-10 -1.597697E-09 -8.553518E-10 -2.015579E-08 +7.277807E-09 -1.597697E-09 +7.277807E-09 +2.983323E-08 
 -4.820789E-07 +4.700929E-07 +5.644607E-07 +4.700929E-07 -4.005617E-07 -2.057142E-07 +5.644607E-07 -2.057142E-07 +8.826406E-07 
 -3.762731E-08 +1.564292E-07 +2.040354E-07 +1.564292E-07 -3.662065E-07 -1.110339E-07 +2.040354E-07 -1.110339E-07 +4.038338E-07 
 -7.083243E-06 +5.207054E-07 -1.119978E-06 +5.207054E-07 +1.268999E-08 +7.163445E-07 -1.119978E-06 +7.163445E-07 +7.070553E-06 
 -6.018831E-05 -2.195276E-05 +9.722030E-06 -2.195276E-05 -7.444650E-06 +9.792573E-06 +9.722030E-06 +9.792573E-06 +6.763296E-05 
 -3.564527E-06 +2.107332E-06 +2.230299E-07 +2.107332E-06 -1.204838E-06 +3.177962E-07 +2.230299E-07 +3.177962E-07 +4.769365E-06 
 -2.076633E-08 -9.374575E-09 -1.304330E-08 -9.374575E-09 -1.202667E-08 -3.991371E-09 -1.304330E-08 -3.991371E-09 +3.279299E-08 
 -9.919881E-07 +3.647538E-07 -2.809431E-07 +3.647538E-07 -1.702487E-07 +2.740036E-07 -2.809431E-07 +2.740036E-07 +1.162237E-06 
 -7.884871E-08 +1.037697E-08 +3.549434E-08 +1.037697E-08 -2.226518E-08 -2.293205E-08 +3.549434E-08 -2.293205E-08 +1.011139E-07 
 -2.306485E-08 -3.022182E-12 -8.120681E-10 -3.022182E-12 -4.120329E-08 -1.425005E-08 -8.120681E-10 -1.425005E-08 +6.426813E-08 
 -7.947671E-07 -1.940398E-07 -4.470944E-07 -1.940398E-07 -1.558249E-08 -3.317230E-07 -4.470944E-07 -3.317230E-07 +8.103496E-07 
 -1.943850E-08 +7.493065E-08 -9.016345E-08 +7.493065E-08 -3.966906E-07 +2.175284E-07 -9.016345E-08 +2.175284E-07 +4.161291E-07 
 -3.544313E-08 -8.597853E-10 -1.818052E-08 -8.597853E-10 -2.880438E-08 +6.743192E-09 -1.818052E-08 +6.743192E-09 +6.424752E-08 
 +2.288414E-08 -1.084461E-07 -1.726636E-07 -1.084461E-07 -1.166767E-06 +4.751784E-07 -1.726636E-07 +4.751784E-07 +1.143883E-06 
 -2.301606E-07 -2.141313E-07 +1.410113E-07 -2.141313E-07 -3.252268E-07 +2.287408E-07 +1.410113E-07 +2.287408E-07 +5.553874E-07 
 -1.655841E-07 -8.738048E-07 -3.681203E-07 -8.738048E-07 -1.223306E-06 +8.180248E-07 -3.681203E-07 +8.180248E-07 +1.388890E-06 
 -1.004416E-07 -5.034788E-08 +7.936900E-09 -5.034788E-08 -2.313785E-07 -1.177985E-07 +7.936900E-09 -1.177985E-07 +3.318201E-07 
 -4.690432E-05 -5.575931E-05 +4.528247E-07 -5.575931E-05 -5.839477E-05 +2.940343E-05 +4.528247E-07 +2.940343E-05 +1.052991E-04 
 -6.953994E-08 +3.165323E-08 -8.176774E-09 +3.165323E-08 -5.933363E-08 +5.789051E-09 -8.176774E-09 +5.789051E-09 +1.288736E-07 
 -3.305870E-08 -6.047825E-08 -4.037765E-08 -6.047825E-08 -1.814710E-07 -1.062205E-07 -4.037765E-08 -1.062205E-07 +2.145297E-07 
 -4.182746E-08 -2.333093E-11 -1.251747E-09 -2.333093E-11 -1.158945E-07 +9.404188E-09 -1.251747E-09 +9.404188E-09 +1.577219E-07 
 -5.546709E-07 -9.380312E-07 -7.819501E-07 -9.380312E-07 -7.266037E-07 +1.103098E-07 -7.819501E-07 +1.103098E-07 +1.281275E-06 
 -3.755068E-05 +5.016498E-06 +6.616483E-06 +5.016498E-06 -1.122531E-08 +4.206948E-06 +6.616483E-06 +4.206948E-06 +3.756191E-05 
 -3.528490E-07 -1.809923E-06 -6.913135E-07 -1.809923E-06 -2.472413E-06 +1.796626E-06 -6.913135E-07 +1.796626E-06 +2.825262E-06 
 -7.016884E-07 +5.318447E-07 +1.311181E-07 +5.318447E-07 -4.017946E-07 -1.516230E-07 +1.311181E-07 -1.516230E-07 +1.103483E-06 
 -4.214661E-07 +5.979123E-08 +2.466494E-07 +5.979123E-08 -1.591067E-08 +2.184683E-08 +2.466494E-07 +2.184683E-08 +4.373768E-07 
 -8.845510E-07 -5.921804E-07 -4.539453E-07 -5.921804E-07 -2.014820E-07 +2.145423E-07 -4.539453E-07 +2.145423E-07 +1.086033E-06 
 -3.076031E-06 +2.479064E-05 +1.461530E-05 +2.479064E-05 -1.448228E-04 -8.387315E-06 +1.461530E-05 -8.387315E-06 +1.478988E-04 
 -2.026996E-08 +4.915720E-09 +2.709529E-09 +4.915720E-09 -1.391383E-08 -3.817581E-09 +2.709529E-09 -3.817581E-09 +3.418379E-08 
 -1.704913E-05 -1.409593E-05 -1.339795E-07 -1.409593E-05 -1.165671E-05 +1.583775E-07 -1.339795E-07 +1.583775E-07 +2.870584E-05 
 -3.116114E-07 -1.455878E-06 +3.207419E-07 -1.455878E-06 -7.094125E-06 +2.667144E-06 +3.207419E-07 +2.667144E-06 +7.405737E-06 
 -3.226250E-07 +5.939206E-09 +1.856156E-07 +5.939206E-09 -1.609727E-09 -4.254844E-08 +1.856156E-07 -4.254844E-08 +3.242347E-07 
 -1.603906E-08 +2.606719E-09 -3.527706E-10 +2.606719E-09 -1.487681E-08 +1.613503E-09 -3.527706E-10 +1.613503E-09 +3.091587E-08 
 -2.282756E-08 +1.146139E-08 -2.553252E-09 +1.146139E-08 -4.937332E-08 -2.557102E-08 -2.553252E-09 -2.557102E-08 +7.220088E-08 
 -2.225834E-06 +3.201862E-06 -1.601134E-06 +3.201862E-06 -3.402316E-06 -5.632168E-07 -1.601134E-06 -5.632168E-07 +5.628150E-06 
 -1.147939E-05 +3.628062E-07 +5.985536E-07 +3.628062E-07 +1.255217E-06 -3.624338E-06 +5.985536E-07 -3.624338E-06 +1.022417E-05 
 -1.571425E-07 -1.840881E-07 -1.102809E-07 -1.840881E-07 -1.272365E-07 +5.391895E-08 -1.102809E-07 +5.391895E-08 +2.843790E-07 
 -6.006350E-07 +7.092349E-06 -6.109251E-06 +7.092349E-06 -4.512135E-05 +6.686800E-06 -6.109251E-06 +6.686800E-06 +4.572199E-05 
 -1.046308E-08 -2.304868E-09 +3.098610E-09 -2.304868E-09 -1.313703E-08 -7.354191E-09 +3.098610E-09 -7.354191E-09 +2.360010E-08 
 -1.673223E-06 +2.532796E-07 +6.066806E-07 +2.532796E-07 -4.236825E-08 -1.349454E-07 +6.066806E-07 -1.349454E-07 +1.715592E-06 
 -9.144176E-06 +4.691302E-06 +1.774516E-07 +4.691302E-06 -1.442978E-06 +3.111172E-06 +1.774516E-07 +3.111172E-06 +1.058715E-05 
 -1.180168E-04 +5.705529E-05 +2.096709E-05 +5.705529E-05 -2.620967E-05 +4.140918E-06 +2.096709E-05 +4.140918E-06 +1.442265E-04 
 -4.665880E-08 -1.615922E-07 +1.143489E-08 -1.615922E-07 -8.874974E-07 +5.223282E-07 +1.143489E-08 +5.223282E-07 +9.341562E-07 
 -1.721352E-08 -3.660555E-09 +3.691368E-09 -3.660555E-09 -4.397369E-08 -1.019346E-08 +3.691368E-09 -1.019346E-08 +6.118721E-08 
 -1.007281E-07 -6.035317E-08 -5.933859E-08 -6.035317E-08 -1.262375E-07 -4.155176E-08 -5.933859E-08 -4.155176E-08 +2.269655E-07 
 +1.746080E-07 +6.521393E-07 +1.393529E-06 +6.521393E-07 -9.695232E-06 +1.555097E-06 +1.393529E-06 +1.555097E-06 +9.520624E-06 
 -2.920532E-07 +8.649887E-08 -1.523123E-07 +8.649887E-08 +1.752396E-08 -7.760755E-08 -1.523123E-07 -7.760755E-08 +2.745292E-07 
 -1.072974E-07 -8.172661E-08 +4.747929E-08 -8.172661E-08 -1.419640E-07 +9.797326E-08 +4.747929E-08 +9.797326E-08 +2.492614E-07 
 -2.790257E-08 +3.190171E-08 -7.724900E-09 +3.190171E-08 -1.036341E-07 +2.713982E-08 -7.724900E-09 +2.713982E-08 +1.315366E-07 
 -2.946639E-06 -1.833332E-06 -4.791623E-07 -1.833332E-06 -1.133169E-06 -5.626084E-07 -4.791623E-07 -5.626084E-07 +4.079808E-06 
 -1.675857E-06 +3.790292E-06 -4.938183E-07 +3.790292E-06 -7.056195E-06 -2.578250E-06 -4.938183E-07 -2.578250E-06 +8.732053E-06 
 -1.487123E-08 -8.804187E-11 +2.502512E-09 -8.804187E-11 -1.460194E-08 +1.047807E-09 +2.502512E-09 +1.047807E-09 +2.947318E-08 
 -3.772334E-06 +8.257290E-07 -6.517383E-07 +8.257290E-07 -1.748086E-07 +3.094567E-07 -6.517383E-07 +3.094567E-07 +3.947143E-06 
 -6.782002E-06 +1.976596E-06 -5.011624E-07 +1.976596E-06 -3.703342E-07 -1.073308E-06 -5.011624E-07 -1.073308E-06 +7.152336E-06 
 -6.423002E-07 -1.080564E-07 -2.429349E-07 -1.080564E-07 -7.445259E-08 -1.935438E-07 -2.429349E-07 -1.935438E-07 +7.167528E-07 
 -1.044982E-04 -7.922415E-05 -3.665040E-05 -7.922415E-05 -5.117539E-05 -6.656071E-05 -3.665040E-05 -6.656071E-05 +1.556736E-04 
 -2.241467E-07 +4.292627E-07 +3.161315E-07 +4.292627E-07 -8.925277E-07 -2.393293E-07 +3.161315E-07 -2.393293E-07 +1.116674E-06 
 -1.479255E-07 -8.561485E-07 +3.506703E-07 -8.561485E-07 -2.588247E-06 -1.017494E-06 +3.506703E-07 -1.017494E-06 +2.736172E-06 
 -2.467662E-08 -3.380859E-09 -1.102633E-08 -3.380859E-09 -1.907814E-08 -3.961151E-09 -1.102633E-08 -3.961151E-09 +4.375476E-08 
 -3.281196E-08 +1.025211E-08 -1.470995E-08 +1.025211E-08 -2.330883E-08 +1.146682E-08 -1.470995E-08 +1.146682E-08 +5.612079E-08 
 +2.533493E-06 +3.047282E-06 -9.200395E-06 +3.047282E-06 -3.588068E-05 -9.605560E-06 -9.200395E-06 -9.605560E-06 +3.334719E-05 
 -6.789896E-08 +1.849729E-08 -6.480435E-10 +1.849729E-08 -7.071185E-08 +1.418285E-08 -6.480435E-10 +1.418285E-08 +1.386108E-07 
 -7.709437E-05 +2.685130E-05 +6.427764E-06 +2.685130E-05 -6.402120E-06 -1.799751E-05 +6.427764E-06 -1.799751E-05 +8.349649E-05 
 -9.345535E-06 +5.296151E-05 +1.967716E-05 +5.296151E-05 -3.003673E-04 -1.116121E-04 +1.967716E-05 -1.116121E-04 +3.097128E-04 
 -7.119622E-06 +1.301565E-05 +6.019652E-07 +1.301565E-05 -2.375744E-05 +3.512479E-07 +6.019652E-07 +3.512479E-07 +3.087707E-05 
 -1.302020E-05 -1.447175E-05 +7.988207E-07 -1.447175E-05 -1.600630E-05 -6.689904E-07 +7.988207E-07 -6.689904E-07 +2.902649E-05 
 -4.027427E-07 +4.310536E-07 +3.593044E-07 +4.310536E-07 -4.911130E-07 -3.459155E-07 +3.593044E-07 -3.459155E-07 +8.938557E-07 
 -9.499080E-08 -2.613492E-08 +2.742723E-08 -2.613492E-08 -5.063499E-09 -2.353300E-08 +2.742723E-08 -2.353300E-08 +1.000543E-07 
 -7.546386E-09 +4.002501E-11 -3.406716E-09 +4.002501E-11 -4.161765E-09 +3.034321E-10 -3.406716E-09 +3.034321E-10 +1.170815E-08 
 -1.022261E-05 +1.600929E-06 -6.126174E-08 +1.600929E-06 -2.027341E-07 -7.038042E-07 -6.126174E-08 -7.038042E-07 +1.042534E-05 
 -1.494447E-06 -2.280471E-07 +5.367663E-07 -2.280471E-07 -6.309824E-08 +1.041649E-07 +5.367663E-07 +1.041649E-07 +1.557546E-06 
 -2.318530E-08 -1.510414E-09 -4.373669E-09 -1.510414E-09 -2.631445E-08 -1.002176E-08 -4.373669E-09 -1.002176E-08 +4.949975E-08 
 -1.048029E-08 -2.697555E-09 +1.040967E-09 -2.697555E-09 -1.886113E-08 -6.339800E-09 +1.040967E-09 -6.339800E-09 +2.934142E-08 
 -2.064485E-08 -1.380858E-08 -5.805868E-09 -1.380858E-08 -4.051926E-08 -1.986860E-09 -5.805868E-09 -1.986860E-09 +6.116411E-08 
 -1.199913E-06 +1.607973E-07 +2.133336E-07 +1.607973E-07 +4.015387E-08 +2.849681E-07 +2.133336E-07 +2.849681E-07 +1.159760E-06 
 -5.240816E-08 -2.944193E-08 -3.416535E-09 -2.944193E-08 -1.531909E-07 +4.716400E-08 -3.416535E-09 +4.716400E-08 +2.055991E-07 
 -2.655957E-08 -5.799145E-09 -1.546006E-08 -5.799145E-09 -2.524648E-08 -6.015640E-09 -1.546006E-08 -6.015640E-09 +5.180605E-08 
 -2.278957E-05 -1.665564E-05 +1.130465E-05 -1.665564E-05 -8.636564E-06 -3.185876E-06 +1.130465E-05 -3.185876E-06 +3.142613E-05 
 +6.898847E-08 +7.795533E-08 +2.851673E-07 +7.795533E-08 -1.145368E-06 +2.897856E-07 +2.851673E-07 +2.897856E-07 +1.076380E-06 
 -4.668451E-09 -2.132731E-09 +1.861024E-09 -2.132731E-09 -1.031303E-08 +3.882711E-09 +1.861024E-09 +3.882711E-09 +1.498148E-08 
 -3.919886E-05 -4.721727E-05 +3.217114E-05 -4.721727E-05 -4.972049E-05 +1.000874E-05 +3.217114E-05 +1.000874E-05 +8.891935E-05 
 -5.924841E-06 +8.605857E-07 +1.713806E-06 +8.605857E-07 +4.741655E-07 +1.649920E-06 +1.713806E-06 +1.649920E-06 +5.450675E-06 
 -3.954408E-06 -1.220619E-06 +1.437083E-06 -1.220619E-06 -6.275547E-09 -8.553958E-07 +1.437083E-06 -8.553958E-07 +3.960683E-06 
 -1.497855E-06 -6.103949E-08 -5.418448E-07 -6.103949E-08 +1.904301E-07 -5.690792E-07 -5.418448E-07 -5.690792E-07 +1.307425E-06 
 -1.671871E-07 -3.329556E-08 +9.724845E-09 -3.329556E-08 -8.950165E-08 +2.149751E-08 +9.724845E-09 +2.149751E-08 +2.566888E-07 
 -5.922559E-07 +2.354984E-07 +2.109676E-07 +2.354984E-07 -1.312890E-08 +1.587717E-07 +2.109676E-07 +1.587717E-07 +6.053848E-07 
 -7.004775E-07 -9.644328E-07 -1.192158E-06 -9.644328E-07 -1.005252E-06 -5.081458E-07 -1.192158E-06 -5.081458E-07 +1.705730E-06 
 -1.035002E-04 +4.625785E-05 -4.576877E-05 +4.625785E-05 -1.577869E-05 -5.710251E-06 -4.576877E-05 -5.710251E-06 +1.192789E-04 
 -4.203634E-08 -3.829459E-09 -3.796207E-09 -3.829459E-09 -5.000695E-08 +4.600168E-10 -3.796207E-09 +4.600168E-10 +9.204329E-08 
 -1.749974E-06 +1.573935E-06 +9.358488E-07 +1.573935E-06 -1.436315E-06 -6.711086E-07 +9.358488E-07 -6.711086E-07 +3.186290E-06 
 -4.867898E-06 +5.606643E-06 +2.992429E-07 +5.606643E-06 -5.982452E-06 -2.619491E-06 +2.992429E-07 -2.619491E-06 +1.085035E-05 
 -5.479564E-07 -1.502698E-06 -7.977605E-07 -1.502698E-06 -3.274468E-06 -1.189985E-07 -7.977605E-07 -1.189985E-07 +3.822425E-06 
 -9.469974E-06 +5.526723E-07 -1.858167E-06 +5.526723E-07 +9.895432E-08 -1.023988E-06 -1.858167E-06 -1.023988E-06 +9.371020E-06 
 -9.685326E-07 +8.926844E-06 -6.844742E-06 +8.926844E-06 -5.578795E-05 +1.023542E-05 -6.844742E-06 +1.023542E-05 +5.675649E-05 
 -3.062525E-08 -8.551790E-09 -1.775142E-09 -8.551790E-09 -3.800355E-08 -8.574799E-09 -1.775142E-09 -8.574799E-09 +6.862880E-08 
 -6.982063E-08 -2.243358E-08 -9.265748E-09 -2.243358E-08 -4.914863E-08 -1.672395E-10 -9.265748E-09 -1.672395E-10 +1.189693E-07 
 -4.786280E-08 +3.079646E-07 +8.671905E-07 +3.079646E-07 -3.499802E-06 -1.774179E-06 +8.671905E-07 -1.774179E-06 +3.547665E-06 
 -5.448506E-07 +6.110222E-07 +4.029456E-07 +6.110222E-07 -3.209501E-07 +2.000228E-07 +4.029456E-07 +2.000228E-07 +8.658008E-07 
 -8.527130E-06 +5.332517E-06 -1.176965E-06 +5.332517E-06 -3.121826E-06 +2.333387E-06 -1.176965E-06 +2.333387E-06 +1.164896E-05 
 -2.221249E-04 +1.555303E-04 -1.086291E-04 +1.555303E-04 -1.089078E-04 +7.606357E-05 -1.086291E-04 +7.606357E-05 +3.310327E-04 
 -3.125127E-08 +2.455189E-09 +8.617486E-09 +2.455189E-09 -1.721981E-08 -8.299899E-09 +8.617486E-09 -8.299899E-09 +4.847108E-08 
 -9.181526E-07 +1.399724E-06 -5.327830E-07 +1.399724E-06 -2.040317E-06 +2.313234E-07 -5.327830E-07 +2.313234E-07 +2.958469E-06 
 -2.030413E-06 -8.592173E-07 -8.712792E-07 -8.592173E-07 -2.493454E-07 +2.009305E-07 -8.712792E-07 +2.009305E-07 +2.279759E-06 
 -4.800897E-07 -6.503081E-06 +7.550565E-06 -6.503081E-06 -4.653533E-05 +1.915066E-05 +7.550565E-06 +1.915066E-05 +4.701542E-05 
 -5.231957E-06 -1.672934E-06 +1.224487E-06 -1.672934E-06 -3.333037E-07 +1.487989E-06 +1.224487E-06 +1.487989E-06 +5.565261E-06 
 -5.972020E-05 +1.801837E-05 +1.510232E-05 +1.801837E-05 -3.824920E-06 +5.879156E-06 +1.510232E-05 +5.879156E-06 +6.354511E-05 
 -2.440949E-07 +9.189231E-07 -3.421544E-07 +9.189231E-07 -1.937099E-06 -7.580508E-07 -3.421544E-07 -7.580508E-07 +2.181194E-06 
 -2.505047E-05 +8.790237E-06 +9.958122E-06 +8.790237E-06 -1.392261E-06 +3.770190E-06 +9.958122E-06 +3.770190E-06 +2.644273E-05 
 -9.631114E-08 -6.124824E-07 -6.971188E-07 -6.124824E-07 -1.905260E-06 -6.671157E-07 -6.971188E-07 -6.671157E-07 +2.001571E-06 
 -1.420308E-05 -1.712274E-05 -2.577019E-06 -1.712274E-05 -1.997515E-05 +1.797582E-06 -2.577019E-06 +1.797582E-06 +3.417823E-05 
 -1.958862E-04 +9.134271E-05 +4.605605E-05 +9.134271E-05 -4.259500E-05 -2.147614E-05 +4.605605E-05 -2.147614E-05 +2.384812E-04 
 -8.397255E-07 +9.560881E-06 -1.245753E-06 +9.560881E-06 -1.092849E-04 +1.423517E-05 -1.245753E-06 +1.423517E-05 +1.101246E-04 
 -9.311201E-05 -3.388990E-05 -1.437834E-05 -3.388990E-05 -1.233536E-05 -5.233382E-06 -1.437834E-05 -5.233382E-06 +1.054474E-04 
 -4.642875E-06 -2.111369E-06 -5.732807E-07 -2.111369E-06 -3.050869E-07 -2.097829E-06 -5.732807E-07 -2.097829E-06 +4.947962E-06 
 -7.125851E-07 -1.555496E-07 +4.070909E-07 -1.555496E-07 -7.613230E-09 +2.677924E-07 +4.070909E-07 +2.677924E-07 +7.201983E-07 
 -3.337993E-10 +3.174417E-11 -1.779741E-10 +3.174417E-11 -1.250572E-04 -1.614419E-05 -1.779741E-10 -1.614419E-05 +1.250575E-04 
 -9.344429E-07 +1.871214E-06 -2.601792E-07 +1.871214E-06 -3.359541E-06 -8.907151E-07 -2.601792E-07 -8.907151E-07 +4.293984E-06 
 -1.551594E-06 -1.677515E-06 -1.118588E-07 -1.677515E-06 -1.173595E-06 +1.206341E-06 -1.118588E-07 +1.206341E-06 +2.725190E-06 
 +4.347877E-06 +1.605883E-06 -2.475846E-05 +1.605883E-06 -1.448424E-04 -9.104554E-06 -2.475846E-05 -9.104554E-06 +1.404945E-04 
 -3.959032E-06 -4.524289E-06 -1.500246E-06 -4.524289E-06 -3.959876E-06 +1.495114E-06 -1.500246E-06 +1.495114E-06 +7.918908E-06 
 -8.793075E-09 +3.156940E-09 -2.200207E-10 +3.156940E-09 -1.513363E-08 +1.677247E-09 -2.200207E-10 +1.677247E-09 +2.392671E-08 
 -4.585916E-08 -2.630759E-08 -3.145513E-09 -2.630759E-08 -4.697978E-08 -5.415832E-09 -3.145513E-09 -5.415832E-09 +9.283894E-08 
 -5.195570E-08 +1.250730E-08 -1.680469E-08 +1.250730E-08 -5.810691E-08 +1.969995E-08 -1.680469E-08 +1.969995E-08 +1.100626E-07 
 -6.454155E-08 -4.057218E-07 -2.430216E-07 -4.057218E-07 -8.383470E-07 +2.705404E-07 -2.430216E-07 +2.705404E-07 +9.028885E-07 
 -1.642745E-05 -3.174040E-05 +6.193347E-06 -3.174040E-05 -4.353214E-05 -2.135543E-05 +6.193347E-06 -2.135543E-05 +5.995959E-05 
 -3.159014E-06 -5.590884E-07 -5.379410E-07 -5.590884E-07 -7.496645E-08 -3.854152E-07 -5.379410E-07 -3.854152E-07 +3.233980E-06 
 -8.083613E-08 -6.467530E-09 +2.620893E-08 -6.467530E-09 -4.742564E-08 +1.978131E-09 +2.620893E-08 +1.978131E-09 +1.282618E-07 
 -3.117576E-06 -5.220347E-07 -3.070153E-07 -5.220347E-07 -6.463357E-08 -3.355476E-07 -3.070153E-07 -3.355476E-07 +3.182209E-06 
 -4.039673E-09 +7.028241E-10 +1.328402E-09 +7.028241E-10 -5.346257E-09 -2.746023E-09 +1.328402E-09 -2.746023E-09 +9.385930E-09 
 -1.660366E-06 +2.016860E-06 -4.491423E-08 +2.016860E-06 -2.218333E-06 +1.009662E-06 -4.491423E-08 +1.009662E-06 +3.878699E-06 
 -2.350519E-06 +5.368931E-06 -1.015637E-06 +5.368931E-06 -1.178584E-05 -3.680742E-07 -1.015637E-06 -3.680742E-07 +1.413636E-05 
 -4.079076E-08 -3.429514E-10 -5.348937E-09 -3.429514E-10 -2.342334E-08 +2.430394E-09 -5.348937E-09 +2.430394E-09 +6.421411E-08 
 -1.398378E-08 +8.117322E-10 -3.158610E-09 +8.117322E-10 -2.077678E-08 -1.339018E-09 -3.158610E-09 -1.339018E-09 +3.476055E-08 
 -1.939260E-08 +2.001175E-10 +9.982750E-09 +2.001175E-10 -8.743184E-09 +2.078923E-09 +9.982750E-09 +2.078923E-09 +2.813579E-08 
 -8.908043E-08 +8.251726E-09 +1.537401E-08 +8.251726E-09 -7.005558E-08 -2.022440E-09 +1.537401E-08 -2.022440E-09 +1.591360E-07 
 -1.019853E-07 -3.667860E-08 +1.092024E-08 -3.667860E-08 -9.113550E-08 +7.452312E-09 +1.092024E-08 +7.452312E-09 +1.931208E-07 
 -2.396371E-05 -1.370418E-05 +6.598376E-06 -1.370418E-05 -5.672519E-06 -4.540111E-06 +6.598376E-06 -4.540111E-06 +2.963623E-05 
 -4.121065E-08 -4.665821E-10 +2.062439E-08 -4.665821E-10 -2.525249E-08 +4.684064E-09 +2.062439E-08 +4.684064E-09 +6.646314E-08 
 -5.992732E-08 -1.549251E-07 +6.780361E-08 -1.549251E-07 -1.835631E-07 -9.087615E-08 +6.780361E-08 -9.087615E-08 +2.434905E-07 
 -2.844995E-05 +1.878495E-05 -1.045962E-06 +1.878495E-05 -9.147847E-06 -1.040973E-05 -1.045962E-06 -1.040973E-05 +3.759780E-05 
 -3.849185E-06 -4.155514E-06 -2.659964E-06 -4.155514E-06 -3.389605E-06 +2.949113E-07 -2.659964E-06 +2.949113E-07 +7.238790E-06 
 -8.605261E-06 +2.311043E-05 +1.925076E-06 +2.311043E-05 -5.781398E-05 -2.225664E-05 +1.925076E-06 -2.225664E-05 +6.641925E-05 
 -8.420856E-10 +9.684109E-07 -9.683891E-07 +9.684109E-07 -4.643624E-06 +3.583891E-10 -9.683891E-07 +3.583891E-10 +4.644467E-06 
 -9.048684E-05 -1.083186E-04 +3.563495E-06 -1.083186E-04 -1.256657E-04 -2.516776E-05 +3.563495E-06 -2.516776E-05 +2.161525E-04 
 -4.956021E-05 +2.861163E-05 -4.587034E-06 +2.861163E-05 -1.652246E-05 +2.648510E-06 -4.587034E-06 +2.648510E-06 +6.608267E-05 
 -1.655850E-07 -1.748930E-07 -1.274839E-07 -1.748930E-07 -2.525457E-07 -2.207136E-08 -1.274839E-07 -2.207136E-08 +4.181308E-07 
 -7.173887E-09 -6.215569E-06 +6.211510E-06 -6.215569E-06 -3.483756E-05 +2.749727E-09 +6.211510E-06 +2.749727E-09 +3.484474E-05 
 -1.235743E-04 +3.311150E-05 -3.926923E-05 +3.311150E-05 -8.872725E-06 +1.052248E-05 -3.926923E-05 +1.052248E-05 +1.324470E-04 
 -6.958035E-08 -7.252544E-09 +5.182818E-09 -7.252544E-09 -2.412980E-08 +1.006366E-08 +5.182818E-09 +1.006366E-08 +9.371015E-08 
 -3.926601E-05 -5.607692E-05 +1.683782E-06 -5.607692E-05 -8.008676E-05 +2.404705E-06 +1.683782E-06 +2.404705E-06 +1.193528E-04 
 -4.040929E-08 -3.639276E-09 +1.093980E-09 -3.639276E-09 -6.373454E-08 +8.188115E-09 +1.093980E-09 +8.188115E-09 +1.041438E-07 
 -5.972372E-06 -2.745789E-06 -8.943674E-07 -2.745789E-06 -4.353839E-07 -2.737742E-06 -8.943674E-07 -2.737742E-06 +6.407756E-06 
 -7.865534E-06 -3.669045E-06 -1.803632E-06 -3.669045E-06 -1.632163E-06 +6.398638E-08 -1.803632E-06 +6.398638E-08 +9.497697E-06 
 -6.034720E-05 +1.974842E-05 -1.210881E-05 +1.974842E-05 -6.284271E-06 +1.307331E-07 -1.210881E-05 +1.307331E-07 +6.663147E-05 
 -5.987563E-07 -4.090384E-07 +1.234015E-08 -4.090384E-07 -9.024706E-08 -3.562739E-07 +1.234015E-08 -3.562739E-07 +6.890034E-07 
 -4.355068E-08 -5.924359E-09 +3.505429E-09 -5.924359E-09 -4.609469E-08 +2.477642E-09 +3.505429E-09 +2.477642E-09 +8.964537E-08 
 -1.031890E-06 +3.170923E-06 +2.775498E-06 +3.170923E-06 -6.293709E-06 -1.073952E-06 +2.775498E-06 -1.073952E-06 +7.325600E-06 
 -4.368650E-07 -1.830588E-07 +4.397184E-08 -1.830588E-07 -8.096314E-09 +2.033402E-07 +4.397184E-08 +2.033402E-07 +4.449613E-07 
 -1.071722E-05 +4.125781E-05 +3.759695E-06 +4.125781E-05 -1.413484E-04 +3.736404E-05 +3.759695E-06 +3.736404E-05 +1.520657E-04 
 -2.571826E-06 +6.386020E-07 -4.722973E-07 +6.386020E-07 +8.962841E-08 +9.564450E-07 -4.722973E-07 +9.564450E-07 +2.482198E-06 
 -2.212531E-08 -2.212977E-09 +8.558533E-09 -2.212977E-09 -1.441744E-08 -5.405116E-10 +8.558533E-09 -5.405116E-10 +3.654275E-08 
 -1.294646E-07 +2.195231E-08 +4.177940E-08 +2.195231E-08 -5.589809E-08 -1.323040E-08 +4.177940E-08 -1.323040E-08 +1.853627E-07 
 -3.918250E-07 +3.079447E-07 +3.260579E-07 +3.079447E-07 -2.900360E-07 -7.800492E-08 +3.260579E-07 -7.800492E-08 +6.818611E-07 
 -1.303862E-06 +1.278907E-07 -3.731886E-08 +1.278907E-07 +1.396304E-07 -4.191743E-07 -3.731886E-08 -4.191743E-07 +1.164232E-06 
 -2.240497E-05 -1.879984E-05 -4.896398E-06 -1.879984E-05 -1.577515E-05 -4.108870E-06 -4.896398E-06 -4.108870E-06 +3.818012E-05 
 -9.488641E-08 +7.233831E-09 +7.340300E-08 +7.233831E-09 -1.896130E-09 +1.618858E-08 +7.340300E-08 +1.618858E-08 +9.678254E-08 
 -1.015656E-06 -2.865470E-07 +3.848305E-07 -2.865470E-07 -7.313489E-08 -1.022578E-07 +3.848305E-07 -1.022578E-07 +1.088791E-06 
 -4.199997E-08 +8.143604E-09 -1.176582E-08 +8.143604E-09 -5.217185E-08 +1.364988E-08 -1.176582E-08 +1.364988E-08 +9.417182E-08 
 -2.042652E-07 +3.759536E-07 +2.418748E-07 +3.759536E-07 -4.173261E-07 +5.594636E-08 +2.418748E-07 +5.594636E-08 +6.215913E-07 
 -9.654287E-07 +4.274233E-08 -3.569680E-07 +4.274233E-08 +1.418748E-07 -3.705168E-07 -3.569680E-07 -3.705168E-07 +8.235539E-07 
 -5.246762E-06 -1.132676E-05 +3.875043E-07 -1.132676E-05 -2.324413E-05 -5.063656E-06 +3.875043E-07 -5.063656E-06 +2.849089E-05 
 -8.497294E-07 +1.665706E-06 -6.194266E-07 +1.665706E-06 -1.579720E-06 -9.989652E-07 -6.194266E-07 -9.989652E-07 +2.429449E-06 
 -4.982027E-06 -1.841229E-05 +9.357464E-06 -1.841229E-05 -4.943968E-05 -2.290298E-06 +9.357464E-06 -2.290298E-06 +5.442171E-05 
 -3.559830E-06 +9.792946E-07 +7.898025E-08 +9.792946E-07 +1.877581E-07 +1.229542E-06 +7.898025E-08 +1.229542E-06 +3.372072E-06 
 -6.892098E-06 -1.420246E-05 -9.659938E-06 -1.420246E-05 -2.694122E-05 -8.144792E-06 -9.659938E-06 -8.144792E-06 +3.383332E-05 
 -1.012815E-07 -2.171385E-08 +1.700259E-08 -2.171385E-08 -1.079955E-07 +6.758723E-09 +1.700259E-08 +6.758723E-09 +2.092770E-07 
 -6.362875E-05 +2.943078E-05 +1.246192E-05 +2.943078E-05 -1.361640E-05 -5.498866E-06 +1.246192E-05 -5.498866E-06 +7.724515E-05 
 -1.316864E-05 -1.569340E-05 -2.194517E-06 -1.569340E-05 -1.870292E-05 -2.615329E-06 -2.194517E-06 -2.615329E-06 +3.187156E-05 
 -1.215071E-07 -3.316822E-08 -5.817487E-08 -3.316822E-08 -3.482892E-07 +1.412180E-07 -5.817487E-08 +1.412180E-07 +4.697963E-07 
 -2.309031E-07 -3.518329E-07 +1.633722E-07 -3.518329E-07 -3.547453E-07 -1.315573E-07 +1.633722E-07 -1.315573E-07 +5.856484E-07 
 -1.503270E-05 +2.603613E-05 -2.464167E-06 +2.603613E-05 -4.509656E-05 +4.268245E-06 -2.464167E-06 +4.268245E-06 +6.012926E-05 
 -2.950716E-05 +1.809688E-05 +4.280366E-06 +1.809688E-05 -9.602488E-06 +5.099008E-06 +4.280366E-06 +5.099008E-06 +3.910965E-05 
 -1.769455E-07 +1.356379E-07 +1.511200E-07 +1.356379E-07 -1.087802E-07 +9.242791E-09 +1.511200E-07 +9.242791E-09 +2.857257E-07 
 -1.080219E-07 +3.319573E-07 -1.001785E-07 +3.319573E-07 -8.176751E-07 -1.944360E-07 -1.001785E-07 -1.944360E-07 +9.256970E-07 
 -2.699779E-05 -4.675463E-05 -1.665830E-05 -4.675463E-05 -8.098470E-05 -2.884922E-05 -1.665830E-05 -2.884922E-05 +1.079825E-04 
 -3.529946E-07 +3.420814E-07 +3.772853E-08 +3.420814E-07 -2.158051E-07 -3.217302E-07 +3.772853E-08 -3.217302E-07 +5.687997E-07 
 -3.536322E-06 +5.137579E-07 -1.154236E-06 +5.137579E-07 +4.525742E-08 -5.161589E-07 -1.154236E-06 -5.161589E-07 +3.491064E-06 
 -7.552662E-09 -1.523626E-09 -1.073385E-09 -1.523626E-09 -1.353208E-08 -6.867911E-09 -1.073385E-09 -6.867911E-09 +2.108474E-08 
 -5.217900E-08 -3.697749E-07 +3.600240E-07 -3.697749E-07 -1.808112E-06 +6.465546E-07 +3.600240E-07 +6.465546E-07 +1.860291E-06 
 -2.186089E-07 -8.484327E-08 -9.246125E-08 -8.484327E-08 -3.232298E-08 -1.673386E-08 -9.246125E-08 -1.673386E-08 +2.509319E-07 
 -1.328680E-07 +4.595148E-07 -5.023898E-07 +4.595148E-07 -1.455762E-06 +8.211672E-07 -5.023898E-07 +8.211672E-07 +1.588630E-06 
 -6.224549E-09 -6.123763E-09 -8.525848E-09 -6.123763E-09 -8.171541E-08 -4.426457E-08 -8.525848E-09 -4.426457E-08 +8.793997E-08 
 -1.397846E-07 -1.161620E-07 +1.336648E-07 -1.161620E-07 -2.142824E-07 +1.182149E-07 +1.336648E-07 +1.182149E-07 +3.540669E-07 
 -1.767807E-06 +1.921610E-06 -8.959551E-07 +1.921610E-06 -1.636862E-06 -3.576217E-07 -8.959551E-07 -3.576217E-07 +3.404669E-06 
 -3.371077E-08 -2.210829E-08 +7.006105E-09 -2.210829E-08 -5.572753E-08 +1.841260E-08 +7.006105E-09 +1.841260E-08 +8.943830E-08 
 -6.765147E-07 +3.376955E-07 +8.947494E-08 +3.376955E-07 -1.326019E-07 -2.169851E-07 +8.947494E-08 -2.169851E-07 +8.091166E-07 
 -3.958355E-08 -1.942916E-08 +1.165620E-08 -1.942916E-08 -1.594122E-07 +4.130334E-08 +1.165620E-08 +4.130334E-08 +1.989958E-07 
 -1.127496E-04 -4.176262E-05 +3.946753E-06 -4.176262E-05 -1.115373E-05 -2.178705E-05 +3.946753E-06 -2.178705E-05 +1.239033E-04 
 -2.147850E-05 +5.754654E-06 +6.340894E-06 +5.754654E-06 -1.543682E-06 -1.698216E-06 +6.340894E-06 -1.698216E-06 +2.302218E-05 
 -6.089316E-06 +7.104363E-07 -1.515243E-08 +7.104363E-07 -7.851708E-08 -1.771179E-07 -1.515243E-08 -1.771179E-07 +6.167833E-06 
 -7.364672E-08 -1.843080E-08 -1.030645E-08 -1.843080E-08 -1.008562E-07 -3.606975E-08 -1.030645E-08 -3.606975E-08 +1.745029E-07 
 -2.333568E-08 -1.300042E-08 +1.031598E-08 -1.300042E-08 -2.584384E-08 +2.621737E-10 +1.031598E-08 +2.621737E-10 +4.917952E-08 
 -5.592898E-08 -5.012045E-09 +6.768798E-09 -5.012045E-09 -6.175523E-08 +7.903410E-09 +6.768798E-09 +7.903410E-09 +1.176842E-07 
 -1.521556E-05 -2.776391E-05 -4.031389E-06 -2.776391E-05 -4.328465E-05 +1.362681E-05 -4.031389E-06 +1.362681E-05 +5.850021E-05 
 -3.734123E-05 -4.599234E-05 +1.097339E-05 -4.599234E-05 -5.488567E-05 +5.275337E-07 +1.097339E-05 +5.275337E-07 +9.222690E-05 
 -4.838555E-05 -2.980963E-05 +5.577680E-06 -2.980963E-05 -1.529230E-05 +1.750118E-05 +5.577680E-06 +1.750118E-05 +6.367785E-05 
 -5.499799E-05 +1.473648E-05 +1.161051E-05 +1.473648E-05 -3.949360E-06 -3.110884E-06 +1.161051E-05 -3.110884E-06 +5.894735E-05 
 -4.101599E-07 -1.525412E-06 +7.624395E-07 -1.525412E-06 -5.694396E-06 +2.844074E-06 +7.624395E-07 +2.844074E-06 +6.104556E-06 
 +1.319596E-08 +4.568301E-08 -6.555690E-08 +4.568301E-08 -2.191853E-07 -7.108790E-08 -6.555690E-08 -7.108790E-08 +2.059893E-07 
 -1.654329E-06 -2.362503E-06 +7.017562E-07 -2.362503E-06 -3.374079E-06 +1.002230E-06 +7.017562E-07 +1.002230E-06 +5.028408E-06 
 -9.170835E-07 -6.649379E-06 -3.785166E-06 -6.649379E-06 -3.256545E-05 +3.300519E-07 -3.785166E-06 +3.300519E-07 +3.348253E-05 
 -2.618790E-07 +7.193236E-08 +4.599476E-08 +7.193236E-08 -3.212918E-08 -7.729972E-08 +4.599476E-08 -7.729972E-08 +2.940081E-07 
 -2.206671E-05 +1.420195E-05 -2.108835E-06 +1.420195E-05 -7.419219E-06 -5.799018E-06 -2.108835E-06 -5.799018E-06 +2.948593E-05 
 -8.622662E-09 +9.824891E-10 -3.903742E-09 +9.824891E-10 -6.748354E-09 +2.932927E-09 -3.903742E-09 +2.932927E-09 +1.537102E-08 
 -7.492268E-08 -2.500436E-08 -9.666705E-09 -2.500436E-08 -2.910170E-07 -2.145830E-08 -9.666705E-09 -2.145830E-08 +3.659397E-07 
 -8.598661E-07 -4.493640E-07 -1.439609E-07 -4.493640E-07 -1.434076E-07 -3.907291E-07 -1.439609E-07 -3.907291E-07 +1.003274E-06 
 +1.048843E-08 +8.327159E-08 +1.192773E-07 +8.327159E-08 -3.383481E-07 -9.721943E-09 +1.192773E-07 -9.721943E-09 +3.278597E-07 
 -2.011955E-06 +1.877854E-06 -2.069347E-07 +1.877854E-06 -1.644509E-06 +8.280491E-07 -2.069347E-07 +8.280491E-07 +3.656465E-06 
 -6.169778E-08 -4.062369E-09 -6.817639E-09 -4.062369E-09 -2.939496E-08 +1.896496E-09 -6.817639E-09 +1.896496E-09 +9.109274E-08 
 -2.914182E-06 +1.893988E-05 +1.789146E-05 +1.893988E-05 -5.241370E-05 -8.227324E-06 +1.789146E-05 -8.227324E-06 +5.532788E-05 
 -9.717750E-08 -5.468932E-08 +5.917094E-09 -5.468932E-08 -1.051400E-07 +1.297811E-08 +5.917094E-09 +1.297811E-08 +2.023175E-07 
 -3.805236E-06 +4.768431E-07 +8.160052E-07 +4.768431E-07 +5.751958E-08 +5.895213E-07 +8.160052E-07 +5.895213E-07 +3.747716E-06 
 -2.143038E-04 -5.742158E-05 +4.871576E-05 -5.742158E-05 -1.539081E-05 +1.305398E-05 +4.871576E-05 +1.305398E-05 +2.296946E-04 
 -2.411999E-08 -5.338417E-09 +1.497442E-09 -5.338417E-09 -4.844922E-06 -1.754925E-06 +1.497442E-09 -1.754925E-06 +4.869042E-06 
 -6.837469E-07 +4.691461E-07 +8.085649E-08 +4.691461E-07 -3.174554E-07 -1.720268E-07 +8.085649E-08 -1.720268E-07 +1.001202E-06 
 -3.488818E-07 +3.392228E-07 -1.139847E-07 +3.392228E-07 -3.106409E-07 +2.500395E-07 -1.139847E-07 +2.500395E-07 +6.595227E-07 
 -2.011754E-07 +4.925835E-08 +2.005506E-08 +4.925835E-08 -1.336230E-07 +8.423514E-09 +2.005506E-08 +8.423514E-09 +3.347984E-07 
 -1.338979E-08 +2.261441E-09 -3.284155E-10 +2.261441E-09 -2.282802E-08 -1.124104E-08 -3.284155E-10 -1.124104E-08 +3.621780E-08 
 -3.073196E-05 -7.076428E-06 +3.015286E-07 -7.076428E-06 -1.589754E-06 -1.118849E-06 +3.015286E-07 -1.118849E-06 +3.232172E-05 
 -7.589734E-05 +1.713367E-05 -2.094279E-05 +1.713367E-05 -1.220903E-06 -1.010652E-05 -2.094279E-05 -1.010652E-05 +7.711825E-05 
 -5.069032E-06 -1.774330E-06 +2.491743E-07 -1.774330E-06 -5.533449E-07 -5.336447E-07 +2.491743E-07 -5.336447E-07 +5.622377E-06 
 -1.215464E-06 -3.437757E-07 +4.539926E-07 -3.437757E-07 -9.859602E-08 +1.489883E-07 +4.539926E-07 +1.489883E-07 +1.314060E-06 
 -2.569332E-06 +4.513048E-06 +5.635400E-08 +4.513048E-06 -7.930932E-06 +3.302855E-08 +5.635400E-08 +3.302855E-08 +1.050026E-05 
 -8.230660E-06 -1.205315E-05 +5.846443E-07 -1.205315E-05 -1.033031E-05 -1.085223E-05 +5.846443E-07 -1.085223E-05 +1.856097E-05 
 -3.505525E-07 +2.579222E-07 -2.142739E-07 +2.579222E-07 -2.916287E-07 +2.317736E-07 -2.142739E-07 +2.317736E-07 +6.421812E-07 
 -9.201426E-06 -2.345991E-07 -4.977041E-08 -2.345991E-07 +2.918025E-08 +5.682039E-07 -4.977041E-08 +5.682039E-07 +9.172246E-06 
 +2.263714E-07 -2.321127E-07 +6.715115E-07 -2.321127E-07 -2.097711E-06 -6.321995E-07 +6.715115E-07 -6.321995E-07 +1.871339E-06 
 -5.117678E-07 -1.471886E-06 +1.005618E-06 -1.471886E-06 -3.895555E-06 +1.389213E-06 +1.005618E-06 +1.389213E-06 +4.407323E-06 
 -4.568855E-06 -7.703050E-07 -1.659756E-06 -7.703050E-07 -5.015233E-09 -1.098565E-06 -1.659756E-06 -1.098565E-06 +4.573871E-06 
 -9.852126E-07 -5.584471E-06 +8.716726E-07 -5.584471E-06 -3.167163E-05 +4.942292E-06 +8.716726E-07 +4.942292E-06 +3.265684E-05 
 -9.952076E-07 +3.112867E-07 +4.935141E-07 +3.112867E-07 -2.035681E-08 +2.198294E-07 +4.935141E-07 +2.198294E-07 +1.015564E-06 
 -2.229727E-05 -1.728785E-05 -7.798493E-06 -1.728785E-05 -1.171199E-05 +1.853865E-06 -7.798493E-06 +1.853865E-06 +3.400927E-05 
 -1.046561E-05 +9.075288E-07 +4.285373E-06 +9.075288E-07 +2.614365E-07 +1.654293E-06 +4.285373E-06 +1.654293E-06 +1.020417E-05 
 -2.227944E-06 -2.041668E-06 +1.579370E-06 -2.041668E-06 -1.722103E-06 +5.432120E-07 +1.579370E-06 +5.432120E-07 +3.950047E-06 
 -1.431994E-06 -2.683128E-06 -1.325101E-06 -2.683128E-06 -5.086949E-06 -1.956403E-06 -1.325101E-06 -1.956403E-06 +6.518943E-06 
 +1.176018E-07 -7.162833E-07 -7.342173E-07 -7.162833E-07 -2.792613E-06 +8.922465E-07 -7.342173E-07 +8.922465E-07 +2.675011E-06 
 +6.168980E-08 -3.485405E-07 -8.708314E-07 -3.485405E-07 -2.463337E-06 -1.005565E-06 -8.708314E-07 -1.005565E-06 +2.401647E-06 
 -2.220195E-05 +1.505878E-05 -7.295386E-06 +1.505878E-05 -7.219112E-06 -4.870357E-06 -7.295386E-06 -4.870357E-06 +2.942106E-05 
 -2.090481E-04 +5.970268E-06 -6.823490E-05 +5.970268E-06 +1.574896E-06 -1.814527E-05 -6.823490E-05 -1.814527E-05 +2.074732E-04 
 -5.366887E-07 +3.952878E-07 +4.363353E-08 +3.952878E-07 -1.997456E-07 -3.056250E-07 +4.363353E-08 -3.056250E-07 +7.364343E-07 
 -7.010567E-09 -3.237743E-09 -9.281463E-09 -3.237743E-09 -5.008788E-08 +2.790703E-08 -9.281463E-09 +2.790703E-08 +5.709844E-08 
 -1.219968E-06 -9.799841E-07 +7.156255E-07 -9.799841E-07 -7.969821E-07 +1.515216E-07 +7.156255E-07 +1.515216E-07 +2.016950E-06 
 -8.306618E-08 +5.394764E-08 -1.725387E-08 +5.394764E-08 -5.679992E-08 -1.009961E-08 -1.725387E-08 -1.009961E-08 +1.398661E-07 
 -7.187531E-07 -2.483202E-06 +2.577350E-06 -2.483202E-06 -5.193295E-06 +1.727215E-06 +2.577350E-06 +1.727215E-06 +5.912048E-06 
 -6.222945E-05 -1.503106E-05 +1.809161E-05 -1.503106E-05 -3.069673E-06 +1.075237E-05 +1.809161E-05 +1.075237E-05 +6.529912E-05 
 -7.073456E-08 -3.342362E-08 +2.246563E-08 -3.342362E-08 -5.399346E-08 +1.251761E-08 +2.246563E-08 +1.251761E-08 +1.247280E-07 
 -2.266270E-07 +2.603452E-07 -3.551161E-08 +2.603452E-07 -2.964047E-07 +9.395039E-08 -3.551161E-08 +9.395039E-08 +5.230316E-07 
 -8.158853E-06 +1.279487E-06 +5.822597E-07 +1.279487E-06 +3.699591E-07 -2.216489E-06 +5.822597E-07 -2.216489E-06 +7.788894E-06 
 -8.612909E-07 -5.303099E-07 +8.043494E-08 -5.303099E-07 -8.185022E-08 -4.369642E-07 +8.043494E-08 -4.369642E-07 +9.431411E-07 
 -1.085718E-07 +2.875855E-08 -4.138019E-08 +2.875855E-08 -7.434072E-08 +3.091512E-09 -4.138019E-08 +3.091512E-09 +1.829126E-07 
 -7.543936E-07 +4.111813E-07 +1.624331E-07 +4.111813E-07 -1.147407E-07 +2.540625E-07 +1.624331E-07 +2.540625E-07 +8.691343E-07 
 -6.222571E-08 +3.078154E-08 +2.093022E-08 +3.078154E-08 -7.988621E-08 -2.290521E-08 +2.093022E-08 -2.290521E-08 +1.421119E-07 
 -1.249605E-07 +2.555687E-09 +3.280087E-08 +2.555687E-09 -5.028696E-09 -3.014583E-08 +3.280087E-08 -3.014583E-08 +1.299891E-07 
 -5.356169E-08 +1.541844E-07 +1.566227E-07 +1.541844E-07 -6.391194E-07 +4.152187E-08 +1.566227E-07 +4.152187E-08 +6.926811E-07 
 -1.799517E-08 +1.696079E-08 -3.147608E-09 +1.696079E-08 -5.068157E-08 -2.602302E-08 -3.147608E-09 -2.602302E-08 +6.867674E-08 
 -1.492803E-08 +9.009170E-10 +6.171676E-09 +9.009170E-10 -1.251949E-08 -1.487727E-09 +6.171676E-09 -1.487727E-09 +2.744752E-08 
 -2.724219E-06 +2.250338E-07 -9.937336E-07 +2.250338E-07 -2.364522E-08 +6.771040E-08 -9.937336E-07 +6.771040E-08 +2.747865E-06 
 -5.460465E-07 -2.389643E-07 -4.229734E-07 -2.389643E-07 -8.185630E-08 -8.542361E-09 -4.229734E-07 -8.542361E-09 +6.279028E-07 
 -1.880916E-07 +3.371578E-08 -1.330229E-08 +3.371578E-08 -5.326810E-08 +9.363817E-09 -1.330229E-08 +9.363817E-09 +2.413597E-07 
 -7.627218E-08 +2.507518E-08 -9.527334E-09 +2.507518E-08 -3.043229E-08 +2.058173E-09 -9.527334E-09 +2.058173E-09 +1.067045E-07 
 -7.154411E-05 +3.110590E-05 +2.336486E-05 +3.110590E-05 -1.266875E-05 -1.902409E-05 +2.336486E-05 -1.902409E-05 +8.421286E-05 
 -5.586486E-06 +2.505079E-06 +3.282617E-07 +2.505079E-06 -5.898342E-07 -1.972186E-06 +3.282617E-07 -1.972186E-06 +6.176320E-06 
 +1.261686E-08 -3.395758E-08 -3.717304E-08 -3.395758E-08 -4.688060E-08 -2.389387E-08 -3.717304E-08 -2.389387E-08 +3.426373E-08 
 -1.557994E-04 -1.049044E-04 +7.359900E-05 -1.049044E-04 -6.033036E-05 -1.470470E-06 +7.359900E-05 -1.470470E-06 +2.161298E-04 
 +2.586080E-07 +1.187525E-06 +1.642697E-06 +1.187525E-06 -7.438965E-06 +1.123591E-06 +1.642697E-06 +1.123591E-06 +7.180357E-06 
 -1.898278E-07 +1.492573E-08 -1.094408E-07 +1.492573E-08 +6.976028E-10 +4.376016E-08 -1.094408E-07 +4.376016E-08 +1.891302E-07 
 -1.038511E-05 +3.044026E-06 -4.194681E-06 +3.044026E-06 -8.472196E-07 +4.103059E-07 -4.194681E-06 +4.103059E-07 +1.123233E-05 
 -3.282752E-08 +1.038250E-07 -8.856787E-08 +1.038250E-07 -4.397466E-08 +5.392644E-08 -8.856787E-08 +5.392644E-08 +7.680217E-08 
 -4.156695E-06 -3.301340E-06 +3.373437E-07 -3.301340E-06 -2.048247E-06 -1.684607E-06 +3.373437E-07 -1.684607E-06 +6.204942E-06 
 -1.274285E-06 -3.110131E-08 +3.844535E-07 -3.110131E-08 +1.535867E-07 -4.372546E-07 +3.844535E-07 -4.372546E-07 +1.120699E-06 
 -2.944618E-06 -1.293341E-06 -1.267841E-06 -1.293341E-06 -3.991218E-07 +3.201363E-07 -1.267841E-06 +3.201363E-07 +3.343740E-06 
 -1.650557E-08 -8.517346E-10 +1.050575E-09 -8.517346E-10 -1.269480E-08 +1.740474E-09 +1.050575E-09 +1.740474E-09 +2.920037E-08 
 -2.617782E-07 +1.264729E-07 -1.384600E-07 +1.264729E-07 -6.096282E-08 +1.409494E-07 -1.384600E-07 +1.409494E-07 +3.227410E-07 
 +2.422119E-08 +5.380214E-08 +7.770891E-08 +5.380214E-08 -2.322232E-07 +6.770610E-08 +7.770891E-08 +6.770610E-08 +2.080020E-07 
 -2.885811E-08 +3.260310E-09 +6.401214E-10 +3.260310E-09 -4.711423E-08 -5.986641E-09 +6.401214E-10 -5.986641E-09 +7.597234E-08 
 -7.847288E-08 -2.252398E-08 +2.752313E-08 -2.252398E-08 -3.860204E-09 +2.481520E-08 +2.752313E-08 +2.481520E-08 +8.233309E-08 
 +1.041841E-08 -9.821616E-09 -3.442274E-08 -9.821616E-09 -1.019877E-07 +3.410580E-08 -3.442274E-08 +3.410580E-08 +9.156926E-08 
 +4.056117E-08 +1.025952E-07 -1.944528E-07 +1.025952E-07 -7.725417E-07 -2.223700E-07 -1.944528E-07 -2.223700E-07 +7.319805E-07 
 -3.813664E-06 +4.189091E-06 -1.804971E-06 +4.189091E-06 -4.771437E-06 +2.485993E-06 -1.804971E-06 +2.485993E-06 +8.585101E-06 
 -4.963958E-08 +3.768306E-07 +3.306233E-07 +3.768306E-07 -1.337225E-06 +6.656572E-07 +3.306233E-07 +6.656572E-07 +1.386864E-06 
 -3.084159E-07 +1.031839E-06 -6.735449E-07 +1.031839E-06 -2.322536E-06 +9.366573E-08 -6.735449E-07 +9.366573E-08 +2.630952E-06 
 -8.397906E-05 +3.195432E-05 -4.903145E-06 +3.195432E-05 -4.942543E-06 -2.354131E-05 -4.903145E-06 -2.354131E-05 +8.892160E-05 
 -6.219129E-05 +1.416186E-05 -8.998277E-06 +1.416186E-05 +1.520065E-06 +1.922070E-05 -8.998277E-06 +1.922070E-05 +6.067123E-05 
 -3.382326E-06 +1.456468E-06 -3.921846E-07 +1.456468E-06 -5.581582E-07 +7.069247E-07 -3.921846E-07 +7.069247E-07 +3.940484E-06 
 -3.453507E-07 -4.062839E-08 +2.025157E-07 -4.062839E-08 +6.190270E-09 +1.293930E-07 +2.025157E-07 +1.293930E-07 +3.391605E-07 
 -5.500205E-06 +1.498191E-06 -1.017981E-07 +1.498191E-06 +1.172885E-09 -1.489250E-06 -1.017981E-07 -1.489250E-06 +5.499032E-06 
 -2.041678E-07 +2.756541E-06 +2.830052E-06 +2.756541E-06 -8.403273E-06 -1.049319E-06 +2.830052E-06 -1.049319E-06 +8.607441E-06 
 -1.009558E-06 -4.209717E-08 -5.854598E-07 -4.209717E-08 -6.009611E-09 +1.299829E-07 -5.854598E-07 +1.299829E-07 +1.015568E-06 
 -1.146312E-04 +5.345238E-05 -6.055037E-06 +5.345238E-05 -2.492792E-05 +2.823715E-06 -6.055037E-06 +2.823715E-06 +1.395591E-04 
 -6.355943E-08 -1.024947E-08 -8.034433E-09 -1.024947E-08 -9.318127E-08 -3.028500E-08 -8.034433E-09 -3.028500E-08 +1.567407E-07 
 -3.477748E-08 +2.415877E-08 -2.223659E-08 +2.415877E-08 -5.133473E-08 +2.846696E-08 -2.223659E-08 +2.846696E-08 +8.611222E-08 
 -2.441209E-08 +1.415888E-08 -4.261562E-09 +1.415888E-08 -2.467096E-08 +3.866827E-10 -4.261562E-09 +3.866827E-10 +4.908305E-08 
 -5.931894E-09 -2.907199E-10 +2.671602E-09 -2.907199E-10 -6.678058E-09 -1.821500E-09 +2.671602E-09 -1.821500E-09 +1.260995E-08 
 -1.380142E-08 -3.530803E-09 +2.530926E-09 -3.530803E-09 -3.833288E-08 -1.161763E-08 +2.530926E-09 -1.161763E-08 +5.213430E-08 
 -2.891084E-07 -1.643275E-06 -8.304334E-07 -1.643275E-06 -5.540117E-06 +8.704851E-07 -8.304334E-07 +8.704851E-07 +5.829225E-06 
 -3.829763E-08 +6.071951E-09 +1.927009E-08 +6.071951E-09 -1.839353E-08 +7.352146E-10 +1.927009E-08 +7.352146E-10 +5.669116E-08 
 -2.425485E-06 -2.484657E-07 -1.423726E-07 -2.484657E-07 +1.143021E-07 +5.985635E-07 -1.423726E-07 +5.985635E-07 +2.311182E-06 
 -1.305833E-04 +1.864910E-04 +6.159983E-05 +1.864910E-04 -2.663367E-04 -8.797234E-05 +6.159983E-05 -8.797234E-05 +3.969201E-04 
 -3.849526E-06 +3.839638E-06 +5.716004E-07 +3.839638E-06 -3.687706E-06 +4.791242E-07 +5.716004E-07 +4.791242E-07 +7.537232E-06 
 -2.301757E-05 -1.659634E-05 -1.501071E-05 -1.659634E-05 -1.020414E-05 -2.072746E-06 -1.501071E-05 -2.072746E-06 +3.322172E-05 
 -1.942894E-08 -1.009054E-08 -9.908699E-09 -1.009054E-08 -1.265344E-08 -5.712236E-09 -9.908699E-09 -5.712236E-09 +3.208238E-08 
 -5.181687E-06 +1.906007E-06 +2.550025E-06 +1.906007E-06 -4.871743E-07 +3.061317E-07 +2.550025E-06 +3.061317E-07 +5.668861E-06 
 -3.739384E-08 +2.153665E-08 -4.032727E-09 +2.153665E-08 -4.923855E-08 +3.122197E-08 -4.032727E-09 +3.122197E-08 +8.663239E-08 
 -9.691453E-08 -2.343341E-07 +7.524325E-08 -2.343341E-07 -6.059456E-07 +2.404124E-07 +7.524325E-08 +2.404124E-07 +7.028602E-07 
 -2.513368E-07 +2.106371E-07 -1.412062E-07 +2.106371E-07 -1.727225E-07 +2.208301E-07 -1.412062E-07 +2.208301E-07 +4.240592E-07 
 -4.316124E-06 -3.621568E-06 -1.690452E-06 -3.621568E-06 -3.038993E-06 -1.418429E-06 -1.690452E-06 -1.418429E-06 +7.355117E-06 
 -1.160917E-07 -2.541408E-08 -2.718166E-08 -2.541408E-08 -5.572512E-08 -2.866743E-08 -2.718166E-08 -2.866743E-08 +1.718169E-07 
 -2.153201E-08 +2.594135E-09 +1.613172E-09 +2.594135E-09 -1.895161E-08 +3.803049E-09 +1.613172E-09 +3.803049E-09 +4.048362E-08 
 -9.009125E-07 +5.818189E-07 -4.189646E-07 +5.818189E-07 -3.749867E-07 +2.095469E-07 -4.189646E-07 +2.095469E-07 +1.275899E-06 
 -3.755068E-08 +1.847152E-09 +1.454421E-08 +1.847152E-09 -2.399652E-08 -8.379108E-10 +1.454421E-08 -8.379108E-10 +6.154720E-08 
 -2.221707E-05 -1.555580E-05 -4.221408E-06 -1.555580E-05 -1.089338E-05 -2.955382E-06 -4.221408E-06 -2.955382E-06 +3.311045E-05 
 -3.052914E-08 +1.419796E-09 -1.126535E-08 +1.419796E-09 -2.226747E-08 -4.293132E-09 -1.126535E-08 -4.293132E-09 +5.279662E-08 
 -3.477473E-05 +3.631140E-05 -6.188826E-06 +3.631140E-05 -3.361275E-05 -1.085517E-05 -6.188826E-06 -1.085517E-05 +6.838748E-05 
 -1.375574E-06 -2.333631E-06 -1.556157E-06 -2.333631E-06 -3.726573E-06 -1.315860E-06 -1.556157E-06 -1.315860E-06 +5.102147E-06 
 -1.565520E-06 -3.700180E-06 -2.801253E-06 -3.700180E-06 -5.820015E-06 -5.973368E-07 -2.801253E-06 -5.973368E-07 +7.385536E-06 
 -7.316563E-06 -2.730117E-05 -5.730440E-06 -2.730117E-05 -1.018907E-04 -2.138621E-05 -5.730440E-06 -2.138621E-05 +1.092072E-04 
 -9.038258E-07 +2.136864E-07 +1.492590E-07 +2.136864E-07 +5.932297E-08 +2.775666E-07 +1.492590E-07 +2.775666E-07 +8.445028E-07 
 -2.569394E-05 +3.812000E-05 +9.403345E-06 +3.812000E-05 -5.462821E-05 -1.183431E-06 +9.403345E-06 -1.183431E-06 +8.032214E-05 
 -5.944345E-05 +4.906134E-05 +7.145287E-06 +4.906134E-05 -3.919811E-05 -1.725953E-05 +7.145287E-06 -1.725953E-05 +9.864156E-05 
 -5.613029E-08 -7.339626E-08 +3.982239E-08 -7.339626E-08 -3.868106E-07 +2.780716E-07 +3.982239E-08 +2.780716E-07 +4.429409E-07 
 -1.029711E-08 -3.441331E-09 -5.755899E-10 -3.441331E-09 -2.645428E-08 -2.324994E-09 -5.755899E-10 -2.324994E-09 +3.675139E-08 
 -2.317483E-06 -2.235293E-06 +9.171371E-07 -2.235293E-06 -1.998235E-06 +1.404482E-08 +9.171371E-07 +1.404482E-08 +4.315718E-06 
 -1.466566E-07 +1.124125E-08 -1.925404E-08 +1.124125E-08 -7.525199E-08 +1.173994E-08 -1.925404E-08 +1.173994E-08 +2.219086E-07 
 -2.677100E-07 -2.009704E-08 +1.594061E-07 -2.009704E-08 +2.089185E-08 -7.905670E-08 +1.594061E-07 -7.905670E-08 +2.468182E-07 
 -3.653506E-07 +7.415840E-07 -4.881474E-07 +7.415840E-07 -1.078326E-06 +2.835445E-08 -4.881474E-07 +2.835445E-08 +1.443677E-06 
 -3.257559E-06 -3.069608E-05 -3.747892E-05 -3.069608E-05 -8.241663E-05 -2.610392E-05 -3.747892E-05 -2.610392E-05 +8.567419E-05 
 +6.422363E-08 +1.201529E-08 +1.902604E-07 +1.201529E-08 -6.009938E-07 +3.395380E-08 +1.902604E-07 +3.395380E-08 +5.367701E-07 
 -4.728538E-08 -8.171049E-09 -1.438276E-08 -8.171049E-09 -2.716894E-08 -4.722316E-09 -1.438276E-08 -4.722316E-09 +7.445432E-08 
 -1.479788E-07 -5.054153E-07 +1.040219E-07 -5.054153E-07 -1.292027E-06 -5.435369E-07 +1.040219E-07 -5.435369E-07 +1.440006E-06 
 -7.243846E-07 +9.931567E-07 +2.045402E-08 +9.931567E-07 -1.263558E-06 -4.748547E-07 +2.045402E-08 -4.748547E-07 +1.987943E-06 
 -2.135627E-06 +2.887125E-06 -8.625022E-08 +2.887125E-06 -3.639957E-06 +1.353776E-06 -8.625022E-08 +1.353776E-06 +5.775584E-06 
 -1.424778E-07 -1.134006E-07 -2.620265E-08 -1.134006E-07 -1.041111E-07 -1.143677E-07 -2.620265E-08 -1.143677E-07 +2.465889E-07 
 -8.789095E-07 -1.842679E-06 -7.759206E-07 -1.842679E-06 -3.879864E-06 -1.546493E-06 -7.759206E-07 -1.546493E-06 +4.758774E-06 
 -1.132369E-06 +2.923332E-06 -2.816290E-06 +2.923332E-06 -4.781197E-06 +1.272297E-06 -2.816290E-06 +1.272297E-06 +5.913566E-06 
 -5.421431E-07 -1.115200E-06 -4.135655E-08 -1.115200E-06 -2.295812E-06 +1.876736E-08 -4.135655E-08 +1.876736E-08 +2.837955E-06 
 -1.720132E-05 -1.776020E-05 -4.545231E-06 -1.776020E-05 -1.779094E-05 -2.183876E-07 -4.545231E-06 -2.183876E-07 +3.499226E-05 
 -2.328339E-07 +1.364924E-07 -5.402040E-08 +1.364924E-07 -3.171226E-08 +1.513650E-07 -5.402040E-08 +1.513650E-07 +2.645461E-07 
 -1.952224E-08 -9.305581E-09 +1.598829E-09 -9.305581E-09 -3.846952E-08 -2.256764E-09 +1.598829E-09 -2.256764E-09 +5.799176E-08 
 -8.471236E-07 -8.529847E-08 +3.190144E-07 -8.529847E-08 -7.422311E-09 -3.486228E-08 +3.190144E-07 -3.486228E-08 +8.545459E-07 
 -8.326715E-05 +3.148352E-06 +3.099699E-06 +3.148352E-06 +3.690159E-06 -1.755520E-05 +3.099699E-06 -1.755520E-05 +7.957700E-05 
 -1.819116E-07 +2.936313E-08 +2.420523E-08 +2.936313E-08 -1.575416E-07 -1.716029E-08 +2.420523E-08 -1.716029E-08 +3.394531E-07 
 -1.642248E-07 +2.250540E-08 +1.763762E-08 +2.250540E-08 -1.793078E-07 +5.451910E-09 +1.763762E-08 +5.451910E-09 +3.435326E-07 
 -1.792476E-07 -9.123131E-08 -1.114610E-07 -9.123131E-08 -6.251160E-08 -5.861916E-08 -1.114610E-07 -5.861916E-08 +2.417592E-07 
 -5.165039E-08 -1.180280E-08 +1.527550E-08 -1.180280E-08 -4.948122E-08 +1.236506E-08 +1.527550E-08 +1.236506E-08 +1.011316E-07 
 -8.598319E-05 -8.598253E-05 -2.365576E-05 -8.598253E-05 -8.598308E-05 -2.365547E-05 -2.365576E-05 -2.365547E-05 +1.719663E-04 
 -1.104875E-07 +1.947723E-08 -9.058232E-08 +1.947723E-08 -2.156138E-07 +3.203523E-08 -9.058232E-08 +3.203523E-08 +3.261013E-07 
 -9.586111E-05 -1.246471E-04 -3.793190E-05 -1.246471E-04 -1.429794E-04 +2.030590E-05 -3.793190E-05 +2.030590E-05 +2.388406E-04 
 -1.008998E-06 +7.082708E-07 +1.640910E-08 +7.082708E-07 -2.630501E-07 +5.444062E-07 +1.640910E-08 +5.444062E-07 +1.272049E-06 
 -5.068042E-06 -3.720544E-06 -6.983399E-07 -3.720544E-06 -2.607394E-06 -1.496810E-06 -6.983399E-07 -1.496810E-06 +7.675437E-06 
 -6.062034E-08 +2.493364E-08 -8.367318E-09 +2.493364E-08 -5.528264E-08 +3.088589E-09 -8.367318E-09 +3.088589E-09 +1.159030E-07 
 -6.988760E-05 -4.034906E-05 -2.511787E-05 -4.034906E-05 -2.329668E-05 -1.450146E-05 -2.511787E-05 -1.450146E-05 +9.318429E-05 
 -5.567335E-06 +1.045605E-06 +2.016048E-06 +1.045605E-06 -2.879211E-08 +7.271015E-07 +2.016048E-06 +7.271015E-07 +5.596127E-06 
 -6.860994E-06 -3.418919E-06 -2.839670E-06 -3.418919E-06 -9.087804E-07 +1.252518E-06 -2.839670E-06 +1.252518E-06 +7.769774E-06 
 -8.980075E-07 -9.050051E-08 -1.741905E-07 -9.050051E-08 +9.526970E-08 -3.208681E-07 -1.741905E-07 -3.208681E-07 +8.027378E-07 
 -2.398364E-06 -1.044728E-06 +1.317541E-06 -1.044728E-06 -2.921619E-07 -1.787060E-07 +1.317541E-06 -1.787060E-07 +2.690526E-06 
 -5.420791E-07 -5.436773E-07 +2.074070E-07 -5.436773E-07 -5.830842E-07 +3.384963E-07 +2.074070E-07 +3.384963E-07 +1.125163E-06 
 -5.356850E-06 +1.175698E-05 -5.269293E-07 +1.175698E-05 -2.426327E-05 -5.742664E-06 -5.269293E-07 -5.742664E-06 +2.962012E-05 
 -1.117008E-08 -1.196438E-09 -4.935270E-09 -1.196438E-09 -8.478848E-09 -2.477405E-09 -4.935270E-09 -2.477405E-09 +1.964893E-08 
 -8.373001E-06 -1.534868E-06 +6.938030E-08 -1.534868E-06 -2.055927E-07 -7.991056E-07 +6.938030E-08 -7.991056E-07 +8.578594E-06 
 -2.840973E-06 +1.610453E-05 -1.228983E-06 +1.610453E-05 -9.133430E-05 +6.969608E-06 -1.228983E-06 +6.969608E-06 +9.417527E-05 
 +2.975778E-08 +1.649571E-08 +1.933804E-07 +1.649571E-08 -1.001502E-06 +3.199701E-07 +1.933804E-07 +3.199701E-07 +9.717447E-07 
 -1.781239E-06 -2.034723E-05 +6.659285E-06 -2.034723E-05 -2.325698E-04 +7.610958E-05 +6.659285E-06 +7.610958E-05 +2.343510E-04 
 -1.351352E-07 -3.152557E-08 -1.233167E-08 -3.152557E-08 -2.029027E-07 +3.417514E-08 -1.233167E-08 +3.417514E-08 +3.380379E-07 
 -2.845397E-05 -1.343385E-05 -8.656881E-07 -1.343385E-05 -5.079308E-06 +6.115883E-06 -8.656881E-07 +6.115883E-06 +3.353327E-05 
 -4.575448E-08 -2.288916E-07 +1.055069E-07 -2.288916E-07 -4.200466E-07 -1.976984E-07 +1.055069E-07 -1.976984E-07 +4.658010E-07 
 -9.907893E-06 -2.132453E-06 -1.439030E-06 -2.132453E-06 +4.402847E-07 +2.647224E-06 -1.439030E-06 +2.647224E-06 +9.467609E-06 
 -4.160406E-05 -7.507597E-07 -3.837120E-07 -7.507597E-07 +4.473478E-07 -4.372873E-06 -3.837120E-07 -4.372873E-06 +4.115671E-05 
 -7.418819E-09 -9.654006E-08 +6.073495E-08 -9.654006E-08 -4.402901E-07 -1.068344E-07 +6.073495E-08 -1.068344E-07 +4.477089E-07 
 -1.464118E-06 -2.402008E-06 +1.169297E-06 -2.402008E-06 -3.576003E-06 +4.346004E-07 +1.169297E-06 +4.346004E-07 +5.040121E-06 
 -2.363847E-06 -1.645952E-06 -1.044877E-06 -1.645952E-06 -1.166056E-06 -7.309575E-07 -1.044877E-06 -7.309575E-07 +3.529904E-06 
 -1.539216E-06 +1.876306E-06 -8.418479E-07 +1.876306E-06 -2.298863E-06 +1.110452E-06 -8.418479E-07 +1.110452E-06 +3.838079E-06 
 -3.048503E-08 +1.839467E-07 +1.042838E-07 +1.839467E-07 -3.735493E-07 +1.270135E-07 +1.042838E-07 +1.270135E-07 +4.040344E-07 
 -6.085369E-08 +2.200201E-08 +3.349580E-09 +2.200201E-08 -8.493539E-08 -8.543249E-09 +3.349580E-09 -8.543249E-09 +1.457891E-07 
 -1.678034E-06 -8.845818E-07 +7.305056E-07 -8.845818E-07 -4.705897E-07 +2.887997E-07 +7.305056E-07 +2.887997E-07 +2.148623E-06 
 -1.681641E-08 +1.008264E-07 +1.116891E-07 +1.008264E-07 -2.608431E-07 -6.606268E-08 +1.116891E-07 -6.606268E-08 +2.776595E-07 
 -6.492701E-07 +1.910605E-06 -8.600567E-07 +1.910605E-06 -3.584488E-06 -8.230962E-07 -8.600567E-07 -8.230962E-07 +4.233758E-06 
 -5.524373E-07 +1.432572E-07 +2.610711E-07 +1.432572E-07 +2.649557E-08 +1.611094E-07 +2.610711E-07 +1.611094E-07 +5.259417E-07 
 -9.087261E-08 +3.378856E-09 +3.144779E-08 +3.378856E-09 -5.531867E-08 -1.107838E-08 +3.144779E-08 -1.107838E-08 +1.461913E-07 
 -8.910893E-06 -2.211403E-05 -1.453177E-05 -2.211403E-05 -5.129815E-05 -1.870279E-05 -1.453177E-05 -1.870279E-05 +6.020904E-05 
 -3.526952E-08 +9.136014E-09 +7.285504E-09 +9.136014E-09 -3.944452E-08 -6.081015E-09 +7.285504E-09 -6.081015E-09 +7.471403E-08 
 -2.563335E-08 -3.292360E-09 -3.070571E-09 -3.292360E-09 -1.630371E-08 -1.253803E-09 -3.070571E-09 -1.253803E-09 +4.193706E-08 
 -1.561393E-08 +5.767194E-09 -3.723276E-09 +5.767194E-09 -9.868892E-09 +8.322879E-09 -3.723276E-09 +8.322879E-09 +2.548282E-08 
 -1.171899E-08 +6.461133E-09 +8.653415E-10 +6.461133E-09 -2.952144E-08 -2.541172E-09 +8.653415E-10 -2.541172E-09 +4.124043E-08 
 -1.998987E-08 +3.508159E-10 +1.357046E-09 +3.508159E-10 -9.056343E-09 +1.017213E-09 +1.357046E-09 +1.017213E-09 +2.904622E-08 
 -6.037597E-08 +7.882848E-09 -3.776046E-08 +7.882848E-09 -1.798711E-09 -1.772790E-08 -3.776046E-08 -1.772790E-08 +6.217468E-08 
 -1.410658E-06 +2.053146E-07 -4.641495E-07 +2.053146E-07 +1.143663E-08 -2.041335E-07 -4.641495E-07 -2.041335E-07 +1.399221E-06 
 -4.583969E-08 -1.659821E-08 +1.622697E-09 -1.659821E-08 -9.618006E-08 +1.013041E-08 +1.622697E-09 +1.013041E-08 +1.420197E-07 
 -2.573816E-06 +1.215731E-06 -1.134500E-06 +1.215731E-06 -3.671056E-07 -3.433384E-07 -1.134500E-06 -3.433384E-07 +2.940921E-06 
 -2.034313E-06 -1.144489E-06 -4.589155E-07 -1.144489E-06 -5.212170E-07 -8.786831E-07 -4.589155E-07 -8.786831E-07 +2.555529E-06 
 -1.222712E-06 -2.524130E-06 -1.353834E-07 -2.524130E-06 -5.076992E-06 -1.204318E-06 -1.353834E-07 -1.204318E-06 +6.299703E-06 
 -1.459035E-07 +5.403567E-07 +1.072355E-07 +5.403567E-07 -2.025411E-06 -1.262226E-06 +1.072355E-07 -1.262226E-06 +2.171315E-06 
 -3.825329E-06 +3.117589E-06 +1.580556E-07 +3.117589E-06 -1.395877E-06 -2.587167E-06 +1.580556E-07 -2.587167E-06 +5.221206E-06 
 -1.160612E-07 +3.681691E-07 +2.725443E-07 +3.681691E-07 -1.099163E-06 -3.533293E-07 +2.725443E-07 -3.533293E-07 +1.215224E-06 
 -1.163367E-07 +1.395092E-08 -3.922932E-08 +1.395092E-08 -7.199941E-08 +1.497166E-08 -3.922932E-08 +1.497166E-08 +1.883361E-07 
 -4.420102E-08 -8.271110E-09 +3.304707E-09 -8.271110E-09 -4.422774E-08 +1.066105E-09 +3.304707E-09 +1.066105E-09 +8.842876E-08 
 +3.174254E-07 +3.932579E-07 -1.652994E-06 +3.932579E-07 -5.850000E-06 +2.333448E-06 -1.652994E-06 +2.333448E-06 +5.532575E-06 
 -2.184429E-08 +3.052955E-09 -1.030110E-08 +3.052955E-09 -1.134467E-08 +5.223530E-09 -1.030110E-08 +5.223530E-09 +3.318896E-08 
 -3.764112E-06 -2.002668E-07 +2.290990E-07 -2.002668E-07 +3.495419E-07 +1.125825E-06 +2.290990E-07 +1.125825E-06 +3.414570E-06 
 -3.914779E-06 -4.943119E-06 +6.798678E-07 -4.943119E-06 -4.732570E-06 -2.784802E-06 +6.798678E-07 -2.784802E-06 +8.647349E-06 
 -1.501528E-06 +6.561019E-07 +7.015411E-07 +6.561019E-07 -2.632071E-07 -6.213095E-08 +7.015411E-07 -6.213095E-08 +1.764735E-06 
 -1.330316E-06 -1.431775E-05 -6.808616E-06 -1.431775E-05 -5.865544E-05 +2.221881E-05 -6.808616E-06 +2.221881E-05 +5.998576E-05 
 -6.400172E-08 +3.298631E-08 -7.582839E-08 +3.298631E-08 -1.501081E-06 +5.155739E-07 -7.582839E-08 +5.155739E-07 +1.565082E-06 
 -2.435069E-05 +2.043235E-05 +5.159872E-06 +2.043235E-05 -1.714512E-05 -4.329781E-06 +5.159872E-06 -4.329781E-06 +4.149582E-05 
 -4.363280E-06 +5.007821E-07 -1.644183E-06 +5.007821E-07 -4.260530E-08 -9.882744E-08 -1.644183E-06 -9.882744E-08 +4.405886E-06 
 -9.680247E-09 +2.108132E-09 +4.999579E-09 +2.108132E-09 -8.827131E-09 -2.983461E-09 +4.999579E-09 -2.983461E-09 +1.850738E-08 
 -1.348226E-08 -6.987114E-10 -8.749504E-09 -6.987114E-10 -1.426416E-08 -1.616149E-09 -8.749504E-09 -1.616149E-09 +2.774641E-08 
 -2.489658E-04 -2.178167E-05 +7.233202E-05 -2.178167E-05 -1.908212E-06 +6.329280E-06 +7.233202E-05 +6.329280E-06 +2.508741E-04 
 -1.485749E-06 +2.308128E-05 -1.278556E-05 +2.308128E-05 -5.065058E-05 -2.522315E-05 -1.278556E-05 -2.522315E-05 +5.213633E-05 
 -4.068181E-06 -3.535755E-07 -7.812779E-07 -3.535755E-07 +1.373194E-09 +3.023760E-07 -7.812779E-07 +3.023760E-07 +4.066808E-06 
 -1.848149E-06 -9.552963E-07 +8.152186E-07 -9.552963E-07 -4.882462E-07 +2.873386E-07 +8.152186E-07 +2.873386E-07 +2.336395E-06 
 -5.909130E-06 +3.576021E-06 +3.425672E-06 +3.576021E-06 -1.847453E-06 -3.042540E-07 +3.425672E-06 -3.042540E-07 +7.756583E-06 
 -1.534863E-07 +7.751513E-07 +4.370870E-08 +7.751513E-07 -2.663151E-06 +1.800646E-06 +4.370870E-08 +1.800646E-06 +2.816637E-06 
 -3.813857E-08 +1.025730E-08 -7.874020E-09 +1.025730E-08 -3.695927E-08 -1.769265E-09 -7.874020E-09 -1.769265E-09 +7.509785E-08 
 -2.202395E-06 -1.578093E-07 +9.404322E-07 -1.578093E-07 +2.868076E-07 -7.696818E-07 +9.404322E-07 -7.696818E-07 +1.915588E-06 
 -6.528733E-05 +5.119930E-05 +2.037277E-05 +5.119930E-05 -2.934933E-05 +1.708631E-05 +2.037277E-05 +1.708631E-05 +9.463666E-05 
 -6.753844E-05 +1.213324E-05 -2.556415E-06 +1.213324E-05 -1.649436E-06 -5.686905E-06 -2.556415E-06 -5.686905E-06 +6.918787E-05 
 -5.933979E-06 +5.177018E-06 -4.720978E-07 +5.177018E-06 -2.636841E-06 -3.640097E-06 -4.720978E-07 -3.640097E-06 +8.570821E-06 
 -2.414323E-05 -8.664606E-06 -7.937305E-06 -8.664606E-06 -1.027664E-06 +4.826326E-06 -7.937305E-06 +4.826326E-06 +2.517089E-05 
 -2.634808E-07 -5.250483E-07 -4.137325E-08 -5.250483E-07 -1.032897E-06 -2.396510E-07 -4.137325E-08 -2.396510E-07 +1.296378E-06 
 -3.573946E-08 -5.259512E-09 +1.362620E-08 -5.259512E-09 -3.042393E-08 -2.485969E-09 +1.362620E-08 -2.485969E-09 +6.616339E-08 
 -8.717969E-05 -1.075641E-04 +2.697400E-05 -1.075641E-04 -1.285727E-04 +2.785838E-06 +2.697400E-05 +2.785838E-06 +2.157524E-04 
 -1.195291E-07 -3.530325E-08 -1.355334E-08 -3.530325E-08 -6.181629E-08 -2.826831E-09 -1.355334E-08 -2.826831E-09 +1.813454E-07 
 -8.249755E-08 +1.344395E-07 -4.606398E-08 +1.344395E-07 -2.262624E-07 +1.802844E-07 -4.606398E-08 +1.802844E-07 +3.087600E-07 
 -2.718268E-05 +1.658948E-05 -9.610536E-06 +1.658948E-05 -8.703230E-06 -1.609875E-06 -9.610536E-06 -1.609875E-06 +3.588591E-05 
 -2.209938E-06 +2.659116E-07 +6.904590E-07 +2.659116E-07 +4.347484E-08 -5.091562E-07 +6.904590E-07 -5.091562E-07 +2.166464E-06 
 -4.407286E-08 -3.351343E-09 -1.544627E-08 -3.351343E-09 -5.276965E-08 +2.042642E-08 -1.544627E-08 +2.042642E-08 +9.684251E-08 
 -2.454593E-05 +3.409899E-05 -1.784808E-05 +3.409899E-05 -4.156063E-05 +3.181327E-06 -1.784808E-05 +3.181327E-06 +6.610656E-05 
 -5.435979E-08 -4.176601E-09 -9.041662E-09 -4.176601E-09 -1.160080E-07 -3.564852E-08 -9.041662E-09 -3.564852E-08 +1.703678E-07 
 -7.721470E-09 +2.787814E-08 -1.729581E-07 +2.787814E-08 -6.215020E-07 -2.725734E-07 -1.729581E-07 -2.725734E-07 +6.292235E-07 
 -3.824197E-05 +2.794717E-05 -5.487535E-06 +2.794717E-05 -1.781757E-05 -8.211947E-06 -5.487535E-06 -8.211947E-06 +5.605954E-05 
 -6.759333E-08 -4.106709E-08 -2.881948E-08 -4.106709E-08 -5.392247E-08 -4.596184E-08 -2.881948E-08 -4.596184E-08 +1.215158E-07 
 -3.486965E-07 -1.616604E-07 -2.198153E-07 -1.616604E-07 +7.623196E-09 +1.009577E-07 -2.198153E-07 +1.009577E-07 +3.410734E-07 
 -1.152107E-07 -1.280717E-08 -3.434816E-08 -1.280717E-08 -4.623307E-08 -4.930252E-09 -3.434816E-08 -4.930252E-09 +1.614437E-07 
 -1.729735E-05 +4.752185E-05 -8.663442E-06 +4.752185E-05 -1.305659E-04 +2.380323E-05 -8.663442E-06 +2.380323E-05 +1.478633E-04 
 -6.780871E-06 -1.195539E-06 -2.625436E-06 -1.195539E-06 -2.112987E-07 -4.626783E-07 -2.625436E-06 -4.626783E-07 +6.992170E-06 
 -2.484173E-07 +5.809656E-08 +2.176940E-08 +5.809656E-08 -1.161549E-07 -1.291320E-08 +2.176940E-08 -1.291320E-08 +3.645722E-07 
 -6.192100E-05 +8.020400E-06 +1.091708E-05 +8.020400E-06 -5.995863E-09 -9.558477E-06 +1.091708E-05 -9.558477E-06 +6.192700E-05 
 -2.441111E-07 +1.257200E-07 +3.796771E-08 +1.257200E-07 -1.657030E-07 -4.010937E-08 +3.796771E-08 -4.010937E-08 +4.098141E-07 
 -3.184212E-06 -9.062883E-07 -1.268786E-06 -9.062883E-07 +4.226703E-09 +6.357840E-07 -1.268786E-06 +6.357840E-07 +3.179985E-06 
 -2.490326E-06 +2.067591E-06 -2.028287E-08 +2.067591E-06 -6.284517E-07 -1.827878E-06 -2.028287E-08 -1.827878E-06 +3.118778E-06 
 -3.914436E-05 -5.905496E-05 +1.031468E-05 -5.905496E-05 -7.783039E-05 -2.121113E-05 +1.031468E-05 -2.121113E-05 +1.169747E-04 
 -5.767362E-08 -3.068965E-08 -2.097688E-09 -3.068965E-08 -1.086132E-07 -1.133867E-08 -2.097688E-09 -1.133867E-08 +1.662869E-07 
 -2.878402E-07 +1.078404E-07 -1.694370E-07 +1.078404E-07 -2.771669E-08 -1.176033E-08 -1.694370E-07 -1.176033E-08 +3.155569E-07 
 -9.541851E-09 +6.800620E-10 +4.808935E-10 +6.800620E-10 -1.569729E-08 -5.854748E-09 +4.808935E-10 -5.854748E-09 +2.523914E-08 
 -8.019514E-08 -5.186661E-09 +7.973743E-09 -5.186661E-09 -3.507872E-08 +4.952505E-09 +7.973743E-09 +4.952505E-09 +1.152739E-07 
 -1.434548E-07 -4.051175E-08 -3.539250E-08 -4.051175E-08 +7.636933E-09 -6.869877E-08 -3.539250E-08 -6.869877E-08 +1.358179E-07 
 -9.429883E-08 -1.137121E-08 +4.191636E-08 -1.137121E-08 -1.021546E-07 +4.573733E-08 +4.191636E-08 +4.573733E-08 +1.964534E-07 
 -5.341423E-06 +3.088169E-06 -2.250749E-06 +3.088169E-06 -1.828271E-06 +1.274289E-06 -2.250749E-06 +1.274289E-06 +7.169694E-06 
 -9.447638E-08 -8.115194E-07 +3.016222E-07 -8.115194E-07 -3.870968E-06 -1.632964E-06 +3.016222E-07 -1.632964E-06 +3.965444E-06 
 -5.538712E-09 -4.793895E-10 -3.406764E-10 -4.793895E-10 -8.313735E-09 -2.715177E-09 -3.406764E-10 -2.715177E-09 +1.385245E-08 
 -1.267435E-07 +1.846535E-08 -6.364148E-08 +1.846535E-08 -4.575995E-08 +3.757274E-08 -6.364148E-08 +3.757274E-08 +1.725034E-07 
 -7.627599E-07 +7.615630E-07 +5.203361E-07 +7.615630E-07 -4.766283E-07 +1.684484E-07 +5.203361E-07 +1.684484E-07 +1.239388E-06 
 -1.826304E-08 +1.023350E-09 +1.028128E-08 +1.023350E-09 -1.089477E-09 +1.570483E-09 +1.028128E-08 +1.570483E-09 +1.935251E-08 
 -4.667686E-08 +3.961357E-09 +8.276539E-09 +3.961357E-09 -8.458511E-08 -2.976691E-08 +8.276539E-09 -2.976691E-08 +1.312620E-07 
 -7.583986E-07 -2.147164E-06 -8.041636E-08 -2.147164E-06 -5.723583E-06 +1.298510E-06 -8.041636E-08 +1.298510E-06 +6.481982E-06 
 +2.789993E-08 -6.175952E-08 +5.121280E-08 -6.175952E-08 -1.061803E-08 +2.607116E-08 +5.121280E-08 +2.607116E-08 -1.728189E-08 
 -2.315288E-07 -2.154220E-07 +1.533958E-07 -2.154220E-07 -3.251549E-07 +2.096099E-07 +1.533958E-07 +2.096099E-07 +5.566837E-07 
 +8.306543E-08 +3.197141E-07 -8.483503E-07 +3.197141E-07 -6.325115E-06 +9.675383E-07 -8.483503E-07 +9.675383E-07 +6.242049E-06 
 -4.645492E-08 +2.087167E-08 +2.863690E-09 +2.087167E-08 -8.644437E-08 +1.341358E-08 +2.863690E-09 +1.341358E-08 +1.328993E-07 
 -1.409125E-07 +5.535231E-08 -9.049201E-09 +5.535231E-08 -6.467137E-08 +9.262958E-09 -9.049201E-09 +9.262958E-09 +2.055839E-07 
 -1.102849E-06 +7.686423E-06 -6.322764E-06 +7.686423E-06 -3.185785E-05 +5.279882E-06 -6.322764E-06 +5.279882E-06 +3.296070E-05 
 -8.719511E-09 -4.098955E-09 +8.421018E-09 -4.098955E-09 -3.055068E-08 +7.441314E-09 +8.421018E-09 +7.441314E-09 +3.927019E-08 
 -7.465037E-09 -6.376991E-10 +7.766081E-11 -6.376991E-10 -1.236916E-08 +5.299214E-09 +7.766081E-11 +5.299214E-09 +1.983419E-08 
 -4.282015E-08 -1.067864E-08 -1.536354E-08 -1.067864E-08 -4.445780E-08 -1.142868E-08 -1.536354E-08 -1.142868E-08 +8.727795E-08 
 -2.343159E-06 +1.204058E-06 +2.941650E-07 +1.204058E-06 -2.362056E-07 +8.708434E-07 +2.941650E-07 +8.708434E-07 +2.579364E-06 
 -6.017593E-06 -3.929615E-07 +2.203246E-06 -3.929615E-07 -2.688208E-08 +2.158604E-09 +2.203246E-06 +2.158604E-09 +6.044475E-06 
 -6.776931E-08 +7.347626E-07 -8.389563E-07 +7.347626E-07 -7.356027E-06 +2.569389E-06 -8.389563E-07 +2.569389E-06 +7.423796E-06 
 -1.203029E-06 +1.615976E-06 -6.849027E-07 +1.615976E-06 -1.161887E-06 -7.591487E-07 -6.849027E-07 -7.591487E-07 +2.364916E-06 
 -3.967566E-08 +1.189713E-08 +2.351745E-08 +1.189713E-08 -3.323770E-07 -1.785722E-07 +2.351745E-08 -1.785722E-07 +3.720527E-07 
 -2.453476E-08 +1.117748E-08 +7.520869E-09 +1.117748E-08 -3.129281E-08 -9.591584E-09 +7.520869E-09 -9.591584E-09 +5.582758E-08 
 -6.388484E-06 +2.011438E-07 +1.156970E-06 +2.011438E-07 +1.311130E-08 +3.266766E-07 +1.156970E-06 +3.266766E-07 +6.375373E-06 
 -5.444682E-08 -1.273284E-08 +1.616884E-08 -1.273284E-08 -3.248455E-08 +1.006982E-08 +1.616884E-08 +1.006982E-08 +8.693137E-08 
 +4.370582E-06 +7.159595E-06 +1.902445E-05 +7.159595E-06 -5.949965E-05 -1.322530E-05 +1.902445E-05 -1.322530E-05 +5.512907E-05 
 -1.940579E-05 +7.240377E-05 -2.124575E-05 +7.240377E-05 -2.702213E-04 +7.930145E-05 -2.124575E-05 +7.930145E-05 +2.896271E-04 
 -2.892140E-06 -2.339957E-07 +8.858070E-07 -2.339957E-07 +3.927385E-07 -1.017569E-06 +8.858070E-07 -1.017569E-06 +2.499402E-06 
 -6.168778E-06 -4.143476E-06 -5.274282E-07 -4.143476E-06 -1.921715E-06 -3.007548E-06 -5.274282E-07 -3.007548E-06 +8.090493E-06 
 -2.112713E-08 +1.396988E-09 +3.227578E-09 +1.396988E-09 -4.125952E-08 -8.364268E-09 +3.227578E-09 -8.364268E-09 +6.238665E-08 
 -2.252184E-08 -8.780430E-10 -9.221564E-10 -8.780430E-10 -2.263673E-08 +1.430891E-09 -9.221564E-10 +1.430891E-09 +4.515857E-08 
 -1.536008E-08 -2.697508E-09 -5.945072E-09 -2.697508E-09 -1.292636E-08 -6.755122E-09 -5.945072E-09 -6.755122E-09 +2.828644E-08 
 -9.703792E-07 +1.778965E-07 +2.895812E-07 +1.778965E-07 -1.149296E-08 -2.297604E-07 +2.895812E-07 -2.297604E-07 +9.818722E-07 
 -6.414917E-08 +2.378538E-08 +6.775517E-09 +2.378538E-08 -1.262262E-07 -1.216696E-08 +6.775517E-09 -1.216696E-08 +1.903754E-07 
 +1.341053E-06 +3.947259E-06 -6.309102E-06 +3.947259E-06 -2.679854E-05 -5.958789E-06 -6.309102E-06 -5.958789E-06 +2.545749E-05 
 -5.402070E-08 +7.394271E-09 +7.493471E-09 +7.394271E-09 -4.286523E-08 -2.169193E-08 +7.493471E-09 -2.169193E-08 +9.688593E-08 
 -1.284850E-05 +4.299255E-07 +4.682354E-07 +4.299255E-07 +5.503825E-07 -2.654160E-06 +4.682354E-07 -2.654160E-06 +1.229812E-05 
 -1.184182E-05 -4.484436E-06 -2.171151E-06 -4.484436E-06 -1.698800E-06 -1.012205E-06 -2.171151E-06 -1.012205E-06 +1.354062E-05 
 -6.209117E-08 -8.795348E-07 +2.003838E-07 -8.795348E-07 -1.238057E-05 -1.892988E-08 +2.003838E-07 -1.892988E-08 +1.244266E-05 
 -1.112316E-07 -6.974641E-08 -9.201139E-08 -6.974641E-08 -1.043702E-07 -4.266678E-08 -9.201139E-08 -4.266678E-08 +2.156019E-07 
 -1.600039E-06 +3.589921E-07 -3.018909E-07 +3.589921E-07 -7.796077E-08 -1.190708E-08 -3.018909E-07 -1.190708E-08 +1.678000E-06 
 -2.526896E-08 +6.017082E-09 +3.730413E-09 +6.017082E-09 -2.412992E-08 -4.640604E-09 +3.730413E-09 -4.640604E-09 +4.939888E-08 
 -4.632537E-09 -1.522676E-10 -1.942987E-09 -1.522676E-10 -4.229618E-09 -1.675584E-09 -1.942987E-09 -1.675584E-09 +8.862154E-09 
 -7.561152E-06 +1.871050E-07 -7.006978E-07 +1.871050E-07 +5.006358E-07 -1.888011E-06 -7.006978E-07 -1.888011E-06 +7.060517E-06 
 +6.325505E-09 -5.619675E-09 -6.078446E-09 -5.619675E-09 -4.482458E-08 +2.758143E-08 -6.078446E-09 +2.758143E-08 +3.849907E-08 
 -2.753473E-08 +4.485020E-09 -3.133248E-10 +4.485020E-09 -3.400822E-08 -5.917896E-11 -3.133248E-10 -5.917896E-11 +6.154295E-08 
 -1.949386E-08 -1.190034E-08 +4.203038E-09 -1.190034E-08 -3.146281E-08 +1.695206E-09 +4.203038E-09 +1.695206E-09 +5.095667E-08 
 -5.144414E-05 +5.585557E-05 +1.523591E-06 +5.585557E-05 -5.301050E-05 -2.992851E-05 +1.523591E-06 -2.992851E-05 +1.044546E-04 
 -7.961393E-07 -2.001168E-06 -1.913077E-07 -2.001168E-06 -4.569835E-06 -2.138295E-06 -1.913077E-07 -2.138295E-06 +5.365974E-06 
 -1.949211E-08 +2.170498E-09 +2.518939E-09 +2.170498E-09 -1.273068E-08 -8.090782E-10 +2.518939E-09 -8.090782E-10 +3.222278E-08 
 -1.860863E-07 +3.866672E-07 -1.992859E-07 +3.866672E-07 -4.752232E-07 -1.265956E-07 -1.992859E-07 -1.265956E-07 +6.613095E-07 
 -5.521604E-07 +6.925254E-07 +3.775061E-07 +6.925254E-07 -8.558695E-07 -7.453663E-07 +3.775061E-07 -7.453663E-07 +1.408030E-06 
 -1.583842E-08 +7.134997E-08 -4.483089E-09 +7.134997E-08 -5.964533E-07 +2.176733E-07 -4.483089E-09 +2.176733E-07 +6.122917E-07 
 -5.306169E-08 -1.510988E-07 +6.204176E-08 -1.510988E-07 -4.954820E-07 +3.023628E-07 +6.204176E-08 +3.023628E-07 +5.485437E-07 
 -7.976205E-07 +1.154688E-06 +3.414780E-07 +1.154688E-06 -1.620915E-06 -8.618891E-07 +3.414780E-07 -8.618891E-07 +2.418536E-06 
 -4.000182E-08 +9.364483E-09 -3.777413E-09 +9.364483E-09 -5.079345E-08 -5.984551E-09 -3.777413E-09 -5.984551E-09 +9.079527E-08 
 -2.522632E-06 -2.806232E-06 -6.769902E-07 -2.806232E-06 -2.895423E-06 -1.926089E-06 -6.769902E-07 -1.926089E-06 +5.418055E-06 
 -2.914336E-06 -2.801215E-06 +2.079925E-06 -2.801215E-06 -1.161776E-06 -9.210186E-07 +2.079925E-06 -9.210186E-07 +4.076112E-06 
 -5.604037E-06 -2.039257E-06 +6.632267E-07 -2.039257E-06 -7.435986E-07 +2.409447E-07 +6.632267E-07 +2.409447E-07 +6.347636E-06 
 -4.418847E-06 -2.309038E-06 -2.273601E-06 -2.309038E-06 -1.075504E-06 -2.312241E-07 -2.273601E-06 -2.312241E-07 +5.494351E-06 
 -4.109308E-05 +3.930814E-05 -7.078576E-06 +3.930814E-05 -3.295649E-05 +2.552430E-05 -7.078576E-06 +2.552430E-05 +7.404957E-05 
 -2.866177E-06 -5.500659E-06 +1.567419E-06 -5.500659E-06 -1.046860E-05 +1.807961E-06 +1.567419E-06 +1.807961E-06 +1.333478E-05 
 -1.499177E-07 +7.594320E-09 -5.579406E-08 +7.594320E-09 -9.317109E-08 -2.024975E-10 -5.579406E-08 -2.024975E-10 +2.430888E-07 
 -1.631405E-06 +2.024038E-06 +2.503765E-07 +2.024038E-06 -2.252160E-06 -1.459786E-06 +2.503765E-07 -1.459786E-06 +3.883566E-06 
 -2.213520E-06 +1.798806E-06 -1.428778E-07 +1.798806E-06 -1.435739E-06 -2.050896E-07 -1.428778E-07 -2.050896E-07 +3.649258E-06 
 -2.157154E-08 +8.125523E-09 +1.939296E-09 +8.125523E-09 -3.347279E-08 -3.349504E-09 +1.939296E-09 -3.349504E-09 +5.504432E-08 
 -4.151642E-08 +2.343896E-08 +1.568682E-08 +2.343896E-08 -7.505979E-08 -1.909349E-08 +1.568682E-08 -1.909349E-08 +1.165762E-07 
 -4.023988E-08 -2.400545E-08 +1.350932E-08 -2.400545E-08 -9.237900E-08 +4.427772E-08 +1.350932E-08 +4.427772E-08 +1.326189E-07 
 -1.020029E-06 -1.042286E-06 -3.960087E-07 -1.042286E-06 -1.053634E-06 -6.459920E-07 -3.960087E-07 -6.459920E-07 +2.073663E-06 
 -4.643163E-07 +7.558668E-07 -3.854333E-07 +7.558668E-07 -7.857062E-07 -2.289970E-07 -3.854333E-07 -2.289970E-07 +1.250022E-06 
 -3.382685E-05 -5.964213E-06 -2.116795E-06 -5.964213E-06 -1.054509E-06 -3.748931E-07 -2.116795E-06 -3.748931E-07 +3.488136E-05 
 -3.953516E-07 +3.924002E-07 +1.327934E-07 +3.924002E-07 -2.005280E-07 +2.189841E-07 +1.327934E-07 +2.189841E-07 +5.958797E-07 
 -6.009499E-06 +1.568206E-05 -7.464270E-07 +1.568206E-05 -4.091174E-05 -2.665933E-07 -7.464270E-07 -2.665933E-07 +4.692124E-05 
 -3.520729E-05 +1.031499E-04 -2.519065E-05 +1.031499E-04 -2.804668E-04 -1.151359E-05 -2.519065E-05 -1.151359E-05 +3.156741E-04 
 -1.842208E-07 -3.689083E-07 -1.831620E-07 -3.689083E-07 -9.143673E-07 -5.742032E-07 -1.831620E-07 -5.742032E-07 +1.098588E-06 
 -9.967835E-08 -6.035270E-08 -3.602921E-08 -6.035270E-08 -1.592598E-08 +3.183594E-08 -3.602921E-08 +3.183594E-08 +1.156043E-07 
 -6.663905E-08 +3.344407E-08 -5.079475E-08 +3.344407E-08 -2.337885E-08 +3.019937E-08 -5.079475E-08 +3.019937E-08 +9.001791E-08 
 -1.698628E-07 +8.104082E-08 -7.170195E-08 +8.104082E-08 -1.514283E-07 +9.013958E-08 -7.170195E-08 +9.013958E-08 +3.212911E-07 
 -5.277847E-08 +6.027381E-08 +5.346516E-08 +6.027381E-08 -1.142962E-07 -8.270818E-08 +5.346516E-08 -8.270818E-08 +1.670746E-07 
 -1.667159E-07 +4.420999E-07 -4.354835E-07 +4.420999E-07 -1.101572E-06 +6.310190E-07 -4.354835E-07 +6.310190E-07 +1.268287E-06 
 -3.372137E-07 -4.350886E-07 +4.398626E-07 -4.350886E-07 -5.500268E-07 +2.253230E-07 +4.398626E-07 +2.253230E-07 +8.872404E-07 
 -1.475827E-07 +1.014826E-08 +7.823849E-08 +1.014826E-08 -3.309053E-08 -4.605268E-08 +7.823849E-08 -4.605268E-08 +1.806732E-07 
 -1.834229E-04 -1.850002E-04 -1.279695E-05 -1.850002E-04 -1.810113E-04 +3.228460E-05 -1.279695E-05 +3.228460E-05 +3.644342E-04 
 -2.312996E-06 -3.356767E-06 +7.384636E-07 -3.356767E-06 -4.402234E-06 -7.387791E-07 +7.384636E-07 -7.387791E-07 +6.715230E-06 
 -2.660216E-08 -1.793532E-09 +1.100259E-08 -1.793532E-09 -1.704054E-08 +6.276678E-09 +1.100259E-08 +6.276678E-09 +4.364270E-08 
 -9.798609E-05 -5.657197E-05 -1.140173E-05 -5.657197E-05 -3.266216E-05 -6.582918E-06 -1.140173E-05 -6.582918E-06 +1.306482E-04 
 -2.592528E-06 -2.246201E-06 -5.904096E-07 -2.246201E-06 -1.858753E-06 -1.547440E-06 -5.904096E-07 -1.547440E-06 +4.451281E-06 
 -1.973674E-07 -2.270797E-08 -6.442056E-08 -2.270797E-08 -1.194529E-07 -2.645812E-08 -6.442056E-08 -2.645812E-08 +3.168202E-07 
 -2.812757E-06 +5.535977E-06 +2.058638E-06 +5.535977E-06 -9.190955E-06 +7.490921E-07 +2.058638E-06 +7.490921E-07 +1.200371E-05 
 -2.447039E-06 -1.631736E-06 -2.419591E-07 -1.631736E-06 -1.022853E-06 -6.594626E-07 -2.419591E-07 -6.594626E-07 +3.469891E-06 
 -1.981626E-06 +7.733112E-07 +3.784931E-07 +7.733112E-07 -1.203005E-07 -7.857733E-07 +3.784931E-07 -7.857733E-07 +2.101926E-06 
 -4.108441E-06 -1.531654E-05 +3.537327E-06 -1.531654E-05 -5.716672E-05 +1.319755E-05 +3.537327E-06 +1.319755E-05 +6.127515E-05 
 -6.387498E-08 +2.020994E-08 +1.225288E-08 +2.020994E-08 -1.234901E-08 -1.671545E-09 +1.225288E-08 -1.671545E-09 +7.622399E-08 
 -5.412831E-08 -2.531722E-09 -3.513011E-09 -2.531722E-09 -4.938070E-08 +8.290889E-09 -3.513011E-09 +8.290889E-09 +1.035090E-07 
 -6.584548E-07 +3.464868E-06 +3.201468E-06 +3.464868E-06 -6.356820E-06 -4.672330E-07 +3.201468E-06 -4.672330E-07 +7.015276E-06 
 -2.442985E-07 -3.388223E-08 +1.628670E-08 -3.388223E-08 -8.645528E-08 +4.288173E-08 +1.628670E-08 +4.288173E-08 +3.307538E-07 
 -4.891192E-06 +2.146006E-06 -1.393414E-06 +2.146006E-06 -8.846743E-07 +1.206979E-06 -1.393414E-06 +1.206979E-06 +5.775866E-06 
 -1.962185E-05 +4.965845E-05 -1.828493E-05 +4.965845E-05 -1.017650E-04 -1.138772E-05 -1.828493E-05 -1.138772E-05 +1.213869E-04 
 -3.254430E-08 -4.051757E-08 +4.662819E-08 -4.051757E-08 -7.440176E-08 +4.835902E-08 +4.662819E-08 +4.835902E-08 +1.069461E-07 
 -5.754573E-07 -7.682810E-07 +3.016315E-07 -7.682810E-07 -5.100508E-07 -4.005151E-07 +3.016315E-07 -4.005151E-07 +1.085508E-06 
 -1.046503E-05 -1.603517E-05 -8.949227E-07 -1.603517E-05 -2.446775E-05 +6.285532E-07 -8.949227E-07 +6.285532E-07 +3.493278E-05 
 -8.234653E-06 +1.348411E-05 +2.812372E-06 +1.348411E-05 -2.044836E-05 +2.360668E-06 +2.812372E-06 +2.360668E-06 +2.868301E-05 
 -6.781681E-07 +2.636850E-07 +1.363742E-07 +2.636850E-07 -1.325256E-07 +1.277142E-07 +1.363742E-07 +1.277142E-07 +8.106937E-07 
 -1.012731E-08 -2.029355E-09 +5.503512E-09 -2.029355E-09 -1.147695E-08 +2.489275E-09 +5.503512E-09 +2.489275E-09 +2.160426E-08 
 -6.307586E-06 +3.693556E-06 +4.776600E-07 +3.693556E-06 -1.854155E-06 +1.313573E-06 +4.776600E-07 +1.313573E-06 +8.161741E-06 
 -2.271334E-07 +1.828696E-07 -7.160894E-08 +1.828696E-07 -2.227580E-07 +1.374326E-08 -7.160894E-08 +1.374326E-08 +4.498914E-07 
 -2.089916E-06 +7.058252E-07 -3.101664E-07 +7.058252E-07 +2.208434E-08 +8.573865E-07 -3.101664E-07 +8.573865E-07 +2.067831E-06 
 -7.296370E-05 +1.078128E-04 +2.383443E-05 +1.078128E-04 -1.539052E-04 +5.426772E-07 +2.383443E-05 +5.426772E-07 +2.268689E-04 
 -8.212127E-05 -1.451655E-04 +1.700166E-05 -1.451655E-04 -2.465545E-04 -2.803011E-05 +1.700166E-05 -2.803011E-05 +3.286757E-04 
 -2.000190E-07 +1.512757E-07 -6.882033E-09 +1.512757E-07 -3.976926E-07 +1.000138E-07 -6.882033E-09 +1.000138E-07 +5.977117E-07 
 -6.072941E-08 -4.071051E-07 -3.496681E-07 -4.071051E-07 -8.615829E-07 +2.545223E-08 -3.496681E-07 +2.545223E-08 +9.223123E-07 
 -3.257232E-06 +6.267875E-07 +8.759300E-07 +6.267875E-07 +1.274393E-07 -1.098561E-06 +8.759300E-07 -1.098561E-06 +3.129793E-06 
 -5.476559E-08 +3.230646E-08 +1.854409E-08 +3.230646E-08 -3.418185E-08 -3.240409E-09 +1.854409E-08 -3.240409E-09 +8.894744E-08 
 -6.815910E-06 -2.104001E-05 -1.546384E-05 -2.104001E-05 -4.923009E-05 -9.805605E-06 -1.546384E-05 -9.805605E-06 +5.604600E-05 
 -9.814192E-08 -2.222023E-08 +7.812749E-08 -2.222023E-08 -2.175401E-08 -8.299184E-09 +7.812749E-08 -8.299184E-09 +1.198959E-07 
 -2.312095E-08 -8.922193E-10 +1.206359E-08 -8.922193E-10 -5.955704E-09 -5.245295E-09 +1.206359E-08 -5.245295E-09 +2.907666E-08 
 -2.377128E-06 -3.918236E-06 -1.886894E-06 -3.918236E-06 -5.877878E-06 -7.259324E-07 -1.886894E-06 -7.259324E-07 +8.255006E-06 
 -1.186744E-04 +3.953257E-05 -1.510738E-05 +3.953257E-05 -1.116145E-05 +2.165997E-05 -1.510738E-05 +2.165997E-05 +1.298358E-04 
 -5.152435E-06 -2.960233E-06 -3.597434E-08 -2.960233E-06 -1.108830E-06 -1.953978E-06 -3.597434E-08 -1.953978E-06 +6.261265E-06 
 -1.144056E-06 -3.164472E-06 +9.399606E-08 -3.164472E-06 -8.153064E-06 -2.117918E-06 +9.399606E-08 -2.117918E-06 +9.297120E-06 
 +5.167415E-08 -1.728845E-07 -2.068333E-07 -1.728845E-07 -7.091779E-07 +2.982449E-07 -2.068333E-07 +2.982449E-07 +6.575038E-07 
 -7.461083E-06 +2.267812E-05 -8.584507E-06 +2.267812E-05 -6.369489E-05 +5.397113E-06 -8.584507E-06 +5.397113E-06 +7.115597E-05 
 -2.445888E-08 -6.620624E-09 +4.591513E-09 -6.620624E-09 -2.885235E-08 +7.438626E-09 +4.591513E-09 +7.438626E-09 +5.331122E-08 
 -2.907461E-07 +4.652986E-07 -3.449235E-07 +4.652986E-07 -7.540741E-07 +4.884789E-07 -3.449235E-07 +4.884789E-07 +1.044820E-06 
 +1.909014E-06 -1.095995E-05 -2.158482E-05 -1.095995E-05 -9.284000E-05 -3.017482E-05 -2.158482E-05 -3.017482E-05 +9.093099E-05 
 -2.585586E-08 -5.137990E-09 +1.229657E-08 -5.137990E-09 -7.177251E-09 +2.365464E-10 +1.229657E-08 +2.365464E-10 +3.303311E-08 
 -4.507289E-08 -6.101628E-08 +3.513021E-08 -6.101628E-08 -8.531644E-08 +6.646980E-08 +3.513021E-08 +6.646980E-08 +1.303893E-07 
 -2.720132E-08 -1.538489E-08 +6.949640E-09 -1.538489E-08 -9.872089E-09 -5.469050E-09 +6.949640E-09 -5.469050E-09 +3.707341E-08 
 -5.324958E-08 +4.260411E-09 -1.099519E-08 +4.260411E-09 -5.803069E-08 -2.336751E-09 -1.099519E-08 -2.336751E-09 +1.112803E-07 
 -2.145756E-06 +1.014550E-06 +6.632110E-08 +1.014550E-06 -2.841108E-07 +6.806099E-07 +6.632110E-08 +6.806099E-07 +2.429867E-06 
 -3.291143E-07 +2.301581E-08 -1.069361E-07 +2.301581E-08 -2.287577E-07 +4.798329E-08 -1.069361E-07 +4.798329E-08 +5.578721E-07 
 -1.676991E-08 +2.851470E-09 +6.933580E-10 +2.851470E-09 -1.563325E-08 -3.112611E-10 +6.933580E-10 -3.112611E-10 +3.240316E-08 
 +1.151228E-08 -2.053011E-08 +1.248409E-07 -2.053011E-08 -4.557277E-07 +2.728017E-07 +1.248409E-07 +2.728017E-07 +4.442154E-07 
 -2.808523E-06 -1.861088E-06 +1.283958E-06 -1.861088E-06 -1.240386E-06 +7.228761E-07 +1.283958E-06 +7.228761E-07 +4.048909E-06 
 -3.021793E-07 -7.805788E-07 +6.542017E-07 -7.805788E-07 -1.637150E-06 +5.540889E-07 +6.542017E-07 +5.540889E-07 +1.939329E-06 
 -9.174382E-06 -1.724861E-05 +9.390231E-06 -1.724861E-05 -3.190627E-05 +1.210163E-05 +9.390231E-06 +1.210163E-05 +4.108065E-05 
 -2.769663E-04 -3.613910E-05 -1.355772E-04 -3.613910E-05 -2.065814E-06 +1.263449E-05 -1.355772E-04 +1.263449E-05 +2.790322E-04 
 -8.432693E-06 +1.265003E-05 -7.312739E-06 +1.265003E-05 -1.854636E-05 +7.109074E-06 -7.312739E-06 +7.109074E-06 +2.697905E-05 
 -1.533862E-08 -1.009340E-08 +1.442116E-09 -1.009340E-08 -4.490659E-08 +4.921899E-09 +1.442116E-09 +4.921899E-09 +6.024521E-08 
 -2.570346E-08 -6.563929E-09 +8.040528E-09 -6.563929E-09 -1.836282E-08 +4.992871E-09 +8.040528E-09 +4.992871E-09 +4.406628E-08 
 -4.421406E-06 -1.214710E-05 -2.613609E-06 -1.214710E-05 -3.337400E-05 -7.180894E-06 -2.613609E-06 -7.180894E-06 +3.779541E-05 
 -6.001864E-07 -2.372175E-06 -5.918421E-07 -2.372175E-06 -7.657571E-06 +1.581880E-06 -5.918421E-07 +1.581880E-06 +8.257757E-06 
 -1.515330E-06 -1.543598E-06 -1.068744E-06 -1.543598E-06 -1.445285E-06 -3.301274E-07 -1.068744E-06 -3.301274E-07 +2.960616E-06 
 -1.848231E-05 +1.778487E-05 -6.552154E-06 +1.778487E-05 -1.301617E-05 -5.495380E-06 -6.552154E-06 -5.495380E-06 +3.149849E-05 
 -4.182545E-05 +5.973132E-05 -3.814289E-06 +5.973132E-05 -8.530605E-05 +5.447165E-06 -3.814289E-06 +5.447165E-06 +1.271315E-04 
 -5.283315E-08 +2.493435E-09 +1.243238E-08 +2.493435E-09 -3.871214E-08 -2.452188E-09 +1.243238E-08 -2.452188E-09 +9.154529E-08 
 -1.780256E-06 +1.438859E-07 +3.316120E-07 +1.438859E-07 +2.519281E-07 +6.357482E-07 +3.316120E-07 +6.357482E-07 +1.528328E-06 
 -1.008772E-04 -5.912308E-05 +4.369770E-06 -5.912308E-05 -2.926736E-05 -2.396434E-05 +4.369770E-06 -2.396434E-05 +1.301445E-04 
 +2.390806E-08 -4.430180E-08 +1.528524E-08 -4.430180E-08 -9.015406E-09 +3.691585E-08 +1.528524E-08 +3.691585E-08 -1.489265E-08 
 -5.613539E-08 +8.943963E-09 +2.220476E-08 +8.943963E-09 -4.419806E-08 -1.448481E-09 +2.220476E-08 -1.448481E-09 +1.003335E-07 
 -1.100960E-06 +8.807290E-07 -6.743265E-07 +8.807290E-07 -6.629388E-07 +2.321334E-07 -6.743265E-07 +2.321334E-07 +1.763899E-06 
 -9.882068E-08 -5.661545E-08 -8.872697E-09 -5.661545E-08 -6.538029E-08 -3.779235E-09 -8.872697E-09 -3.779235E-09 +1.642010E-07 
 +1.625001E-07 -3.247017E-06 +4.355767E-06 -3.247017E-06 -2.662034E-05 +3.657682E-06 +4.355767E-06 +3.657682E-06 +2.645784E-05 
 -1.320707E-04 -3.538814E-05 -9.331231E-06 -3.538814E-05 -9.482766E-06 -2.500064E-06 -9.331231E-06 -2.500064E-06 +1.415534E-04 
 -1.813115E-06 +3.730828E-06 -1.255280E-06 +3.730828E-06 -7.512612E-06 +1.169215E-06 -1.255280E-06 +1.169215E-06 +9.325728E-06 
 -3.325545E-05 -3.835726E-05 -9.352321E-06 -3.835726E-05 -4.278865E-05 -2.149360E-05 -9.352321E-06 -2.149360E-05 +7.604410E-05 
 -1.318668E-08 -3.576121E-10 -1.407457E-09 -3.576121E-10 -1.552032E-08 -8.581234E-09 -1.407457E-09 -8.581234E-09 +2.870700E-08 
 -8.687883E-07 +2.181913E-06 -1.268715E-07 +2.181913E-06 -3.976199E-06 -2.404528E-06 -1.268715E-07 -2.404528E-06 +4.844987E-06 
 -6.471939E-06 +1.183628E-05 -3.623921E-06 +1.183628E-05 -2.077046E-05 +1.514766E-06 -3.623921E-06 +1.514766E-06 +2.724240E-05 
 -3.386085E-08 -8.298608E-10 -8.942821E-12 -8.298608E-10 -2.876770E-08 -2.492262E-09 -8.942821E-12 -2.492262E-09 +6.262854E-08 
 -8.485347E-08 +1.226711E-08 +3.855343E-09 +1.226711E-08 -6.921020E-08 +8.423331E-09 +3.855343E-09 +8.423331E-09 +1.540637E-07 
 -1.042203E-07 -9.074168E-08 +5.431543E-08 -9.074168E-08 -1.122413E-07 +2.673132E-09 +5.431543E-08 +2.673132E-09 +2.164616E-07 
 -1.141912E-05 -1.644243E-05 -9.251159E-07 -1.644243E-05 -2.289102E-05 +3.906773E-06 -9.251159E-07 +3.906773E-06 +3.431014E-05 
 -1.692105E-08 +1.177632E-09 -9.123817E-09 +1.177632E-09 -1.547221E-08 -3.725471E-09 -9.123817E-09 -3.725471E-09 +3.239326E-08 
 -6.139425E-07 +5.621355E-07 +3.818327E-07 +5.621355E-07 -4.945230E-07 -1.510982E-07 +3.818327E-07 -1.510982E-07 +1.108466E-06 
 -6.809396E-08 +1.156876E-08 -3.361804E-09 +1.156876E-08 -6.706072E-08 +1.311774E-08 -3.361804E-09 +1.311774E-08 +1.351547E-07 
 -2.206375E-05 +4.929066E-05 -9.552165E-06 +4.929066E-05 -1.045215E-04 -5.717231E-06 -9.552165E-06 -5.717231E-06 +1.265853E-04 
 +1.263504E-09 -4.350879E-08 -4.045999E-07 -4.350879E-08 -1.736634E-06 -9.975444E-07 -4.045999E-07 -9.975444E-07 +1.735370E-06 
 -2.258152E-04 +3.981567E-05 -2.941061E-05 +3.981567E-05 -7.029504E-06 +5.188505E-06 -2.941061E-05 +5.188505E-06 +2.328447E-04 
 -3.054975E-05 +5.960487E-05 +1.909050E-05 +5.960487E-05 -9.884209E-05 +1.253250E-05 +1.909050E-05 +1.253250E-05 +1.293918E-04 
 -1.681579E-07 -1.171789E-07 -5.130604E-08 -1.171789E-07 -2.782402E-07 -1.328108E-07 -5.130604E-08 -1.328108E-07 +4.463981E-07 
 -5.806732E-07 +1.513960E-06 +6.289812E-07 +1.513960E-06 -3.220879E-06 +1.682622E-07 +6.289812E-07 +1.682622E-07 +3.801552E-06 
 -1.090752E-06 -9.527737E-07 +4.232715E-07 -9.527737E-07 -8.182740E-07 +5.575949E-07 +4.232715E-07 +5.575949E-07 +1.909026E-06 
 -2.223009E-06 -8.925564E-06 +1.920437E-06 -8.925564E-06 -3.184825E-05 -4.335567E-06 +1.920437E-06 -4.335567E-06 +3.407126E-05 
 -3.270057E-08 -3.702445E-07 +2.300409E-08 -3.702445E-07 -4.232155E-06 +2.644837E-07 +2.300409E-08 +2.644837E-07 +4.264855E-06 
 -4.271551E-08 +1.622507E-09 -1.263450E-08 +1.622507E-09 -1.471937E-08 -1.743041E-09 -1.263450E-08 -1.743041E-09 +5.743488E-08 
 -5.409119E-06 -2.544500E-05 +1.558275E-05 -2.544500E-05 -1.023172E-04 +2.174887E-05 +1.558275E-05 +2.174887E-05 +1.077264E-04 
 -5.891195E-06 +2.328826E-06 +2.482020E-06 +2.328826E-06 -9.041536E-07 -5.075264E-07 +2.482020E-06 -5.075264E-07 +6.795348E-06 
 -1.009528E-07 +6.047023E-07 +3.395455E-08 +6.047023E-07 -3.624572E-06 +6.174295E-09 +3.395455E-08 +6.174295E-09 +3.725525E-06 
 -5.844860E-06 -1.245462E-05 +9.825205E-07 -1.245462E-05 -2.445726E-05 -6.033198E-06 +9.825205E-07 -6.033198E-06 +3.030212E-05 
 -2.370564E-04 -4.272146E-05 -3.480758E-06 -4.272146E-05 +9.046513E-06 +6.130586E-05 -3.480758E-06 +6.130586E-05 +2.280099E-04 
 -8.127662E-06 -3.502280E-06 -3.539192E-06 -3.502280E-06 -1.331943E-06 +5.379442E-09 -3.539192E-06 +5.379442E-09 +9.459605E-06 
 -5.798259E-08 -4.281810E-07 +1.535864E-07 -4.281810E-07 -2.296719E-06 -4.298399E-07 +1.535864E-07 -4.298399E-07 +2.354702E-06 
 -4.824383E-08 +7.064913E-09 -2.831285E-09 +7.064913E-09 -3.644642E-08 +3.868134E-09 -2.831285E-09 +3.868134E-09 +8.469024E-08 
 -3.253874E-05 -1.421214E-05 +4.746461E-06 -1.421214E-05 -5.282029E-06 +8.050182E-06 +4.746461E-06 +8.050182E-06 +3.782077E-05 
 -8.306556E-07 -2.207362E-07 -5.132603E-07 -2.207362E-07 -6.322434E-08 -4.672393E-08 -5.132603E-07 -4.672393E-08 +8.938800E-07 
 -7.377352E-08 -6.300386E-09 -1.263316E-09 -6.300386E-09 -6.338875E-08 -8.198369E-09 -1.263316E-09 -8.198369E-09 +1.371623E-07 
 -3.371502E-06 -2.358134E-05 +1.538060E-05 -2.358134E-05 -6.053219E-05 -1.077771E-05 +1.538060E-05 -1.077771E-05 +6.390370E-05 
 -8.639969E-08 +8.072286E-08 -2.128754E-08 +8.072286E-08 -1.991598E-07 +2.101227E-08 -2.128754E-08 +2.101227E-08 +2.855595E-07 
 -3.451243E-06 -5.859752E-07 +5.900903E-07 -5.859752E-07 -7.618555E-08 +3.914558E-07 +5.900903E-07 +3.914558E-07 +3.527429E-06 
 -3.383274E-08 -1.695752E-08 +5.764815E-09 -1.695752E-08 -2.121024E-08 +9.352125E-10 +5.764815E-09 +9.352125E-10 +5.504298E-08 
 -1.230862E-07 -4.066067E-08 -1.800744E-08 -4.066067E-08 -1.356339E-07 +2.662686E-08 -1.800744E-08 +2.662686E-08 +2.587201E-07 
 -7.512622E-08 +1.911770E-08 +2.823165E-08 +1.911770E-08 -1.295140E-07 -1.963478E-08 +2.823165E-08 -1.963478E-08 +2.046402E-07 
 -7.192548E-08 +1.712110E-08 -4.380962E-08 +1.712110E-08 -3.486518E-08 -7.871597E-10 -4.380962E-08 -7.871597E-10 +1.067907E-07 
 -1.211163E-06 -1.863046E-06 -8.816595E-07 -1.863046E-06 -2.761344E-06 -6.540544E-07 -8.816595E-07 -6.540544E-07 +3.972507E-06 
 -1.592942E-05 +3.219705E-05 +1.150340E-05 +3.219705E-05 -4.846973E-05 +1.150473E-05 +1.150340E-05 +1.150473E-05 +6.439915E-05 
 -1.057390E-06 -1.560653E-07 +3.236473E-07 -1.560653E-07 +1.515037E-07 -3.810928E-07 +3.236473E-07 -3.810928E-07 +9.058861E-07 
 -1.412962E-06 -2.240384E-07 -2.716632E-07 -2.240384E-07 +1.330955E-07 +4.362015E-07 -2.716632E-07 +4.362015E-07 +1.279867E-06 
 -3.441481E-07 -8.943621E-07 +2.629938E-07 -8.943621E-07 -1.194507E-06 -7.536482E-07 +2.629938E-07 -7.536482E-07 +1.538655E-06 
 -5.415109E-05 +2.095030E-05 +2.206912E-05 +2.095030E-05 -5.518680E-06 -2.188982E-05 +2.206912E-05 -2.188982E-05 +5.966977E-05 
 -2.839135E-06 +9.818469E-07 -5.104947E-07 +9.818469E-07 -3.436616E-07 +2.305461E-07 -5.104947E-07 +2.305461E-07 +3.182797E-06 
 -3.708151E-08 +4.189865E-09 -1.095275E-08 +4.189865E-09 -1.439344E-08 +7.174718E-10 -1.095275E-08 +7.174718E-10 +5.147495E-08 
 -8.957014E-06 +1.713227E-05 +1.694308E-06 +1.713227E-05 -2.811507E-05 +9.954735E-06 +1.694308E-06 +9.954735E-06 +3.707208E-05 
 -3.884657E-05 -4.116410E-05 -1.880582E-05 -4.116410E-05 -4.226090E-05 -8.779212E-06 -1.880582E-05 -8.779212E-06 +8.110748E-05 
 -2.473261E-05 +2.655054E-06 -6.260854E-06 +2.655054E-06 +1.541867E-06 +7.405299E-06 -6.260854E-06 +7.405299E-06 +2.319075E-05 
 -4.185914E-05 +5.804810E-05 -1.126057E-05 +5.804810E-05 -7.767853E-05 +3.430424E-05 -1.126057E-05 +3.430424E-05 +1.195377E-04 
 -7.459954E-06 +2.702190E-05 -1.285582E-05 +2.702190E-05 -7.152182E-05 -5.339035E-06 -1.285582E-05 -5.339035E-06 +7.898177E-05 
 -7.014586E-05 +1.001767E-04 -3.967848E-05 +1.001767E-04 -1.430685E-04 +5.666595E-05 -3.967848E-05 +5.666595E-05 +2.132144E-04 
 -2.599554E-08 +1.412055E-10 -4.076732E-09 +1.412055E-10 -6.443937E-08 +1.906787E-08 -4.076732E-09 +1.906787E-08 +9.043492E-08 
 -1.135854E-07 -3.308196E-08 -4.617120E-08 -3.308196E-08 -5.367701E-08 -3.230150E-08 -4.617120E-08 -3.230150E-08 +1.672624E-07 
 -1.896094E-06 +1.803904E-06 -1.486426E-07 +1.803904E-06 -9.859011E-07 +1.614818E-06 -1.486426E-07 +1.614818E-06 +2.881995E-06 
 -7.952062E-06 +1.592453E-11 -2.928003E-07 +1.592453E-11 -3.465738E-10 -3.029271E-11 -2.928003E-07 -3.029271E-11 +7.952409E-06 
 -2.645360E-08 +4.575167E-09 +2.321143E-09 +4.575167E-09 -3.381694E-08 -4.412295E-09 +2.321143E-09 -4.412295E-09 +6.027054E-08 
 -4.439382E-08 +2.321948E-07 +3.035020E-07 +2.321948E-07 -9.765772E-07 -5.457177E-07 +3.035020E-07 -5.457177E-07 +1.020971E-06 
 -1.402694E-07 +7.129146E-09 -5.883262E-09 +7.129146E-09 -1.442934E-07 +1.127749E-07 -5.883262E-09 +1.127749E-07 +2.845628E-07 
 -3.912193E-06 -1.365576E-05 +8.368777E-06 -1.365576E-05 -2.925601E-05 -1.472774E-06 +8.368777E-06 -1.472774E-06 +3.316820E-05 
 +5.436276E-07 +1.015458E-06 -2.082622E-06 +1.015458E-06 -7.905460E-06 -2.310533E-06 -2.082622E-06 -2.310533E-06 +7.361833E-06 
 -3.598361E-06 -5.029676E-07 -2.184617E-06 -5.029676E-07 -6.574368E-08 +2.035717E-07 -2.184617E-06 +2.035717E-07 +3.664105E-06 
 -2.207413E-06 -1.265676E-07 -7.167699E-07 -1.265676E-07 +6.458586E-08 +3.767589E-07 -7.167699E-07 +3.767589E-07 +2.142827E-06 
 -3.268649E-08 +1.208050E-09 +1.530586E-08 +1.208050E-09 -1.012838E-08 -1.157301E-09 +1.530586E-08 -1.157301E-09 +4.281486E-08 
 +2.077383E-07 -6.096725E-06 +8.495925E-06 -6.096725E-06 -8.339065E-05 +1.364528E-05 +8.495925E-06 +1.364528E-05 +8.318292E-05 
 -1.542719E-06 +6.125137E-07 +1.483805E-07 +6.125137E-07 -1.953021E-07 -3.538886E-07 +1.483805E-07 -3.538886E-07 +1.738021E-06 
 -2.672276E-08 +6.792890E-10 -1.295951E-08 +6.792890E-10 -1.299660E-08 -2.904961E-09 -1.295951E-08 -2.904961E-09 +3.971936E-08 
 -3.168439E-08 -5.886336E-09 +5.911613E-09 -5.886336E-09 -5.682752E-08 +3.078144E-08 +5.911613E-09 +3.078144E-08 +8.851191E-08 
 -1.042788E-06 -9.685291E-07 -7.087772E-07 -9.685291E-07 -9.527908E-07 -8.721079E-07 -7.087772E-07 -8.721079E-07 +1.995579E-06 
 -6.912348E-06 -2.394152E-07 -8.956881E-07 -2.394152E-07 +4.555724E-07 +1.725368E-06 -8.956881E-07 +1.725368E-06 +6.456775E-06 
 -4.842730E-08 -5.274386E-09 -9.640751E-09 -5.274386E-09 -4.158577E-08 -1.789885E-09 -9.640751E-09 -1.789885E-09 +9.001307E-08 
 -1.701692E-08 -6.416006E-09 +6.054317E-09 -6.416006E-09 -3.209136E-08 +1.513984E-08 +6.054317E-09 +1.513984E-08 +4.910827E-08 
 +9.822737E-08 -1.733260E-06 -1.495466E-06 -1.733260E-06 -6.859369E-06 +1.927574E-06 -1.495466E-06 +1.927574E-06 +6.761142E-06 
 -8.259240E-06 -6.634713E-06 -3.022839E-06 -6.634713E-06 -5.011549E-06 -2.861691E-07 -3.022839E-06 -2.861691E-07 +1.327079E-05 
 +2.876257E-07 +4.439785E-08 +8.431738E-07 +4.439785E-08 -2.508285E-06 -5.448421E-07 +8.431738E-07 -5.448421E-07 +2.220660E-06 
 -5.934959E-06 +3.747092E-06 +1.473783E-06 +3.747092E-06 -2.339610E-06 -4.385111E-07 +1.473783E-06 -4.385111E-07 +8.274569E-06 
 -1.601636E-06 +3.570558E-06 +3.509712E-07 +3.570558E-06 -6.557368E-06 +2.644133E-06 +3.509712E-07 +2.644133E-06 +8.159004E-06 
 -5.131066E-07 +2.128622E-06 -1.159816E-06 +2.128622E-06 -7.678983E-06 +1.261725E-06 -1.159816E-06 +1.261725E-06 +8.192090E-06 
 -1.829078E-08 +6.337637E-09 +2.241431E-09 +6.337637E-09 -1.240485E-08 -6.965092E-10 +2.241431E-09 -6.965092E-10 +3.069563E-08 
 -7.664547E-06 -3.227604E-06 -5.987394E-07 -3.227604E-06 -1.172555E-06 +1.036812E-06 -5.987394E-07 +1.036812E-06 +8.837102E-06 
 +1.564872E-07 +1.083366E-08 -3.878465E-07 +1.083366E-08 -9.958535E-07 -3.194903E-07 -3.878465E-07 -3.194903E-07 +8.393663E-07 
 -9.144615E-08 +5.703569E-08 -1.941702E-08 +5.703569E-08 -1.348568E-07 +5.655353E-09 -1.941702E-08 +5.655353E-09 +2.263029E-07 
 -9.688008E-08 +1.481618E-07 -1.108820E-07 +1.481618E-07 -1.467840E-07 -1.030659E-08 -1.108820E-07 -1.030659E-08 +2.436641E-07 
 -1.791240E-07 -2.340984E-07 -1.518590E-07 -2.340984E-07 -3.217262E-07 -8.943671E-08 -1.518590E-07 -8.943671E-08 +5.008503E-07 
 -1.041362E-07 +1.016888E-08 -1.190229E-08 +1.016888E-08 -5.926148E-08 +6.295913E-09 -1.190229E-08 +6.295913E-09 +1.633977E-07 
 -5.382619E-08 -1.192953E-08 +4.829229E-09 -1.192953E-08 -2.890316E-08 +3.917173E-09 +4.829229E-09 +3.917173E-09 +8.272935E-08 
 +2.279991E-07 +1.310727E-07 +7.045064E-07 +1.310727E-07 -1.896616E-06 -5.434267E-07 +7.045064E-07 -5.434267E-07 +1.668617E-06 
 -1.234506E-05 +1.390140E-05 +2.179514E-07 +1.390140E-05 -1.125610E-05 +1.001682E-05 +2.179514E-07 +1.001682E-05 +2.360116E-05 
 -5.234213E-06 -4.120499E-07 -1.116822E-06 -4.120499E-07 +5.681228E-07 +1.672168E-06 -1.116822E-06 +1.672168E-06 +4.666090E-06 
 -4.305614E-05 +4.199218E-05 +8.574162E-06 +4.199218E-05 -3.966778E-05 -1.880572E-05 +8.574162E-06 -1.880572E-05 +8.272393E-05 
 -3.731868E-07 -7.759125E-07 -2.490951E-07 -7.759125E-07 -1.143184E-06 +3.780179E-07 -2.490951E-07 +3.780179E-07 +1.516371E-06 
 -5.381484E-08 +3.543760E-09 -2.930552E-08 +3.543760E-09 -4.160127E-08 -9.195482E-09 -2.930552E-08 -9.195482E-09 +9.541611E-08 
 -4.071801E-06 -3.509342E-06 +5.966891E-08 -3.509342E-06 -3.023322E-06 -7.146764E-08 +5.966891E-08 -7.146764E-08 +7.095122E-06 
 -9.908213E-07 -1.098335E-07 -3.734738E-07 -1.098335E-07 -9.467211E-09 +2.779575E-08 -3.734738E-07 +2.779575E-08 +1.000288E-06 
 -4.128481E-08 -1.206979E-08 -1.555334E-08 -1.206979E-08 -5.352234E-08 -2.515100E-08 -1.555334E-08 -2.515100E-08 +9.480715E-08 
 -3.995065E-07 +1.525348E-06 +8.653097E-07 +1.525348E-06 -4.203930E-06 -1.373188E-08 +8.653097E-07 -1.373188E-08 +4.603437E-06 
 -1.212958E-05 -3.965533E-06 -2.058887E-06 -3.965533E-06 -1.254505E-06 -1.434362E-06 -2.058887E-06 -1.434362E-06 +1.338408E-05 
 -8.500393E-06 -3.825925E-06 -4.566425E-07 -3.825925E-06 -9.075342E-07 -2.989008E-06 -4.566425E-07 -2.989008E-06 +9.407927E-06 
 -2.150960E-07 +1.780406E-08 +1.357262E-08 +1.780406E-08 -4.302580E-08 -1.010405E-08 +1.357262E-08 -1.010405E-08 +2.581218E-07 
 -5.610151E-07 -7.807124E-07 -1.656493E-07 -7.807124E-07 -9.132896E-07 -8.351238E-07 -1.656493E-07 -8.351238E-07 +1.474305E-06 
 -7.700288E-06 +1.338924E-06 +1.372649E-06 +1.338924E-06 -2.387776E-07 -2.568611E-07 +1.372649E-06 -2.568611E-07 +7.939066E-06 
 -9.711299E-07 -1.910506E-06 +3.153543E-07 -1.910506E-06 -2.850854E-06 -1.268341E-06 +3.153543E-07 -1.268341E-06 +3.821984E-06 
 -2.793989E-07 +4.106520E-07 -1.614318E-07 +4.106520E-07 -5.595621E-07 +5.037812E-07 -1.614318E-07 +5.037812E-07 +8.389609E-07 
 -2.287995E-08 +2.152923E-09 +5.932161E-10 +2.152923E-09 -2.878006E-08 -1.142718E-08 +5.932161E-10 -1.142718E-08 +5.166001E-08 
 -2.431986E-05 +4.211934E-05 +1.748897E-06 +4.211934E-05 -7.295500E-05 -3.028662E-06 +1.748897E-06 -3.028662E-06 +9.727486E-05 
 -2.111746E-05 +4.528472E-05 -1.297622E-05 +4.528472E-05 -9.711421E-05 +2.782726E-05 -1.297622E-05 +2.782726E-05 +1.182317E-04 
 -1.731527E-07 +3.184250E-09 -1.580190E-08 +3.184250E-09 -5.920314E-08 +5.368793E-11 -1.580190E-08 +5.368793E-11 +2.323558E-07 
 -7.870486E-05 +3.862516E-05 +1.994493E-05 +3.862516E-05 -1.801115E-05 +3.286737E-08 +1.994493E-05 +3.286737E-08 +9.671601E-05 
 -5.676110E-08 -1.561075E-09 +3.114342E-09 -1.561075E-09 -5.744672E-08 +3.944603E-09 +3.114342E-09 +3.944603E-09 +1.142078E-07 
 -1.114630E-08 +5.019237E-09 -2.043803E-09 +5.019237E-09 -1.310447E-08 +4.709287E-09 -2.043803E-09 +4.709287E-09 +2.425077E-08 
 -2.059608E-06 +3.307029E-06 -1.195585E-06 +3.307029E-06 -4.618772E-06 -3.437528E-07 -1.195585E-06 -3.437528E-07 +6.678380E-06 
 -8.851916E-06 +7.942205E-07 +1.958164E-06 +7.942205E-07 +2.080642E-07 +1.420553E-06 +1.958164E-06 +1.420553E-06 +8.643852E-06 
 -3.249140E-05 +3.295472E-05 +1.932558E-06 +3.295472E-05 -2.959588E-05 +1.353318E-05 +1.932558E-06 +1.353318E-05 +6.208728E-05 
 -1.322207E-06 -2.445383E-06 -3.529988E-07 -2.445383E-06 -4.409753E-06 +1.644899E-07 -3.529988E-07 +1.644899E-07 +5.731960E-06 
 -2.135533E-08 +2.214719E-08 +1.209755E-08 +2.214719E-08 -5.673564E-08 -1.248027E-08 +1.209755E-08 -1.248027E-08 +7.809096E-08 
 -5.100222E-08 +3.831358E-08 -2.896796E-08 +3.831358E-08 -2.237715E-07 +8.164466E-08 -2.896796E-08 +8.164466E-08 +2.747737E-07 
 -3.820218E-06 -1.781014E-06 -1.842989E-06 -1.781014E-06 -8.312720E-07 -8.592892E-07 -1.842989E-06 -8.592892E-07 +4.651490E-06 
 -2.088214E-07 +1.210867E-07 -1.427233E-08 +1.210867E-07 -1.550680E-07 +1.700224E-08 -1.427233E-08 +1.700224E-08 +3.638895E-07 
 -2.489405E-08 -3.746490E-09 -3.078073E-09 -3.746490E-09 -3.751563E-08 -4.615203E-09 -3.078073E-09 -4.615203E-09 +6.240968E-08 
 +7.690978E-08 -3.700769E-08 -2.714035E-07 -3.700769E-08 -9.395725E-07 +2.451443E-07 -2.714035E-07 +2.451443E-07 +8.626628E-07 
 -6.274478E-06 +5.034465E-06 +1.890624E-06 +5.034465E-06 -3.340617E-06 -4.208280E-06 +1.890624E-06 -4.208280E-06 +9.615096E-06 
 -1.502571E-07 -2.742761E-08 +1.771558E-08 -2.742761E-08 -1.038386E-07 -3.030456E-09 +1.771558E-08 -3.030456E-09 +2.540957E-07 
 +2.416473E-08 +2.371709E-08 +3.171591E-07 +2.371709E-08 -3.921139E-06 +2.856273E-08 +3.171591E-07 +2.856273E-08 +3.896974E-06 
 -2.046569E-06 -2.855707E-06 +2.073735E-06 -2.855707E-06 -3.046244E-06 +2.277292E-07 +2.073735E-06 +2.277292E-07 +5.092813E-06 
 -9.670148E-09 +4.424807E-06 +5.273095E-06 +4.424807E-06 -7.391846E-05 -1.303484E-05 +5.273095E-06 -1.303484E-05 +7.392813E-05 
 -2.807967E-05 +2.456645E-06 +7.405537E-06 +2.456645E-06 -2.152991E-07 -6.479881E-07 +7.405537E-06 -6.479881E-07 +2.829497E-05 
 +1.221850E-07 -7.301707E-07 -1.058570E-06 -7.301707E-07 -2.507360E-06 -4.296241E-07 -1.058570E-06 -4.296241E-07 +2.385175E-06 
 -9.877972E-05 -5.413913E-05 +2.849126E-05 -5.413913E-05 -2.739512E-05 -1.904695E-06 +2.849126E-05 -1.904695E-06 +1.261748E-04 
 -6.493741E-09 +5.740928E-07 -3.992248E-07 +5.740928E-07 -2.570757E-06 -9.333916E-07 -3.992248E-07 -9.333916E-07 +2.577251E-06 
 -6.105981E-08 +4.414397E-09 -1.794786E-08 +4.414397E-09 -2.298727E-08 -2.795495E-09 -1.794786E-08 -2.795495E-09 +8.404708E-08 
 -3.592669E-05 +3.014485E-05 -1.013785E-05 +3.014485E-05 -2.529609E-05 +8.507668E-06 -1.013785E-05 +8.507668E-06 +6.122277E-05 
 -4.987560E-08 +2.333635E-08 +2.795985E-09 +2.333635E-08 -1.054382E-07 +1.110307E-08 +2.795985E-09 +1.110307E-08 +1.553138E-07 
 -4.143272E-08 +1.316857E-08 +8.223645E-09 +1.316857E-08 -4.673301E-08 -1.585114E-08 +8.223645E-09 -1.585114E-08 +8.816573E-08 
 -3.961938E-07 -1.394888E-07 -3.129404E-07 -1.394888E-07 -1.696393E-08 +5.119862E-08 -3.129404E-07 +5.119862E-08 +4.131577E-07 
 +2.430293E-07 -7.877532E-07 +1.781022E-06 -7.877532E-07 -1.006474E-05 +5.205148E-07 +1.781022E-06 +5.205148E-07 +9.821709E-06 
 -7.093921E-05 -5.293020E-06 +1.247788E-05 -5.293020E-06 -7.323797E-08 -4.426958E-06 +1.247788E-05 -4.426958E-06 +7.101244E-05 
 -1.921593E-07 +7.520355E-08 -1.803264E-08 +7.520355E-08 -9.716600E-08 +2.300082E-08 -1.803264E-08 +2.300082E-08 +2.893254E-07 
 -5.221930E-05 +6.223127E-05 +1.304877E-05 +6.223127E-05 -7.416548E-05 -1.555160E-05 +1.304877E-05 -1.555160E-05 +1.263848E-04 
 -5.671550E-05 +7.178474E-05 -1.535534E-05 +7.178474E-05 -8.028204E-05 -1.926368E-05 -1.535534E-05 -1.926368E-05 +1.369976E-04 
 -1.562401E-06 +5.304775E-07 +4.106489E-07 +5.304775E-07 -5.838588E-08 +3.347452E-07 +4.106489E-07 +3.347452E-07 +1.620787E-06 
 -9.926913E-08 +2.890093E-08 +1.054684E-08 +2.890093E-08 -6.264636E-08 -3.437859E-09 +1.054684E-08 -3.437859E-09 +1.619155E-07 
 -4.410454E-08 -3.375648E-09 +1.601188E-08 -3.375648E-09 -3.140241E-08 +2.238697E-09 +1.601188E-08 +2.238697E-09 +7.550695E-08 
 -4.843990E-08 -9.356444E-09 +1.708926E-09 -9.356444E-09 -2.975036E-08 +6.175988E-09 +1.708926E-09 +6.175988E-09 +7.819026E-08 
 -2.453632E-05 -1.416535E-05 +4.436459E-06 -1.416535E-05 -8.179682E-06 +2.561461E-06 +4.436459E-06 +2.561461E-06 +3.271601E-05 
 -3.127167E-06 -1.440208E-07 +5.629142E-07 -1.440208E-07 -2.056990E-09 -1.056955E-07 +5.629142E-07 -1.056955E-07 +3.129224E-06 
 -1.462108E-08 -7.331270E-09 -6.431560E-09 -7.331270E-09 -1.959627E-08 -8.529024E-10 -6.431560E-09 -8.529024E-10 +3.421734E-08 
 -1.048048E-07 -1.617558E-09 +3.176142E-09 -1.617558E-09 -1.002333E-07 +7.983208E-09 +3.176142E-09 +7.983208E-09 +2.050381E-07 
 -3.441653E-08 +4.825480E-09 -1.344816E-09 +4.825480E-09 -5.625273E-08 +6.842555E-09 -1.344816E-09 +6.842555E-09 +9.066926E-08 
 -9.333215E-09 +1.146515E-09 -1.903723E-09 +1.146515E-09 -1.093118E-08 +4.709804E-09 -1.903723E-09 +4.709804E-09 +2.026440E-08 
 -9.423178E-09 +4.417739E-09 -1.565393E-09 +4.417739E-09 -1.216378E-08 +8.381530E-10 -1.565393E-09 +8.381530E-10 +2.158695E-08 
 -4.949183E-08 -1.697707E-07 -1.895532E-07 -1.697707E-07 -2.959695E-07 -4.776506E-08 -1.895532E-07 -4.776506E-08 +3.454614E-07 
 +1.833696E-07 +3.125673E-07 +6.202478E-07 +3.125673E-07 -1.269940E-06 -2.850407E-07 +6.202478E-07 -2.850407E-07 +1.086571E-06 
 -5.198300E-08 +3.425839E-10 +1.603290E-08 +3.425839E-10 -2.070797E-08 -2.232930E-09 +1.603290E-08 -2.232930E-09 +7.269097E-08 
 -6.257672E-08 +3.464480E-09 +8.465291E-09 +3.464480E-09 -2.965205E-08 +5.992033E-09 +8.465291E-09 +5.992033E-09 +9.222877E-08 
 -7.713030E-06 +2.672017E-06 -3.322812E-06 +2.672017E-06 -6.104038E-07 -6.246830E-07 -3.322812E-06 -6.246830E-07 +8.323434E-06 
 -3.128810E-06 +4.705786E-06 -8.232683E-07 +4.705786E-06 -6.296394E-06 +4.018910E-06 -8.232683E-07 +4.018910E-06 +9.425204E-06 
 -2.269542E-08 +1.799452E-08 -1.252381E-08 +1.799452E-08 -4.174143E-08 +1.790153E-08 -1.252381E-08 +1.790153E-08 +6.443685E-08 
 -6.592340E-06 +1.674797E-07 -2.353011E-06 +1.674797E-07 +8.213763E-09 +4.954279E-07 -2.353011E-06 +4.954279E-07 +6.584127E-06 
 -7.885227E-08 +1.645468E-08 -8.949397E-09 +1.645468E-08 -5.765201E-08 +4.883173E-09 -8.949397E-09 +4.883173E-09 +1.365043E-07 
 -2.545289E-08 -3.047585E-09 -3.369094E-09 -3.047585E-09 -3.648190E-08 +1.780510E-09 -3.369094E-09 +1.780510E-09 +6.193479E-08 
 -8.809440E-06 -1.565462E-05 -1.225520E-06 -1.565462E-05 -2.382893E-05 +9.364952E-06 -1.225520E-06 +9.364952E-06 +3.263837E-05 
 -2.570873E-05 +1.198748E-05 +4.329938E-06 +1.198748E-05 -5.591337E-06 -2.019071E-06 +4.329938E-06 -2.019071E-06 +3.130007E-05 
 -1.063948E-07 +3.717237E-08 -7.668885E-09 +3.717237E-08 -7.143172E-08 +1.211873E-08 -7.668885E-09 +1.211873E-08 +1.778266E-07 
 -1.003700E-04 -4.540614E-05 +1.445903E-05 -4.540614E-05 -1.941060E-05 +1.830241E-05 +1.445903E-05 +1.830241E-05 +1.197806E-04 
 -8.650736E-08 +1.360329E-08 -1.207178E-08 +1.360329E-08 -4.947839E-08 -5.043334E-09 -1.207178E-08 -5.043334E-09 +1.359858E-07 
 -1.334864E-08 -1.926194E-09 -1.988071E-09 -1.926194E-09 -1.447161E-08 -2.778914E-09 -1.988071E-09 -2.778914E-09 +2.782025E-08 
 -4.894379E-08 -1.576008E-08 -5.200168E-09 -1.576008E-08 -3.751834E-08 -3.556041E-09 -5.200168E-09 -3.556041E-09 +8.646213E-08 
 -6.434632E-07 -8.867738E-07 -5.803486E-07 -8.867738E-07 -1.162402E-06 -3.328410E-07 -5.803486E-07 -3.328410E-07 +1.805865E-06 
 -2.425277E-08 +1.096000E-09 +1.060644E-08 +1.096000E-09 -1.160795E-08 +2.903733E-09 +1.060644E-08 +2.903733E-09 +3.586072E-08 
 -1.785925E-08 -5.856116E-09 -7.699605E-09 -5.856116E-09 -2.052569E-08 -1.034075E-08 -7.699605E-09 -1.034075E-08 +3.838494E-08 
 -1.610929E-04 +5.863190E-05 +5.864969E-05 +5.863190E-05 -2.134378E-05 -2.134731E-05 +5.864969E-05 -2.134731E-05 +1.824367E-04 
 -7.275555E-06 +2.410621E-05 -8.078445E-06 +2.410621E-05 -5.986084E-05 -1.238593E-05 -8.078445E-06 -1.238593E-05 +6.713640E-05 
 -2.575268E-08 -1.281051E-08 +1.697852E-08 -1.281051E-08 -7.049803E-08 +1.304218E-08 +1.697852E-08 +1.304218E-08 +9.625070E-08 
 -1.294041E-08 +1.320862E-08 -2.247182E-09 +1.320862E-08 -1.595106E-07 -8.811365E-08 -2.247182E-09 -8.811365E-08 +1.724511E-07 
 +2.978564E-07 +1.512321E-07 -8.521680E-07 +1.512321E-07 -2.666303E-06 -4.115115E-07 -8.521680E-07 -4.115115E-07 +2.368447E-06 
 -2.022172E-06 -5.351559E-07 +1.380410E-06 -5.351559E-07 -6.871115E-08 -1.277462E-07 +1.380410E-06 -1.277462E-07 +2.090883E-06 
 -2.521114E-08 +3.118998E-09 -1.301678E-08 +3.118998E-09 -1.846213E-08 +1.615072E-09 -1.301678E-08 +1.615072E-09 +4.367327E-08 
 -3.911587E-05 +4.019198E-06 -6.896305E-06 +4.019198E-06 -1.077329E-08 +4.785318E-06 -6.896305E-06 +4.785318E-06 +3.912665E-05 
 -6.620980E-06 +3.001545E-06 -4.220946E-07 +3.001545E-06 -1.077735E-06 +1.690348E-06 -4.220946E-07 +1.690348E-06 +7.698714E-06 
 -2.892661E-06 -2.920157E-06 -1.150335E-06 -2.920157E-06 -2.867786E-06 -1.887348E-06 -1.150335E-06 -1.887348E-06 +5.760447E-06 
 -1.728085E-08 -1.084269E-09 +1.604178E-10 -1.084269E-09 -2.844378E-08 -5.183736E-09 +1.604178E-10 -5.183736E-09 +4.572463E-08 
 -1.576070E-07 -2.698582E-07 -1.128969E-07 -2.698582E-07 -4.696528E-07 -1.963777E-07 -1.128969E-07 -1.963777E-07 +6.272597E-07 
 -5.053523E-08 +6.759566E-09 +6.099530E-09 +6.759566E-09 -4.145331E-08 +1.818500E-08 +6.099530E-09 +1.818500E-08 +9.198855E-08 
 -3.918842E-04 +3.918829E-04 -4.015556E-05 +3.918829E-04 -3.918845E-04 +4.015315E-05 -4.015556E-05 +4.015315E-05 +7.837687E-04 
 -9.162131E-07 -2.430345E-06 -7.540974E-07 -2.430345E-06 -4.193836E-06 +1.611329E-06 -7.540974E-07 +1.611329E-06 +5.110049E-06 
 -2.253877E-06 -1.020587E-06 -6.822435E-08 -1.020587E-06 -4.452012E-07 +1.883754E-07 -6.822435E-08 +1.883754E-07 +2.699078E-06 
 +5.956124E-07 -2.096452E-06 +5.173729E-06 -2.096452E-06 -3.024218E-05 +5.698974E-06 +5.173729E-06 +5.698974E-06 +2.964657E-05 
 -4.305034E-05 +2.752990E-06 +5.564956E-06 +2.752990E-06 +2.302877E-06 +9.794121E-06 +5.564956E-06 +9.794121E-06 +4.074746E-05 
 -2.096107E-07 -7.036372E-07 -1.743684E-07 -7.036372E-07 -1.810737E-06 +5.116869E-07 -1.743684E-07 +5.116869E-07 +2.020348E-06 
 -5.556318E-08 -1.982110E-08 -5.942679E-09 -1.982110E-08 -4.149623E-08 -4.136572E-09 -5.942679E-09 -4.136572E-09 +9.705941E-08 
 -6.476701E-05 +4.051795E-05 +2.236435E-05 +4.051795E-05 -2.239889E-05 +2.743517E-06 +2.236435E-05 +2.743517E-06 +8.716590E-05 
 -1.477952E-07 -1.744972E-08 +7.384746E-08 -1.744972E-08 -5.008831E-08 +3.879130E-08 +7.384746E-08 +3.879130E-08 +1.978835E-07 
 -7.353251E-07 +1.617716E-06 +1.039809E-06 +1.617716E-06 -3.361830E-06 -1.206101E-06 +1.039809E-06 -1.206101E-06 +4.097154E-06 
 +4.526561E-08 +8.911082E-07 -8.915598E-07 +8.911082E-07 -7.288559E-06 -1.560999E-06 -8.915598E-07 -1.560999E-06 +7.243293E-06 
 -8.141748E-05 +3.620244E-05 -5.402472E-06 +3.620244E-05 -1.467223E-05 -9.351566E-06 -5.402472E-06 -9.351566E-06 +9.608971E-05 
 -3.652033E-06 +8.435129E-07 +1.116195E-06 +8.435129E-07 -6.889097E-08 +4.673100E-07 +1.116195E-06 +4.673100E-07 +3.720924E-06 
 -2.624103E-08 -1.118307E-09 +7.543505E-09 -1.118307E-09 -3.740523E-08 -1.587516E-08 +7.543505E-09 -1.587516E-08 +6.364625E-08 
 -1.100027E-06 -3.044734E-08 +6.197801E-07 -3.044734E-08 -2.641014E-08 +5.152052E-08 +6.197801E-07 +5.152052E-08 +1.126437E-06 
 -2.115586E-05 +1.778617E-05 +9.192712E-06 +1.778617E-05 -1.116005E-05 +4.099918E-06 +9.192712E-06 +4.099918E-06 +3.231590E-05 
 -2.491948E-05 +1.193273E-06 +4.435606E-06 +1.193273E-06 +1.652620E-06 +6.219710E-06 +4.435606E-06 +6.219710E-06 +2.326686E-05 
 -1.597394E-08 -1.771857E-09 -6.689280E-09 -1.771857E-09 -3.176971E-08 -1.253556E-08 -6.689280E-09 -1.253556E-08 +4.774364E-08 
 -2.705148E-08 -3.934398E-09 -1.792603E-08 -3.934398E-09 -2.233882E-07 -5.803239E-08 -1.792603E-08 -5.803239E-08 +2.504396E-07 
 -6.274243E-05 -4.230110E-05 +1.525370E-05 -4.230110E-05 -2.745308E-05 +2.031120E-05 +1.525370E-05 +2.031120E-05 +9.019551E-05 
 -2.869483E-07 +1.267938E-07 +1.845303E-07 +1.267938E-07 -5.762355E-08 +1.669651E-08 +1.845303E-07 +1.669651E-08 +3.445718E-07 
 -3.601215E-08 +5.285201E-09 -1.976215E-08 +5.285201E-09 -2.177655E-08 +4.278304E-09 -1.976215E-08 +4.278304E-09 +5.778869E-08 
 -2.180447E-07 +2.576672E-07 -1.190480E-07 +2.576672E-07 -2.152412E-07 -8.916053E-08 -1.190480E-07 -8.916053E-08 +4.332860E-07 
 -1.156669E-04 -9.837851E-05 +1.159102E-05 -9.837851E-05 -8.109496E-05 -1.274350E-05 +1.159102E-05 -1.274350E-05 +1.967618E-04 
 -2.917591E-07 -2.169163E-07 -1.315626E-08 -2.169163E-07 -1.206535E-07 +1.537393E-07 -1.315626E-08 +1.537393E-07 +4.124126E-07 
 -2.356085E-07 +7.984215E-07 -6.542682E-07 +7.984215E-07 -2.638315E-06 +8.071889E-07 -6.542682E-07 +8.071889E-07 +2.873923E-06 
 -2.282203E-06 +1.867222E-06 +8.033546E-08 +1.867222E-06 -8.412964E-07 -1.536685E-06 +8.033546E-08 -1.536685E-06 +3.123499E-06 
 -2.114626E-07 -3.336541E-07 -1.223207E-07 -3.336541E-07 -3.369556E-07 +1.748813E-07 -1.223207E-07 +1.748813E-07 +5.484181E-07 
 -1.279629E-06 -1.266808E-06 -8.503473E-09 -1.266808E-06 -1.256254E-06 +7.793440E-09 -8.503473E-09 +7.793440E-09 +2.535883E-06 
 -1.760354E-08 -3.269111E-08 -2.130616E-08 -3.269111E-08 -1.201327E-07 -6.479566E-08 -2.130616E-08 -6.479566E-08 +1.377362E-07 
 -8.504508E-08 -1.516510E-08 +1.356895E-08 -1.516510E-08 -4.729835E-08 +1.783389E-08 +1.356895E-08 +1.783389E-08 +1.323434E-07 
 -1.839205E-06 -1.657609E-05 -1.222602E-05 -1.657609E-05 -1.024731E-04 -1.679525E-05 -1.222602E-05 -1.679525E-05 +1.043123E-04 
 -3.707411E-08 -1.116659E-08 +7.793455E-09 -1.116659E-08 -7.618738E-08 +3.328694E-08 +7.793455E-09 +3.328694E-08 +1.132615E-07 
 -6.247313E-05 +4.199604E-05 +1.635844E-05 +4.199604E-05 -2.716142E-05 -2.102618E-05 +1.635844E-05 -2.102618E-05 +8.963455E-05 
 -5.318347E-05 +4.011090E-05 +9.238166E-06 +4.011090E-05 -2.706172E-05 +9.230784E-06 +9.238166E-06 +9.230784E-06 +8.024519E-05 
 -2.684944E-08 +3.666765E-08 -3.908995E-08 +3.666765E-08 -2.171873E-07 +2.281189E-08 -3.908995E-08 +2.281189E-08 +2.440367E-07 
 -1.570737E-08 +4.390007E-09 -2.602180E-09 +4.390007E-09 -1.762133E-08 +3.817326E-09 -2.602180E-09 +3.817326E-09 +3.332871E-08 
 -3.882591E-06 -8.768320E-07 -6.671158E-07 -8.768320E-07 -1.886871E-07 -3.503118E-07 -6.671158E-07 -3.503118E-07 +4.071278E-06 
 -2.169370E-05 -1.783692E-05 -7.246639E-06 -1.783692E-05 -1.338858E-05 -1.295552E-05 -7.246639E-06 -1.295552E-05 +3.508228E-05 
 -3.125272E-05 -3.285631E-05 +1.445036E-06 -3.285631E-05 -3.069581E-05 +1.697903E-05 +1.445036E-06 +1.697903E-05 +6.194853E-05 
 -2.490430E-07 +5.347953E-07 -5.686514E-07 +5.347953E-07 -6.177936E-07 +1.332577E-07 -5.686514E-07 +1.332577E-07 +8.668366E-07 
 -1.828923E-05 -1.828781E-05 +3.016849E-07 -1.828781E-05 -1.828925E-05 +3.008803E-07 +3.016849E-07 +3.008803E-07 +3.657848E-05 
 -1.907492E-06 -2.524140E-07 +7.219869E-07 -2.524140E-07 +5.766046E-08 +5.375085E-07 +7.219869E-07 +5.375085E-07 +1.849831E-06 
 -5.386165E-06 +2.424973E-05 -1.228708E-05 +2.424973E-05 -9.458211E-05 +1.206827E-05 -1.228708E-05 +1.206827E-05 +9.996827E-05 
 -7.229480E-05 -3.360905E-05 -3.889354E-05 -3.360905E-05 -1.193907E-05 +1.637874E-06 -3.889354E-05 +1.637874E-06 +8.423388E-05 
 -2.383136E-05 -1.479924E-05 +1.666270E-06 -1.479924E-05 -5.773795E-06 -9.045921E-06 +1.666270E-06 -9.045921E-06 +2.960515E-05 
 -1.732510E-07 +2.860617E-07 -3.103914E-08 +2.860617E-07 -4.034798E-07 +2.629250E-07 -3.103914E-08 +2.629250E-07 +5.767307E-07 
 -1.878433E-08 -8.812657E-10 -1.550696E-09 -8.812657E-10 -6.121744E-08 +1.747472E-08 -1.550696E-09 +1.747472E-08 +8.000177E-08 
 +1.449385E-08 +1.451877E-07 -2.480469E-07 +1.451877E-07 -5.887552E-07 +2.365604E-07 -2.480469E-07 +2.365604E-07 +5.742613E-07 
 -1.036764E-05 -3.127853E-06 -1.816526E-06 -3.127853E-06 -9.323226E-07 -9.184885E-07 -1.816526E-06 -9.184885E-07 +1.129996E-05 
 -1.356477E-07 -2.192788E-07 -3.270040E-08 -2.192788E-07 -3.409468E-07 -1.727283E-07 -3.270040E-08 -1.727283E-07 +4.765945E-07 
 -1.146228E-07 -2.784912E-09 +9.355801E-09 -2.784912E-09 -3.162312E-08 -3.050113E-09 +9.355801E-09 -3.050113E-09 +1.462459E-07 
 -8.941268E-06 +1.483227E-05 -6.725245E-06 +1.483227E-05 -2.128642E-05 +3.194757E-07 -6.725245E-06 +3.194757E-07 +3.022769E-05 
 -3.622547E-07 +6.823455E-09 +2.658900E-07 +6.823455E-09 -4.474838E-08 +9.328949E-08 +2.658900E-07 +9.328949E-08 +4.070031E-07 
 +1.722068E-08 +1.216926E-07 +1.235503E-07 +1.216926E-07 -3.407015E-07 +5.694116E-08 +1.235503E-07 +5.694116E-08 +3.234808E-07 
 -3.188648E-08 -9.411758E-09 +3.082662E-09 -9.411758E-09 -3.457102E-08 +2.536819E-09 +3.082662E-09 +2.536819E-09 +6.645750E-08 
 -1.106569E-08 +3.132971E-09 +6.661087E-09 +3.132971E-09 -8.937499E-09 -1.369131E-09 +6.661087E-09 -1.369131E-09 +2.000319E-08 
 -1.491832E-08 +8.036685E-09 +5.156339E-09 +8.036685E-09 -2.060383E-08 -1.098958E-08 +5.156339E-09 -1.098958E-08 +3.552216E-08 
 -2.295945E-08 +3.770791E-10 -2.876425E-09 +3.770791E-10 -1.413221E-08 +1.622423E-09 -2.876425E-09 +1.622423E-09 +3.709165E-08 
 -4.322422E-08 -3.477385E-09 -1.836901E-09 -3.477385E-09 -3.798633E-08 -3.621017E-09 -1.836901E-09 -3.621017E-09 +8.121054E-08 
 -4.070965E-08 -7.792967E-09 -1.403243E-08 -7.792967E-09 -2.788843E-08 -4.989688E-09 -1.403243E-08 -4.989688E-09 +6.859808E-08 
 -4.484927E-06 -4.265607E-06 -3.232275E-07 -4.265607E-06 -4.003282E-06 +3.860893E-07 -3.232275E-07 +3.860893E-07 +8.488209E-06 
 -1.200277E-07 +1.349395E-07 +8.692169E-08 +1.349395E-07 -2.320087E-07 -3.168733E-08 +8.692169E-08 -3.168733E-08 +3.520364E-07 
 -4.631372E-07 +1.783432E-07 +9.321313E-08 +1.783432E-07 -4.821263E-08 +1.162248E-07 +9.321313E-08 +1.162248E-07 +5.113498E-07 
 -3.454193E-08 +1.816186E-09 -1.864006E-09 +1.816186E-09 -7.071633E-08 +2.336012E-08 -1.864006E-09 +2.336012E-08 +1.052583E-07 
 -3.464091E-08 -1.257187E-08 -3.459300E-09 -1.257187E-08 -4.108932E-08 -3.255086E-09 -3.459300E-09 -3.255086E-09 +7.573023E-08 
 -9.036511E-09 -1.616971E-08 -4.062832E-08 -1.616971E-08 -1.692877E-07 +8.024500E-08 -4.062832E-08 +8.024500E-08 +1.783242E-07 
 -5.281097E-05 +2.171853E-05 -1.490582E-05 +2.171853E-05 -6.543070E-06 +1.848727E-05 -1.490582E-05 +1.848727E-05 +5.935404E-05 
 -1.138989E-05 -5.618693E-05 -4.051163E-05 -5.618693E-05 -2.328983E-04 -6.862864E-05 -4.051163E-05 -6.862864E-05 +2.442882E-04 
 -8.210696E-09 +1.102772E-09 -1.656139E-09 +1.102772E-09 -1.355218E-08 +6.830914E-09 -1.656139E-09 +6.830914E-09 +2.176288E-08 
 +4.974023E-10 -1.269795E-08 +3.162915E-08 -1.269795E-08 -2.611665E-07 -1.513680E-07 +3.162915E-08 -1.513680E-07 +2.606691E-07 
 -4.366235E-07 +2.950552E-06 -2.015582E-06 +2.950552E-06 -1.059694E-05 -1.759268E-07 -2.015582E-06 -1.759268E-07 +1.103356E-05 
 -1.573930E-06 +2.505574E-06 -1.890619E-07 +2.505574E-06 -3.963715E-06 -1.083816E-07 -1.890619E-07 -1.083816E-07 +5.537645E-06 
 -5.420102E-08 +4.535816E-08 -4.828095E-09 +4.535816E-08 -1.123392E-07 +1.450999E-08 -4.828095E-09 +1.450999E-08 +1.665402E-07 
 -5.204320E-08 -1.619783E-07 +1.017039E-07 -1.619783E-07 -2.501495E-07 -5.756999E-08 +1.017039E-07 -5.756999E-08 +3.021927E-07 
 +1.052016E-08 +6.818565E-07 -4.845788E-07 +6.818565E-07 -3.844179E-06 -1.658942E-06 -4.845788E-07 -1.658942E-06 +3.833659E-06 
 -2.175114E-10 -4.241397E-09 -2.353014E-09 -4.241397E-09 -2.257981E-10 -2.911793E-09 -2.353014E-09 -2.911793E-09 +4.433094E-10 
 -1.041902E-07 +4.126394E-08 +3.270410E-08 +4.126394E-08 -6.118484E-08 -1.480402E-08 +3.270410E-08 -1.480402E-08 +1.653751E-07 
 -3.069082E-08 -1.767770E-08 +1.120236E-09 -1.767770E-08 -8.434925E-08 -7.996880E-09 +1.120236E-09 -7.996880E-09 +1.150401E-07 
 -8.782720E-08 -1.542376E-07 +8.744493E-08 -1.542376E-07 -3.683897E-07 +2.222376E-07 +8.744493E-08 +2.222376E-07 +4.562169E-07 
 -1.594140E-08 +4.256524E-09 +1.030047E-08 +4.256524E-09 -2.605782E-08 -8.654677E-09 +1.030047E-08 -8.654677E-09 +4.199922E-08 
 -1.099299E-04 +1.569873E-04 +5.074490E-05 +1.569873E-04 -2.242070E-04 -7.246841E-05 +5.074490E-05 -7.246841E-05 +3.341370E-04 
 -1.107602E-05 +1.320613E-05 +5.113183E-08 +1.320613E-05 -1.525951E-05 +3.522774E-06 +5.113183E-08 +3.522774E-06 +2.633553E-05 
 -4.472694E-06 -3.200948E-06 -2.928157E-06 -3.200948E-06 -1.934623E-06 -3.650366E-07 -2.928157E-06 -3.650366E-07 +6.407317E-06 
 -2.551371E-04 +1.325075E-04 -1.402115E-04 +1.325075E-04 -6.512104E-05 +3.447074E-05 -1.402115E-04 +3.447074E-05 +3.202581E-04 
 +1.516320E-07 -1.950708E-06 +2.912586E-06 -1.950708E-06 -9.337229E-06 +2.292177E-06 +2.912586E-06 +2.292177E-06 +9.185597E-06 
 -3.736684E-06 +4.287831E-06 -3.905871E-07 +4.287831E-06 -4.842145E-06 -3.915254E-07 -3.905871E-07 -3.915254E-07 +8.578828E-06 
 -7.541789E-07 -3.257917E-07 +1.450671E-07 -3.257917E-07 -3.303646E-08 -2.462025E-07 +1.450671E-07 -2.462025E-07 +7.872154E-07 
 -3.059247E-07 -1.334029E-07 -3.002654E-08 -1.334029E-07 -1.725306E-07 -8.785324E-09 -3.002654E-08 -8.785324E-09 +4.784553E-07 
 -3.314786E-06 -4.469445E-07 +5.887280E-07 -4.469445E-07 +1.509664E-07 -7.892725E-07 +5.887280E-07 -7.892725E-07 +3.163820E-06 
 -9.911333E-05 -1.475293E-04 +3.937351E-05 -1.475293E-04 -2.120531E-04 +8.790565E-06 +3.937351E-05 +8.790565E-06 +3.111664E-04 
 -1.413520E-07 -1.082856E-07 -6.778735E-08 -1.082856E-07 -9.967383E-08 +5.547511E-09 -6.778735E-08 +5.547511E-09 +2.410258E-07 
 -1.360362E-04 +9.252912E-06 -3.014005E-05 +9.252912E-06 +4.570852E-07 +1.453627E-05 -3.014005E-05 +1.453627E-05 +1.355791E-04 
 -2.457681E-05 +6.584946E-06 -5.097527E-07 +6.584946E-06 -1.765919E-06 +1.371325E-07 -5.097527E-07 +1.371325E-07 +2.634273E-05 
 -1.097203E-07 -1.043988E-08 +2.146080E-08 -1.043988E-08 -1.248073E-07 +5.323155E-09 +2.146080E-08 +5.323155E-09 +2.345276E-07 
 -1.311196E-06 -9.894798E-07 +3.611250E-07 -9.894798E-07 -7.382498E-07 +1.315775E-07 +3.611250E-07 +1.315775E-07 +2.049446E-06 
 -6.830578E-06 +3.180634E-06 -3.491294E-07 +3.180634E-06 -1.215015E-06 -1.304373E-06 -3.491294E-07 -1.304373E-06 +8.045593E-06 
 -2.018334E-08 -2.940587E-09 +1.937903E-09 -2.940587E-09 -2.412782E-08 +4.753086E-09 +1.937903E-09 +4.753086E-09 +4.431116E-08 
 -2.570932E-08 -6.568353E-09 +1.675624E-09 -6.568353E-09 -6.475160E-08 -6.346743E-09 +1.675624E-09 -6.346743E-09 +9.046092E-08 
 -4.683928E-08 +4.983717E-10 -3.044337E-09 +4.983717E-10 -9.161906E-08 +8.123103E-09 -3.044337E-09 +8.123103E-09 +1.384583E-07 
 -5.474838E-08 -2.680491E-09 +3.571458E-09 -2.680491E-09 -2.696852E-08 -7.902032E-09 +3.571458E-09 -7.902032E-09 +8.171689E-08 
 -5.921558E-05 -5.237285E-05 +2.353053E-05 -5.237285E-05 -4.484666E-05 +7.861986E-06 +2.353053E-05 +7.861986E-06 +1.040622E-04 
 -1.462554E-07 +1.169648E-07 +2.304488E-09 +1.169648E-07 -2.306461E-07 -2.537783E-08 +2.304488E-09 -2.537783E-08 +3.769015E-07 
 -1.590668E-06 +5.760222E-07 -5.539710E-07 +5.760222E-07 -8.993928E-08 +6.743473E-07 -5.539710E-07 +6.743473E-07 +1.680607E-06 
 -1.834641E-06 +1.487195E-06 -6.626612E-07 +1.487195E-06 -1.141713E-06 +7.906753E-08 -6.626612E-07 +7.906753E-08 +2.976354E-06 
 -1.360104E-05 +3.736209E-05 -5.658287E-06 +3.736209E-05 -1.026535E-04 +1.554645E-05 -5.658287E-06 +1.554645E-05 +1.162545E-04 
 +1.302294E-06 -1.023244E-06 -5.906315E-06 -1.023244E-06 -2.586762E-05 -2.897972E-06 -5.906315E-06 -2.897972E-06 +2.456533E-05 
 -7.880267E-05 -1.680287E-05 -1.388764E-05 -1.680287E-05 -1.761759E-08 +1.409563E-05 -1.388764E-05 +1.409563E-05 +7.882030E-05 
 -5.112743E-05 +6.092752E-05 +2.767545E-05 +6.092752E-05 -7.261328E-05 -3.298033E-05 +2.767545E-05 -3.298033E-05 +1.237407E-04 
 -8.567074E-05 -3.887683E-05 -1.110479E-05 -3.887683E-05 -1.667591E-05 -1.505695E-05 -1.110479E-05 -1.505695E-05 +1.023467E-04 
 -2.455590E-05 -2.926363E-05 +7.121748E-06 -2.926363E-05 -3.487569E-05 +8.487062E-06 +7.121748E-06 +8.487062E-06 +5.943160E-05 
 -7.338280E-06 -4.161084E-05 -7.649821E-06 -4.161084E-05 -2.359877E-04 -4.338599E-05 -7.649821E-06 -4.338599E-05 +2.433259E-04 
 -1.895558E-07 +1.892322E-08 +1.654326E-08 +1.892322E-08 -8.520983E-08 -1.020120E-08 +1.654326E-08 -1.020120E-08 +2.747657E-07 
 -2.515473E-05 -2.186619E-06 -7.924739E-08 -2.186619E-06 +5.768869E-07 -4.354341E-06 -7.924739E-08 -4.354341E-06 +2.457784E-05 
 +8.575402E-09 -3.221584E-08 -1.058815E-07 -3.221584E-08 -3.293862E-07 -9.677953E-08 -1.058815E-07 -9.677953E-08 +3.208108E-07 
 -3.377724E-06 +4.878038E-06 +1.817848E-07 +4.878038E-06 -6.147514E-06 +2.666932E-06 +1.817848E-07 +2.666932E-06 +9.525238E-06 
 -5.695456E-07 +3.473047E-07 -1.714316E-07 +3.473047E-07 -1.124707E-07 -1.829907E-07 -1.714316E-07 -1.829907E-07 +6.820163E-07 
 -4.241284E-08 +2.205552E-08 +1.524255E-08 +2.205552E-08 -3.816200E-08 -1.338387E-08 +1.524255E-08 -1.338387E-08 +8.057484E-08 
 -4.453640E-08 -2.278829E-09 +5.629385E-09 -2.278829E-09 -5.879957E-08 +3.687545E-09 +5.629385E-09 +3.687545E-09 +1.033360E-07 
 -1.261474E-06 -2.124818E-06 -1.525647E-06 -2.124818E-06 -2.041387E-06 +2.471637E-07 -1.525647E-06 +2.471637E-07 +3.302861E-06 
 -4.753146E-08 -1.018881E-08 +5.246653E-09 -1.018881E-08 -4.527502E-08 +1.818822E-08 +5.246653E-09 +1.818822E-08 +9.280649E-08 
 +1.007578E-06 -1.194188E-05 +2.343247E-05 -1.194188E-05 -2.024452E-04 +6.569100E-05 +2.343247E-05 +6.569100E-05 +2.014377E-04 
 -2.415341E-08 +8.226694E-10 +2.645213E-09 +8.226694E-10 -4.818767E-08 -4.403647E-09 +2.645213E-09 -4.403647E-09 +7.234107E-08 
 -1.064748E-08 -2.502217E-09 -1.831154E-09 -2.502217E-09 -1.048667E-08 +7.859906E-10 -1.831154E-09 +7.859906E-10 +2.113415E-08 
 -5.466091E-06 -1.337172E-06 +1.805215E-06 -1.337172E-06 +7.627074E-07 -1.967554E-06 +1.805215E-06 -1.967554E-06 +4.703384E-06 
 -4.972536E-07 -2.847346E-07 +1.514639E-07 -2.847346E-07 -6.497906E-08 -1.667568E-07 +1.514639E-07 -1.667568E-07 +5.622326E-07 
 -1.726146E-08 +3.644626E-09 -2.501472E-09 +3.644626E-09 -1.979538E-08 +3.607230E-09 -2.501472E-09 +3.607230E-09 +3.705684E-08 
 -1.482467E-08 -1.230291E-09 -3.079795E-09 -1.230291E-09 -2.953153E-08 -4.168979E-09 -3.079795E-09 -4.168979E-09 +4.435620E-08 
 -1.835345E-07 +8.015468E-07 -3.845699E-07 +8.015468E-07 -1.117834E-06 -5.634805E-07 -3.845699E-07 -5.634805E-07 +1.301369E-06 
 -9.120010E-08 -2.923966E-08 -8.700728E-09 -2.923966E-08 -4.868496E-08 -3.285856E-09 -8.700728E-09 -3.285856E-09 +1.398851E-07 
 -2.506527E-07 -2.672176E-07 -2.816335E-07 -2.672176E-07 -2.745817E-07 -5.396189E-08 -2.816335E-07 -5.396189E-08 +5.252344E-07 
 -4.076793E-08 +1.071810E-08 +2.181254E-08 +1.071810E-08 -5.490371E-09 -1.149572E-08 +2.181254E-08 -1.149572E-08 +4.625830E-08 
 -1.744665E-08 -8.418346E-10 +1.929716E-09 -8.418346E-10 -9.046645E-09 +4.732233E-10 +1.929716E-09 +4.732233E-10 +2.649329E-08 
 -3.583413E-08 -2.400568E-08 -8.845805E-10 -2.400568E-08 -1.400861E-07 -1.060844E-08 -8.845805E-10 -1.060844E-08 +1.759203E-07 
 -4.979167E-08 +1.805920E-08 -1.603463E-08 +1.805920E-08 -3.782497E-08 +9.841830E-09 -1.603463E-08 +9.841830E-09 +8.761664E-08 
 -5.430597E-07 -4.023723E-07 -3.766363E-07 -4.023723E-07 -1.568069E-07 +9.938957E-08 -3.766363E-07 +9.938957E-08 +6.998666E-07 
 -8.251906E-05 +3.927845E-05 +8.305250E-06 +3.927845E-05 -1.776318E-05 +5.802206E-06 +8.305250E-06 +5.802206E-06 +1.002822E-04 
 -3.159496E-08 -2.288142E-09 +1.389969E-08 -2.288142E-09 -7.402540E-09 -5.392928E-10 +1.389969E-08 -5.392928E-10 +3.899751E-08 
 -5.419211E-08 +5.169497E-08 -2.434139E-08 +5.169497E-08 -3.244317E-08 +5.105208E-08 -2.434139E-08 +5.105208E-08 +8.663527E-08 
 -4.528708E-05 -3.399404E-05 -1.067952E-05 -3.399404E-05 -2.230919E-05 +7.052162E-06 -1.067952E-05 +7.052162E-06 +6.759627E-05 
 +5.566220E-08 +1.809122E-07 +3.315272E-07 +1.809122E-07 -8.807594E-07 -1.387204E-07 +3.315272E-07 -1.387204E-07 +8.250973E-07 
 -9.817931E-05 +3.524914E-06 -1.312724E-05 +3.524914E-06 +6.534935E-06 -2.451322E-05 -1.312724E-05 -2.451322E-05 +9.164438E-05 
 -8.377865E-08 -1.360323E-08 -1.414550E-08 -1.360323E-08 -1.984058E-07 -6.671153E-09 -1.414550E-08 -6.671153E-09 +2.821844E-07 
 -5.037688E-08 +2.709161E-08 +1.544160E-09 +2.709161E-08 -1.033362E-07 +1.202502E-08 +1.544160E-09 +1.202502E-08 +1.537131E-07 
 -6.356086E-06 -3.901652E-06 +7.795683E-07 -3.901652E-06 -1.642027E-06 -2.014514E-06 +7.795683E-07 -2.014514E-06 +7.998113E-06 
 -9.359288E-09 +1.675614E-09 +5.952574E-10 +1.675614E-09 -2.006414E-08 -4.210278E-09 +5.952574E-10 -4.210278E-09 +2.942343E-08 
 -4.627318E-08 +6.648174E-09 +6.005089E-09 +6.648174E-09 -3.727038E-08 +6.926962E-09 +6.005089E-09 +6.926962E-09 +8.354356E-08 
 -1.182813E-08 +4.440793E-08 +9.504933E-08 +4.440793E-08 -2.062696E-07 -1.482074E-07 +9.504933E-08 -1.482074E-07 +2.180978E-07 
 -3.811421E-08 +2.395690E-08 +2.020788E-09 +2.395690E-08 -1.334595E-07 -1.020576E-08 +2.020788E-09 -1.020576E-08 +1.715737E-07 
 -3.483155E-06 +2.902429E-06 -2.078654E-06 +2.902429E-06 -2.324504E-06 +9.084649E-07 -2.078654E-06 +9.084649E-07 +5.807659E-06 
 -4.360653E-06 +3.481249E-06 +5.995252E-07 +3.481249E-06 -2.128851E-06 -2.570776E-06 +5.995252E-07 -2.570776E-06 +6.489504E-06 
 -8.494986E-09 +6.539601E-10 +1.305840E-09 +6.539601E-10 -1.337365E-08 -5.024173E-09 +1.305840E-09 -5.024173E-09 +2.186863E-08 
 -2.119262E-08 +1.122898E-08 -4.108851E-09 +1.122898E-08 -5.552493E-08 +2.780343E-08 -4.108851E-09 +2.780343E-08 +7.671754E-08 
 -7.159464E-08 +5.297870E-07 -2.337837E-07 +5.297870E-07 -3.804279E-06 +6.509560E-07 -2.337837E-07 +6.509560E-07 +3.875874E-06 
 -1.830780E-08 -1.156689E-08 +5.912343E-09 -1.156689E-08 -5.057589E-08 +2.423961E-09 +5.912343E-09 +2.423961E-09 +6.888369E-08 
 -1.535401E-07 -2.872541E-08 +7.818755E-08 -2.872541E-08 -8.591281E-08 +9.470871E-09 +7.818755E-08 +9.470871E-09 +2.394529E-07 
 -2.332393E-07 +3.195677E-08 +7.937570E-08 +3.195677E-08 -8.934802E-08 -3.683873E-08 +7.937570E-08 -3.683873E-08 +3.225873E-07 
 -3.718215E-06 +5.383024E-06 +4.814333E-07 +5.383024E-06 -7.531343E-06 +1.027847E-06 +4.814333E-07 +1.027847E-06 +1.124956E-05 
 -1.381896E-06 -5.346324E-07 -4.347536E-07 -5.346324E-07 -3.894488E-08 +3.844418E-07 -4.347536E-07 +3.844418E-07 +1.420840E-06 
 -1.138676E-04 +7.984145E-05 +1.115525E-06 +7.984145E-05 -5.408748E-05 +1.714559E-05 +1.115525E-06 +1.714559E-05 +1.679551E-04 
 -7.888088E-08 -5.969924E-08 -4.794335E-08 -5.969924E-08 -8.940400E-08 -8.105191E-08 -4.794335E-08 -8.105191E-08 +1.682849E-07 
 -2.984518E-07 +1.024321E-06 -2.341940E-07 +1.024321E-06 -2.444091E-06 -1.045570E-06 -2.341940E-07 -1.045570E-06 +2.742543E-06 
 -1.842494E-05 +4.774817E-05 +1.990651E-05 +4.774817E-05 -9.969503E-05 +6.542231E-06 +1.990651E-05 +6.542231E-06 +1.181200E-04 
 -3.417824E-08 -7.583686E-09 -1.272151E-09 -7.583686E-09 -5.563767E-08 +6.192920E-09 -1.272151E-09 +6.192920E-09 +8.981592E-08 
 -2.796065E-06 -3.391821E-06 -2.897677E-06 -3.391821E-06 -3.397706E-06 -9.219331E-07 -2.897677E-06 -9.219331E-07 +6.193771E-06 
 -1.271393E-04 +5.673876E-05 -2.633155E-05 +5.673876E-05 -2.387666E-05 +2.684939E-05 -2.633155E-05 +2.684939E-05 +1.510160E-04 
 -5.212076E-07 -1.401950E-06 +2.909165E-07 -1.401950E-06 -3.773908E-06 +6.998743E-07 +2.909165E-07 +6.998743E-07 +4.295116E-06 
 -2.493796E-06 +1.096226E-06 -9.187121E-07 +1.096226E-06 -4.708032E-07 +6.218915E-07 -9.187121E-07 +6.218915E-07 +2.964599E-06 
 -9.584519E-08 +1.020062E-08 +2.492388E-08 +1.020062E-08 -2.086268E-08 -1.432208E-10 +2.492388E-08 -1.432208E-10 +1.167079E-07 
 -3.078282E-08 -3.454218E-08 -2.509726E-08 -3.454218E-08 -2.867312E-08 +2.764013E-09 -2.509726E-08 +2.764013E-09 +5.945594E-08 
 -2.155827E-08 -3.429816E-07 +1.032022E-07 -3.429816E-07 -3.447639E-06 -2.035138E-06 +1.032022E-07 -2.035138E-06 +3.469197E-06 
 -6.238121E-06 +1.576707E-05 +2.804568E-06 +1.576707E-05 -3.233074E-05 +1.026327E-05 +2.804568E-06 +1.026327E-05 +3.856886E-05 
 -6.133645E-06 -1.325567E-06 +1.740371E-06 -1.325567E-06 -6.501154E-08 +1.596798E-06 +1.740371E-06 +1.596798E-06 +6.198656E-06 
 -3.185700E-08 +2.394707E-08 -8.641005E-09 +2.394707E-08 -4.869661E-08 +1.538163E-08 -8.641005E-09 +1.538163E-08 +8.055360E-08 
 -2.076027E-05 -1.711633E-05 +7.774355E-06 -1.711633E-05 -1.148218E-05 -3.258448E-06 +7.774355E-06 -3.258448E-06 +3.224245E-05 
 -6.858863E-06 -1.555597E-05 +3.085590E-06 -1.555597E-05 -3.372176E-05 -1.122192E-06 +3.085590E-06 -1.122192E-06 +4.058063E-05 
 -6.222777E-08 -6.058206E-09 -3.353324E-09 -6.058206E-09 -3.382309E-08 -6.151181E-09 -3.353324E-09 -6.151181E-09 +9.605086E-08 
 -3.125150E-06 -5.405108E-07 +1.157734E-07 -5.405108E-07 -6.980122E-08 +3.034925E-07 +1.157734E-07 +3.034925E-07 +3.194952E-06 
 -4.867470E-06 -4.218097E-06 +1.047230E-06 -4.218097E-06 -3.653730E-06 +1.088482E-06 +1.047230E-06 +1.088482E-06 +8.521200E-06 
 -8.990679E-07 -1.166955E-06 +3.536993E-07 -1.166955E-06 -1.339343E-06 -1.914309E-07 +3.536993E-07 -1.914309E-07 +2.238410E-06 
 -8.606759E-05 -2.568262E-06 +1.516548E-05 -2.568262E-06 -2.530700E-08 -2.161230E-06 +1.516548E-05 -2.161230E-06 +8.609290E-05 
 -3.294255E-07 -1.080894E-06 +1.989782E-07 -1.080894E-06 -1.914652E-06 -1.343038E-06 +1.989782E-07 -1.343038E-06 +2.244078E-06 
 -1.803480E-07 -6.931125E-08 -6.562778E-09 -6.931125E-08 -1.822653E-07 -3.242243E-08 -6.562778E-09 -3.242243E-08 +3.626133E-07 
 -7.939742E-07 +3.063740E-07 +2.392290E-07 +3.063740E-07 -4.345388E-07 -4.623302E-08 +2.392290E-07 -4.623302E-08 +1.228513E-06 
 -9.356270E-09 -1.051854E-09 +2.652577E-09 -1.051854E-09 -8.070431E-09 +2.731967E-09 +2.652577E-09 +2.731967E-09 +1.742670E-08 
 -1.308381E-08 -1.470126E-09 +4.276705E-09 -1.470126E-09 -1.708758E-08 +4.745035E-09 +4.276705E-09 +4.745035E-09 +3.017140E-08 
 -6.725536E-06 +2.235149E-06 +2.453669E-06 +2.235149E-06 -7.182122E-07 -1.298486E-06 +2.453669E-06 -1.298486E-06 +7.443748E-06 
 -9.252108E-08 -1.838933E-08 -6.138946E-09 -1.838933E-08 -2.792573E-08 -6.910576E-09 -6.138946E-09 -6.910576E-09 +1.204468E-07 
 -2.326174E-07 -2.134079E-07 +1.218559E-07 -2.134079E-07 -2.098250E-07 +9.805897E-08 +1.218559E-07 +9.805897E-08 +4.424424E-07 
 -5.830875E-05 -1.250291E-04 -2.923645E-05 -1.250291E-04 -2.681323E-04 -6.270577E-05 -2.923645E-05 -6.270577E-05 +3.264411E-04 
 -5.429997E-07 -1.010199E-06 -5.003357E-08 -1.010199E-06 -1.506121E-06 +8.070277E-07 -5.003357E-08 +8.070277E-07 +2.049121E-06 
 -5.467294E-07 -5.841704E-07 -7.551879E-08 -5.841704E-07 -3.226021E-07 +4.390678E-07 -7.551879E-08 +4.390678E-07 +8.693315E-07 
 -6.848400E-08 -6.750372E-09 -2.613380E-08 -6.750372E-09 -9.181375E-08 -3.300529E-08 -2.613380E-08 -3.300529E-08 +1.602977E-07 
 -1.720093E-06 +1.823390E-06 +5.120257E-07 +1.823390E-06 -1.717909E-06 -1.443096E-06 +5.120257E-07 -1.443096E-06 +3.438002E-06 
 -2.159685E-07 +1.153325E-07 +1.706003E-07 +1.153325E-07 -1.306686E-07 -7.804819E-08 +1.706003E-07 -7.804819E-08 +3.466370E-07 
 -2.994076E-08 +1.654188E-08 -1.588798E-09 +1.654188E-08 -8.447537E-08 +2.491918E-08 -1.588798E-09 +2.491918E-08 +1.144161E-07 
 -5.281940E-07 +8.146796E-07 +3.434570E-07 +8.146796E-07 -7.940699E-07 +3.260678E-07 +3.434570E-07 +3.260678E-07 +1.322264E-06 
 -4.926753E-08 -1.625344E-07 +1.476459E-07 -1.625344E-07 -6.660935E-07 +3.786614E-07 +1.476459E-07 +3.786614E-07 +7.153610E-07 
 -1.481560E-08 -6.049570E-09 -3.184535E-09 -6.049570E-09 -2.953775E-08 -1.599879E-08 -3.184535E-09 -1.599879E-08 +4.435335E-08 
 -2.078235E-06 +2.535777E-06 -1.561471E-06 +2.535777E-06 -3.014876E-06 +1.165993E-06 -1.561471E-06 +1.165993E-06 +5.093111E-06 
 -2.449056E-04 +8.913673E-05 -7.980075E-05 +8.913673E-05 -3.244761E-05 +2.904377E-05 -7.980075E-05 +2.904377E-05 +2.773532E-04 
 -2.269430E-07 -3.422549E-07 -2.497230E-07 -3.422549E-07 -5.627876E-07 -3.528574E-07 -2.497230E-07 -3.528574E-07 +7.897306E-07 
 +1.517710E-06 -6.362527E-06 +1.176495E-05 -6.362527E-06 -6.894144E-05 -1.875460E-06 +1.176495E-05 -1.875460E-06 +6.742374E-05 
 -3.551696E-05 +2.062543E-06 +1.291184E-05 +2.062543E-06 -3.567442E-08 -2.944621E-06 +1.291184E-05 -2.944621E-06 +3.555263E-05 
 -3.454317E-05 +3.022124E-06 -2.618735E-06 +3.022124E-06 -2.647015E-07 +2.292289E-07 -2.618735E-06 +2.292289E-07 +3.480788E-05 
 -5.831942E-07 +4.863402E-07 -9.093246E-08 +4.863402E-07 -3.652427E-07 -2.549953E-07 -9.093246E-08 -2.549953E-07 +9.484369E-07 
 -2.033403E-04 -5.258017E-05 +2.099999E-05 -5.258017E-05 -1.182906E-05 +2.510675E-05 +2.099999E-05 +2.510675E-05 +2.151693E-04 
 -6.713829E-05 +2.573257E-05 +6.921234E-06 +2.573257E-05 -7.228165E-06 +1.142679E-05 +6.921234E-06 +1.142679E-05 +7.436646E-05 
 -2.369095E-04 -5.380667E-05 -1.067643E-04 -5.380667E-05 -9.812444E-06 -5.094895E-05 -1.067643E-04 -5.094895E-05 +2.467219E-04 
 -2.968515E-06 -1.420156E-06 -1.637987E-06 -1.420156E-06 -4.275589E-07 -1.870174E-06 -1.637987E-06 -1.870174E-06 +3.396073E-06 
 -2.623754E-08 -9.518142E-09 -1.474393E-08 -9.518142E-09 -2.247398E-08 +4.427209E-10 -1.474393E-08 +4.427209E-10 +4.871152E-08 
 -5.582910E-07 +1.797045E-07 +2.504881E-08 +1.797045E-07 -1.540174E-07 -6.621515E-08 +2.504881E-08 -6.621515E-08 +7.123083E-07 
 -1.365643E-04 +1.479098E-05 -3.237155E-05 +1.479098E-05 -4.888759E-07 -9.200941E-06 -3.237155E-05 -9.200941E-06 +1.370531E-04 
 -3.295091E-05 -3.926795E-05 +1.133294E-05 -3.926795E-05 -4.679893E-05 +1.350612E-05 +1.133294E-05 +1.350612E-05 +7.974984E-05 
 -1.019317E-04 +5.107695E-05 -1.496371E-06 +5.107695E-05 -2.547886E-05 -3.216242E-06 -1.496371E-06 -3.216242E-06 +1.274106E-04 
 -4.631440E-06 +2.494664E-06 +2.820671E-06 +2.494664E-06 -9.357425E-07 +2.163817E-07 +2.820671E-06 +2.163817E-07 +5.567183E-06 
 -4.062762E-08 +1.160303E-08 +7.556983E-09 +1.160303E-08 -8.849372E-08 -2.613823E-08 +7.556983E-09 -2.613823E-08 +1.291213E-07 
 -1.173020E-07 -9.992685E-08 -9.634162E-08 -9.992685E-08 -9.346132E-08 -6.766206E-08 -9.634162E-08 -6.766206E-08 +2.107633E-07 
 -1.095392E-07 -3.727111E-08 +2.963034E-08 -3.727111E-08 -4.193652E-08 +3.409958E-09 +2.963034E-08 +3.409958E-09 +1.514757E-07 
 +3.004906E-06 +9.251190E-06 -2.174467E-05 +9.251190E-06 -1.220272E-04 +8.020188E-06 -2.174467E-05 +8.020188E-06 +1.190223E-04 
 -9.388503E-06 +1.461627E-05 +8.290944E-06 +1.461627E-05 -1.699917E-05 +1.087224E-06 +8.290944E-06 +1.087224E-06 +2.638767E-05 
 -1.378740E-07 +5.574212E-09 +9.562819E-09 +5.574212E-09 -2.362109E-08 +6.576219E-09 +9.562819E-09 +6.576219E-09 +1.614951E-07 
 -3.628852E-06 -1.979035E-06 -9.239799E-07 -1.979035E-06 -5.912219E-07 +9.753514E-07 -9.239799E-07 +9.753514E-07 +4.220074E-06 
 -9.560473E-08 -3.618673E-08 -3.828537E-09 -3.618673E-08 -1.076455E-07 -9.166829E-09 -3.828537E-09 -9.166829E-09 +2.032503E-07 
 -5.787706E-08 +5.441692E-09 -6.770691E-09 +5.441692E-09 -7.810301E-08 +4.952996E-09 -6.770691E-09 +4.952996E-09 +1.359801E-07 
 -4.337740E-08 +1.884613E-08 +4.755935E-09 +1.884613E-08 -1.528586E-07 -1.157779E-08 +4.755935E-09 -1.157779E-08 +1.962360E-07 
 -1.444258E-06 -1.250594E-06 -6.631596E-07 -1.250594E-06 -1.094493E-06 -6.385551E-07 -6.631596E-07 -6.385551E-07 +2.538751E-06 
 -2.271934E-08 -2.626255E-09 +1.100590E-08 -2.626255E-09 -1.739717E-08 +3.555444E-09 +1.100590E-08 +3.555444E-09 +4.011651E-08 
 -6.819886E-06 +1.780799E-06 -2.806862E-06 +1.780799E-06 -3.961864E-07 -4.225448E-08 -2.806862E-06 -4.225448E-08 +7.216072E-06 
 -6.708998E-08 -3.293141E-08 -2.161090E-08 -3.293141E-08 -1.672514E-07 -4.618914E-08 -2.161090E-08 -4.618914E-08 +2.343414E-07 
 -2.584548E-05 +5.265132E-06 -3.976954E-06 +5.265132E-06 -2.419601E-07 -3.957790E-06 -3.976954E-06 -3.957790E-06 +2.608744E-05 
 -5.179025E-05 -2.436032E-05 +1.094261E-06 -2.436032E-05 -9.159961E-06 -1.134007E-05 +1.094261E-06 -1.134007E-05 +6.095021E-05 
 -2.687566E-09 -1.508306E-08 +2.273799E-08 -1.508306E-08 -5.508088E-08 +8.133352E-09 +2.273799E-08 +8.133352E-09 +5.776845E-08 
 -2.390689E-07 -1.228619E-06 +8.834435E-07 -1.228619E-06 -4.201758E-06 +4.483316E-07 +8.834435E-07 +4.483316E-07 +4.440827E-06 
 -3.316267E-08 -7.399317E-09 +1.788104E-08 -7.399317E-09 -8.689764E-08 -2.590159E-09 +1.788104E-08 -2.590159E-09 +1.200603E-07 
 -8.801990E-08 -8.750006E-08 +8.905501E-08 -8.750006E-08 -8.797122E-08 +4.091644E-08 +8.905501E-08 +4.091644E-08 +1.759911E-07 
 -2.339486E-08 +6.479350E-10 +8.559158E-09 +6.479350E-10 -2.043010E-08 +2.000039E-09 +8.559158E-09 +2.000039E-09 +4.382496E-08 
 -2.244935E-08 +9.327120E-09 -1.186931E-08 +9.327120E-09 -3.014793E-08 +1.349659E-08 -1.186931E-08 +1.349659E-08 +5.259728E-08 
 -4.309565E-07 -4.923810E-06 -8.892479E-07 -4.923810E-06 -5.627935E-05 -1.016289E-05 -8.892479E-07 -1.016289E-05 +5.671031E-05 
 -1.239273E-07 -1.339619E-07 -1.289536E-07 -1.339619E-07 -1.586084E-07 -9.742325E-08 -1.289536E-07 -9.742325E-08 +2.825356E-07 
 -5.051135E-08 -1.284639E-07 -6.152322E-08 -1.284639E-07 -5.586749E-07 -3.233573E-07 -6.152322E-08 -3.233573E-07 +6.091862E-07 
 -3.917185E-06 +2.206735E-06 +1.070801E-06 +2.206735E-06 -9.052800E-07 +7.193171E-07 +1.070801E-06 +7.193171E-07 +4.822465E-06 
 -5.023740E-08 -1.763789E-08 +8.779751E-10 -1.763789E-08 -7.699169E-08 +2.836488E-08 +8.779751E-10 +2.836488E-08 +1.272291E-07 
 -1.963245E-06 +6.037900E-08 +2.078026E-08 +6.037900E-08 +2.400647E-08 -2.304634E-07 +2.078026E-08 -2.304634E-07 +1.939238E-06 
 -1.054127E-05 +4.584855E-07 +1.966712E-06 +4.584855E-07 +1.605804E-07 -1.479577E-06 +1.966712E-06 -1.479577E-06 +1.038069E-05 
 -6.863692E-08 +1.362842E-09 +4.289997E-08 +1.362842E-09 -1.253263E-08 +1.824547E-09 +4.289997E-08 +1.824547E-09 +8.116955E-08 
 +3.120583E-06 +1.736193E-06 -9.087973E-06 +1.736193E-06 -2.775841E-05 +1.874095E-06 -9.087973E-06 +1.874095E-06 +2.463783E-05 
 -1.567835E-09 +6.044881E-08 +5.351596E-08 +6.044881E-08 -1.696398E-07 +3.348334E-08 +5.351596E-08 +3.348334E-08 +1.712077E-07 
 -4.990179E-08 +2.637098E-10 -1.516633E-08 +2.637098E-10 -2.250120E-08 +3.954560E-09 -1.516633E-08 +3.954560E-09 +7.240299E-08 
 -1.985002E-06 +2.752182E-05 -3.674353E-05 +2.752182E-05 -7.722905E-05 +2.864343E-05 -3.674353E-05 +2.864343E-05 +7.921405E-05 
 -2.710006E-08 -9.571499E-09 -4.989438E-09 -9.571499E-09 -6.246670E-08 -1.771308E-08 -4.989438E-09 -1.771308E-08 +8.956676E-08 
 -1.197051E-07 -1.560047E-06 +1.757311E-06 -1.560047E-06 -7.026459E-06 +1.729715E-06 +1.757311E-06 +1.729715E-06 +7.146164E-06 
 -9.437052E-07 -4.199639E-07 -2.162958E-07 -4.199639E-07 +6.506124E-08 -5.812114E-07 -2.162958E-07 -5.812114E-07 +8.786440E-07 
 -3.328738E-06 -1.190275E-06 +7.194449E-07 -1.190275E-06 -3.192105E-07 -3.857705E-07 +7.194449E-07 -3.857705E-07 +3.647948E-06 
 -3.854912E-08 -5.956097E-10 +1.475338E-08 -5.956097E-10 -2.669060E-08 +5.607175E-10 +1.475338E-08 +5.607175E-10 +6.523972E-08 
 -4.924261E-09 +1.038673E-09 +3.006896E-09 +1.038673E-09 -7.109567E-09 +1.686119E-09 +3.006896E-09 +1.686119E-09 +1.203383E-08 
 -7.656855E-09 +1.727492E-09 +2.209354E-09 +1.727492E-09 -1.273174E-08 -6.613229E-09 +2.209354E-09 -6.613229E-09 +2.038860E-08 
 -3.006711E-06 -1.109172E-05 +5.570926E-06 -1.109172E-05 -2.555628E-05 -3.902274E-06 +5.570926E-06 -3.902274E-06 +2.856300E-05 
 -9.859428E-08 +2.381299E-08 -2.835213E-08 +2.381299E-08 -4.795584E-08 +1.249166E-08 -2.835213E-08 +1.249166E-08 +1.465501E-07 
 -3.425207E-06 +1.734140E-06 -5.777556E-08 +1.734140E-06 -8.749329E-07 -1.259502E-07 -5.777556E-08 -1.259502E-07 +4.300140E-06 
 -3.394601E-07 -2.001787E-06 -2.944996E-08 -2.001787E-06 -1.025189E-05 +3.996680E-06 -2.944996E-08 +3.996680E-06 +1.059135E-05 
 -6.133167E-08 +1.760863E-08 -1.820126E-08 +1.760863E-08 -3.531533E-08 +9.537159E-09 -1.820126E-08 +9.537159E-09 +9.664700E-08 
 -6.865314E-08 +1.803769E-07 +2.242637E-08 +1.803769E-07 -3.903568E-07 -3.003984E-07 +2.242637E-08 -3.003984E-07 +4.590099E-07 
 -1.070792E-07 +1.594180E-08 +1.762632E-08 +1.594180E-08 -1.108597E-07 -1.976338E-08 +1.762632E-08 -1.976338E-08 +2.179389E-07 
 -1.628068E-08 -1.364121E-09 +6.491268E-09 -1.364121E-09 -1.659436E-08 +2.187233E-09 +6.491268E-09 +2.187233E-09 +3.287504E-08 
 +3.593408E-09 +5.429651E-08 +1.299081E-07 +5.429651E-08 -3.926848E-07 -2.274479E-07 +1.299081E-07 -2.274479E-07 +3.890914E-07 
 -5.963255E-07 -1.010274E-07 -3.310530E-07 -1.010274E-07 -1.395193E-08 -1.742715E-07 -3.310530E-07 -1.742715E-07 +6.102775E-07 
 -2.860401E-08 +1.402702E-09 -2.409172E-09 +1.402702E-09 -3.330918E-08 -1.286304E-09 -2.409172E-09 -1.286304E-09 +6.191320E-08 
 -1.603352E-05 +1.955118E-05 -9.140495E-06 +1.955118E-05 -1.953580E-05 -2.131315E-06 -9.140495E-06 -2.131315E-06 +3.556933E-05 
 -1.619438E-07 -1.644195E-07 +1.234457E-07 -1.644195E-07 -2.592112E-07 +2.102920E-07 +1.234457E-07 +2.102920E-07 +4.211550E-07 
 +7.774474E-08 -1.031132E-08 -2.226682E-07 -1.031132E-08 -6.617169E-07 +1.821487E-07 -2.226682E-07 +1.821487E-07 +5.839722E-07 
 -1.780747E-05 +7.141972E-05 -1.481341E-05 +7.141972E-05 -2.541726E-04 -3.661779E-05 -1.481341E-05 -3.661779E-05 +2.719800E-04 
 -1.291837E-07 +5.175868E-08 -3.844863E-08 +5.175868E-08 -1.562104E-07 +4.741090E-08 -3.844863E-08 +4.741090E-08 +2.853940E-07 
 -8.875427E-06 +3.742111E-06 -2.728170E-06 +3.742111E-06 -1.195017E-06 -8.958559E-07 -2.728170E-06 -8.958559E-07 +1.007044E-05 
 -6.011973E-05 -4.903696E-05 +6.051786E-06 -4.903696E-05 -3.496444E-05 +2.694382E-05 +6.051786E-06 +2.694382E-05 +9.508416E-05 
 -1.185361E-07 +2.732639E-08 +1.487061E-08 +2.732639E-08 -7.239669E-08 +1.584920E-09 +1.487061E-08 +1.584920E-09 +1.909328E-07 
 -7.878719E-07 +6.640651E-07 +5.004295E-07 +6.640651E-07 -3.232325E-07 +1.672083E-07 +5.004295E-07 +1.672083E-07 +1.111104E-06 
 -7.221881E-06 +2.211461E-07 +2.082163E-06 +2.211461E-07 +3.637320E-07 -1.779635E-06 +2.082163E-06 -1.779635E-06 +6.858149E-06 
 -6.959828E-05 -2.545547E-05 -1.358503E-06 -2.545547E-05 -8.640661E-06 +6.785063E-06 -1.358503E-06 +6.785063E-06 +7.823895E-05 
 -3.395304E-06 -3.344501E-06 +3.854093E-08 -3.344501E-06 -1.944290E-06 +2.743193E-06 +3.854093E-08 +2.743193E-06 +5.339594E-06 
 -1.429279E-04 +1.250450E-05 -2.743469E-05 +1.250450E-05 -1.094757E-06 +2.400107E-06 -2.743469E-05 +2.400107E-06 +1.440226E-04 
 +1.323445E-07 -4.194704E-07 -8.279696E-07 -4.194704E-07 -2.971039E-06 -3.715129E-07 -8.279696E-07 -3.715129E-07 +2.838694E-06 
 -1.116532E-07 -1.610676E-08 -1.423071E-09 -1.610676E-08 -1.098042E-07 +8.244579E-09 -1.423071E-09 +8.244579E-09 +2.214574E-07 
 -4.904488E-07 +4.339315E-07 -2.067007E-07 +4.339315E-07 -2.506266E-07 -1.624197E-07 -2.067007E-07 -1.624197E-07 +7.410754E-07 
 -5.669162E-08 +1.891134E-08 -1.857876E-08 +1.891134E-08 -4.319601E-08 +1.049414E-08 -1.857876E-08 +1.049414E-08 +9.988763E-08 
 +2.369239E-09 +9.678700E-08 +1.904701E-07 +9.678700E-08 -1.402978E-06 -4.789556E-07 +1.904701E-07 -4.789556E-07 +1.400609E-06 
 -2.523401E-08 -1.098040E-08 +6.746599E-09 -1.098040E-08 -3.348290E-08 +1.966550E-08 +6.746599E-09 +1.966550E-08 +5.871690E-08 
 -2.015306E-08 +2.458829E-09 +1.760547E-09 +2.458829E-09 -3.426452E-08 +1.829169E-08 +1.760547E-09 +1.829169E-08 +5.441758E-08 
 -1.015381E-06 -2.558494E-07 +5.977977E-07 -2.558494E-07 -7.691693E-08 +1.391166E-07 +5.977977E-07 +1.391166E-07 +1.092298E-06 
 -1.084016E-07 +5.455829E-08 -5.256763E-08 +5.455829E-08 -3.868779E-09 -3.372982E-08 -5.256763E-08 -3.372982E-08 +1.122704E-07 
 +3.646407E-07 +6.584230E-06 +5.804747E-06 +6.584230E-06 -2.642891E-05 +7.108750E-06 +5.804747E-06 +7.108750E-06 +2.606427E-05 
 +1.688136E-07 +3.504073E-07 +6.471288E-07 +3.504073E-07 -2.284811E-06 +3.021145E-07 +6.471288E-07 +3.021145E-07 +2.115998E-06 
 -2.677828E-08 -1.507421E-09 -2.434168E-09 -1.507421E-09 -5.985777E-08 +7.054267E-09 -2.434168E-09 +7.054267E-09 +8.663605E-08 
 -8.344932E-08 +8.301281E-09 -3.750813E-08 +8.301281E-09 -5.112430E-08 +2.021849E-08 -3.750813E-08 +2.021849E-08 +1.345736E-07 
 -1.189537E-06 +7.389358E-07 +1.330896E-07 +7.389358E-07 -1.251281E-07 -7.623549E-07 +1.330896E-07 -7.623549E-07 +1.314665E-06 
 -2.570269E-05 -4.532090E-06 -7.384093E-06 -4.532090E-06 -7.992647E-07 -1.302082E-06 -7.384093E-06 -1.302082E-06 +2.650195E-05 
 -8.974588E-06 -5.302512E-07 -3.442120E-06 -5.302512E-07 +8.583318E-08 +9.163780E-07 -3.442120E-06 +9.163780E-07 +8.888755E-06 
 -7.516783E-08 +4.189388E-08 +3.145925E-08 +4.189388E-08 -3.928166E-08 +1.998309E-08 +3.145925E-08 +1.998309E-08 +1.144495E-07 
 -3.719352E-08 -6.832972E-09 -3.642276E-09 -6.832972E-09 -1.694949E-08 +3.013753E-09 -3.642276E-09 +3.013753E-09 +5.414301E-08 
 -6.999945E-06 +1.845661E-05 -2.998755E-06 +1.845661E-05 -4.519035E-05 +2.158331E-05 -2.998755E-06 +2.158331E-05 +5.219030E-05 
 -1.995029E-07 -1.214231E-07 +1.133470E-08 -1.214231E-07 -1.555211E-07 +1.839698E-08 +1.133470E-08 +1.839698E-08 +3.550240E-07 
 -1.534633E-08 -1.533798E-09 +4.739878E-09 -1.533798E-09 -1.866435E-08 +9.585955E-09 +4.739878E-09 +9.585955E-09 +3.401068E-08 
 -8.519438E-05 +7.453367E-06 -4.431977E-07 +7.453367E-06 -6.542149E-07 +3.944870E-08 -4.431977E-07 +3.944870E-08 +8.584859E-05 
 -5.242277E-05 +3.973269E-05 -2.398731E-06 +3.973269E-05 -2.714680E-05 +1.739921E-05 -2.398731E-06 +1.739921E-05 +7.956957E-05 
 -7.453055E-08 -9.373692E-09 +1.127176E-08 -9.373692E-09 -7.969612E-08 -1.891508E-09 +1.127176E-08 -1.891508E-09 +1.542267E-07 
 -6.210335E-06 +2.979501E-05 +9.968249E-06 +2.979501E-05 -9.135802E-05 +2.917078E-05 +9.968249E-06 +2.917078E-05 +9.756835E-05 
 -3.144604E-07 +6.566100E-07 +1.474173E-08 +6.566100E-07 -1.373355E-06 +6.694685E-09 +1.474173E-08 +6.694685E-09 +1.687815E-06 
 -3.907600E-05 -1.243294E-05 +1.923313E-06 -1.243294E-05 -1.353254E-06 +1.090632E-05 +1.923313E-06 +1.090632E-05 +4.042926E-05 
 +5.447834E-06 +6.414734E-06 -2.455420E-05 +6.414734E-06 -7.847621E-05 +2.707991E-05 -2.455420E-05 +2.707991E-05 +7.302837E-05 
 +2.103078E-07 +9.218392E-07 +1.495009E-06 +9.218392E-07 -6.626133E-06 -1.315327E-07 +1.495009E-06 -1.315327E-07 +6.415825E-06 
 -1.448041E-06 +7.078258E-07 -9.207102E-07 +7.078258E-07 -1.283393E-07 -2.516601E-07 -9.207102E-07 -2.516601E-07 +1.576380E-06 
 -1.221467E-07 +2.261499E-07 +7.790031E-08 +2.261499E-07 -4.217785E-07 -1.824940E-07 +7.790031E-08 -1.824940E-07 +5.439252E-07 
 -2.761898E-06 +6.132672E-07 -1.046033E-06 +6.132672E-07 -1.124463E-07 -1.670218E-07 -1.046033E-06 -1.670218E-07 +2.874344E-06 
 -1.055637E-07 -2.344092E-08 +1.479636E-08 -2.344092E-08 -8.679061E-08 +3.058797E-09 +1.479636E-08 +3.058797E-09 +1.923543E-07 
 -1.076072E-07 +1.165615E-08 +3.388950E-09 +1.165615E-08 -1.394871E-07 +2.663838E-08 +3.388950E-09 +2.663838E-08 +2.470943E-07 
 -1.847316E-07 +1.081780E-06 -3.923222E-08 +1.081780E-06 -6.360508E-06 -7.304289E-09 -3.923222E-08 -7.304289E-09 +6.545240E-06 
 -5.136328E-07 -8.717300E-07 +6.099609E-07 -8.717300E-07 -7.872446E-07 -1.728962E-07 +6.099609E-07 -1.728962E-07 +1.300877E-06 
 -6.259913E-08 -7.132474E-09 -5.568493E-09 -7.132474E-09 -1.939450E-08 +2.240895E-09 -5.568493E-09 +2.240895E-09 +8.199363E-08 
 -1.117011E-06 +1.280166E-06 -4.922130E-07 +1.280166E-06 -1.447657E-06 +8.257005E-07 -4.922130E-07 +8.257005E-07 +2.564668E-06 
 -8.998899E-07 +1.462210E-07 -3.268613E-07 +1.462210E-07 -1.769419E-09 +2.086165E-07 -3.268613E-07 +2.086165E-07 +9.016593E-07 
 -6.012365E-08 +5.640074E-09 -3.357920E-08 +5.640074E-09 -3.394922E-09 +1.823246E-08 -3.357920E-08 +1.823246E-08 +6.351857E-08 
 -3.654509E-08 +7.440963E-09 -2.015369E-08 +7.440963E-09 -8.151996E-08 +3.511447E-08 -2.015369E-08 +3.511447E-08 +1.180651E-07 
 -1.074108E-04 +9.959999E-11 -2.825136E-05 +9.959999E-11 -1.233299E-08 +4.140499E-09 -2.825136E-05 +4.140499E-09 +1.074232E-04 
 -5.871357E-08 +2.938462E-08 +9.812924E-10 +2.938462E-08 -1.309694E-07 -1.264503E-08 +9.812924E-10 -1.264503E-08 +1.896829E-07 
 -3.350564E-08 +2.022396E-07 +5.663029E-08 +2.022396E-07 -1.244613E-06 -4.616020E-07 +5.663029E-08 -4.616020E-07 +1.278118E-06 
 -1.016442E-07 +9.945442E-08 +3.713961E-08 +9.945442E-08 -2.015646E-07 -1.337116E-07 +3.713961E-08 -1.337116E-07 +3.032088E-07 
 -1.304240E-08 -1.039833E-09 -5.192612E-09 -1.039833E-09 -7.703118E-09 +9.268685E-11 -5.192612E-09 +9.268685E-11 +2.074552E-08 
 -2.101261E-08 -6.249374E-09 +3.396174E-09 -6.249374E-09 -5.270659E-08 +2.432290E-08 +3.396174E-09 +2.432290E-08 +7.371920E-08 
 -6.232865E-06 +8.723112E-07 +1.262661E-06 +8.723112E-07 +7.869006E-08 -1.322392E-06 +1.262661E-06 -1.322392E-06 +6.154174E-06 
 -1.860706E-07 -8.658510E-07 +4.580336E-07 -8.658510E-07 -1.259746E-06 -5.451752E-07 +4.580336E-07 -5.451752E-07 +1.445817E-06 
 -2.860896E-07 +1.464758E-07 +1.854541E-07 +1.464758E-07 -1.835373E-08 +6.251235E-08 +1.854541E-07 +6.251235E-08 +3.044434E-07 
 -6.073128E-08 +1.914322E-08 -3.943256E-08 +1.914322E-08 -1.391626E-07 +1.376181E-08 -3.943256E-08 +1.376181E-08 +1.998939E-07 
 -5.830276E-05 +1.708468E-05 +1.617338E-05 +1.708468E-05 -4.469003E-06 +1.344268E-06 +1.617338E-05 +1.344268E-06 +6.277176E-05 
 -6.733701E-08 -2.087552E-08 -2.697511E-09 -2.087552E-08 -1.083583E-07 -1.137095E-08 -2.697511E-09 -1.137095E-08 +1.756953E-07 
 -2.633269E-08 -8.947594E-09 -6.065025E-09 -8.947594E-09 -5.414761E-08 -2.176380E-08 -6.065025E-09 -2.176380E-08 +8.048029E-08 
 -5.234924E-08 +1.597858E-08 +2.877447E-09 +1.597858E-08 -1.033518E-07 -1.050807E-08 +2.877447E-09 -1.050807E-08 +1.557010E-07 
 -8.044958E-09 +4.293580E-09 -8.436771E-10 +4.293580E-09 -1.137042E-08 +1.025862E-09 -8.436771E-10 +1.025862E-09 +1.941538E-08 
 -8.446423E-08 -1.495708E-08 -8.545578E-09 -1.495708E-08 -3.194044E-08 +3.286501E-09 -8.545578E-09 +3.286501E-09 +1.164047E-07 
 -3.061341E-05 -5.301795E-05 +1.964773E-05 -5.301795E-05 -9.183321E-05 +3.403216E-05 +1.964773E-05 +3.403216E-05 +1.224466E-04 
 +3.855451E-08 -2.716411E-07 -3.415314E-07 -2.716411E-07 -9.885557E-07 +2.527713E-08 -3.415314E-07 +2.527713E-08 +9.500012E-07 
 -1.650444E-08 -5.530660E-08 -5.087726E-08 -5.530660E-08 -1.854161E-07 +2.001735E-08 -5.087726E-08 +2.001735E-08 +2.019206E-07 
 +5.093620E-07 +4.360504E-07 +1.622343E-06 +4.360504E-07 -5.019301E-06 +5.913873E-09 +1.622343E-06 +5.913873E-09 +4.509939E-06 
 -2.579475E-07 +2.711267E-07 +1.008472E-08 +2.711267E-07 -3.236232E-07 +1.894005E-07 +1.008472E-08 +1.894005E-07 +5.815708E-07 
 -7.970485E-07 -1.603108E-06 +4.109398E-07 -1.603108E-06 -3.216152E-06 +5.889740E-07 +4.109398E-07 +5.889740E-07 +4.013200E-06 
 -1.038918E-05 +2.764439E-06 -1.886776E-06 +2.764439E-06 -7.483624E-07 +5.186706E-07 -1.886776E-06 +5.186706E-07 +1.113754E-05 
 -1.788968E-07 -1.276254E-06 -6.057029E-07 -1.276254E-06 -4.655999E-06 +1.222874E-06 -6.057029E-07 +1.222874E-06 +4.834896E-06 
 -1.026086E-06 +4.152845E-07 +3.621797E-08 +4.152845E-07 -1.491286E-07 +1.355904E-07 +3.621797E-08 +1.355904E-07 +1.175215E-06 
 -1.649043E-07 -3.632000E-09 -2.131696E-08 -3.632000E-09 -8.557689E-08 +6.836743E-09 -2.131696E-08 +6.836743E-09 +2.504812E-07 
 -1.371730E-07 +5.484891E-08 -6.160708E-08 +5.484891E-08 -1.440857E-07 +6.520457E-08 -6.160708E-08 +6.520457E-08 +2.812588E-07 
 -2.114546E-06 -6.827652E-08 +3.727083E-07 -6.827652E-08 -5.477815E-10 +8.145151E-08 +3.727083E-07 +8.145151E-08 +2.115094E-06 
 -6.694842E-08 -6.195761E-08 +5.062278E-08 -6.195761E-08 -9.996094E-08 +5.150154E-08 +5.062278E-08 +5.150154E-08 +1.669094E-07 
 -1.581546E-08 +1.711225E-09 +5.427729E-09 +1.711225E-09 -1.962813E-08 -1.066264E-08 +5.427729E-09 -1.066264E-08 +3.544359E-08 
 -1.945349E-07 +7.336456E-08 -5.669107E-08 +7.336456E-08 -1.115074E-07 +1.080115E-07 -5.669107E-08 +1.080115E-07 +3.060424E-07 
 -1.191845E-07 -1.257033E-08 -4.125998E-08 -1.257033E-08 -8.984967E-08 -1.138199E-08 -4.125998E-08 -1.138199E-08 +2.090342E-07 
 -2.105907E-08 -3.454560E-09 -7.201839E-09 -3.454560E-09 -2.062767E-08 +5.191226E-09 -7.201839E-09 +5.191226E-09 +4.168675E-08 
 -5.391505E-08 +7.570391E-09 +1.742275E-08 +7.570391E-09 -2.765318E-08 +1.815083E-09 +1.742275E-08 +1.815083E-09 +8.156823E-08 
 -2.123160E-08 -1.940677E-08 -1.218359E-08 -1.940677E-08 -4.587088E-08 -2.526360E-08 -1.218359E-08 -2.526360E-08 +6.710248E-08 
 -2.895596E-08 -4.085416E-08 +7.471238E-09 -4.085416E-08 -4.580107E-08 +2.892929E-08 +7.471238E-09 +2.892929E-08 +7.475703E-08 
 -7.265672E-08 +1.997298E-08 +6.130856E-09 +1.997298E-08 -2.896516E-08 -6.890328E-09 +6.130856E-09 -6.890328E-09 +1.016219E-07 
 +1.082651E-07 +2.926938E-07 -9.163680E-07 +2.926938E-07 -7.611699E-06 -1.247221E-06 -9.163680E-07 -1.247221E-06 +7.503434E-06 
 +5.707980E-07 -1.189115E-06 +2.153921E-06 -1.189115E-06 -6.511957E-06 -1.172709E-07 +2.153921E-06 -1.172709E-07 +5.941159E-06 
 -2.629821E-06 +8.638827E-07 -2.140497E-07 +8.638827E-07 +7.929187E-08 +1.049148E-06 -2.140497E-07 +1.049148E-06 +2.550529E-06 
 -7.921514E-06 -4.492218E-05 +2.349436E-08 -4.492218E-05 -2.547655E-04 +1.330124E-07 +2.349436E-08 +1.330124E-07 +2.626870E-04 
 +4.614304E-11 +8.093522E-08 -1.424745E-07 +8.093522E-08 -1.420511E-06 -5.386162E-07 -1.424745E-07 -5.386162E-07 +1.420465E-06 
 -2.972521E-07 +2.654749E-08 +6.713425E-08 +2.654749E-08 +3.302200E-08 -1.067794E-07 +6.713425E-08 -1.067794E-07 +2.642301E-07 
 -7.066418E-08 +1.468964E-08 +8.609811E-09 +1.468964E-08 -1.221644E-07 -2.412886E-08 +8.609811E-09 -2.412886E-08 +1.928286E-07 
 -2.731083E-05 -4.815535E-06 -4.477541E-06 -4.815535E-06 -8.498189E-07 -7.896988E-07 -4.477541E-06 -7.896988E-07 +2.816065E-05 
 -2.938648E-06 -1.546919E-06 -1.123607E-06 -1.546919E-06 -8.106817E-07 -8.058426E-07 -1.123607E-06 -8.058426E-07 +3.749329E-06 
 -1.503754E-04 +8.756650E-05 +7.457490E-06 +8.756650E-05 -4.896904E-05 +1.582522E-05 +7.457490E-06 +1.582522E-05 +1.993445E-04 
 -4.046848E-05 -6.221895E-05 -9.543148E-06 -6.221895E-05 -8.102945E-05 +2.805503E-05 -9.543148E-06 +2.805503E-05 +1.214979E-04 
 +4.953775E-07 -1.169097E-07 +1.715815E-06 -1.169097E-07 -6.128762E-06 -1.657864E-06 +1.715815E-06 -1.657864E-06 +5.633385E-06 
 -7.969727E-08 -2.053088E-08 +8.782863E-09 -2.053088E-08 -1.302328E-07 -1.115191E-08 +8.782863E-09 -1.115191E-08 +2.099301E-07 
 -2.877299E-05 -7.980412E-06 +1.510812E-06 -7.980412E-06 -1.241266E-06 -5.058970E-06 +1.510812E-06 -5.058970E-06 +3.001425E-05 
 -1.623605E-06 +9.987731E-08 -4.929437E-07 +9.987731E-08 +1.937596E-07 +6.079966E-07 -4.929437E-07 +6.079966E-07 +1.429845E-06 
 -5.935108E-08 +8.933968E-09 +2.118177E-08 +8.933968E-09 -5.793258E-08 -1.337784E-08 +2.118177E-08 -1.337784E-08 +1.172837E-07 
 -2.851802E-06 -4.782574E-06 +2.316410E-06 -4.782574E-06 -6.925981E-06 +3.046458E-07 +2.316410E-06 +3.046458E-07 +9.777784E-06 
 -8.885496E-08 -4.676068E-08 -6.002320E-08 -4.676068E-08 -1.281731E-07 -3.429185E-08 -6.002320E-08 -3.429185E-08 +2.170280E-07 
 -2.259355E-08 -1.053107E-09 +7.487270E-10 -1.053107E-09 -3.824881E-08 +3.589740E-09 +7.487270E-10 +3.589740E-09 +6.084236E-08 
 -9.130090E-07 +1.069997E-06 +5.159739E-07 +1.069997E-06 -6.179510E-07 +4.728218E-07 +5.159739E-07 +4.728218E-07 +1.530960E-06 
 -1.670154E-07 +4.456129E-07 -1.058285E-07 +4.456129E-07 -6.854008E-07 -5.132393E-07 -1.058285E-07 -5.132393E-07 +8.524162E-07 
 -1.598568E-08 -6.487047E-09 +4.422303E-09 -6.487047E-09 -3.304012E-08 +1.012896E-08 +4.422303E-09 +1.012896E-08 +4.902580E-08 
 -1.160575E-07 +1.052040E-06 -3.620574E-08 +1.052040E-06 -8.244205E-06 -3.094348E-06 -3.620574E-08 -3.094348E-06 +8.360262E-06 
 -9.821879E-08 +3.160592E-08 +3.234554E-08 +3.160592E-08 -1.047051E-07 -2.883752E-08 +3.234554E-08 -2.883752E-08 +2.029239E-07 
 -9.597467E-09 -3.517852E-09 -8.542069E-10 -3.517852E-09 -1.994655E-08 +1.852492E-09 -8.542069E-10 +1.852492E-09 +2.954402E-08 
 -1.288536E-07 +4.588421E-08 -8.611061E-09 +4.588421E-08 -7.264631E-08 +1.181262E-08 -8.611061E-09 +1.181262E-08 +2.014999E-07 
 -5.120176E-06 +5.579502E-06 -1.239551E-06 +5.579502E-06 -5.537186E-06 +3.854836E-06 -1.239551E-06 +3.854836E-06 +1.065736E-05 
 -3.018143E-07 +4.935428E-07 -6.312170E-08 +4.935428E-07 -5.714725E-07 -3.770688E-07 -6.312170E-08 -3.770688E-07 +8.732868E-07 
 -3.118589E-05 -3.716556E-05 -2.109717E-05 -3.716556E-05 -4.429235E-05 -2.514234E-05 -2.109717E-05 -2.514234E-05 +7.547824E-05 
 -1.463380E-07 +6.990250E-08 +1.509029E-08 +6.990250E-08 -2.539958E-07 -2.490123E-08 +1.509029E-08 -2.490123E-08 +4.003338E-07 
 -1.307224E-07 -1.609948E-07 -1.734215E-07 -1.609948E-07 -1.845687E-07 -1.038733E-07 -1.734215E-07 -1.038733E-07 +3.152911E-07 
 -3.613831E-07 +1.458700E-07 -2.804327E-07 +1.458700E-07 -4.017619E-08 -1.350736E-08 -2.804327E-07 -1.350736E-08 +4.015592E-07 
 -4.931919E-08 -1.180344E-08 -1.192194E-08 -1.180344E-08 -9.779720E-08 -2.484156E-08 -1.192194E-08 -2.484156E-08 +1.471164E-07 
 -1.098705E-06 +2.755257E-07 -3.079959E-07 +2.755257E-07 +3.647186E-09 -2.381927E-07 -3.079959E-07 -2.381927E-07 +1.095057E-06 
 -6.390837E-06 +6.220577E-06 +2.649412E-06 +6.220577E-06 -5.751639E-06 -5.712740E-07 +2.649412E-06 -5.712740E-07 +1.214248E-05 
 +1.851502E-08 -7.312149E-07 -9.625841E-07 -7.312149E-07 -9.681541E-06 -1.316495E-06 -9.625841E-07 -1.316495E-06 +9.663026E-06 
 -1.291045E-07 +2.181207E-06 -1.396663E-06 +2.181207E-06 -8.769734E-06 -2.382241E-06 -1.396663E-06 -2.382241E-06 +8.898839E-06 
 -2.823498E-07 -5.814463E-07 +1.302718E-07 -5.814463E-07 -6.454000E-07 -4.919936E-07 +1.302718E-07 -4.919936E-07 +9.277498E-07 
 -2.255324E-08 -3.080157E-09 -1.639334E-09 -3.080157E-09 -2.146766E-08 -3.351645E-09 -1.639334E-09 -3.351645E-09 +4.402090E-08 
 -1.980896E-07 +5.258931E-07 +1.053824E-07 +5.258931E-07 -1.278049E-06 -8.932132E-07 +1.053824E-07 -8.932132E-07 +1.476138E-06 
 -5.741223E-07 -1.232685E-06 -5.863036E-07 -1.232685E-06 -2.375939E-06 -2.182671E-07 -5.863036E-07 -2.182671E-07 +2.950062E-06 
 -4.228475E-06 +4.162774E-07 +1.715757E-07 +4.162774E-07 +2.377175E-07 +1.050209E-06 +1.715757E-07 +1.050209E-06 +3.990757E-06 
 -8.304701E-06 -2.381724E-05 -7.254889E-06 -2.381724E-05 -3.364160E-05 +2.028209E-05 -7.254889E-06 +2.028209E-05 +4.194630E-05 
 -4.635823E-07 -4.728748E-07 +2.576408E-07 -4.728748E-07 -3.795155E-07 -7.412280E-08 +2.576408E-07 -7.412280E-08 +8.430978E-07 
 -5.168292E-08 +1.700438E-08 +1.762549E-08 +1.700438E-08 -4.634661E-08 -1.140234E-08 +1.762549E-08 -1.140234E-08 +9.802953E-08 
 -6.081727E-07 -6.666629E-07 +1.792754E-07 -6.666629E-07 -7.236800E-07 +4.490291E-07 +1.792754E-07 +4.490291E-07 +1.331853E-06 
 -1.044805E-04 +7.317396E-05 +1.638567E-07 +7.317396E-05 -4.949480E-05 +1.632776E-05 +1.638567E-07 +1.632776E-05 +1.539753E-04 
 -1.101691E-07 -2.814910E-08 +3.264608E-08 -2.814910E-08 -6.010050E-08 +1.485024E-08 +3.264608E-08 +1.485024E-08 +1.702696E-07 
 -1.310652E-05 -1.900957E-05 -3.195506E-06 -1.900957E-05 -2.653542E-05 +1.844416E-06 -3.195506E-06 +1.844416E-06 +3.964193E-05 
 -3.574416E-06 +1.272585E-07 +1.327790E-06 +1.272585E-07 +4.511041E-07 -1.366838E-06 +1.327790E-06 -1.366838E-06 +3.123312E-06 
 -5.431183E-05 +2.562996E-05 +1.257365E-05 +2.562996E-05 -1.149558E-05 +6.704313E-07 +1.257365E-05 +6.704313E-07 +6.580742E-05 
 -8.549254E-05 +1.491610E-05 -4.200229E-05 +1.491610E-05 +6.839425E-07 -1.132510E-05 -4.200229E-05 -1.132510E-05 +8.480860E-05 
 -1.855448E-08 -9.484345E-09 +4.463812E-09 -9.484345E-09 -2.285992E-08 +1.131915E-09 +4.463812E-09 +1.131915E-09 +4.141440E-08 
 -2.465846E-06 -2.719135E-06 +1.868011E-06 -2.719135E-06 -2.259643E-06 -7.953865E-08 +1.868011E-06 -7.953865E-08 +4.725488E-06 
 -2.103280E-05 -1.679445E-05 +3.595341E-06 -1.679445E-05 -1.169695E-05 +1.053149E-05 +3.595341E-06 +1.053149E-05 +3.272975E-05 
 -6.586774E-06 +1.784876E-06 -6.321901E-07 +1.784876E-06 -2.388999E-07 +1.484521E-06 -6.321901E-07 +1.484521E-06 +6.825675E-06 
 -3.108413E-06 +3.198381E-06 -6.409861E-08 +3.198381E-06 -3.301065E-06 -6.844340E-08 -6.409861E-08 -6.844340E-08 +6.409478E-06 
 -1.034528E-05 -2.544735E-07 -2.435119E-06 -2.544735E-07 +6.058102E-07 +2.453254E-06 -2.435119E-06 +2.453254E-06 +9.739468E-06 
 -2.369415E-08 -5.429717E-09 +9.552970E-09 -5.429717E-09 -1.702688E-08 +8.122212E-09 +9.552970E-09 +8.122212E-09 +4.072104E-08 
 -4.106250E-06 -5.514891E-06 +3.011020E-06 -5.514891E-06 -7.331612E-06 +2.900291E-06 +3.011020E-06 +2.900291E-06 +1.143786E-05 
 -2.789774E-04 +1.015392E-04 -8.216000E-05 +1.015392E-04 -3.695866E-05 +2.990382E-05 -8.216000E-05 +2.990382E-05 +3.159360E-04 
 -1.527307E-06 -1.347997E-06 +1.283053E-06 -1.347997E-06 -1.222326E-06 +9.165549E-07 +1.283053E-06 +9.165549E-07 +2.749633E-06 
 -8.183260E-06 -5.271019E-06 +2.637817E-07 -5.271019E-06 -3.373012E-06 -3.747772E-07 +2.637817E-07 -3.747772E-07 +1.155627E-05 
 -5.956756E-09 -8.969949E-10 +1.737723E-09 -8.969949E-10 -9.217950E-09 +3.579179E-09 +1.737723E-09 +3.579179E-09 +1.517471E-08 
 -1.069678E-08 +1.535276E-09 -2.590558E-09 +1.535276E-09 -1.687904E-08 +2.072515E-09 -2.590558E-09 +2.072515E-09 +2.757581E-08 
 -5.200445E-08 +6.940812E-09 +1.260259E-09 +6.940812E-09 -3.630944E-08 +1.051164E-08 +1.260259E-09 +1.051164E-08 +8.831389E-08 
 -1.379851E-06 +7.939687E-07 +3.795520E-07 +7.939687E-07 -1.985209E-07 +4.491463E-07 +3.795520E-07 +4.491463E-07 +1.578372E-06 
 -6.707647E-08 +1.014067E-07 -1.101702E-07 +1.014067E-07 -1.757207E-07 +8.934042E-08 -1.101702E-07 +8.934042E-08 +2.427971E-07 
 -4.471834E-09 +5.428079E-10 -7.487033E-09 +5.428079E-10 -6.569863E-08 +3.561951E-08 -7.487033E-09 +3.561951E-08 +7.017046E-08 
 -6.754612E-09 +5.560726E-09 -7.084051E-09 +5.560726E-09 -4.535982E-08 +6.059120E-09 -7.084051E-09 +6.059120E-09 +5.211444E-08 
 -1.618792E-08 +7.942472E-09 -1.106761E-09 +7.942472E-09 -5.468096E-08 -1.504601E-08 -1.106761E-09 -1.504601E-08 +7.086889E-08 
 -7.147406E-07 +4.980143E-07 -6.393753E-07 +4.980143E-07 -3.280861E-07 +1.702869E-07 -6.393753E-07 +1.702869E-07 +1.042827E-06 
 -3.717215E-06 +7.471129E-07 -3.440196E-07 +7.471129E-07 +1.063026E-07 -9.167812E-07 -3.440196E-07 -9.167812E-07 +3.610912E-06 
 -1.093438E-04 -3.609812E-05 +2.455309E-05 -3.609812E-05 -2.928897E-06 -2.450770E-05 +2.455309E-05 -2.450770E-05 +1.122727E-04 
 -8.328983E-08 +3.125578E-08 +1.821978E-08 +3.125578E-08 -1.845584E-08 +5.375084E-09 +1.821978E-08 +5.375084E-09 +1.017457E-07 
 -9.060876E-06 +2.683353E-06 -1.875975E-07 +2.683353E-06 -6.666097E-07 -1.069287E-06 -1.875975E-07 -1.069287E-06 +9.727485E-06 
 -8.031907E-08 -1.678708E-07 -5.602731E-08 -1.678708E-07 -2.151669E-07 +1.111893E-07 -5.602731E-08 +1.111893E-07 +2.954860E-07 
 -5.889331E-09 +2.253835E-10 +3.339646E-09 +2.253835E-10 -8.091544E-09 -4.698414E-11 +3.339646E-09 -4.698414E-11 +1.398087E-08 
 -6.744295E-08 -5.490155E-09 +2.151962E-08 -5.490155E-09 -3.536089E-08 -6.723147E-10 +2.151962E-08 -6.723147E-10 +1.028038E-07 
 -3.987119E-07 -8.124244E-07 -2.125056E-07 -8.124244E-07 -1.627465E-06 -7.265971E-07 -2.125056E-07 -7.265971E-07 +2.026177E-06 
 -4.829256E-08 +1.168860E-07 -1.213103E-07 +1.168860E-07 -2.718500E-07 +1.525611E-07 -1.213103E-07 +1.525611E-07 +3.201425E-07 
 -4.666083E-08 +4.163345E-08 +4.225321E-08 +4.163345E-08 -5.084696E-08 -2.526661E-08 +4.225321E-08 -2.526661E-08 +9.750779E-08 
 -1.593784E-07 +5.980923E-08 -8.118107E-08 +5.980923E-08 -3.485387E-08 +7.373533E-08 -8.118107E-08 +7.373533E-08 +1.942323E-07 
 -2.607835E-05 -6.237250E-05 +3.119037E-05 -6.237250E-05 -1.404744E-04 +3.241746E-05 +3.119037E-05 +3.241746E-05 +1.665528E-04 
 -1.476159E-05 +3.653342E-05 +1.790164E-05 +3.653342E-05 -6.718325E-05 +4.793587E-06 +1.790164E-05 +4.793587E-06 +8.194483E-05 
 -2.012147E-07 +5.518849E-07 -1.756170E-07 +5.518849E-07 -7.937077E-07 -4.638457E-07 -1.756170E-07 -4.638457E-07 +9.949224E-07 
 -3.074200E-07 +1.378494E-07 -2.605981E-09 +1.378494E-07 -1.948927E-08 -1.292640E-07 -2.605981E-09 -1.292640E-07 +3.269092E-07 
 -2.040991E-07 +1.588037E-07 +3.204548E-08 +1.588037E-07 -1.937529E-07 -6.138711E-08 +3.204548E-08 -6.138711E-08 +3.978520E-07 
 -2.116076E-05 -1.495580E-05 -1.346123E-05 -1.495580E-05 -8.976103E-06 -1.642247E-06 -1.346123E-05 -1.642247E-06 +3.013687E-05 
 -1.707035E-08 -1.151713E-09 -1.802310E-09 -1.151713E-09 -1.800915E-08 +8.099703E-09 -1.802310E-09 +8.099703E-09 +3.507951E-08 
 -7.117516E-07 -4.854791E-08 -1.803645E-07 -4.854791E-08 +4.394503E-08 +1.770814E-07 -1.803645E-07 +1.770814E-07 +6.678065E-07 
 -9.670870E-05 +1.614605E-04 +3.447735E-05 +1.614605E-04 -2.583455E-04 -1.218344E-04 +3.447735E-05 -1.218344E-04 +3.550542E-04 
 -5.420633E-09 -5.145428E-10 +3.657720E-10 -5.145428E-10 -6.905566E-09 -3.923760E-09 +3.657720E-10 -3.923760E-09 +1.232620E-08 
 +3.626066E-07 +1.007520E-06 +1.770121E-06 +1.007520E-06 -8.284758E-06 +2.130102E-06 +1.770121E-06 +2.130102E-06 +7.922152E-06 
 -5.854967E-05 +1.510693E-05 +6.414090E-06 +1.510693E-05 -3.386738E-06 -7.326813E-06 +6.414090E-06 -7.326813E-06 +6.193641E-05 
 -6.423260E-05 -5.217225E-05 +1.866573E-05 -5.217225E-05 -3.314698E-05 -1.565771E-05 +1.866573E-05 -1.565771E-05 +9.737958E-05 
 -1.792978E-05 +2.559740E-05 +8.251776E-06 +2.559740E-05 -3.656326E-05 -1.179011E-05 +8.251776E-06 -1.179011E-05 +5.449304E-05 
 -6.613931E-09 +2.085700E-10 -3.233922E-09 +2.085700E-10 -4.717081E-09 -6.253371E-10 -3.233922E-09 -6.253371E-10 +1.133101E-08 
 -5.267446E-08 +3.535005E-08 -4.047769E-09 +3.535005E-08 -1.524370E-07 -1.991642E-08 -4.047769E-09 -1.991642E-08 +2.051114E-07 
 -3.021099E-05 -7.036913E-06 +9.550301E-06 -7.036913E-06 -5.753881E-07 -3.816186E-06 +9.550301E-06 -3.816186E-06 +3.078638E-05 
 -1.190971E-07 -5.267004E-08 +4.029289E-08 -5.267004E-08 -1.144475E-07 +4.508815E-08 +4.029289E-08 +4.508815E-08 +2.335447E-07 
 -2.868841E-06 +1.017947E-05 +4.949217E-07 +1.017947E-05 -3.609409E-05 +1.302549E-07 +4.949217E-07 +1.302549E-07 +3.896293E-05 
 -5.978031E-08 -1.750265E-08 -8.035727E-10 -1.750265E-08 -5.712110E-08 -1.216925E-08 -8.035727E-10 -1.216925E-08 +1.169014E-07 
 -3.389793E-08 -1.121009E-06 +9.315655E-07 -1.121009E-06 -5.760326E-06 -5.895624E-07 +9.315655E-07 -5.895624E-07 +5.794224E-06 
 -7.454065E-07 +2.921007E-07 +2.826204E-07 +2.921007E-07 -1.163614E-07 -1.357245E-07 +2.826204E-07 -1.357245E-07 +8.617679E-07 
 -7.358878E-08 +3.354011E-08 +3.741762E-08 +3.354011E-08 -1.270876E-07 -5.914945E-08 +3.741762E-08 -5.914945E-08 +2.006763E-07 
 -6.265830E-08 -3.845981E-08 +4.628151E-09 -3.845981E-08 -1.358664E-07 +2.890670E-08 +4.628151E-09 +2.890670E-08 +1.985247E-07 
 -7.669904E-08 -3.274173E-07 +4.432318E-08 -3.274173E-07 -1.269813E-06 -2.484858E-07 +4.432318E-08 -2.484858E-07 +1.346512E-06 
 -1.172829E-08 -1.077535E-09 -7.196179E-10 -1.077535E-09 -2.921592E-08 -8.643963E-09 -7.196179E-10 -8.643963E-09 +4.094421E-08 
 -4.938261E-08 -1.605917E-08 +1.608215E-08 -1.605917E-08 -3.649959E-08 +9.117605E-09 +1.608215E-08 +9.117605E-09 +8.588220E-08 
 -3.542273E-07 -5.984587E-08 -2.566966E-08 -5.984587E-08 -5.731597E-07 -6.664192E-08 -2.566966E-08 -6.664192E-08 +9.273870E-07 
 -1.314082E-07 +5.106565E-08 +2.444951E-08 +5.106565E-08 -1.251018E-07 -7.088855E-08 +2.444951E-08 -7.088855E-08 +2.565100E-07 
 -2.988427E-08 +1.183004E-08 -5.005463E-09 +1.183004E-08 -5.414883E-08 +4.339901E-09 -5.005463E-09 +4.339901E-09 +8.403309E-08 
 -5.768895E-05 -2.190724E-05 +4.885381E-06 -2.190724E-05 -6.086566E-06 -1.017287E-05 +4.885381E-06 -1.017287E-05 +6.377551E-05 
 -4.675924E-05 -2.472008E-05 +5.971634E-06 -2.472008E-05 -7.264968E-06 +2.099044E-05 +5.971634E-06 +2.099044E-05 +5.402421E-05 
 -1.244304E-08 +3.545701E-07 +4.626366E-07 +3.545701E-07 -7.886366E-07 -2.295161E-07 +4.626366E-07 -2.295161E-07 +8.010796E-07 
 -4.040804E-08 -9.102052E-09 +1.340991E-08 -9.102052E-09 -6.939978E-08 +2.371968E-08 +1.340991E-08 +2.371968E-08 +1.098078E-07 
 -1.371473E-05 +2.101321E-05 +3.300682E-06 +2.101321E-05 -2.717285E-05 +9.479944E-06 +3.300682E-06 +9.479944E-06 +4.088758E-05 
 -2.252287E-07 +2.026144E-06 -1.236230E-06 +2.026144E-06 -4.516648E-06 -2.541744E-06 -1.236230E-06 -2.541744E-06 +4.741877E-06 
 -5.535879E-07 -1.935791E-07 -8.894863E-08 -1.935791E-07 -1.378034E-07 -2.082944E-07 -8.894863E-08 -2.082944E-07 +6.913912E-07 
 -1.198041E-10 -4.298408E-08 -6.975272E-08 -4.298408E-08 -2.173714E-07 +2.177473E-08 -6.975272E-08 +2.177473E-08 +2.174912E-07 
 -1.605763E-06 -3.117339E-07 +4.871295E-07 -3.117339E-07 -5.210946E-08 +3.559742E-07 +4.871295E-07 +3.559742E-07 +1.657872E-06 
 -4.673904E-05 -4.690943E-05 -1.631858E-05 -4.690943E-05 -2.893441E-05 +2.211266E-05 -1.631858E-05 +2.211266E-05 +7.567345E-05 
 -2.263891E-05 +4.027803E-05 +1.822282E-05 +4.027803E-05 -7.271374E-05 -2.932416E-05 +1.822282E-05 -2.932416E-05 +9.535265E-05 
 -1.180377E-06 -5.475480E-07 +7.689941E-09 -5.475480E-07 -1.522299E-07 -3.848361E-07 +7.689941E-09 -3.848361E-07 +1.332607E-06 
 -3.398984E-08 +7.138960E-09 -1.672365E-09 +7.138960E-09 -7.189960E-08 +2.253319E-08 -1.672365E-09 +2.253319E-08 +1.058894E-07 
 -2.970319E-06 -2.322264E-06 +8.525308E-07 -2.322264E-06 -1.299385E-06 +2.196794E-06 +8.525308E-07 +2.196794E-06 +4.269705E-06 
 -2.447713E-08 -1.084139E-09 -1.799274E-09 -1.084139E-09 -1.878419E-08 +4.420512E-09 -1.799274E-09 +4.420512E-09 +4.326132E-08 
 -3.126975E-08 -4.538054E-09 +1.613217E-08 -4.538054E-09 -2.484787E-08 +1.086302E-08 +1.613217E-08 +1.086302E-08 +5.611762E-08 
 +8.449997E-08 -4.206632E-07 -4.776319E-07 -4.206632E-07 -2.051730E-06 +6.735167E-07 -4.776319E-07 +6.735167E-07 +1.967230E-06 
 -1.114332E-05 +2.635691E-05 -9.092939E-06 +2.635691E-05 -6.075079E-05 +1.017987E-05 -9.092939E-06 +1.017987E-05 +7.189412E-05 
 -1.215850E-06 -8.260716E-06 +7.151175E-06 -8.260716E-06 -3.022418E-05 +4.938557E-06 +7.151175E-06 +4.938557E-06 +3.144002E-05 
 -8.208293E-08 -2.103877E-09 -7.926033E-09 -2.103877E-09 -2.360719E-08 +1.550938E-08 -7.926033E-09 +1.550938E-08 +1.056901E-07 
 -2.228061E-05 -1.007260E-05 +1.016974E-06 -1.007260E-05 -3.201824E-06 +6.367397E-06 +1.016974E-06 +6.367397E-06 +2.548244E-05 
 -1.378646E-04 -1.248701E-05 +1.553938E-06 -1.248701E-05 +8.199496E-06 -3.469666E-05 +1.553938E-06 -3.469666E-05 +1.296651E-04 
 -1.445976E-05 +1.914093E-05 -1.233599E-06 +1.914093E-05 -2.518963E-05 -8.627479E-07 -1.233599E-06 -8.627479E-07 +3.964940E-05 
 -3.799048E-08 +2.450215E-09 +5.547463E-09 +2.450215E-09 -2.956370E-08 -1.618526E-09 +5.547463E-09 -1.618526E-09 +6.755418E-08 
 -1.693099E-08 -3.315875E-09 +5.427637E-09 -3.315875E-09 -1.286179E-08 +3.002754E-09 +5.427637E-09 +3.002754E-09 +2.979278E-08 
 -2.728448E-08 -2.117518E-09 -2.960324E-09 -2.117518E-09 -1.300101E-08 +4.634462E-10 -2.960324E-09 +4.634462E-10 +4.028549E-08 
 -5.573083E-07 -2.340763E-07 +2.074930E-07 -2.340763E-07 -9.834329E-08 +1.238829E-07 +2.074930E-07 +1.238829E-07 +6.556515E-07 
 -3.191077E-08 -1.784602E-08 +1.641468E-09 -1.784602E-08 -5.642319E-08 +5.654802E-09 +1.641468E-09 +5.654802E-09 +8.833397E-08 
 -5.244055E-06 -1.483876E-05 -4.988184E-06 -1.483876E-05 -3.568188E-05 +2.881420E-06 -4.988184E-06 +2.881420E-06 +4.092594E-05 
 -3.103748E-07 -4.979223E-07 +4.969673E-07 -4.979223E-07 -5.732225E-07 +1.503911E-07 +4.969673E-07 +1.503911E-07 +8.835972E-07 
 -8.317235E-08 +1.197095E-06 -7.165898E-07 +1.197095E-06 -3.252659E-06 -1.219270E-06 -7.165898E-07 -1.219270E-06 +3.335831E-06 
 -6.498868E-08 -4.947523E-08 +7.612508E-09 -4.947523E-08 -6.973449E-08 +1.151628E-08 +7.612508E-09 +1.151628E-08 +1.347232E-07 
 -3.957141E-06 +1.091829E-06 +7.151035E-07 +1.091829E-06 -3.023472E-07 -2.310651E-07 +7.151035E-07 -2.310651E-07 +4.259488E-06 
 -8.473918E-08 +1.758553E-08 -1.224055E-08 +1.758553E-08 -6.360171E-08 +3.873445E-09 -1.224055E-08 +3.873445E-09 +1.483409E-07 
 -4.463236E-06 +1.042201E-06 +1.443318E-06 +1.042201E-06 -1.799573E-07 -9.522990E-07 +1.443318E-06 -9.522990E-07 +4.643193E-06 
 -1.767398E-07 -3.372978E-08 -3.586139E-08 -3.372978E-08 +6.141274E-09 +4.770344E-08 -3.586139E-08 +4.770344E-08 +1.705985E-07 
 -6.794756E-06 -5.763149E-06 -2.642634E-07 -5.763149E-06 -4.099961E-06 +2.725013E-06 -2.642634E-07 +2.725013E-06 +1.089472E-05 
 -3.507294E-05 -6.890597E-05 +2.334888E-05 -6.890597E-05 -1.150080E-04 -1.242524E-05 +2.334888E-05 -1.242524E-05 +1.500810E-04 
 -3.078815E-06 +7.723859E-07 -5.955325E-07 +7.723859E-07 -1.156715E-07 -3.718503E-07 -5.955325E-07 -3.718503E-07 +3.194487E-06 
 -2.308080E-08 -1.067585E-08 -2.769634E-09 -1.067585E-08 -1.619249E-08 -2.217475E-09 -2.769634E-09 -2.217475E-09 +3.927330E-08 
 -2.050523E-08 +6.826726E-08 +9.032959E-11 +6.826726E-08 -2.342076E-07 -1.535262E-07 +9.032959E-11 -1.535262E-07 +2.547128E-07 
 -3.764011E-08 +4.467648E-08 -1.133672E-08 +4.467648E-08 -1.269057E-07 +1.449970E-08 -1.133672E-08 +1.449970E-08 +1.645459E-07 
 -3.028183E-06 +1.764021E-06 +7.780579E-09 +1.764021E-06 -1.029501E-06 +1.487215E-08 +7.780579E-09 +1.487215E-08 +4.057684E-06 
 -2.867007E-05 -3.260673E-05 -6.821603E-06 -3.260673E-05 -3.468621E-05 +4.771287E-06 -6.821603E-06 +4.771287E-06 +6.335628E-05 
 -3.909627E-07 -5.282415E-07 +3.818674E-07 -5.282415E-07 -5.590394E-07 +4.824631E-08 +3.818674E-07 +4.824631E-08 +9.500021E-07 
 -2.258957E-08 -7.512270E-09 -1.257398E-08 -7.512270E-09 -2.386033E-08 -1.041641E-08 -1.257398E-08 -1.041641E-08 +4.644990E-08 
 -1.480538E-08 +1.327134E-09 -4.547530E-09 +1.327134E-09 -6.694875E-09 +2.908520E-09 -4.547530E-09 +2.908520E-09 +2.150025E-08 
 -8.659834E-09 -3.905235E-10 -1.520018E-09 -3.905235E-10 -1.065633E-08 -3.917837E-09 -1.520018E-09 -3.917837E-09 +1.931617E-08 
 -4.219741E-07 +9.584471E-07 +1.650522E-07 +9.584471E-07 -2.064053E-06 -9.471408E-07 +1.650522E-07 -9.471408E-07 +2.486027E-06 
 -1.253328E-07 -5.565078E-09 -3.589005E-08 -5.565078E-09 -4.081756E-08 -1.702320E-09 -3.589005E-08 -1.702320E-09 +1.661503E-07 
 -3.440295E-05 -4.782850E-05 -8.541977E-06 -4.782850E-05 -6.415352E-05 -2.723035E-05 -8.541977E-06 -2.723035E-05 +9.855648E-05 
 -2.884655E-06 -1.449538E-06 -1.022913E-06 -1.449538E-06 -7.701983E-08 +9.617950E-07 -1.022913E-06 +9.617950E-07 +2.961675E-06 
 -6.635777E-09 +1.431500E-08 -1.955090E-09 +1.431500E-08 -8.106674E-08 +4.723035E-08 -1.955090E-09 +4.723035E-08 +8.770251E-08 
 -8.846852E-06 -2.947594E-05 -1.007387E-05 -2.947594E-05 -7.340727E-05 +1.470934E-05 -1.007387E-05 +1.470934E-05 +8.225413E-05 
 -2.202215E-04 +5.900758E-05 -3.895808E-05 +5.900758E-05 -1.581323E-05 +1.043891E-05 -3.895808E-05 +1.043891E-05 +2.360347E-04 
 -4.062665E-06 +1.844600E-06 -1.355240E-06 +1.844600E-06 -5.933974E-07 -5.043466E-07 -1.355240E-06 -5.043466E-07 +4.656062E-06 
 -5.062274E-06 +1.345416E-06 -4.290814E-07 +1.345416E-06 -1.543148E-07 -9.199034E-07 -4.290814E-07 -9.199034E-07 +5.216589E-06 
 -2.557985E-07 -1.152970E-06 -6.230301E-07 -1.152970E-06 -4.545964E-06 -7.088728E-07 -6.230301E-07 -7.088728E-07 +4.801763E-06 
 -1.078815E-07 -6.717563E-08 -6.339639E-08 -6.717563E-08 -8.134584E-08 -3.807182E-08 -6.339639E-08 -3.807182E-08 +1.892273E-07 
 -4.953244E-06 -1.783367E-07 +8.453969E-07 -1.783367E-07 -6.552750E-09 +2.814733E-07 +8.453969E-07 +2.814733E-07 +4.959797E-06 
 -6.456541E-05 -2.559891E-06 -9.562914E-06 -2.559891E-06 +4.286846E-06 +1.612682E-05 -9.562914E-06 +1.612682E-05 +6.027857E-05 
 -1.464344E-06 -2.690946E-06 +2.392297E-06 -2.690946E-06 -2.805461E-06 +2.090459E-07 +2.392297E-06 +2.090459E-07 +4.269806E-06 
 -2.905778E-08 +1.138987E-08 +1.156573E-09 +1.138987E-08 -5.018951E-08 +1.133794E-08 +1.156573E-09 +1.133794E-08 +7.924729E-08 
 -6.285024E-08 -2.629060E-08 -7.512566E-09 -2.629060E-08 -4.961881E-08 -1.504333E-09 -7.512566E-09 -1.504333E-09 +1.124691E-07 
 -4.857955E-08 -1.333849E-08 +1.676059E-08 -1.333849E-08 -1.851106E-08 +2.101713E-08 +1.676059E-08 +2.101713E-08 +6.709061E-08 
 -5.577807E-06 +2.376399E-06 -1.741742E-06 +2.376399E-06 -9.134313E-07 +1.677518E-06 -1.741742E-06 +1.677518E-06 +6.491238E-06 
 -3.747074E-06 -1.657687E-07 +4.649846E-07 -1.657687E-07 +4.240502E-07 -1.195941E-06 +4.649846E-07 -1.195941E-06 +3.323024E-06 
 -6.891762E-08 +4.893523E-07 +3.376647E-07 +4.893523E-07 -1.081173E-06 +2.557830E-07 +3.376647E-07 +2.557830E-07 +1.150090E-06 
 +5.262790E-08 +1.442016E-07 +5.820402E-07 +1.442016E-07 -4.051444E-06 -1.509000E-06 +5.820402E-07 -1.509000E-06 +3.998816E-06 
 -6.286022E-08 -1.136488E-08 +3.925898E-09 -1.136488E-08 -3.933519E-08 -5.211179E-09 +3.925898E-09 -5.211179E-09 +1.021954E-07 
 -3.782525E-08 -2.069470E-08 -1.256039E-08 -2.069470E-08 -4.544113E-08 -1.290738E-08 -1.256039E-08 -1.290738E-08 +8.326637E-08 
 -5.337132E-07 +6.918538E-08 -2.015521E-07 +6.918538E-08 +1.500457E-08 +1.481299E-07 -2.015521E-07 +1.481299E-07 +5.187086E-07 
 -1.416306E-06 +2.747918E-06 -1.071182E-06 +2.747918E-06 -4.419598E-06 -3.892467E-07 -1.071182E-06 -3.892467E-07 +5.835905E-06 
 -2.142830E-05 -8.160222E-05 +5.265442E-06 -8.160222E-05 -2.771312E-04 -8.116857E-05 +5.265442E-06 -8.116857E-05 +2.985595E-04 
 -4.250282E-07 -1.523774E-07 +2.648794E-07 -1.523774E-07 -7.814702E-08 +4.762635E-08 +2.648794E-07 +4.762635E-08 +5.031753E-07 
 -3.933043E-07 +1.064125E-06 +1.600624E-07 +1.064125E-06 -2.598410E-06 +5.834949E-07 +1.600624E-07 +5.834949E-07 +2.991715E-06 
 -2.902506E-06 -8.100604E-06 +5.532794E-07 -8.100604E-06 -2.108271E-05 -4.606276E-06 +5.532794E-07 -4.606276E-06 +2.398521E-05 
 -8.134490E-07 +6.368517E-07 -8.245933E-07 +6.368517E-07 -4.153197E-07 +2.267279E-07 -8.245933E-07 +2.267279E-07 +1.228769E-06 
 -6.306837E-06 +3.733820E-06 -4.089059E-06 +3.733820E-06 -1.814663E-06 +3.318625E-07 -4.089059E-06 +3.318625E-07 +8.121499E-06 
 -9.074540E-08 +8.838811E-08 -6.230212E-08 +8.838811E-08 -1.395956E-07 +1.172894E-07 -6.230212E-08 +1.172894E-07 +2.303409E-07 
 -4.180038E-07 +9.021443E-07 -2.106593E-07 +9.021443E-07 -1.464532E-06 -1.013922E-06 -2.106593E-07 -1.013922E-06 +1.882535E-06 
 -1.156575E-04 +5.393183E-05 +2.937513E-05 +5.393183E-05 -2.514911E-05 -1.369764E-05 +2.937513E-05 -1.369764E-05 +1.408066E-04 
 -3.002840E-09 +6.494926E-07 +9.274314E-07 +6.494926E-07 -4.331783E-06 -1.575382E-06 +9.274314E-07 -1.575382E-06 +4.334786E-06 
 -1.519171E-04 +1.810466E-04 +3.787667E-05 +1.810466E-04 -2.157638E-04 -4.513914E-05 +3.787667E-05 -4.513914E-05 +3.676809E-04 
 -3.995546E-06 +2.962413E-06 +6.230828E-07 +2.962413E-06 -2.169635E-06 -9.424912E-07 +6.230828E-07 -9.424912E-07 +6.165181E-06 
 -2.013125E-06 -3.577972E-06 -2.299258E-06 -3.577972E-06 -5.421250E-06 -1.001708E-06 -2.299258E-06 -1.001708E-06 +7.434375E-06 
 -5.850630E-08 -9.845482E-09 -5.102092E-09 -9.845482E-09 -2.296937E-08 -4.018379E-09 -5.102092E-09 -4.018379E-09 +8.147567E-08 
 -2.598047E-05 +2.729559E-05 +2.389527E-05 +2.729559E-05 -2.483615E-05 -8.360013E-06 +2.389527E-05 -8.360013E-06 +5.081663E-05 
 -1.608600E-06 +6.330361E-06 +3.308357E-07 +6.330361E-06 -2.490705E-05 +9.032534E-08 +3.308357E-07 +9.032534E-08 +2.651565E-05 
 -6.192801E-07 +1.781493E-06 -7.422209E-07 +1.781493E-06 -3.279124E-06 -8.651643E-07 -7.422209E-07 -8.651643E-07 +3.898404E-06 
 -1.525155E-07 -3.242388E-08 -3.078132E-08 -3.242388E-08 -1.831712E-07 -6.823063E-08 -3.078132E-08 -6.823063E-08 +3.356867E-07 
 -1.418999E-06 -1.495585E-07 -9.813052E-08 -1.495585E-07 +7.619280E-08 +3.498463E-07 -9.813052E-08 +3.498463E-07 +1.342806E-06 
 -3.452057E-08 -2.391028E-09 +1.951227E-10 -2.391028E-09 -4.296863E-08 -5.920646E-09 +1.951227E-10 -5.920646E-09 +7.748921E-08 
 -2.624958E-07 +1.845881E-07 +1.534504E-07 +1.845881E-07 -1.442091E-07 -1.692682E-07 +1.534504E-07 -1.692682E-07 +4.067049E-07 
 -7.537631E-08 -2.118382E-08 +1.316542E-08 -2.118382E-08 -2.664091E-07 -2.331047E-08 +1.316542E-08 -2.331047E-08 +3.417854E-07 
 -5.923183E-07 -9.709759E-07 -5.280182E-07 -9.709759E-07 -1.584002E-06 -5.918789E-07 -5.280182E-07 -5.918789E-07 +2.176320E-06 
 -2.563284E-08 -1.741987E-08 +1.345533E-08 -1.741987E-08 -3.116517E-08 +5.118985E-09 +1.345533E-08 +5.118985E-09 +5.679801E-08 
 -7.202980E-05 +3.171485E-05 +1.939543E-05 +3.171485E-05 -1.312415E-05 -1.726308E-05 +1.939543E-05 -1.726308E-05 +8.515395E-05 
 -9.325743E-07 -1.739419E-06 -8.818528E-07 -1.739419E-06 -2.358605E-06 +2.738566E-07 -8.818528E-07 +2.738566E-07 +3.291179E-06 
 -4.291120E-05 +6.008652E-05 -7.827089E-06 +6.008652E-05 -8.122073E-05 +3.010729E-05 -7.827089E-06 +3.010729E-05 +1.241319E-04 
 -3.084846E-05 -8.341748E-06 +4.602215E-06 -8.341748E-06 -2.024453E-06 +4.243377E-06 +4.602215E-06 +4.243377E-06 +3.287291E-05 
 -6.602016E-09 +1.938425E-10 -1.725036E-09 +1.938425E-10 -6.733092E-09 -2.450978E-09 -1.725036E-09 -2.450978E-09 +1.333511E-08 
 -2.352959E-06 +1.923476E-06 +5.685253E-07 +1.923476E-06 -1.572353E-06 -3.987751E-07 +5.685253E-07 -3.987751E-07 +3.925312E-06 
 -3.833215E-06 -5.977861E-06 +1.830333E-06 -5.977861E-06 -9.213294E-06 +1.598797E-06 +1.830333E-06 +1.598797E-06 +1.304651E-05 
 -6.909300E-07 -6.509279E-07 +4.807125E-07 -6.509279E-07 -5.754912E-07 +1.957913E-07 +4.807125E-07 +1.957913E-07 +1.266421E-06 
 -5.948369E-08 +3.626925E-08 +3.154070E-08 +3.626925E-08 -4.627486E-08 -3.626643E-09 +3.154070E-08 -3.626643E-09 +1.057585E-07 
 -1.153106E-07 +1.891695E-08 -3.604121E-08 +1.891695E-08 -9.005468E-08 +2.554721E-08 -3.604121E-08 +2.554721E-08 +2.053653E-07 
 -3.149398E-05 +4.087860E-05 -2.461184E-05 +4.087860E-05 -5.118287E-05 +1.808227E-05 -2.461184E-05 +1.808227E-05 +8.267684E-05 
 -3.809192E-08 +1.557221E-08 -3.671479E-09 +1.557221E-08 -5.089963E-08 +5.338158E-09 -3.671479E-09 +5.338158E-09 +8.899156E-08 
 -2.093615E-07 -1.474501E-07 +1.963287E-08 -1.474501E-07 -5.998611E-08 -1.066234E-07 +1.963287E-08 -1.066234E-07 +2.693476E-07 
 -1.848935E-07 -6.604479E-08 +1.141675E-07 -6.604479E-08 -5.171619E-08 +1.605134E-08 +1.141675E-07 +1.605134E-08 +2.366097E-07 
 -7.210927E-06 -1.258473E-05 +5.183810E-06 -1.258473E-05 -2.085184E-05 +3.042119E-06 +5.183810E-06 +3.042119E-06 +2.806277E-05 
 -3.263133E-04 -8.993308E-05 -1.369841E-05 -8.993308E-05 -1.347383E-05 +5.833065E-05 -1.369841E-05 +5.833065E-05 +3.397871E-04 
 +1.114646E-09 -3.216587E-09 +6.021034E-09 -3.216587E-09 +1.081222E-09 -5.482030E-09 +6.021034E-09 -5.482030E-09 -2.195868E-09 
 -1.593423E-04 -1.091573E-04 +2.255471E-05 -1.091573E-04 -7.211620E-05 +4.050492E-05 +2.255471E-05 +4.050492E-05 +2.314585E-04 
 -1.588849E-08 +6.823792E-10 +8.539374E-09 +6.823792E-10 -1.042165E-08 -2.696159E-09 +8.539374E-09 -2.696159E-09 +2.631014E-08 
 -1.804205E-08 -1.612941E-08 +1.548955E-08 -1.612941E-08 -2.039199E-08 +1.053850E-08 +1.548955E-08 +1.053850E-08 +3.843404E-08 
 -1.054174E-06 -2.556213E-06 -7.308771E-07 -2.556213E-06 -5.075226E-06 +9.847683E-07 -7.308771E-07 +9.847683E-07 +6.129400E-06 
 -3.470727E-08 -8.959967E-10 -2.256454E-08 -8.959967E-10 -9.310981E-09 +6.627388E-09 -2.256454E-08 +6.627388E-09 +4.401825E-08 
 -9.736230E-06 -3.335597E-05 +8.519068E-06 -3.335597E-05 -6.448889E-05 -3.466659E-05 +8.519068E-06 -3.466659E-05 +7.422512E-05 
 -7.231023E-06 +5.272410E-07 -3.895391E-07 +5.272410E-07 +4.470805E-07 +1.853202E-06 -3.895391E-07 +1.853202E-06 +6.783943E-06 
 -7.896313E-07 +1.308239E-07 +3.607309E-07 +1.308239E-07 +1.409197E-08 +2.084574E-07 +3.607309E-07 +2.084574E-07 +7.755393E-07 
 -5.192232E-08 +1.150061E-09 -1.032490E-08 +1.150061E-09 -4.274641E-08 -2.633206E-09 -1.032490E-08 -2.633206E-09 +9.466874E-08 
 -4.280953E-07 +1.167203E-07 +2.586936E-07 +1.167203E-07 -5.415447E-08 -6.048173E-09 +2.586936E-07 -6.048173E-09 +4.822498E-07 
 -7.322705E-06 +2.728983E-06 -1.301686E-06 +2.728983E-06 -3.015203E-07 +2.919647E-06 -1.301686E-06 +2.919647E-06 +7.624225E-06 
 -1.022440E-06 -3.890330E-07 -4.040229E-07 -3.890330E-07 -9.988634E-08 -4.935597E-07 -4.040229E-07 -4.935597E-07 +1.122326E-06 
 -8.149038E-07 +9.324685E-08 -1.690738E-07 +9.324685E-08 +1.237305E-07 -2.948623E-07 -1.690738E-07 -2.948623E-07 +6.911733E-07 
 -6.208160E-06 -3.120270E-06 +1.478874E-06 -3.120270E-06 -8.724157E-07 +3.035688E-06 +1.478874E-06 +3.035688E-06 +7.080576E-06 
 -2.220504E-07 -1.407164E-07 +8.772537E-08 -1.407164E-07 -9.129256E-08 +7.293963E-08 +8.772537E-08 +7.293963E-08 +3.133430E-07 
 -2.010644E-07 +1.995550E-08 -1.366336E-09 +1.995550E-08 -1.066161E-07 +2.716252E-08 -1.366336E-09 +2.716252E-08 +3.076805E-07 
 +1.442359E-07 -3.928052E-07 -1.255782E-06 -3.928052E-07 -9.921452E-06 -1.100457E-07 -1.255782E-06 -1.100457E-07 +9.777216E-06 
 -7.349626E-07 -1.051902E-08 -2.856440E-07 -1.051902E-08 +9.437373E-09 -2.600754E-07 -2.856440E-07 -2.600754E-07 +7.255252E-07 
 -8.983172E-06 +1.673348E-05 -7.453488E-06 +1.673348E-05 -2.418380E-05 -2.710512E-06 -7.453488E-06 -2.710512E-06 +3.316697E-05 
 -8.103888E-08 -4.480435E-08 -2.173418E-08 -4.480435E-08 -1.012581E-07 -7.113181E-08 -2.173418E-08 -7.113181E-08 +1.822970E-07 
 -1.467471E-05 +4.031524E-05 +5.151578E-06 +4.031524E-05 -1.107665E-04 -1.415421E-05 +5.151578E-06 -1.415421E-05 +1.254412E-04 
 -1.185168E-07 +1.247176E-06 -3.206136E-07 +1.247176E-06 -1.312866E-05 +2.316569E-06 -3.206136E-07 +2.316569E-06 +1.324718E-05 
 -7.390302E-08 -5.135428E-07 +4.111979E-07 -5.135428E-07 -2.253474E-06 +3.753383E-07 +4.111979E-07 +3.753383E-07 +2.327377E-06 
 -1.933241E-08 -3.871224E-08 +3.967810E-08 -3.871224E-08 -1.935266E-07 -2.564536E-08 +3.967810E-08 -2.564536E-08 +2.128590E-07 
 -3.496910E-05 -5.047163E-05 -3.511562E-06 -5.047163E-05 -7.039819E-05 +1.105245E-05 -3.511562E-06 +1.105245E-05 +1.053673E-04 
 -1.287588E-08 -1.106051E-09 +3.847457E-09 -1.106051E-09 -1.062002E-09 -2.180638E-09 +3.847457E-09 -2.180638E-09 +1.393789E-08 
 +8.931105E-07 +1.194586E-06 -5.703657E-06 +1.194586E-06 -2.933057E-05 +7.736054E-06 -5.703657E-06 +7.736054E-06 +2.843746E-05 
 -6.320101E-06 +8.049797E-07 -1.133634E-06 +8.049797E-07 +3.472397E-07 +1.820893E-06 -1.133634E-06 +1.820893E-06 +5.972861E-06 
 -2.469990E-06 -3.149810E-06 -4.257122E-07 -3.149810E-06 -3.551050E-06 -2.274426E-06 -4.257122E-07 -2.274426E-06 +6.021040E-06 
 -2.291336E-05 +1.099355E-05 -3.219254E-06 +1.099355E-05 -5.015955E-06 -1.192062E-06 -3.219254E-06 -1.192062E-06 +2.792931E-05 
 -6.341676E-08 +6.640461E-09 +9.355823E-09 +6.640461E-09 -1.238769E-07 -1.678463E-08 +9.355823E-09 -1.678463E-08 +1.872937E-07 
 -3.577710E-06 -1.995021E-06 -2.219014E-07 -1.995021E-06 -7.074468E-07 -1.448054E-06 -2.219014E-07 -1.448054E-06 +4.285157E-06 
 -2.218011E-08 +1.917056E-07 +1.088580E-07 +1.917056E-07 -1.027890E-06 +5.866455E-07 +1.088580E-07 +5.866455E-07 +1.050070E-06 
 -3.504580E-07 +5.531007E-07 +4.632721E-07 +5.531007E-07 -5.162404E-07 +2.303886E-08 +4.632721E-07 +2.303886E-08 +8.666985E-07 
 -2.978644E-08 -9.742209E-10 +1.497568E-09 -9.742209E-10 -4.007269E-08 +6.141490E-09 +1.497568E-09 +6.141490E-09 +6.985913E-08 
 -3.619624E-05 -6.211158E-05 +3.300334E-06 -6.211158E-05 -1.023418E-04 +2.995257E-05 +3.300334E-06 +2.995257E-05 +1.385380E-04 
 -2.063835E-08 +1.859979E-08 -1.383733E-08 +1.859979E-08 -5.911579E-08 +1.380624E-08 -1.383733E-08 +1.380624E-08 +7.975414E-08 
 -4.643694E-08 -1.137130E-08 -4.857097E-09 -1.137130E-08 -1.714806E-08 -2.157390E-09 -4.857097E-09 -2.157390E-09 +6.358500E-08 
 -5.158787E-05 +1.106256E-04 +7.247024E-06 +1.106256E-04 -2.372394E-04 -1.554351E-05 +7.247024E-06 -1.554351E-05 +2.888273E-04 
 -2.527126E-08 +2.426459E-07 +1.780342E-07 +2.426459E-07 -5.501709E-07 +1.113057E-07 +1.780342E-07 +1.113057E-07 +5.754421E-07 
 -7.310898E-06 +3.766279E-06 +1.521778E-06 +3.766279E-06 -1.174625E-06 +1.812932E-06 +1.521778E-06 +1.812932E-06 +8.485523E-06 
 +1.262752E-07 -8.049993E-07 +8.184228E-07 -8.049993E-07 -2.834441E-06 -8.383961E-07 +8.184228E-07 -8.383961E-07 +2.708166E-06 
 -1.611661E-08 -8.846979E-10 +1.423630E-09 -8.846979E-10 -2.044493E-08 -8.119676E-09 +1.423630E-09 -8.119676E-09 +3.656154E-08 
 -1.790892E-08 +3.436287E-09 +4.336538E-09 +3.436287E-09 -2.435274E-08 -1.324880E-08 +4.336538E-09 -1.324880E-08 +4.226166E-08 
 -4.840850E-07 -2.838499E-07 -2.024622E-07 -2.838499E-07 -5.766960E-08 +1.536652E-07 -2.024622E-07 +1.536652E-07 +5.417546E-07 
 -2.350955E-06 +1.238452E-06 -3.586139E-07 +1.238452E-06 -2.404219E-07 -8.622407E-07 -3.586139E-07 -8.622407E-07 +2.591377E-06 
 -8.117723E-07 +3.367945E-07 +1.220902E-07 +3.367945E-07 -3.375569E-08 +2.715607E-07 +1.220902E-07 +2.715607E-07 +8.455280E-07 
 -2.749991E-05 +4.530563E-05 +2.185433E-05 +4.530563E-05 -6.788126E-05 -8.362217E-06 +2.185433E-05 -8.362217E-06 +9.538118E-05 
 -3.666823E-05 -3.208038E-06 +2.867955E-06 -3.208038E-06 -2.807946E-07 +2.508153E-07 +2.867955E-06 +2.508153E-07 +3.694903E-05 
 -1.518558E-07 +2.992405E-07 +6.181148E-08 +2.992405E-07 -2.747813E-07 +2.583106E-07 +6.181148E-08 +2.583106E-07 +4.266371E-07 
 -1.453752E-08 +1.186674E-06 +7.240588E-07 +1.186674E-06 -3.858980E-06 +1.859721E-06 +7.240588E-07 +1.859721E-06 +3.873517E-06 
 -1.877856E-08 -1.515029E-09 -1.585038E-09 -1.515029E-09 -1.234966E-08 -1.034732E-09 -1.585038E-09 -1.034732E-09 +3.112822E-08 
 +1.198482E-06 -2.873235E-07 -2.793263E-06 -2.873235E-07 -7.603900E-06 +1.452262E-06 -2.793263E-06 +1.452262E-06 +6.405419E-06 
 -6.240159E-08 +3.994249E-08 +3.661728E-08 +3.994249E-08 -4.955684E-08 -1.845437E-08 +3.661728E-08 -1.845437E-08 +1.119584E-07 
 -5.319932E-09 +4.866355E-10 +2.317670E-09 +4.866355E-10 -3.664364E-09 -6.341112E-10 +2.317670E-09 -6.341112E-10 +8.984297E-09 
 -1.834217E-06 +1.023271E-05 -5.000332E-06 +1.023271E-05 -3.419407E-05 -5.872052E-06 -5.000332E-06 -5.872052E-06 +3.602829E-05 
 -4.511491E-09 -1.100756E-09 +5.809215E-10 -1.100756E-09 -6.575338E-09 +3.394629E-09 +5.809215E-10 +3.394629E-09 +1.108683E-08 
 -2.259815E-06 +2.246077E-06 +7.492623E-07 +2.246077E-06 -1.379483E-06 +1.080809E-06 +7.492623E-07 +1.080809E-06 +3.639298E-06 
 -2.165385E-05 +3.425121E-05 -1.502522E-05 +3.425121E-05 -3.340864E-05 -1.314742E-05 -1.502522E-05 -1.314742E-05 +5.506250E-05 
 +2.945987E-08 +6.113896E-08 +1.052629E-07 +6.113896E-08 -2.590837E-07 -1.322835E-08 +1.052629E-07 -1.322835E-08 +2.296238E-07 
 -1.969955E-05 +3.086581E-05 +8.901557E-06 +3.086581E-05 -4.214809E-05 +6.293466E-06 +8.901557E-06 +6.293466E-06 +6.184764E-05 
 -2.162056E-08 -4.522656E-09 -1.537694E-09 -4.522656E-09 -5.757677E-08 +5.806762E-09 -1.537694E-09 +5.806762E-09 +7.919733E-08 
 -6.449423E-09 +7.357338E-09 +4.484277E-09 +7.357338E-09 -2.182782E-08 -9.491429E-09 +4.484277E-09 -9.491429E-09 +2.827725E-08 
 -2.586006E-05 +4.924349E-06 -2.048479E-06 +4.924349E-06 -1.205232E-07 -4.280451E-06 -2.048479E-06 -4.280451E-06 +2.598058E-05 
 -1.049538E-07 +1.536271E-07 -1.083551E-07 +1.536271E-07 -1.872266E-07 -1.885609E-08 -1.083551E-07 -1.885609E-08 +2.921804E-07 
 -1.155505E-07 -1.097892E-07 +9.378288E-08 -1.097892E-07 -1.074217E-07 +8.441590E-08 +9.378288E-08 +8.441590E-08 +2.229722E-07 
 -4.393447E-06 +1.203824E-06 -9.375970E-07 +1.203824E-06 -2.952499E-07 -1.597756E-07 -9.375970E-07 -1.597756E-07 +4.688698E-06 
 -1.875864E-06 -2.656424E-07 -3.813907E-07 -2.656424E-07 +7.877941E-08 +4.431177E-07 -3.813907E-07 +4.431177E-07 +1.797084E-06 
 -2.448444E-07 -4.014225E-08 -2.223641E-08 -4.014225E-08 -7.478918E-08 +1.154346E-08 -2.223641E-08 +1.154346E-08 +3.196336E-07 
 -2.849853E-08 -9.633662E-08 +9.340597E-08 -9.633662E-08 -3.560340E-07 +1.004564E-07 +9.340597E-08 +1.004564E-07 +3.845326E-07 
 -3.478064E-07 +3.616443E-07 +3.507867E-08 +3.616443E-07 -2.321998E-07 +2.551921E-07 +3.507867E-08 +2.551921E-07 +5.800062E-07 
 -2.007810E-07 -1.786442E-08 -1.143495E-07 -1.786442E-08 -4.758395E-09 -1.131374E-08 -1.143495E-07 -1.131374E-08 +2.055395E-07 
 -2.899118E-07 -1.322679E-06 -5.155145E-07 -1.322679E-06 -2.267923E-06 +1.285029E-06 -5.155145E-07 +1.285029E-06 +2.557834E-06 
 -5.461307E-06 -2.402958E-05 -5.549394E-06 -2.402958E-05 -6.920554E-05 +3.007768E-05 -5.549394E-06 +3.007768E-05 +7.466685E-05 
 -1.335443E-05 -1.518414E-05 +1.048184E-05 -1.518414E-05 -1.254040E-05 -7.800510E-07 +1.048184E-05 -7.800510E-07 +2.589483E-05 
 -3.282808E-05 -1.334374E-05 -6.892561E-06 -1.334374E-05 -2.096007E-06 +8.211124E-06 -6.892561E-06 +8.211124E-06 +3.492408E-05 
 -2.184179E-07 +1.382096E-07 -2.457199E-08 +1.382096E-07 -4.142424E-08 +1.321311E-07 -2.457199E-08 +1.321311E-07 +2.598421E-07 
 -2.314555E-06 +9.611577E-06 -1.665125E-06 +9.611577E-06 -3.525057E-05 -7.007259E-06 -1.665125E-06 -7.007259E-06 +3.756512E-05 
 -6.325637E-08 +1.094782E-10 -3.172245E-08 +1.094782E-10 -2.599922E-08 -8.639839E-10 -3.172245E-08 -8.639839E-10 +8.925559E-08 
 -6.327130E-07 -3.338401E-07 -4.181117E-07 -3.338401E-07 -1.984538E-07 -1.992682E-07 -4.181117E-07 -1.992682E-07 +8.311668E-07 
 +6.676226E-09 +2.690966E-08 -7.058770E-09 +2.690966E-08 -7.149796E-08 +4.849505E-08 -7.058770E-09 +4.849505E-08 +6.482173E-08 
 -1.009801E-06 +8.928841E-07 +8.229173E-07 +8.928841E-07 -2.913624E-07 +2.643480E-07 +8.229173E-07 +2.643480E-07 +1.301163E-06 
 -9.092601E-07 -8.456378E-06 -7.458178E-06 -8.456378E-06 -3.227030E-05 -2.956034E-06 -7.458178E-06 -2.956034E-06 +3.317956E-05 
 -1.689486E-05 +2.083112E-05 -2.632108E-06 +2.083112E-05 -2.273153E-05 -7.712405E-06 -2.632108E-06 -7.712405E-06 +3.962640E-05 
 -1.473587E-04 +9.514853E-05 +3.721290E-05 +9.514853E-05 -5.181428E-05 -6.890411E-05 +3.721290E-05 -6.890411E-05 +1.991730E-04 
 -8.665279E-05 +1.109635E-04 +5.657540E-05 +1.109635E-04 -1.372767E-04 -3.695339E-05 +5.657540E-05 -3.695339E-05 +2.239295E-04 
 -4.038672E-08 -1.908929E-08 -1.130190E-08 -1.908929E-08 -8.052988E-08 -5.164802E-08 -1.130190E-08 -5.164802E-08 +1.209166E-07 
 -7.589682E-08 -1.604322E-08 +5.999523E-09 -1.604322E-08 -3.138503E-08 +6.470060E-09 +5.999523E-09 +6.470060E-09 +1.072819E-07 
 +2.819930E-07 -2.506887E-07 +8.073812E-07 -2.506887E-07 -2.527088E-06 -6.794166E-07 +8.073812E-07 -6.794166E-07 +2.245095E-06 
 +2.420354E-07 +7.718405E-07 -1.260975E-06 +7.718405E-07 -6.079929E-06 -1.554043E-06 -1.260975E-06 -1.554043E-06 +5.837894E-06 
 -1.771054E-07 +1.197596E-06 +1.034516E-06 +1.197596E-06 -4.403155E-06 -7.196718E-07 +1.034516E-06 -7.196718E-07 +4.580261E-06 
 -8.795728E-07 -6.523688E-07 +9.122691E-08 -6.523688E-07 -1.509174E-07 +6.648663E-07 +9.122691E-08 +6.648663E-07 +1.030490E-06 
 -4.556533E-06 +8.611415E-07 +1.717582E-06 +8.611415E-07 +1.861876E-07 +1.018374E-06 +1.717582E-06 +1.018374E-06 +4.370346E-06 
 -1.623109E-05 -1.691987E-05 +8.001061E-06 -1.691987E-05 -1.763431E-05 +9.415479E-06 +8.001061E-06 +9.415479E-06 +3.386540E-05 
 -2.246189E-05 +8.583183E-06 -5.755431E-07 +8.583183E-06 -1.332750E-06 -6.593851E-06 -5.755431E-07 -6.593851E-06 +2.379464E-05 
 -8.875857E-05 +3.471527E-05 -1.573212E-05 +3.471527E-05 -5.110955E-06 -2.246283E-05 -1.573212E-05 -2.246283E-05 +9.386952E-05 
 -1.811215E-06 -3.145525E-06 -2.400953E-06 -3.145525E-06 -3.956180E-06 -4.674914E-07 -2.400953E-06 -4.674914E-07 +5.767395E-06 
 -5.032159E-06 +1.300365E-06 -8.277779E-07 +1.300365E-06 -1.891979E-07 +1.101368E-06 -8.277779E-07 +1.101368E-06 +5.221357E-06 
 +1.005063E-07 -1.040236E-07 -5.453766E-07 -1.040236E-07 -2.271684E-06 -6.672498E-07 -5.453766E-07 -6.672498E-07 +2.171178E-06 
 -1.243823E-04 -9.941752E-05 +2.140179E-05 -9.941752E-05 -6.907598E-05 +6.245748E-05 +2.140179E-05 +6.245748E-05 +1.934583E-04 
 +5.217065E-08 +2.308513E-07 +3.860445E-07 +2.308513E-07 -2.468735E-06 +8.440607E-07 +3.860445E-07 +8.440607E-07 +2.416564E-06 
 -2.698642E-05 -4.141535E-06 +4.097877E-06 -4.141535E-06 +9.220442E-07 -5.830222E-06 +4.097877E-06 -5.830222E-06 +2.606438E-05 
 -8.060955E-05 +4.744628E-05 -8.974464E-06 +4.744628E-05 -2.682105E-05 -5.670351E-06 -8.974464E-06 -5.670351E-06 +1.074306E-04 
 -4.424131E-06 -2.870362E-06 -1.579986E-07 -2.870362E-06 -1.840121E-06 +2.739013E-07 -1.579986E-07 +2.739013E-07 +6.264253E-06 
 -3.759067E-05 +3.297999E-05 -9.242274E-07 +3.297999E-05 -2.888716E-05 -1.104165E-06 -9.242274E-07 -1.104165E-06 +6.647783E-05 
 -6.148042E-08 +6.319461E-09 -2.018580E-08 +6.319461E-09 -3.495056E-08 +3.239028E-09 -2.018580E-08 +3.239028E-09 +9.643099E-08 
 -6.466373E-07 +3.350036E-07 +2.336820E-07 +3.350036E-07 -1.898749E-07 +8.635437E-08 +2.336820E-07 +8.635437E-08 +8.365122E-07 
 -2.068762E-04 -5.543100E-05 -1.407365E-05 -5.543100E-05 -1.485791E-05 -3.771557E-06 -1.407365E-05 -3.771557E-06 +2.217341E-04 
 -3.256053E-06 +4.379842E-06 -5.328492E-07 +4.379842E-06 -3.886783E-06 -3.106092E-06 -5.328492E-07 -3.106092E-06 +7.142836E-06 
 -3.905144E-08 +2.511226E-08 -2.758104E-08 +2.511226E-08 -3.172054E-08 +3.155470E-08 -2.758104E-08 +3.155470E-08 +7.077198E-08 
 -4.114957E-08 -5.119959E-09 +4.104099E-09 -5.119959E-09 -2.823514E-08 +3.480072E-10 +4.104099E-09 +3.480072E-10 +6.938470E-08 
 +8.488931E-08 -3.825099E-07 -5.514568E-07 -3.825099E-07 -2.642956E-06 +4.031891E-07 -5.514568E-07 +4.031891E-07 +2.558067E-06 
 -9.621749E-08 -2.484656E-08 -5.435073E-09 -2.484656E-08 -3.786730E-08 -8.639846E-09 -5.435073E-09 -8.639846E-09 +1.340848E-07 
 -9.885740E-06 +2.715720E-05 +4.357629E-06 +2.715720E-05 -7.461514E-05 -1.197221E-05 +4.357629E-06 -1.197221E-05 +8.450088E-05 
 -7.977879E-08 +2.042778E-07 +1.496926E-07 +2.042778E-07 -6.920904E-07 -3.932457E-07 +1.496926E-07 -3.932457E-07 +7.718692E-07 
 -3.628172E-08 -1.025980E-08 +1.525369E-08 -1.025980E-08 -2.435543E-08 +1.993349E-10 +1.525369E-08 +1.993349E-10 +6.063715E-08 
 -1.800769E-08 +2.568544E-09 -4.507166E-09 +2.568544E-09 -2.419605E-08 +3.610409E-10 -4.507166E-09 +3.610409E-10 +4.220373E-08 
 -8.261263E-06 -2.897387E-06 +3.776185E-08 -2.897387E-06 -1.016038E-06 -1.024464E-07 +3.776185E-08 -1.024464E-07 +9.277302E-06 
 -8.202247E-07 +3.009814E-06 +2.183760E-06 +3.009814E-06 -7.791659E-06 -1.156657E-06 +2.183760E-06 -1.156657E-06 +8.611884E-06 
 -3.461023E-08 +1.760520E-09 +9.048288E-09 +1.760520E-09 -8.156945E-09 +9.752946E-10 +9.048288E-09 +9.752946E-10 +4.276717E-08 
 -2.201985E-08 +3.413750E-09 +3.539897E-09 +3.413750E-09 -2.665534E-08 -4.553121E-09 +3.539897E-09 -4.553121E-09 +4.867519E-08 
 -1.875827E-08 -3.281740E-09 -7.073952E-09 -3.281740E-09 -1.509203E-08 -4.640917E-09 -7.073952E-09 -4.640917E-09 +3.385030E-08 
 -5.926140E-06 +4.387460E-06 -8.012949E-07 +4.387460E-06 -3.091666E-06 +1.792207E-06 -8.012949E-07 +1.792207E-06 +9.017805E-06 
 -5.138232E-06 +3.853777E-06 +7.917279E-07 +3.853777E-06 -2.109743E-06 +1.810814E-06 +7.917279E-07 +1.810814E-06 +7.247974E-06 
 -2.042667E-06 -3.656831E-06 -2.224646E-07 -3.656831E-06 -3.640818E-06 +3.699430E-06 -2.224646E-07 +3.699430E-06 +5.683486E-06 
 -2.417747E-07 -1.233410E-07 -1.406378E-07 -1.233410E-07 -8.724557E-08 -1.001009E-07 -1.406378E-07 -1.001009E-07 +3.290203E-07 
 -7.687655E-08 -2.265233E-09 +3.034475E-08 -2.265233E-09 -1.032533E-07 +5.292008E-08 +3.034475E-08 +5.292008E-08 +1.801298E-07 
 -2.570211E-07 -1.662279E-07 +2.785681E-08 -1.662279E-07 -6.025299E-08 -1.135448E-07 +2.785681E-08 -1.135448E-07 +3.172741E-07 
 -5.811601E-05 -1.502297E-05 -6.061507E-06 -1.502297E-05 -3.374832E-06 -7.192937E-06 -6.061507E-06 -7.192937E-06 +6.149083E-05 
 -8.591487E-05 -3.152946E-05 +2.507025E-05 -3.152946E-05 -7.780801E-06 -1.038471E-05 +2.507025E-05 -1.038471E-05 +9.369567E-05 
 -4.362084E-08 -1.892548E-08 -7.286910E-09 -1.892548E-08 -8.044367E-09 -6.535684E-09 -7.286910E-09 -6.535684E-09 +5.166521E-08 
 -5.016182E-08 -1.733320E-08 -5.555238E-09 -1.733320E-08 -2.427865E-08 +1.445696E-09 -5.555238E-09 +1.445696E-09 +7.444047E-08 
 +4.509584E-08 +2.343196E-07 +2.984713E-07 +2.343196E-07 -8.636561E-07 +1.043449E-08 +2.984713E-07 +1.043449E-08 +8.185602E-07 
 -1.011407E-07 +4.139996E-08 -2.793290E-08 +4.139996E-08 -5.227231E-08 +1.625882E-08 -2.793290E-08 +1.625882E-08 +1.534130E-07 
 -9.681830E-08 -2.767236E-08 +1.822463E-08 -2.767236E-08 -1.556680E-08 -2.125739E-08 +1.822463E-08 -2.125739E-08 +1.123851E-07 
 -6.842180E-09 +9.494598E-10 -4.744533E-11 +9.494598E-10 -9.767673E-09 +4.826297E-09 -4.744533E-11 +4.826297E-09 +1.660985E-08 
 -6.946537E-08 -5.829146E-09 -4.236665E-09 -5.829146E-09 -5.722648E-08 -3.832557E-09 -4.236665E-09 -3.832557E-09 +1.266918E-07 
 -5.312731E-06 +3.128639E-05 +3.147087E-05 +3.128639E-05 -7.693225E-05 -1.543405E-05 +3.147087E-05 -1.543405E-05 +8.224498E-05 
 -2.020964E-05 +1.192867E-05 +1.289448E-06 +1.192867E-05 -5.957364E-06 +4.580543E-06 +1.289448E-06 +4.580543E-06 +2.616700E-05 
 -4.768924E-06 +2.479864E-06 +6.621810E-07 +2.479864E-06 -4.590595E-07 +1.773516E-06 +6.621810E-07 +1.773516E-06 +5.227984E-06 
 -2.835694E-07 -4.576457E-08 -6.213154E-08 -4.576457E-08 +5.692789E-09 +8.743510E-08 -6.213154E-08 +8.743510E-08 +2.778766E-07 
 -1.292974E-08 +2.929986E-09 -3.997789E-10 +2.929986E-09 -2.135189E-08 -2.125464E-09 -3.997789E-10 -2.125464E-09 +3.428163E-08 
 -2.838306E-08 +2.633221E-07 +1.393767E-07 +2.633221E-07 -2.549488E-06 -9.280359E-07 +1.393767E-07 -9.280359E-07 +2.577871E-06 
 -2.269546E-07 -4.795623E-08 -1.288706E-07 -4.795623E-08 -1.791563E-08 -1.463545E-08 -1.288706E-07 -1.463545E-08 +2.448703E-07 
 -3.783763E-08 +1.395186E-08 +3.789021E-09 +1.395186E-08 -3.668330E-09 +1.237761E-08 +3.789021E-09 +1.237761E-08 +4.150596E-08 
 -1.824360E-06 -1.531430E-06 +1.579388E-06 -1.531430E-06 -1.272982E-06 +9.053223E-07 +1.579388E-06 +9.053223E-07 +3.097342E-06 
 +5.719898E-06 -8.007448E-06 +2.165994E-05 -8.007448E-06 -8.720009E-05 -2.317181E-05 +2.165994E-05 -2.317181E-05 +8.148020E-05 
 -2.856227E-07 +1.608495E-06 -7.085048E-07 +1.608495E-06 -4.389113E-06 -1.742922E-06 -7.085048E-07 -1.742922E-06 +4.674735E-06 
 -1.656055E-06 +6.164919E-07 +4.578043E-07 +6.164919E-07 -1.884462E-07 -5.189912E-07 +4.578043E-07 -5.189912E-07 +1.844502E-06 
 -2.936685E-06 +1.503226E-06 -6.035891E-07 +1.503226E-06 -4.459041E-07 +1.389540E-06 -6.035891E-07 +1.389540E-06 +3.382589E-06 
 -8.250733E-08 -3.297984E-08 -5.198371E-08 -3.297984E-08 -3.492174E-08 -2.016083E-08 -5.198371E-08 -2.016083E-08 +1.174291E-07 
 -9.112203E-08 +5.259643E-08 +8.005028E-09 +5.259643E-08 -1.436977E-07 -5.227585E-08 +8.005028E-09 -5.227585E-08 +2.348198E-07 
 -1.718879E-08 -2.813129E-08 -8.857787E-09 -2.813129E-08 -5.626333E-07 +3.179954E-07 -8.857787E-09 +3.179954E-07 +5.798220E-07 
 -7.093536E-07 -1.490943E-07 +2.208008E-07 -1.490943E-07 -3.270607E-08 +1.495565E-07 +2.208008E-07 +1.495565E-07 +7.420597E-07 
 -2.819392E-09 -1.319134E-06 +1.883259E-06 -1.319134E-06 -1.057906E-05 +3.849330E-06 +1.883259E-06 +3.849330E-06 +1.058188E-05 
 +1.106865E-08 +2.994629E-08 +7.517743E-08 +2.994629E-08 -2.375266E-07 +2.953641E-08 +7.517743E-08 +2.953641E-08 +2.264580E-07 
 -2.409682E-07 +1.973161E-07 +1.212214E-07 +1.973161E-07 -1.166163E-07 +5.537420E-08 +1.212214E-07 +5.537420E-08 +3.575846E-07 
 -2.382551E-07 +3.966779E-08 +3.945536E-08 +3.966779E-08 -2.036705E-07 -1.041139E-08 +3.945536E-08 -1.041139E-08 +4.419255E-07 
 -3.963757E-06 -3.753640E-07 +1.445288E-06 -3.753640E-07 -3.839400E-08 +1.681719E-07 +1.445288E-06 +1.681719E-07 +4.002151E-06 
 -2.363482E-07 +2.174633E-07 +2.088304E-07 +2.174633E-07 -7.518765E-08 +5.750539E-08 +2.088304E-07 +5.750539E-08 +3.115359E-07 
 -4.313137E-08 -1.126166E-08 -4.507566E-09 -1.126166E-08 -3.853360E-08 -2.244061E-09 -4.507566E-09 -2.244061E-09 +8.166498E-08 
 -9.417415E-07 -2.668151E-06 -8.166531E-07 -2.668151E-06 -6.803137E-06 +2.186675E-07 -8.166531E-07 +2.186675E-07 +7.744879E-06 
 -2.606401E-06 +1.718237E-06 -1.016349E-06 +1.718237E-06 -1.122998E-06 +9.440645E-07 -1.016349E-06 +9.440645E-07 +3.729399E-06 
 +7.572481E-08 +1.382573E-07 +2.759888E-07 +1.382573E-07 -8.946732E-07 +1.667356E-07 +2.759888E-07 +1.667356E-07 +8.189484E-07 
 -3.869394E-08 +3.614987E-09 +4.776448E-09 +3.614987E-09 -5.063343E-08 -1.741839E-08 +4.776448E-09 -1.741839E-08 +8.932737E-08 
 -3.220929E-06 -1.458131E-05 -7.601139E-06 -1.458131E-05 -5.711720E-05 -7.977793E-06 -7.601139E-06 -7.977793E-06 +6.033813E-05 
 -2.385865E-08 +1.719565E-08 -2.877711E-08 +1.719565E-08 -1.699644E-08 +7.771668E-09 -2.877711E-08 +7.771668E-09 +4.085508E-08 
 -8.938560E-08 -3.995081E-08 -9.296398E-09 -3.995081E-08 -2.150273E-07 -1.839835E-08 -9.296398E-09 -1.839835E-08 +3.044129E-07 
 -1.107669E-05 -1.972855E-05 -1.004425E-05 -1.972855E-05 -2.483469E-05 +3.653512E-06 -1.004425E-05 +3.653512E-06 +3.591138E-05 
 -5.200502E-07 +3.412337E-07 +2.605514E-08 +3.412337E-07 -5.699479E-08 -3.298703E-07 +2.605514E-08 -3.298703E-07 +5.770449E-07 
 -6.646425E-08 -7.226632E-09 -6.964188E-09 -7.226632E-09 -3.686028E-08 -3.644130E-09 -6.964188E-09 -3.644130E-09 +1.033245E-07 
 +1.334756E-07 -1.777966E-07 -4.181502E-07 -1.777966E-07 -1.330238E-06 +1.665108E-07 -4.181502E-07 +1.665108E-07 +1.196763E-06 
 -4.003819E-08 -1.633394E-08 -1.020197E-08 -1.633394E-08 -5.668220E-08 -1.772766E-08 -1.020197E-08 -1.772766E-08 +9.672039E-08 
 -6.390686E-05 +4.827953E-05 +1.645930E-05 +4.827953E-05 -3.187060E-05 +9.075785E-06 +1.645930E-05 +9.075785E-06 +9.577746E-05 
 -2.131525E-05 +1.675690E-06 +6.239496E-06 +1.675690E-06 +1.398834E-06 +5.316569E-06 +6.239496E-06 +5.316569E-06 +1.991642E-05 
 -6.762482E-05 -4.966944E-05 -1.082159E-05 -4.966944E-05 -3.181967E-05 +1.381356E-05 -1.082159E-05 +1.381356E-05 +9.944449E-05 
 -7.473713E-07 -7.312156E-07 -3.711331E-08 -7.312156E-07 -3.706784E-07 +6.015967E-07 -3.711331E-08 +6.015967E-07 +1.118050E-06 
 -1.840457E-06 +2.269987E-07 +1.800383E-07 +2.269987E-07 +1.864265E-07 +5.828123E-07 +1.800383E-07 +5.828123E-07 +1.654031E-06 
 -5.595602E-06 +1.122449E-07 +1.963779E-06 +1.122449E-07 +4.714000E-08 +5.996737E-07 +1.963779E-06 +5.996737E-07 +5.548462E-06 
 -1.721075E-08 +6.169002E-09 +6.049365E-09 +6.169002E-09 -1.080470E-08 -6.548742E-09 +6.049365E-09 -6.548742E-09 +2.801544E-08 
 -1.600963E-08 +2.182181E-08 -9.141385E-09 +2.182181E-08 -4.525074E-08 +1.696101E-08 -9.141385E-09 +1.696101E-08 +6.126037E-08 
 -1.375711E-08 -2.030199E-09 -4.957928E-09 -2.030199E-09 -3.522533E-08 +8.751107E-09 -4.957928E-09 +8.751107E-09 +4.898244E-08 
 -4.625068E-06 +6.694317E-07 -6.676931E-07 +6.694317E-07 -3.039477E-08 +6.718248E-07 -6.676931E-07 +6.718248E-07 +4.655463E-06 
 -1.077386E-06 +4.395790E-07 -3.765582E-07 +4.395790E-07 -4.288983E-08 -2.849759E-07 -3.765582E-07 -2.849759E-07 +1.120276E-06 
 -1.961003E-06 -2.246917E-07 -6.062216E-07 -2.246917E-07 +1.782460E-07 +6.250491E-07 -6.062216E-07 +6.250491E-07 +1.782757E-06 
 -2.925935E-07 -3.253912E-08 +1.860111E-08 -3.253912E-08 -2.070335E-07 +1.700957E-08 +1.860111E-08 +1.700957E-08 +4.996270E-07 
 +3.232056E-07 +4.004027E-07 -1.637881E-06 +4.004027E-07 -7.528507E-06 +8.748653E-07 -1.637881E-06 +8.748653E-07 +7.205301E-06 
 -1.494701E-05 -3.109299E-05 -4.594972E-06 -3.109299E-05 -6.137382E-05 -2.564684E-05 -4.594972E-06 -2.564684E-05 +7.632083E-05 
 -3.542862E-06 -1.742523E-06 -1.478089E-06 -1.742523E-06 -4.314757E-07 +6.720381E-07 -1.478089E-06 +6.720381E-07 +3.974337E-06 
 -2.410667E-06 +7.056644E-07 -5.015270E-07 +7.056644E-07 -1.946047E-07 -3.509922E-08 -5.015270E-07 -3.509922E-08 +2.605272E-06 
 -2.885250E-05 +8.121356E-12 -9.996533E-06 +8.121356E-12 -3.772471E-10 -9.405765E-11 -9.996533E-06 -9.405765E-11 +2.885288E-05 
 -5.469572E-07 -1.212218E-06 +2.712872E-07 -1.212218E-06 -2.807294E-06 +1.175783E-06 +2.712872E-07 +1.175783E-06 +3.354251E-06 
 -3.938106E-05 -2.646426E-05 -5.117410E-06 -2.646426E-05 -1.524203E-05 -1.533028E-05 -5.117410E-06 -1.533028E-05 +5.462308E-05 
 -6.373200E-06 -3.989942E-07 +1.947964E-06 -3.989942E-07 +7.956822E-07 +2.389272E-06 +1.947964E-06 +2.389272E-06 +5.577519E-06 
 -2.418064E-07 -6.948724E-07 -2.114177E-07 -6.948724E-07 -2.499547E-06 -9.422299E-07 -2.114177E-07 -9.422299E-07 +2.741353E-06 
 -2.961749E-05 -9.081296E-06 -2.941720E-07 -9.081296E-06 -2.747724E-06 +1.108577E-06 -2.941720E-07 +1.108577E-06 +3.236521E-05 
 +9.830914E-08 +1.803458E-07 +9.542809E-07 +1.803458E-07 -8.886286E-06 -8.404098E-08 +9.542809E-07 -8.404098E-08 +8.787977E-06 
 -3.552758E-07 +1.981348E-07 +3.062695E-07 +1.981348E-07 -1.074454E-07 -2.081210E-08 +3.062695E-07 -2.081210E-08 +4.627212E-07 
 -3.494179E-05 +4.380821E-05 +1.446497E-05 +4.380821E-05 -4.695079E-05 +8.348876E-06 +1.446497E-05 +8.348876E-06 +8.189258E-05 
 -3.438579E-08 -1.311650E-08 -3.512586E-09 -1.311650E-08 -5.607291E-08 -5.655608E-09 -3.512586E-09 -5.655608E-09 +9.045871E-08 
 -7.303223E-08 -3.737665E-08 -2.557948E-08 -3.737665E-08 -1.783600E-08 -2.581847E-08 -2.557948E-08 -2.581847E-08 +9.086822E-08 
 -3.148213E-08 +4.830396E-09 -3.016100E-10 +4.830396E-09 -6.097749E-08 -1.952669E-08 -3.016100E-10 -1.952669E-08 +9.245963E-08 
 -4.732080E-08 -2.354048E-07 -2.212507E-07 -2.354048E-07 -4.409379E-07 -3.662412E-08 -2.212507E-07 -3.662412E-08 +4.882586E-07 
 -1.057135E-07 -5.212418E-08 -5.203881E-08 -5.212418E-08 -1.223197E-07 +9.661133E-09 -5.203881E-08 +9.661133E-09 +2.280332E-07 
 -3.405591E-07 -1.412645E-07 -2.136240E-07 -1.412645E-07 -6.910678E-08 -7.461816E-08 -2.136240E-07 -7.461816E-08 +4.096659E-07 
 -5.739642E-08 +2.878963E-06 +2.246725E-06 +2.878963E-06 -2.921238E-05 +3.681690E-06 +2.246725E-06 +3.681690E-06 +2.926978E-05 
 -1.750232E-05 +1.700913E-05 +7.271132E-06 +1.700913E-05 -1.569211E-05 -1.538821E-06 +7.271132E-06 -1.538821E-06 +3.319443E-05 
 -1.477677E-06 +2.683590E-06 -1.577124E-06 +2.683590E-06 -4.722772E-06 +1.753078E-06 -1.577124E-06 +1.753078E-06 +6.200449E-06 
 -1.615134E-06 +2.062269E-06 +1.196632E-06 +2.062269E-06 -2.005401E-06 +1.698018E-07 +1.196632E-06 +1.698018E-07 +3.620535E-06 
 -8.680321E-08 -1.383557E-07 -9.053696E-08 -1.383557E-07 -3.422620E-07 -2.050518E-07 -9.053696E-08 -2.050518E-07 +4.290652E-07 
 -2.490664E-08 +1.388927E-08 -1.353829E-08 +1.388927E-08 -2.315008E-08 +7.020832E-09 -1.353829E-08 +7.020832E-09 +4.805672E-08 
 -1.107292E-08 -5.676420E-11 -2.020050E-10 -5.676420E-11 -1.795956E-08 -1.579882E-09 -2.020050E-10 -1.579882E-09 +2.903248E-08 
 -2.889744E-08 +9.820145E-09 -4.001094E-09 +9.820145E-09 -4.468172E-08 +2.129599E-08 -4.001094E-09 +2.129599E-08 +7.357916E-08 
 -1.610709E-07 -2.035209E-07 -3.515078E-08 -2.035209E-07 -1.829584E-07 +1.364401E-07 -3.515078E-08 +1.364401E-07 +3.440293E-07 
 -2.037472E-07 -5.798474E-08 +3.599045E-10 -5.798474E-08 -1.202629E-08 -5.821913E-08 +3.599045E-10 -5.821913E-08 +2.157735E-07 
 -1.430032E-07 +4.451898E-07 -6.396904E-07 +4.451898E-07 -1.540626E-06 +1.393429E-07 -6.396904E-07 +1.393429E-07 +1.683629E-06 
 -4.629839E-05 +5.426828E-05 -3.274754E-06 +5.426828E-05 -5.592423E-05 +3.193177E-05 -3.274754E-06 +3.193177E-05 +1.022226E-04 
 -2.285608E-06 +2.384404E-06 -1.565271E-06 +2.384404E-06 -1.296531E-06 -7.414741E-07 -1.565271E-06 -7.414741E-07 +3.582139E-06 
 -8.729306E-05 +1.069021E-06 +1.221634E-05 +1.069021E-06 +6.613645E-07 +7.577894E-06 +1.221634E-05 +7.577894E-06 +8.663170E-05 
 -5.651933E-08 -2.967090E-08 +3.920513E-09 -2.967090E-08 -8.162175E-08 +8.452520E-09 +3.920513E-09 +8.452520E-09 +1.381411E-07 
 +7.188739E-07 -2.694136E-07 -4.360699E-06 -2.694136E-07 -2.105769E-05 -8.863213E-06 -4.360699E-06 -8.863213E-06 +2.033882E-05 
 -1.164093E-05 -2.496194E-05 -8.493595E-06 -2.496194E-05 -5.353219E-05 -1.821641E-05 -8.493595E-06 -1.821641E-05 +6.517312E-05 
 +1.159683E-10 +7.531479E-08 -3.123786E-08 +7.531479E-08 -3.140308E-08 +6.677007E-08 -3.123786E-08 +6.677007E-08 +3.128711E-08 
 -1.141766E-04 -5.292575E-05 +6.059457E-05 -5.292575E-05 -1.874257E-05 -2.871682E-06 +6.059457E-05 -2.871682E-06 +1.329192E-04 
 -6.201282E-08 -3.027502E-07 +4.156399E-07 -3.027502E-07 -1.063683E-06 +5.943073E-07 +4.156399E-07 +5.943073E-07 +1.125696E-06 
 -3.149310E-07 -2.626958E-07 -2.788302E-07 -2.626958E-07 -2.599408E-07 +4.320660E-08 -2.788302E-07 +4.320660E-08 +5.748718E-07 
 -6.021776E-09 -2.289096E-10 +1.858166E-09 -2.289096E-10 -8.300698E-09 +2.853215E-09 +1.858166E-09 +2.853215E-09 +1.432247E-08 
 -2.912353E-08 -2.680449E-09 -1.525343E-08 -2.680449E-09 -1.599798E-08 +1.403024E-09 -1.525343E-08 +1.403024E-09 +4.512151E-08 
 -2.319545E-06 -9.054821E-07 +8.549398E-08 -9.054821E-07 -2.488395E-07 -4.889705E-07 +8.549398E-08 -4.889705E-07 +2.568385E-06 
 -5.610229E-06 +2.695431E-06 -1.370170E-06 +2.695431E-06 -1.242859E-06 +4.331617E-08 -1.370170E-06 +4.331617E-08 +6.853088E-06 
 -3.025580E-06 +3.320449E-06 +2.735456E-07 +3.320449E-06 -3.444809E-06 -1.447484E-06 +2.735456E-07 -1.447484E-06 +6.470390E-06 
 -5.070460E-05 +3.233296E-05 -1.502952E-05 +3.233296E-05 -1.760612E-05 -5.225484E-06 -1.502952E-05 -5.225484E-06 +6.831072E-05 
 +1.607017E-08 -6.835911E-08 -1.311785E-07 -6.835911E-08 -3.806964E-07 -1.180472E-07 -1.311785E-07 -1.180472E-07 +3.646263E-07 
 -5.726894E-08 -2.015105E-08 +1.950424E-08 -2.015105E-08 -2.797579E-08 +1.926237E-09 +1.950424E-08 +1.926237E-09 +8.524473E-08 
 -8.223073E-05 +6.899723E-05 +2.571770E-05 +6.899723E-05 -5.789852E-05 -2.157776E-05 +2.571770E-05 -2.157776E-05 +1.401292E-04 
 -8.286588E-06 -3.332589E-06 -1.868412E-06 -3.332589E-06 -9.237529E-07 +1.264272E-06 -1.868412E-06 +1.264272E-06 +9.210341E-06 
 -2.536518E-08 -8.448740E-09 +7.523619E-09 -8.448740E-09 -2.020740E-08 -3.316470E-10 +7.523619E-09 -3.316470E-10 +4.557258E-08 
 -1.232618E-09 +2.735423E-07 +2.020180E-07 +2.735423E-07 -7.082566E-07 +2.237142E-07 +2.020180E-07 +2.237142E-07 +7.094891E-07 
 -2.928667E-06 -5.653778E-07 -1.410532E-06 -5.653778E-07 +1.059225E-07 +5.998147E-07 -1.410532E-06 +5.998147E-07 +2.822745E-06 
 -8.344707E-06 -4.679336E-06 +6.670644E-07 -4.679336E-06 -2.463327E-06 -9.517532E-07 +6.670644E-07 -9.517532E-07 +1.080803E-05 
 -1.157323E-08 -7.449243E-09 +5.587425E-09 -7.449243E-09 -6.009145E-08 +1.453708E-08 +5.587425E-09 +1.453708E-08 +7.166468E-08 
 -1.371941E-06 +8.525948E-06 +5.331111E-06 +8.525948E-06 -2.544869E-05 +3.081884E-06 +5.331111E-06 +3.081884E-06 +2.682063E-05 
 +2.980307E-07 +1.720443E-06 -3.190080E-06 +1.720443E-06 -1.204561E-05 +3.358370E-06 -3.190080E-06 +3.358370E-06 +1.174758E-05 
 +2.859273E-07 +1.707752E-07 +1.200022E-06 +1.707752E-07 -5.265004E-06 +1.230244E-06 +1.200022E-06 +1.230244E-06 +4.979077E-06 
 -1.151649E-07 -1.443683E-08 -7.616211E-09 -1.443683E-08 -2.639589E-08 -5.399890E-09 -7.616211E-09 -5.399890E-09 +1.415608E-07 
 -1.417962E-07 +1.651232E-08 -2.631572E-08 +1.651232E-08 -7.417043E-08 +1.816718E-08 -2.631572E-08 +1.816718E-08 +2.159666E-07 
 -3.416700E-05 +3.233855E-05 +1.053516E-05 +3.233855E-05 -2.324850E-05 +1.119964E-05 +1.053516E-05 +1.119964E-05 +5.741551E-05 
 -6.768449E-06 -2.076343E-06 -2.390236E-06 -2.076343E-06 -5.294226E-07 -1.702370E-06 -2.390236E-06 -1.702370E-06 +7.297871E-06 
 -5.719118E-07 -3.663774E-06 +2.192278E-06 -3.663774E-06 -9.715171E-06 -2.009534E-06 +2.192278E-06 -2.009534E-06 +1.028708E-05 
 -1.180686E-05 -5.290775E-05 -2.631246E-05 -5.290775E-05 -2.058101E-04 -2.467571E-05 -2.631246E-05 -2.467571E-05 +2.176170E-04 
 -2.093797E-07 +8.704709E-08 -1.020661E-08 +8.704709E-08 -2.651693E-08 +7.271175E-08 -1.020661E-08 +7.271175E-08 +2.358966E-07 
 -1.881633E-08 -2.561640E-08 -5.471918E-09 -2.561640E-08 -6.374246E-08 -4.005296E-08 -5.471918E-09 -4.005296E-08 +8.255879E-08 
 -4.150069E-08 +4.401297E-09 +1.594612E-11 +4.401297E-09 -2.761251E-08 -5.080160E-09 +1.594612E-11 -5.080160E-09 +6.911320E-08 
 -9.069247E-08 -5.892038E-08 -4.753097E-08 -5.892038E-08 -8.728092E-08 -6.764513E-08 -4.753097E-08 -6.764513E-08 +1.779734E-07 
 -7.577438E-06 -1.576775E-06 +9.076885E-07 -1.576775E-06 +1.830396E-07 -1.830568E-06 +9.076885E-07 -1.830568E-06 +7.394399E-06 
 -4.211264E-10 +6.843771E-06 +6.843627E-06 +6.843771E-06 -2.980792E-05 -1.645414E-10 +6.843627E-06 -1.645414E-10 +2.980834E-05 
 -7.183167E-07 -2.437133E-07 +4.598857E-07 -2.437133E-07 -1.047959E-07 +6.449093E-08 +4.598857E-07 +6.449093E-08 +8.231125E-07 
 -2.437045E-07 +6.990991E-07 +2.110467E-07 +6.990991E-07 -7.932907E-07 +6.258560E-07 +2.110467E-07 +6.258560E-07 +1.036995E-06 
 -3.520323E-07 -5.116394E-07 -3.454534E-08 -5.116394E-07 -6.523941E-07 +2.584131E-07 -3.454534E-08 +2.584131E-07 +1.004426E-06 
 -1.200151E-08 -2.846235E-09 -3.385621E-09 -2.846235E-09 -1.135418E-08 -4.115207E-09 -3.385621E-09 -4.115207E-09 +2.335569E-08 
 -2.383986E-08 -7.536100E-10 +7.938301E-09 -7.536100E-10 -1.646082E-08 +3.069515E-09 +7.938301E-09 +3.069515E-09 +4.030068E-08 
 -7.338479E-06 +3.037387E-05 -1.350987E-05 +3.037387E-05 -6.712216E-05 -2.099500E-05 -1.350987E-05 -2.099500E-05 +7.446064E-05 
 -1.247992E-07 -2.283426E-07 -2.858610E-08 -2.283426E-07 -3.018270E-07 +1.769417E-07 -2.858610E-08 +1.769417E-07 +4.266261E-07 
 +1.122823E-07 +4.405764E-07 +9.450898E-07 +4.405764E-07 -4.754452E-06 -9.038251E-07 +9.450898E-07 -9.038251E-07 +4.642170E-06 
 -2.387313E-06 -1.117471E-06 -1.841140E-06 -1.117471E-06 -4.270966E-07 -1.536740E-07 -1.841140E-06 -1.536740E-07 +2.814409E-06 
 -1.113568E-07 -8.124737E-07 +1.369991E-07 -8.124737E-07 -4.586068E-06 -1.725109E-06 +1.369991E-07 -1.725109E-06 +4.697426E-06 
 -1.076586E-07 +4.481728E-08 +8.656306E-09 +4.481728E-08 -1.758708E-07 -5.859842E-08 +8.656306E-09 -5.859842E-08 +2.835294E-07 
 -1.482744E-08 -3.935988E-10 -6.028792E-09 -3.935988E-10 -9.754098E-09 -3.551752E-09 -6.028792E-09 -3.551752E-09 +2.458154E-08 
 -1.914852E-06 +2.069605E-06 -9.640250E-07 +2.069605E-06 -1.517234E-06 -6.394112E-07 -9.640250E-07 -6.394112E-07 +3.432086E-06 
 -4.533557E-07 +9.784873E-08 -2.960400E-07 +9.784873E-08 -7.881820E-08 +9.039015E-08 -2.960400E-07 +9.039015E-08 +5.321738E-07 
 -3.508131E-08 -6.693702E-08 -7.235491E-08 -6.693702E-08 -1.106123E-07 -6.172496E-08 -7.235491E-08 -6.172496E-08 +1.456936E-07 
 -4.472022E-08 +3.678133E-09 +6.108023E-09 +3.678133E-09 -2.996439E-08 +2.148449E-11 +6.108023E-09 +2.148449E-11 +7.468461E-08 
 -6.541050E-06 +1.684968E-06 +8.621544E-08 +1.684968E-06 +2.291295E-07 -2.071626E-06 +8.621544E-08 -2.071626E-06 +6.311920E-06 
 -3.144015E-06 -5.049978E-06 -3.704049E-06 -5.049978E-06 -4.857442E-06 +3.949279E-07 -3.704049E-06 +3.949279E-07 +8.001457E-06 
 -2.716891E-08 -3.068986E-09 +9.586982E-10 -3.068986E-09 -2.984874E-08 +5.407372E-09 +9.586982E-10 +5.407372E-09 +5.701765E-08 
 -5.435729E-05 +2.534714E-05 -8.759537E-06 +2.534714E-05 -1.181982E-05 +4.084876E-06 -8.759537E-06 +4.084876E-06 +6.617711E-05 
 -2.470433E-05 +9.502858E-05 +8.922782E-06 +9.502858E-05 -3.259281E-04 +8.511189E-05 +8.922782E-06 +8.511189E-05 +3.506324E-04 
 -1.794005E-06 -5.801926E-07 -2.701541E-07 -5.801926E-07 +5.140957E-08 +5.745301E-07 -2.701541E-07 +5.745301E-07 +1.742596E-06 
 -2.231374E-08 -3.018657E-07 -1.533913E-09 -3.018657E-07 -4.657148E-06 +1.705868E-06 -1.533913E-09 +1.705868E-06 +4.679462E-06 
 -5.916982E-08 -2.388141E-08 +4.741820E-09 -2.388141E-08 -1.273990E-07 -2.467018E-08 +4.741820E-09 -2.467018E-08 +1.865689E-07 
 -7.691444E-06 -4.553404E-06 +2.776029E-06 -4.553404E-06 -2.767021E-06 +2.536721E-06 +2.776029E-06 +2.536721E-06 +1.045847E-05 
 -1.156576E-04 +9.704547E-05 +4.119095E-05 +9.704547E-05 -8.143421E-05 -3.456260E-05 +4.119095E-05 -3.456260E-05 +1.970919E-04 
 -2.306162E-08 -7.645812E-09 -1.194044E-08 -7.645812E-09 -1.245754E-08 -3.638215E-09 -1.194044E-08 -3.638215E-09 +3.551916E-08 
 -1.881356E-08 +6.501493E-09 -4.312107E-09 +6.501493E-09 -2.388782E-08 +1.164364E-08 -4.312107E-09 +1.164364E-08 +4.270138E-08 
 -1.415934E-06 +2.303801E-06 +1.147457E-06 +2.303801E-06 -3.370613E-06 -3.960792E-07 +1.147457E-06 -3.960792E-07 +4.786547E-06 
 -4.315856E-08 +8.299878E-08 +1.455204E-07 +8.299878E-08 -1.961409E-06 -1.103382E-06 +1.455204E-07 -1.103382E-06 +2.004568E-06 
 -4.484227E-07 -8.232614E-07 -2.807860E-07 -8.232614E-07 -7.918190E-07 +5.264504E-07 -2.807860E-07 +5.264504E-07 +1.240242E-06 
 -7.152942E-08 -7.511245E-09 +6.416440E-10 -7.511245E-09 -5.351148E-08 -7.139781E-09 +6.416440E-10 -7.139781E-09 +1.250409E-07 
 -3.350270E-07 +6.583920E-07 -2.187873E-07 +6.583920E-07 -1.334160E-06 +9.190042E-07 -2.187873E-07 +9.190042E-07 +1.669187E-06 
 -4.039953E-05 -4.001499E-05 +1.462883E-06 -4.001499E-05 -3.498728E-05 +2.024390E-05 +1.462883E-06 +2.024390E-05 +7.538682E-05 
 -4.211796E-08 -9.377324E-09 -5.831580E-09 -9.377324E-09 -8.663505E-08 -2.611580E-08 -5.831580E-09 -2.611580E-08 +1.287530E-07 
 -4.793926E-06 -3.686482E-07 +5.773729E-07 -3.686482E-07 +8.767901E-09 +4.705873E-07 +5.773729E-07 +4.705873E-07 +4.785158E-06 
 -6.061660E-06 -3.437028E-05 +2.870608E-07 -3.437028E-05 -1.949240E-04 +1.631068E-06 +2.870608E-07 +1.631068E-06 +2.009857E-04 
 -5.389094E-06 +1.809558E-06 +5.202982E-07 +1.809558E-06 -1.620365E-07 -1.766365E-06 +5.202982E-07 -1.766365E-06 +5.551130E-06 
 -1.908682E-08 -7.718129E-09 -5.534638E-09 -7.718129E-09 -2.096994E-08 -5.243900E-10 -5.534638E-09 -5.243900E-10 +4.005676E-08 
 -1.837624E-06 +8.733901E-06 -4.876413E-06 +8.733901E-06 -2.074345E-05 -4.207336E-06 -4.876413E-06 -4.207336E-06 +2.258107E-05 
 -2.037009E-04 +2.547960E-05 +8.718952E-05 +2.547960E-05 -1.320240E-06 +1.037454E-05 +8.718952E-05 +1.037454E-05 +2.050211E-04 
 -1.381985E-06 +1.092208E-06 +8.195298E-07 +1.092208E-06 -8.244459E-07 -1.079812E-06 +8.195298E-07 -1.079812E-06 +2.206431E-06 
 +1.436460E-07 +2.111541E-07 -7.666069E-07 +2.111541E-07 -3.594873E-06 +4.238544E-07 -7.666069E-07 +4.238544E-07 +3.451227E-06 
 -6.251463E-09 +1.274272E-09 -2.368647E-09 +1.274272E-09 -1.402378E-08 +5.656829E-09 -2.368647E-09 +5.656829E-09 +2.027524E-08 
 -3.457916E-08 -1.070125E-08 +3.480503E-09 -1.070125E-08 -3.323247E-08 +4.524571E-09 +3.480503E-09 +4.524571E-09 +6.781163E-08 
 -4.294413E-08 +2.950558E-09 +2.317813E-09 +2.950558E-09 -4.131077E-08 +3.669628E-10 +2.317813E-09 +3.669628E-10 +8.425491E-08 
 -2.842416E-08 -6.741723E-09 -1.148457E-09 -6.741723E-09 -3.839649E-08 +1.618952E-09 -1.148457E-09 +1.618952E-09 +6.682065E-08 
 -1.015072E-07 +8.428045E-08 +6.934566E-08 +8.428045E-08 -8.106796E-08 -6.823775E-08 +6.934566E-08 -6.823775E-08 +1.825751E-07 
 -1.233031E-08 +1.788098E-09 -1.296285E-09 +1.788098E-09 -1.508949E-08 +5.622742E-09 -1.296285E-09 +5.622742E-09 +2.741980E-08 
 -1.839099E-05 +1.764758E-05 -7.912357E-06 +1.764758E-05 -1.041839E-05 -6.899286E-06 -7.912357E-06 -6.899286E-06 +2.880939E-05 
 -2.593561E-07 +4.687754E-09 -6.848537E-08 +4.687754E-09 -7.279129E-08 +1.614633E-08 -6.848537E-08 +1.614633E-08 +3.321474E-07 
 -4.252051E-08 +1.848066E-08 -2.050434E-08 +1.848066E-08 -2.694707E-08 +3.637770E-09 -2.050434E-08 +3.637770E-09 +6.946757E-08 
 -1.019553E-07 +5.722543E-08 +7.775900E-08 +5.722543E-08 -1.789215E-07 -5.696922E-08 +7.775900E-08 -5.696922E-08 +2.808767E-07 
 -1.670922E-04 -8.839744E-11 -2.022097E-06 -8.839744E-11 -2.784106E-09 +9.180640E-10 -2.022097E-06 +9.180640E-10 +1.670949E-04 
 -2.384324E-07 -6.324959E-08 -1.355086E-07 -6.324959E-08 -4.737440E-09 -1.082359E-07 -1.355086E-07 -1.082359E-07 +2.431699E-07 
 -2.912908E-08 -1.788072E-09 +1.955793E-09 -1.788072E-09 -3.695246E-08 +1.414372E-08 +1.955793E-09 +1.414372E-08 +6.608155E-08 
 -6.052835E-06 +2.955103E-06 +7.356920E-07 +2.955103E-06 -1.172376E-06 +1.049773E-06 +7.356920E-07 +1.049773E-06 +7.225211E-06 
 -1.965210E-06 -9.798885E-07 -3.062536E-07 -9.798885E-07 -4.911827E-07 -3.226270E-07 -3.062536E-07 -3.226270E-07 +2.456393E-06 
 -6.134882E-07 -1.705149E-07 +3.697340E-07 -1.705149E-07 -3.604470E-08 -3.543315E-08 +3.697340E-07 -3.543315E-08 +6.495329E-07 
 -8.453557E-06 -3.030377E-05 +1.400080E-05 -3.030377E-05 -7.974718E-05 -6.917532E-06 +1.400080E-05 -6.917532E-06 +8.820074E-05 
 -3.036538E-06 -1.681386E-05 +8.096548E-06 -1.681386E-05 -5.597279E-05 -9.956085E-06 +8.096548E-06 -9.956085E-06 +5.900933E-05 
 -3.650191E-08 -4.438888E-08 +4.156987E-08 -4.438888E-08 -8.135753E-08 +4.402867E-08 +4.156987E-08 +4.402867E-08 +1.178594E-07 
 -4.215021E-07 -1.885336E-07 -3.874564E-08 -1.885336E-07 -6.692007E-08 -1.126007E-07 -3.874564E-08 -1.126007E-07 +4.884221E-07 
 -2.751553E-06 +1.822059E-06 -4.859801E-07 +1.822059E-06 -9.178796E-07 +1.389923E-06 -4.859801E-07 +1.389923E-06 +3.669432E-06 
 -1.339053E-05 +3.621488E-05 +3.661305E-05 +3.621488E-05 -6.014080E-05 -1.797236E-05 +3.661305E-05 -1.797236E-05 +7.353132E-05 
 -2.989649E-08 +6.367427E-09 -2.135355E-09 +6.367427E-09 -3.920616E-08 +1.391307E-09 -2.135355E-09 +1.391307E-09 +6.910265E-08 
 -3.243507E-07 +1.211492E-06 -4.168604E-07 +1.211492E-06 -2.499080E-06 -1.059914E-06 -4.168604E-07 -1.059914E-06 +2.823430E-06 
 -3.830000E-06 -3.000822E-07 +7.053832E-11 -3.000822E-07 -1.630538E-10 +3.000649E-07 +7.053832E-11 +3.000649E-07 +3.830164E-06 
 -7.852451E-08 +1.613599E-06 -1.206970E-06 +1.613599E-06 -7.907309E-06 -1.234838E-06 -1.206970E-06 -1.234838E-06 +7.985833E-06 
 -3.032846E-05 +3.493872E-05 +8.831944E-06 +3.493872E-05 -3.892523E-05 -1.994901E-05 +8.831944E-06 -1.994901E-05 +6.925369E-05 
 -3.113055E-06 +1.601154E-06 -3.756823E-07 +1.601154E-06 -2.767928E-07 -1.178540E-06 -3.756823E-07 -1.178540E-06 +3.389848E-06 
 -7.987886E-07 +3.403472E-06 +1.314500E-06 +3.403472E-06 -8.104001E-06 +2.833937E-06 +1.314500E-06 +2.833937E-06 +8.902789E-06 
 -2.883971E-08 +1.122579E-08 +4.993324E-10 +1.122579E-08 -2.775708E-08 +2.267038E-09 +4.993324E-10 +2.267038E-09 +5.659679E-08 
 -6.101323E-07 +4.110008E-07 +3.317621E-07 +4.110008E-07 -1.562911E-07 +1.415048E-07 +3.317621E-07 +1.415048E-07 +7.664235E-07 
 -2.584351E-08 +8.778065E-09 +6.039349E-09 +8.778065E-09 -1.241213E-08 -5.352968E-09 +6.039349E-09 -5.352968E-09 +3.825564E-08 
 -6.821812E-09 +9.486818E-09 +9.755074E-09 +9.486818E-09 -4.854680E-08 -4.815037E-09 +9.755074E-09 -4.815037E-09 +5.536861E-08 
 -7.580188E-05 +4.074928E-05 +2.980122E-05 +4.074928E-05 -2.080973E-05 -2.696051E-05 +2.980122E-05 -2.696051E-05 +9.661161E-05 
 -9.703473E-07 +2.584705E-07 +3.465625E-07 +2.584705E-07 -6.404439E-08 -1.882622E-07 +3.465625E-07 -1.882622E-07 +1.034392E-06 
 -1.486598E-08 +5.797533E-09 +1.939026E-10 +5.797533E-09 -5.339617E-08 +4.355392E-09 +1.939026E-10 +4.355392E-09 +6.826215E-08 
 -1.547666E-05 -1.304319E-05 -2.720427E-07 -1.304319E-05 -9.671746E-06 +5.553834E-06 -2.720427E-07 +5.553834E-06 +2.514841E-05 
 +5.090886E-07 +1.570251E-05 -1.697459E-05 +1.570251E-05 -5.607565E-05 +1.486995E-06 -1.697459E-05 +1.486995E-06 +5.556656E-05 
 +2.193388E-07 -1.823091E-07 -1.646288E-06 -1.823091E-07 -9.726868E-06 -3.209287E-06 -1.646288E-06 -3.209287E-06 +9.507529E-06 
 -1.088751E-08 +1.952810E-09 +2.581155E-09 +1.952810E-09 -1.594248E-08 -8.120868E-09 +2.581155E-09 -8.120868E-09 +2.682999E-08 
 -4.458330E-06 +2.083225E-06 +2.365712E-08 +2.083225E-06 -7.762451E-07 +1.006586E-06 +2.365712E-08 +1.006586E-06 +5.234575E-06 
 -6.087308E-08 -4.567888E-09 -3.143110E-08 -4.567888E-09 -4.366439E-09 -1.989532E-08 -3.143110E-08 -1.989532E-08 +6.523952E-08 
 -9.212615E-09 +1.474874E-09 -5.824379E-08 +1.474874E-09 -2.084414E-07 -1.626634E-07 -5.824379E-08 -1.626634E-07 +2.176540E-07 
 -7.073562E-06 +3.828920E-06 +1.808612E-06 +3.828920E-06 -1.313403E-06 +1.629715E-06 +1.808612E-06 +1.629715E-06 +8.386965E-06 
 -1.310512E-07 +7.389853E-08 +5.535290E-08 +7.389853E-08 -9.711839E-08 -8.247643E-08 +5.535290E-08 -8.247643E-08 +2.281696E-07 
 -9.881979E-07 +1.942736E-06 -9.578181E-07 +1.942736E-06 -3.799700E-06 +1.473114E-06 -9.578181E-07 +1.473114E-06 +4.787898E-06 
 -2.899308E-08 +5.654349E-09 +8.339859E-10 +5.654349E-09 -4.249529E-08 -3.826277E-09 +8.339859E-10 -3.826277E-09 +7.148837E-08 
 -1.066972E-07 -3.376524E-07 -1.727601E-08 -3.376524E-07 -6.894498E-07 +5.907435E-07 -1.727601E-08 +5.907435E-07 +7.961470E-07 
 -5.525469E-07 -1.538651E-06 -6.152280E-07 -1.538651E-06 -3.271741E-06 +4.315258E-07 -6.152280E-07 +4.315258E-07 +3.824288E-06 
 -8.569944E-09 +1.634200E-09 +6.548098E-10 +1.634200E-09 -2.121066E-08 -1.029921E-08 +6.548098E-10 -1.029921E-08 +2.978060E-08 
 -2.929980E-07 +7.875606E-07 +3.208316E-07 +7.875606E-07 -8.945823E-07 +5.116086E-07 +3.208316E-07 +5.116086E-07 +1.187580E-06 
 -1.262315E-08 +9.761093E-10 +6.716298E-09 +9.761093E-10 -9.034796E-09 +2.353190E-09 +6.716298E-09 +2.353190E-09 +2.165795E-08 
 -2.839891E-07 +4.426648E-07 +1.258146E-07 +4.426648E-07 -5.678864E-07 -5.914679E-07 +1.258146E-07 -5.914679E-07 +8.518756E-07 
 -6.960520E-06 +3.910511E-06 +1.064471E-06 +3.910511E-06 -2.104135E-06 -1.529626E-06 +1.064471E-06 -1.529626E-06 +9.064655E-06 
 -4.836497E-08 +4.029191E-07 -1.987680E-07 +4.029191E-07 -1.685686E-06 -6.006031E-07 -1.987680E-07 -6.006031E-07 +1.734051E-06 
 -4.419080E-06 -1.206933E-05 -1.986402E-07 -1.206933E-05 -3.072922E-05 -9.523558E-06 -1.986402E-07 -9.523558E-06 +3.514830E-05 
 -1.064507E-05 -3.534408E-05 -2.385711E-05 -3.534408E-05 -1.062291E-04 -3.565422E-05 -2.385711E-05 -3.565422E-05 +1.168742E-04 
 -1.007180E-06 +2.452090E-06 -3.663089E-07 +2.452090E-06 -4.357910E-06 -2.115625E-06 -3.663089E-07 -2.115625E-06 +5.365090E-06 
 -5.660444E-07 +6.929859E-07 +4.229128E-07 +6.929859E-07 -8.302771E-07 -3.227301E-07 +4.229128E-07 -3.227301E-07 +1.396322E-06 
 -2.072679E-07 +4.285783E-08 +1.767228E-08 +4.285783E-08 -5.562742E-08 +4.942593E-09 +1.767228E-08 +4.942593E-09 +2.628953E-07 
 -1.386173E-06 -2.016473E-05 +1.885279E-05 -2.016473E-05 -6.582539E-05 +2.777500E-06 +1.885279E-05 +2.777500E-06 +6.721156E-05 
 +1.113860E-07 +2.652405E-07 +8.570439E-07 +2.652405E-07 -6.607364E-06 +1.314000E-06 +8.570439E-07 +1.314000E-06 +6.495978E-06 
 -2.190969E-08 -3.689803E-10 -5.756443E-11 -3.689803E-10 -2.024071E-08 -2.109497E-09 -5.756443E-11 -2.109497E-09 +4.215040E-08 
 -2.092186E-07 -1.499959E-07 +4.178214E-08 -1.499959E-07 -4.004833E-08 +1.648440E-07 +4.178214E-08 +1.648440E-07 +2.492669E-07 
 -2.623390E-06 +1.896617E-06 -7.611775E-07 +1.896617E-06 -1.318173E-06 +6.927445E-08 -7.611775E-07 +6.927445E-08 +3.941563E-06 
 -2.012407E-05 -2.070629E-05 -7.624349E-06 -2.070629E-05 -2.077586E-05 -3.015562E-06 -7.624349E-06 -3.015562E-06 +4.089994E-05 
 -1.192008E-04 +1.634431E-04 +7.801639E-05 +1.634431E-04 -1.965472E-04 -6.379518E-06 +7.801639E-05 -6.379518E-06 +3.157480E-04 
 -2.640484E-05 +1.509968E-06 +5.627218E-06 +1.509968E-06 +1.723734E-06 +6.585938E-06 +5.627218E-06 +6.585938E-06 +2.468110E-05 
 -9.884273E-06 -2.599794E-05 -1.066474E-06 -2.599794E-05 -6.832965E-05 +3.830219E-07 -1.066474E-06 +3.830219E-07 +7.821392E-05 
 -6.398590E-07 +1.130765E-06 +9.655132E-07 +1.130765E-06 -1.163846E-06 -5.129947E-08 +9.655132E-07 -5.129947E-08 +1.803705E-06 
 -1.288827E-07 +2.851250E-08 -6.972140E-08 +2.851250E-08 +1.127342E-08 -2.970936E-08 -6.972140E-08 -2.970936E-08 +1.176093E-07 
 -2.536480E-07 +1.782647E-07 -1.585072E-08 +1.782647E-07 -7.509853E-08 -1.281118E-07 -1.585072E-08 -1.281118E-07 +3.287466E-07 
 -5.162224E-05 +3.486418E-05 -1.640320E-05 +3.486418E-05 -1.656750E-05 -1.160142E-05 -1.640320E-05 -1.160142E-05 +6.818974E-05 
 -4.598699E-07 -3.171974E-07 -1.862740E-08 -3.171974E-07 -8.190988E-08 +2.662628E-07 -1.862740E-08 +2.662628E-07 +5.417798E-07 
 -9.876184E-08 +6.902046E-07 -5.621746E-07 +6.902046E-07 -2.922909E-06 +4.854751E-07 -5.621746E-07 +4.854751E-07 +3.021671E-06 
 -1.556919E-08 -4.826934E-10 -3.873549E-10 -4.826934E-10 -1.888614E-08 -1.544886E-09 -3.873549E-10 -1.544886E-09 +3.445533E-08 
 -2.218238E-05 -1.280701E-05 -8.740794E-06 -1.280701E-05 -7.394255E-06 -5.046571E-06 -8.740794E-06 -5.046571E-06 +2.957663E-05 
 -1.332300E-08 -6.208709E-09 -7.894791E-09 -6.208709E-09 -1.529791E-08 -2.364924E-09 -7.894791E-09 -2.364924E-09 +2.862092E-08 
 +4.825708E-07 -1.146277E-06 -2.144001E-06 -1.146277E-06 -9.953714E-06 +4.447169E-06 -2.144001E-06 +4.447169E-06 +9.471143E-06 
 -6.617269E-06 -1.888590E-06 -1.079748E-06 -1.888590E-06 -4.609525E-07 -1.063697E-06 -1.079748E-06 -1.063697E-06 +7.078222E-06 
 -9.044898E-08 +8.224199E-09 -1.062432E-08 +8.224199E-09 -6.220804E-08 +5.976939E-09 -1.062432E-08 +5.976939E-09 +1.526570E-07 
 -2.232787E-06 -1.913064E-06 -7.461946E-07 -1.913064E-06 -1.594079E-06 -2.079891E-07 -7.461946E-07 -2.079891E-07 +3.826866E-06 
 -3.547880E-07 +5.795776E-06 +5.453932E-06 +5.795776E-06 -3.862025E-05 -5.640933E-06 +5.453932E-06 -5.640933E-06 +3.897504E-05 
 -7.722637E-08 -3.349063E-09 -1.896062E-08 -3.349063E-09 -1.818622E-08 -3.120832E-08 -1.896062E-08 -3.120832E-08 +9.541259E-08 
 -1.936940E-08 -2.327243E-09 -1.160244E-08 -2.327243E-09 -1.899117E-08 +4.488627E-09 -1.160244E-08 +4.488627E-09 +3.836058E-08 
 -5.694299E-08 +2.170979E-07 +1.022462E-07 +2.170979E-07 -9.016808E-07 -5.305062E-07 +1.022462E-07 -5.305062E-07 +9.586238E-07 
 -4.388136E-08 +1.677258E-08 +5.679466E-09 +1.677258E-08 -3.003718E-08 +8.963998E-11 +5.679466E-09 +8.963998E-11 +7.391854E-08 
 -1.059635E-08 +3.856274E-09 -4.532937E-09 +3.856274E-09 -2.337799E-08 -2.399285E-09 -4.532937E-09 -2.399285E-09 +3.397434E-08 
 -3.504244E-06 -2.491693E-06 -3.568528E-07 -2.491693E-06 -1.712107E-06 +3.070913E-07 -3.568528E-07 +3.070913E-07 +5.216351E-06 
 -8.697295E-08 +1.067825E-07 -8.008524E-08 +1.067825E-07 -1.930339E-07 +1.053529E-07 -8.008524E-08 +1.053529E-07 +2.800068E-07 
 -4.650573E-08 +3.327012E-09 +4.413605E-09 +3.327012E-09 -1.856461E-08 +1.464313E-10 +4.413605E-09 +1.464313E-10 +6.507035E-08 
 -1.598472E-06 +7.871501E-07 -2.409277E-07 +7.871501E-07 -3.614964E-07 +3.482062E-07 -2.409277E-07 +3.482062E-07 +1.959968E-06 
 -2.153667E-08 +4.454481E-08 -3.567721E-08 +4.454481E-08 -1.036940E-07 +6.001379E-08 -3.567721E-08 +6.001379E-08 +1.252307E-07 
 -1.988261E-08 +8.876722E-09 -5.443146E-09 +8.876722E-09 -3.838148E-08 +5.600831E-10 -5.443146E-09 +5.600831E-10 +5.826409E-08 
 -3.435949E-08 +9.828867E-09 +4.124027E-09 +9.828867E-09 -3.102149E-08 -2.899884E-09 +4.124027E-09 -2.899884E-09 +6.538097E-08 
 +1.816532E-07 +2.932654E-07 +7.576974E-07 +2.932654E-07 -2.065857E-06 +8.185795E-07 +7.576974E-07 +8.185795E-07 +1.884204E-06 
 -6.812972E-05 -4.159892E-05 +7.423394E-06 -4.159892E-05 -1.725351E-05 -2.207216E-05 +7.423394E-06 -2.207216E-05 +8.538322E-05 
 -8.019799E-08 -1.129680E-08 -1.997449E-08 -1.129680E-08 -1.560691E-08 -6.332101E-09 -1.997449E-08 -6.332101E-09 +9.580490E-08 
 -1.988435E-07 -1.849379E-06 -1.668045E-06 -1.849379E-06 -3.976386E-06 -6.827599E-09 -1.668045E-06 -6.827599E-09 +4.175230E-06 
 -4.253764E-07 +1.565743E-07 -9.563988E-08 +1.565743E-07 +4.531066E-09 +2.104451E-07 -9.563988E-08 +2.104451E-07 +4.208453E-07 
 -2.259770E-07 -2.021740E-08 +5.527719E-08 -2.021740E-08 +2.717484E-08 -7.352418E-08 +5.527719E-08 -7.352418E-08 +1.988022E-07 
 -3.412163E-05 -4.597576E-05 +1.281010E-05 -4.597576E-05 -4.709003E-05 -1.853570E-05 +1.281010E-05 -1.853570E-05 +8.121166E-05 
 +1.197806E-08 +9.635588E-08 +1.415555E-07 +9.635588E-08 -8.788808E-07 +2.960823E-07 +1.415555E-07 +2.960823E-07 +8.669028E-07 
 -3.695087E-08 +2.170365E-09 +3.592697E-09 +2.170365E-09 -3.001653E-08 +1.924792E-08 +3.592697E-09 +1.924792E-08 +6.696740E-08 
 -3.962621E-05 -4.134149E-05 -3.529478E-05 -4.134149E-05 -3.748764E-05 -1.190883E-05 -3.529478E-05 -1.190883E-05 +7.711386E-05 
 -3.704302E-05 -3.346246E-05 +1.037955E-05 -3.346246E-05 -2.671773E-05 -5.953055E-06 +1.037955E-05 -5.953055E-06 +6.376074E-05 
 -1.395880E-07 -1.876295E-08 +4.722174E-08 -1.876295E-08 -6.873857E-08 +2.411797E-08 +4.722174E-08 +2.411797E-08 +2.083266E-07 
 +9.604631E-08 -8.316958E-08 +2.798509E-07 -8.316958E-08 -7.857465E-07 +5.267689E-09 +2.798509E-07 +5.267689E-09 +6.897002E-07 
 -1.712698E-08 +9.471904E-10 +2.190172E-09 +9.471904E-10 -2.413197E-08 -7.965159E-09 +2.190172E-09 -7.965159E-09 +4.125895E-08 
 -2.456045E-08 +1.965485E-08 +3.000687E-08 +1.965485E-08 -1.044815E-07 -2.024353E-08 +3.000687E-08 -2.024353E-08 +1.290420E-07 
 -9.340903E-05 -1.647047E-05 +3.988229E-05 -1.647047E-05 -2.904896E-06 +7.032293E-06 +3.988229E-05 +7.032293E-06 +9.631393E-05 
 -1.274902E-04 +8.926687E-05 +2.399569E-06 +8.926687E-05 -6.250983E-05 -1.676859E-06 +2.399569E-06 -1.676859E-06 +1.900000E-04 
 -2.623374E-05 +1.260169E-05 -6.163683E-06 +1.260169E-05 -5.708984E-06 -4.834712E-07 -6.163683E-06 -4.834712E-07 +3.194272E-05 
 -6.613945E-07 -4.721494E-07 -2.761691E-07 -4.721494E-07 -2.851118E-07 +4.058238E-08 -2.761691E-07 +4.058238E-08 +9.465063E-07 
 +1.076820E-07 +3.691412E-07 -6.537001E-07 +3.691412E-07 -1.446183E-06 +3.913026E-07 -6.537001E-07 +3.913026E-07 +1.338501E-06 
 -1.048648E-06 +2.159692E-06 -1.323457E-07 +2.159692E-06 -3.184144E-06 -2.462910E-06 -1.323457E-07 -2.462910E-06 +4.232792E-06 
 -1.210436E-04 -1.149545E-04 -5.817604E-05 -1.149545E-04 -9.619560E-05 +1.176486E-06 -5.817604E-05 +1.176486E-06 +2.172392E-04 
 -2.761585E-06 -3.022892E-06 -7.467311E-07 -3.022892E-06 -3.238429E-06 -2.075026E-06 -7.467311E-07 -2.075026E-06 +6.000014E-06 
 -2.309207E-05 +2.258427E-05 +3.726109E-06 +2.258427E-05 -2.116020E-05 +3.092717E-06 +3.726109E-06 +3.092717E-06 +4.425228E-05 
 -3.460193E-08 +3.887081E-08 +1.052896E-07 +3.887081E-08 -2.124044E-07 -4.027081E-08 +1.052896E-07 -4.027081E-08 +2.470063E-07 
 -7.241117E-06 +1.812115E-06 +6.200843E-07 +1.812115E-06 -1.221093E-07 -1.734674E-06 +6.200843E-07 -1.734674E-06 +7.363226E-06 
 -1.396956E-06 -2.966348E-06 -1.027915E-06 -2.966348E-06 -4.425972E-06 +1.333941E-06 -1.027915E-06 +1.333941E-06 +5.822928E-06 
 -1.258455E-05 -1.214808E-05 -7.871511E-06 -1.214808E-05 -9.032304E-06 +8.586762E-07 -7.871511E-06 +8.586762E-07 +2.161685E-05 
 -4.555631E-06 +5.313553E-06 +2.021365E-06 +5.313553E-06 -4.751864E-06 +1.493766E-06 +2.021365E-06 +1.493766E-06 +9.307495E-06 
 -5.748330E-08 +3.549894E-08 -3.782507E-08 +3.549894E-08 -7.928500E-08 +1.540673E-08 -3.782507E-08 +1.540673E-08 +1.367683E-07 
 -4.538367E-07 +1.842702E-07 -1.079840E-07 +1.842702E-07 -1.004508E-07 +1.432513E-07 -1.079840E-07 +1.432513E-07 +5.542875E-07 
 -5.810080E-05 -1.001966E-06 +1.516564E-05 -1.001966E-06 +4.112787E-06 +1.581080E-05 +1.516564E-05 +1.581080E-05 +5.398801E-05 
 -2.227726E-05 -1.883552E-05 -9.919930E-06 -1.883552E-05 -1.183496E-05 +4.191774E-06 -9.919930E-06 +4.191774E-06 +3.411222E-05 
 -2.271233E-06 +1.377455E-06 +8.682315E-07 +1.377455E-06 -8.164391E-07 -1.444888E-06 +8.682315E-07 -1.444888E-06 +3.087672E-06 
 -2.491352E-08 +2.050691E-05 +2.049653E-05 +2.050691E-05 -1.106950E-04 -1.097511E-08 +2.049653E-05 -1.097511E-08 +1.107199E-04 
 -1.032448E-07 -8.693114E-09 +3.418894E-09 -8.693114E-09 -8.690998E-08 -2.771803E-09 +3.418894E-09 -2.771803E-09 +1.901548E-07 
 -2.991040E-05 +2.990900E-05 +4.667129E-06 +2.990900E-05 -2.991030E-05 -4.666570E-06 +4.667129E-06 -4.666570E-06 +5.982070E-05 
 -2.921404E-06 -4.193421E-06 +2.313732E-08 -4.193421E-06 -6.036417E-06 -1.910720E-08 +2.313732E-08 -1.910720E-08 +8.957822E-06 
 -5.214082E-06 +4.574057E-07 +1.884904E-06 +4.574057E-07 -3.619085E-08 +3.075403E-07 +1.884904E-06 +3.075403E-07 +5.250272E-06 
 -1.830797E-06 +1.500046E-07 +4.571053E-07 +1.500046E-07 +1.123678E-07 -5.341116E-07 +4.571053E-07 -5.341116E-07 +1.718430E-06 
 -4.255303E-06 +4.246332E-06 -6.465195E-08 +4.246332E-06 -4.111321E-06 +1.098971E-06 -6.465195E-08 +1.098971E-06 +8.366624E-06 
 -2.543791E-07 -2.784417E-08 -6.335237E-08 -2.784417E-08 -1.306886E-07 -1.384635E-08 -6.335237E-08 -1.384635E-08 +3.850678E-07 
 -1.451910E-07 -5.474115E-07 -5.394214E-07 -5.474115E-07 -8.751447E-07 -1.347341E-07 -5.394214E-07 -1.347341E-07 +1.020336E-06 
 -3.754210E-09 +8.055074E-10 +1.906739E-09 +8.055074E-10 -3.736987E-09 +8.155183E-10 +1.906739E-09 +8.155183E-10 +7.491197E-09 
 -3.446231E-08 +1.688365E-09 -2.343933E-09 +1.688365E-09 -8.169035E-08 -2.455617E-08 -2.343933E-09 -2.455617E-08 +1.161527E-07 
 +3.183373E-07 +4.395035E-06 -8.036236E-06 +4.395035E-06 -7.112451E-05 +2.080309E-05 -8.036236E-06 +2.080309E-05 +7.080617E-05 
 -7.675563E-07 +1.788679E-07 +4.427229E-07 +1.788679E-07 -4.132851E-08 -1.558443E-07 +4.427229E-07 -1.558443E-07 +8.088848E-07 
 -1.848116E-09 +1.402783E-10 +6.807020E-11 +1.402783E-10 -1.191778E-04 -1.227931E-05 +6.807020E-11 -1.227931E-05 +1.191796E-04 
 -1.399774E-04 +2.468173E-05 +6.681475E-05 +2.468173E-05 -4.352305E-06 -1.178132E-05 +6.681475E-05 -1.178132E-05 +1.443297E-04 
 -4.373339E-08 +9.633965E-09 -1.270355E-09 +9.633965E-09 -5.917052E-08 -6.648690E-09 -1.270355E-09 -6.648690E-09 +1.029039E-07 
 -2.053974E-08 -2.507156E-09 +9.429988E-10 -2.507156E-09 -3.683976E-08 +1.127817E-09 +9.429988E-10 +1.127817E-09 +5.737949E-08 
 -8.300136E-05 -3.020992E-05 -6.226039E-06 -3.020992E-05 -1.099587E-05 -2.266075E-06 -6.226039E-06 -2.266075E-06 +9.399723E-05 
 -1.539419E-05 -3.079735E-05 -2.363215E-05 -3.079735E-05 -5.825113E-05 -2.804700E-05 -2.363215E-05 -2.804700E-05 +7.364531E-05 
 -2.873343E-06 +8.548366E-08 -1.058933E-06 +8.548366E-08 +4.791903E-09 -1.447859E-07 -1.058933E-06 -1.447859E-07 +2.868552E-06 
 -1.122959E-07 -8.586260E-10 -1.072651E-08 -8.586260E-10 -3.674656E-08 -1.054213E-08 -1.072651E-08 -1.054213E-08 +1.490425E-07 
 -2.285336E-07 +1.645366E-06 -1.253783E-06 +1.645366E-06 -7.941474E-06 +1.335934E-06 -1.253783E-06 +1.335934E-06 +8.170007E-06 
 -1.336543E-05 +2.998872E-05 -7.095531E-06 +2.998872E-05 -6.742291E-05 +1.237777E-05 -7.095531E-06 +1.237777E-05 +8.078833E-05 
 -2.679623E-06 -1.593026E-06 +3.834555E-07 -1.593026E-06 -9.203237E-07 +5.568070E-07 +3.834555E-07 +5.568070E-07 +3.599946E-06 
 -2.202625E-08 +2.219675E-09 +2.161888E-09 +2.219675E-09 -1.305550E-08 -9.619608E-10 +2.161888E-09 -9.619608E-10 +3.508175E-08 
 -2.579449E-08 +4.749935E-09 +4.453020E-09 +4.749935E-09 -5.491589E-08 -1.734264E-08 +4.453020E-09 -1.734264E-08 +8.071039E-08 
 -8.469974E-05 -1.087906E-04 +5.769519E-05 -1.087906E-04 -1.349456E-04 +3.886727E-05 +5.769519E-05 +3.886727E-05 +2.196454E-04 
 -5.156750E-08 -1.504308E-07 -1.060472E-07 -1.504308E-07 -2.505461E-07 +2.346239E-08 -1.060472E-07 +2.346239E-08 +3.021136E-07 
 -2.218492E-07 -6.247399E-07 -3.438745E-07 -6.247399E-07 -9.217114E-07 +2.260462E-07 -3.438745E-07 +2.260462E-07 +1.143561E-06 
 -7.071390E-07 +2.039998E-06 +2.869789E-07 +2.039998E-06 -5.875144E-06 -1.130642E-06 +2.869789E-07 -1.130642E-06 +6.582283E-06 
 -3.621200E-08 -2.442704E-09 +3.021447E-09 -2.442704E-09 -3.396552E-08 -2.900493E-09 +3.021447E-09 -2.900493E-09 +7.017752E-08 
 -1.720608E-07 -1.395427E-07 +3.761899E-08 -1.395427E-07 -3.340658E-07 +2.145308E-07 +3.761899E-08 +2.145308E-07 +5.061267E-07 
 -5.467791E-05 -2.902846E-05 -1.270281E-06 -2.902846E-05 -1.530539E-05 +2.192549E-06 -1.270281E-06 +2.192549E-06 +6.998330E-05 
 -6.265855E-05 -2.373094E-05 +5.034501E-06 -2.373094E-05 -6.600644E-06 -1.113373E-05 +5.034501E-06 -1.113373E-05 +6.925919E-05 
 +3.306991E-08 -1.962953E-07 -3.699550E-07 -1.962953E-07 -1.398522E-06 -3.879245E-07 -3.699550E-07 -3.879245E-07 +1.365452E-06 
 -5.780648E-08 -1.798883E-09 +1.187966E-08 -1.798883E-09 -4.722388E-08 -4.072204E-09 +1.187966E-08 -4.072204E-09 +1.050304E-07 
 -6.320314E-09 +4.207012E-09 -2.793585E-07 +4.207012E-09 -9.603131E-07 -4.347587E-07 -2.793585E-07 -4.347587E-07 +9.666335E-07 
 -6.836496E-07 -1.555287E-06 -7.451781E-07 -1.555287E-06 -1.613034E-06 +7.559712E-07 -7.451781E-07 +7.559712E-07 +2.296683E-06 
 -4.380760E-08 +7.917792E-09 +2.447410E-09 +7.917792E-09 -1.701688E-08 -1.555399E-09 +2.447410E-09 -1.555399E-09 +6.082448E-08 
 -1.634149E-07 -1.654289E-07 -1.394520E-07 -1.654289E-07 -7.870479E-08 +3.968173E-08 -1.394520E-07 +3.968173E-08 +2.421197E-07 
 -5.832256E-06 -2.349389E-05 +5.206685E-06 -2.349389E-05 -8.400071E-05 -1.091229E-05 +5.206685E-06 -1.091229E-05 +8.983297E-05 
 +1.039868E-07 -1.455942E-06 +1.321134E-06 -1.455942E-06 -6.725691E-06 -1.904080E-06 +1.321134E-06 -1.904080E-06 +6.621704E-06 
 -4.674569E-08 -2.052010E-09 -1.875386E-09 -2.052010E-09 -5.281666E-08 -4.065763E-09 -1.875386E-09 -4.065763E-09 +9.956234E-08 
 -7.892854E-06 +2.215394E-06 -1.111556E-06 +2.215394E-06 -5.521483E-07 -4.665936E-07 -1.111556E-06 -4.665936E-07 +8.445002E-06 
 +4.448641E-07 +5.300848E-07 +1.071722E-06 +5.300848E-07 -2.934218E-06 +1.196439E-06 +1.071722E-06 +1.196439E-06 +2.489354E-06 
 -4.644045E-07 +2.042354E-07 +8.111590E-08 +2.042354E-07 -5.215353E-10 +1.772147E-07 +8.111590E-08 +1.772147E-07 +4.649260E-07 
 +1.229352E-08 -1.945292E-07 +3.915123E-07 -1.945292E-07 -6.264773E-06 +1.071479E-06 +3.915123E-07 +1.071479E-06 +6.252479E-06 
 -2.095389E-06 +2.779151E-06 -1.028720E-06 +2.779151E-06 -3.660412E-06 +1.866012E-06 -1.028720E-06 +1.866012E-06 +5.755801E-06 
 -1.524745E-06 +2.907237E-07 +9.155414E-08 +2.907237E-07 +3.437922E-08 +3.816794E-07 +9.155414E-08 +3.816794E-07 +1.490366E-06 
 -7.032536E-08 +2.905623E-09 +8.354606E-09 +2.905623E-09 -9.437342E-08 +3.537461E-08 +8.354606E-09 +3.537461E-08 +1.646988E-07 
 -4.564963E-08 -3.991613E-07 +2.655427E-07 -3.991613E-07 -3.274692E-06 +1.189061E-06 +2.655427E-07 +1.189061E-06 +3.320342E-06 
 -2.502126E-08 -2.611224E-09 -1.263548E-09 -2.611224E-09 -3.764070E-08 +1.913641E-08 -1.263548E-09 +1.913641E-08 +6.266195E-08 
 -8.596826E-07 -6.493487E-07 -4.693287E-07 -6.493487E-07 -5.783644E-07 -6.182332E-07 -4.693287E-07 -6.182332E-07 +1.438047E-06 
 -8.577688E-05 +4.785776E-05 +1.025554E-05 +4.785776E-05 -1.949259E-05 -3.343747E-05 +1.025554E-05 -3.343747E-05 +1.052695E-04 
 -1.801894E-05 -2.478656E-05 -3.053266E-06 -2.478656E-05 -2.956813E-05 -1.898231E-05 -3.053266E-06 -1.898231E-05 +4.758707E-05 
 -5.589000E-06 -6.445144E-07 +1.011526E-07 -6.445144E-07 +5.941309E-07 +1.843860E-06 +1.011526E-07 +1.843860E-06 +4.994869E-06 
 -2.066870E-07 +5.018660E-07 +2.520504E-07 +5.018660E-07 -1.229871E-06 -4.611162E-07 +2.520504E-07 -4.611162E-07 +1.436558E-06 
 -1.302906E-05 -1.802752E-06 -1.293299E-09 -1.802752E-06 -2.743639E-09 -1.800858E-06 -1.293299E-09 -1.800858E-06 +1.303180E-05 
 -4.129363E-08 -1.195317E-08 -1.543980E-09 -1.195317E-08 -3.944055E-08 -6.187316E-09 -1.543980E-09 -6.187316E-09 +8.073417E-08 
 -4.750210E-05 -2.368943E-05 -1.594195E-05 -2.368943E-05 -1.121742E-05 -1.765818E-06 -1.594195E-05 -1.765818E-06 +5.871952E-05 
 -1.315019E-05 +3.579672E-05 -1.831194E-05 +3.579672E-05 -7.741611E-05 +1.508919E-06 -1.831194E-05 +1.508919E-06 +9.056630E-05 
 -4.493587E-08 -3.436674E-08 -4.687779E-09 -3.436674E-08 -5.889500E-08 -6.666588E-09 -4.687779E-09 -6.666588E-09 +1.038309E-07 
 -2.546836E-06 -1.161085E-06 -5.717371E-07 -1.161085E-06 -5.125894E-07 +9.155769E-10 -5.717371E-07 +9.155769E-10 +3.059426E-06 
 -2.085840E-07 -9.830033E-08 -9.587287E-09 -9.830033E-08 -1.823240E-07 -1.899316E-08 -9.587287E-09 -1.899316E-08 +3.909081E-07 
 -1.125765E-07 +5.592294E-08 +2.083454E-08 +5.592294E-08 -1.502357E-07 +1.285023E-08 +2.083454E-08 +1.285023E-08 +2.628122E-07 
 -1.386688E-06 -7.787553E-07 +5.147924E-07 -7.787553E-07 -4.320412E-07 +4.516566E-07 +5.147924E-07 +4.516566E-07 +1.818729E-06 
 -2.513910E-06 -8.997304E-07 +6.642808E-07 -8.997304E-07 -2.096378E-07 +8.227015E-07 +6.642808E-07 +8.227015E-07 +2.723547E-06 
 -9.655238E-07 +8.934500E-07 +5.316853E-08 +8.934500E-07 -6.095428E-07 -6.549000E-07 +5.316853E-08 -6.549000E-07 +1.575067E-06 
 -4.730240E-08 -2.520618E-08 +3.378179E-08 -2.520618E-08 -8.140893E-09 +9.523245E-09 +3.378179E-08 +9.523245E-09 +5.544329E-08 
 -4.925790E-06 -2.653882E-06 -5.176252E-07 -2.653882E-06 -1.304480E-06 -1.173948E-06 -5.176252E-07 -1.173948E-06 +6.230270E-06 
 -1.356591E-07 +1.552103E-09 +4.343500E-08 +1.552103E-09 -2.103875E-08 -3.788611E-08 +4.343500E-08 -3.788611E-08 +1.566979E-07 
 -8.214442E-07 +7.722988E-07 -2.885097E-07 +7.722988E-07 -8.603557E-07 +4.851922E-07 -2.885097E-07 +4.851922E-07 +1.681800E-06 
 +3.330473E-08 -6.341973E-08 -5.871145E-08 -6.341973E-08 -2.259524E-07 -1.415900E-07 -5.871145E-08 -1.415900E-07 +1.926476E-07 
 -2.183426E-05 -2.074590E-05 -4.068614E-06 -2.074590E-05 -1.668721E-05 +7.053412E-06 -4.068614E-06 +7.053412E-06 +3.852148E-05 
 -3.572656E-08 -2.528082E-09 -6.337613E-09 -2.528082E-09 -8.354734E-08 +2.556095E-08 -6.337613E-09 +2.556095E-08 +1.192739E-07 
 -9.865261E-08 +7.488284E-08 +2.594980E-08 +7.488284E-08 +1.102971E-08 -7.494119E-08 +2.594980E-08 -7.494119E-08 +8.762290E-08 
 -9.920034E-08 +9.300648E-08 -8.660922E-08 +9.300648E-08 -4.478112E-08 -1.798426E-08 -8.660922E-08 -1.798426E-08 +1.439815E-07 
 -4.927555E-07 -9.612510E-06 -6.913624E-06 -9.612510E-06 -1.691699E-04 -2.936279E-05 -6.913624E-06 -2.936279E-05 +1.696627E-04 
 -5.350314E-05 -2.673825E-05 +1.854125E-05 -2.673825E-05 -1.268810E-05 +2.257884E-06 +1.854125E-05 +2.257884E-06 +6.619123E-05 
 -4.551214E-08 -1.230578E-08 -6.922495E-09 -1.230578E-08 -5.716673E-08 -5.070884E-09 -6.922495E-09 -5.070884E-09 +1.026789E-07 
 +3.667904E-07 -1.818070E-07 -1.059179E-06 -1.818070E-07 -3.220624E-06 -2.691537E-07 -1.059179E-06 -2.691537E-07 +2.853834E-06 
 -7.221294E-07 -4.898583E-07 -6.644291E-07 -4.898583E-07 -2.863904E-07 -1.363782E-07 -6.644291E-07 -1.363782E-07 +1.008520E-06 
 -2.683880E-07 -1.051747E-06 -8.652907E-07 -1.051747E-06 -3.410436E-06 -1.203897E-06 -8.652907E-07 -1.203897E-06 +3.678824E-06 
 -1.723322E-07 +8.427302E-08 +7.682210E-08 +8.427302E-08 -4.174826E-08 -2.061461E-08 +7.682210E-08 -2.061461E-08 +2.140804E-07 
 -5.052004E-07 -2.734829E-08 +5.659838E-08 -2.734829E-08 +3.321321E-09 -1.254489E-07 +5.659838E-08 -1.254489E-07 +5.018791E-07 
 -2.543514E-05 -1.067400E-05 +3.973346E-06 -1.067400E-05 -2.053442E-06 +9.960305E-06 +3.973346E-06 +9.960305E-06 +2.748858E-05 
 -7.526939E-06 +2.808669E-05 -5.624282E-06 +2.808669E-05 -1.048216E-04 +2.098878E-05 -5.624282E-06 +2.098878E-05 +1.123485E-04 
 -1.164963E-06 -2.015073E-06 -2.885996E-07 -2.015073E-06 -3.382047E-06 +2.023907E-07 -2.885996E-07 +2.023907E-07 +4.547011E-06 
 -1.131689E-07 -1.858030E-08 -1.153106E-08 -1.858030E-08 -4.096081E-08 -9.085571E-09 -1.153106E-08 -9.085571E-09 +1.541297E-07 
 -2.374997E-08 -5.786960E-08 -6.264354E-08 -5.786960E-08 -1.590570E-07 -7.803379E-08 -6.264354E-08 -7.803379E-08 +1.828069E-07 
 -4.305155E-08 +1.535657E-08 +1.033318E-08 +1.535657E-08 -2.225348E-08 -5.796730E-09 +1.033318E-08 -5.796730E-09 +6.530503E-08 
 -6.147905E-06 +2.227409E-06 -1.497194E-07 +2.227409E-06 -7.534722E-07 -5.607624E-07 -1.497194E-07 -5.607624E-07 +6.901377E-06 
 -3.354113E-05 +6.919254E-06 +6.657374E-06 +6.919254E-06 +1.466132E-06 -1.120488E-05 +6.657374E-06 -1.120488E-05 +3.207500E-05 
 -6.813520E-09 +2.560541E-09 -3.444858E-09 +2.560541E-09 -7.634214E-09 +2.481202E-09 -3.444858E-09 +2.481202E-09 +1.444773E-08 
 -3.398777E-08 +1.440436E-09 -8.449508E-10 +1.440436E-09 -1.404153E-07 +1.410871E-08 -8.449508E-10 +1.410871E-08 +1.744031E-07 
 -6.124936E-08 -8.449995E-07 +9.851977E-07 -8.449995E-07 -4.220507E-06 +1.296326E-06 +9.851977E-07 +1.296326E-06 +4.281756E-06 
 +1.214209E-07 -4.986695E-07 +1.162242E-06 -4.986695E-07 -4.855289E-06 +1.828606E-06 +1.162242E-06 +1.828606E-06 +4.733868E-06 
 -3.905463E-08 +1.739798E-08 +3.315263E-08 +1.739798E-08 +2.940104E-08 -7.659539E-09 +3.315263E-08 -7.659539E-09 +9.653589E-09 
 -1.121518E-08 +1.651642E-07 -5.640651E-09 +1.651642E-07 -2.601738E-06 -9.533696E-07 -5.640651E-09 -9.533696E-07 +2.612953E-06 
 -6.968825E-06 +1.047720E-06 -2.010008E-06 +1.047720E-06 +5.828043E-07 -1.972208E-06 -2.010008E-06 -1.972208E-06 +6.386021E-06 
 -4.725361E-06 -1.211613E-06 -1.296181E-06 -1.211613E-06 -1.248727E-07 -1.366310E-06 -1.296181E-06 -1.366310E-06 +4.850233E-06 
 -7.128888E-07 -5.975724E-07 +4.020236E-07 -5.975724E-07 -5.248800E-07 +1.798912E-07 +4.020236E-07 +1.798912E-07 +1.237769E-06 
 -1.339715E-06 -5.409686E-08 +4.857851E-07 -5.409686E-08 +1.759284E-07 +5.106212E-07 +4.857851E-07 +5.106212E-07 +1.163787E-06 
 -8.368736E-08 +1.271164E-08 +1.078219E-08 +1.271164E-08 -7.163758E-08 +6.750902E-09 +1.078219E-08 +6.750902E-09 +1.553249E-07 
 -5.292187E-06 -4.183048E-08 -5.148500E-07 -4.183048E-08 +3.986843E-07 +1.404494E-06 -5.148500E-07 +1.404494E-06 +4.893503E-06 
 -8.422693E-08 +2.066018E-08 -4.841958E-09 +2.066018E-08 -3.384998E-08 +7.448366E-09 -4.841958E-09 +7.448366E-09 +1.180769E-07 
 -1.031470E-07 -2.857081E-07 -2.216944E-07 -2.857081E-07 -4.071246E-07 +3.407852E-09 -2.216944E-07 +3.407852E-09 +5.102716E-07 
 -1.177354E-05 -3.225556E-05 -1.125968E-05 -3.225556E-05 -7.689732E-05 +3.012904E-06 -1.125968E-05 +3.012904E-06 +8.867086E-05 
 -2.885366E-08 -3.987342E-09 -3.635315E-09 -3.987342E-09 -5.598633E-08 -1.728352E-08 -3.635315E-09 -1.728352E-08 +8.484000E-08 
 -6.455012E-08 +1.390115E-08 -3.557833E-09 +1.390115E-08 -6.125888E-08 +5.406158E-09 -3.557833E-09 +5.406158E-09 +1.258090E-07 
 -1.077680E-08 -3.053513E-08 +2.668438E-08 -3.053513E-08 -2.035200E-06 -7.369655E-07 +2.668438E-08 -7.369655E-07 +2.045977E-06 
 -3.726307E-06 +5.340575E-06 -2.556054E-06 +5.340575E-06 -6.356214E-06 -2.898043E-07 -2.556054E-06 -2.898043E-07 +1.008252E-05 
 -7.105762E-09 +1.565635E-09 -1.839196E-09 +1.565635E-09 -7.033670E-09 +5.528596E-10 -1.839196E-09 +5.528596E-10 +1.413943E-08 
 -2.858546E-05 +3.974531E-05 -7.063723E-06 +3.974531E-05 -5.331888E-05 +2.257884E-05 -7.063723E-06 +2.257884E-05 +8.190434E-05 
 -1.803531E-07 -2.603946E-08 +1.942470E-08 -2.603946E-08 -1.115073E-07 -1.607844E-09 +1.942470E-08 -1.607844E-09 +2.918604E-07 
 -4.231730E-07 -6.372862E-07 -2.575580E-08 -6.372862E-07 -8.144544E-07 -4.810865E-07 -2.575580E-08 -4.810865E-07 +1.237627E-06 
 -6.395479E-05 -3.441173E-05 -1.874192E-05 -3.441173E-05 -1.686687E-05 +1.936735E-06 -1.874192E-05 +1.936735E-06 +8.082165E-05 
 -5.138419E-08 -7.064291E-09 -1.686712E-08 -7.064291E-09 -3.397968E-08 -8.074812E-09 -1.686712E-08 -8.074812E-09 +8.536387E-08 
 -2.373947E-05 -4.212045E-05 -5.733181E-06 -4.212045E-05 -7.176861E-05 +6.780293E-06 -5.733181E-06 +6.780293E-06 +9.550808E-05 
 -1.326904E-06 -6.145135E-07 -4.527416E-07 -6.145135E-07 -2.346123E-07 -5.043033E-07 -4.527416E-07 -5.043033E-07 +1.561516E-06 
 -1.569961E-07 -1.942084E-08 -4.381960E-08 -1.942084E-08 +1.268337E-08 -4.427966E-08 -4.381960E-08 -4.427966E-08 +1.443127E-07 
 -6.837012E-07 +1.103353E-06 -4.057530E-07 +1.103353E-06 -1.793108E-06 +8.020104E-07 -4.057530E-07 +8.020104E-07 +2.476809E-06 
 -4.847242E-07 +7.137009E-07 +2.465378E-07 +7.137009E-07 -6.558035E-07 +3.476377E-07 +2.465378E-07 +3.476377E-07 +1.140528E-06 
 -2.747138E-05 -8.580903E-06 +1.787336E-06 -8.580903E-06 -2.031122E-06 -3.831233E-06 +1.787336E-06 -3.831233E-06 +2.950250E-05 
 -8.920480E-05 -5.150108E-05 -2.001036E-05 -5.150108E-05 -2.973634E-05 -1.155228E-05 -2.001036E-05 -1.155228E-05 +1.189411E-04 
 -1.157113E-07 +3.106010E-08 -4.130981E-08 +3.106010E-08 -5.913475E-08 -3.204123E-10 -4.130981E-08 -3.204123E-10 +1.748460E-07 
 -1.384243E-06 -1.612619E-06 -9.516052E-07 -1.612619E-06 -1.161940E-06 +4.070786E-07 -9.516052E-07 +4.070786E-07 +2.546183E-06 
 -2.817425E-06 -1.797132E-06 +4.858360E-07 -1.797132E-06 -1.142489E-06 +5.185518E-07 +4.858360E-07 +5.185518E-07 +3.959913E-06 
 -2.444586E-08 -8.404175E-09 -4.953944E-09 -8.404175E-09 -4.013621E-08 -1.063261E-08 -4.953944E-09 -1.063261E-08 +6.458207E-08 
 -8.044115E-08 +1.674719E-08 -2.337988E-08 +1.674719E-08 -5.364331E-08 +1.795991E-08 -2.337988E-08 +1.795991E-08 +1.340845E-07 
 -8.496042E-08 +1.578322E-08 +3.150720E-08 +1.578322E-08 -2.740050E-07 -1.182160E-07 +3.150720E-08 -1.182160E-07 +3.589655E-07 
 -2.546979E-06 -2.161728E-06 +6.051838E-07 -2.161728E-06 -1.845444E-06 +4.777384E-07 +6.051838E-07 +4.777384E-07 +4.392424E-06 
 -4.037866E-08 +2.532433E-09 -1.799930E-09 +2.532433E-09 -3.906329E-08 -4.403064E-09 -1.799930E-09 -4.403064E-09 +7.944195E-08 
 -6.985173E-06 -9.438165E-07 -3.511692E-06 -9.438165E-07 +4.608472E-07 +1.741860E-06 -3.511692E-06 +1.741860E-06 +6.524325E-06 
 -4.411941E-07 -1.214136E-06 -4.597767E-07 -1.214136E-06 -2.189370E-06 +6.677512E-07 -4.597767E-07 +6.677512E-07 +2.630564E-06 
 -2.263577E-05 -1.561244E-05 -1.351345E-07 -1.561244E-05 -1.076924E-05 +1.912778E-07 -1.351345E-07 +1.912778E-07 +3.340501E-05 
 +3.749451E-09 +1.627987E-08 +1.557429E-08 +1.627987E-08 -2.157781E-08 -7.885409E-09 +1.557429E-08 -7.885409E-09 +1.782836E-08 
 -9.898130E-08 +6.002804E-08 -3.559632E-09 +6.002804E-08 -9.408078E-08 -1.980298E-08 -3.559632E-09 -1.980298E-08 +1.930621E-07 
 -2.251252E-05 +8.401056E-05 +3.161940E-05 +8.401056E-05 -3.135336E-04 -1.180058E-04 +3.161940E-05 -1.180058E-04 +3.360462E-04 
 -8.350256E-07 +2.108135E-07 +2.259149E-07 +2.108135E-07 -3.346396E-08 -2.378632E-07 +2.259149E-07 -2.378632E-07 +8.684895E-07 
 -9.237022E-05 +1.100812E-04 -9.614355E-06 +1.100812E-04 -1.311907E-04 +1.145769E-05 -9.614355E-06 +1.145769E-05 +2.235609E-04 
 -7.090138E-07 +7.114742E-07 +2.249785E-07 +7.114742E-07 -6.553040E-07 -5.372224E-07 +2.249785E-07 -5.372224E-07 +1.364318E-06 
 -3.814406E-08 +6.446371E-09 -1.735255E-08 +6.446371E-09 -1.661584E-08 +1.060056E-08 -1.735255E-08 +1.060056E-08 +5.475991E-08 
 -1.777217E-05 +2.908607E-05 +1.898286E-05 +2.908607E-05 -3.494851E-05 -6.667112E-07 +1.898286E-05 -6.667112E-07 +5.272068E-05 
 -1.812838E-05 -1.574574E-05 +2.343333E-06 -1.574574E-05 -1.207282E-05 -4.978891E-06 +2.343333E-06 -4.978891E-06 +3.020120E-05 
 -6.221357E-08 -1.490323E-08 +7.569128E-09 -1.490323E-08 -2.480880E-08 -1.025563E-08 +7.569128E-09 -1.025563E-08 +8.702236E-08 
 -2.043559E-05 -1.567334E-05 +3.367197E-06 -1.567334E-05 -1.091355E-05 -3.366351E-06 +3.367197E-06 -3.366351E-06 +3.134913E-05 
 -6.767565E-07 +8.870246E-07 +2.625611E-07 +8.870246E-07 -1.169340E-06 -1.993781E-07 +2.625611E-07 -1.993781E-07 +1.846097E-06 
 -3.678078E-08 +1.185981E-08 -2.398324E-09 +1.185981E-08 -1.134180E-08 +1.552378E-09 -2.398324E-09 +1.552378E-09 +4.812257E-08 
 -5.044797E-08 -5.128696E-07 -3.695607E-07 -5.128696E-07 -1.150643E-06 +2.484493E-07 -3.695607E-07 +2.484493E-07 +1.201091E-06 
 -2.714997E-07 -1.847602E-06 -1.506327E-06 -1.847602E-06 -3.779037E-06 +2.249361E-07 -1.506327E-06 +2.249361E-07 +4.050537E-06 
 -9.958199E-08 -5.082292E-08 -3.019716E-08 -5.082292E-08 -5.410691E-08 -1.533092E-08 -3.019716E-08 -1.533092E-08 +1.536889E-07 
 -6.724988E-08 -6.019627E-08 -6.272735E-08 -6.019627E-08 -3.611742E-08 -1.545027E-08 -6.272735E-08 -1.545027E-08 +1.033673E-07 
 -2.245479E-07 +2.998383E-07 +2.660244E-07 +2.998383E-07 -4.356069E-07 -2.620936E-07 +2.660244E-07 -2.620936E-07 +6.601549E-07 
 -1.447576E-05 -2.996426E-05 +2.551902E-06 -2.996426E-05 -5.064613E-05 +3.263170E-05 +2.551902E-06 +3.263170E-05 +6.512189E-05 
 -2.898697E-08 -6.672041E-09 -3.597076E-09 -6.672041E-09 -4.725954E-08 -1.611270E-08 -3.597076E-09 -1.611270E-08 +7.624651E-08 
 -1.800097E-08 -2.426841E-09 +3.285391E-09 -2.426841E-09 -2.012837E-08 +1.602499E-09 +3.285391E-09 +1.602499E-09 +3.812935E-08 
 -6.209227E-07 +3.744187E-07 +2.193581E-07 +3.744187E-07 -1.170128E-07 +1.783885E-07 +2.193581E-07 +1.783885E-07 +7.379355E-07 
 -5.580739E-08 -3.712925E-11 -4.100727E-09 -3.712925E-11 -9.421557E-08 -9.217072E-09 -4.100727E-09 -9.217072E-09 +1.500230E-07 
 -9.253519E-09 +5.867151E-09 +5.147196E-09 +5.867151E-09 -2.051097E-08 -6.543854E-09 +5.147196E-09 -6.543854E-09 +2.976449E-08 
 -2.001806E-06 -2.281488E-05 +5.282828E-06 -2.281488E-05 -2.607826E-04 +6.036675E-05 +5.282828E-06 +6.036675E-05 +2.627844E-04 
 -3.447729E-06 +4.928168E-06 -1.056539E-06 +4.928168E-06 -7.045826E-06 +1.519005E-06 -1.056539E-06 +1.519005E-06 +1.049356E-05 
 -1.696308E-08 -5.977088E-09 -9.957994E-10 -5.977088E-09 -2.255098E-08 +2.671244E-09 -9.957994E-10 +2.671244E-09 +3.951406E-08 
 -2.137911E-05 -1.493091E-05 +4.557923E-06 -1.493091E-05 -8.487982E-06 -4.556093E-06 +4.557923E-06 -4.556093E-06 +2.986709E-05 
 -3.617681E-05 +3.102508E-05 -5.897326E-06 +3.102508E-05 -2.579604E-05 -2.124422E-06 -5.897326E-06 -2.124422E-06 +6.197285E-05 
 -1.612053E-05 -2.781340E-05 +2.660465E-07 -2.781340E-05 -4.092631E-05 +2.056375E-05 +2.660465E-07 +2.056375E-05 +5.704684E-05 
 -6.685964E-07 -9.656768E-07 +5.720419E-08 -9.656768E-07 -1.319738E-06 +7.362235E-07 +5.720419E-08 +7.362235E-07 +1.988335E-06 
 -3.507419E-07 -3.548170E-07 -1.367065E-07 -3.548170E-07 -2.824078E-07 +1.462251E-07 -1.367065E-07 +1.462251E-07 +6.331497E-07 
 -1.772778E-08 +4.694055E-07 +6.555584E-07 +4.694055E-07 -3.538507E-06 -1.150412E-06 +6.555584E-07 -1.150412E-06 +3.556235E-06 
 -1.995617E-07 -1.444283E-06 +1.076802E-06 -1.444283E-06 -7.243091E-06 +1.221915E-06 +1.076802E-06 +1.221915E-06 +7.442653E-06 
 -1.761676E-05 +2.901688E-05 +8.523149E-06 +2.901688E-05 -4.573850E-05 -2.584459E-05 +8.523149E-06 -2.584459E-05 +6.335526E-05 
 -8.755019E-08 +9.123809E-09 -1.568473E-08 +9.123809E-09 -6.860527E-08 +2.478027E-09 -1.568473E-08 +2.478027E-09 +1.561555E-07 
 -1.502378E-07 -1.237554E-07 +1.339060E-07 -1.237554E-07 -5.916309E-08 -1.557672E-08 +1.339060E-07 -1.557672E-08 +2.094009E-07 
 -3.032974E-08 -6.902112E-09 +1.994484E-09 -6.902112E-09 -4.798313E-08 +5.726819E-09 +1.994484E-09 +5.726819E-09 +7.831286E-08 
 -3.732440E-06 -2.399329E-06 +2.232056E-06 -2.399329E-06 -1.021767E-06 -3.580181E-07 +2.232056E-06 -3.580181E-07 +4.754207E-06 
 -1.024314E-07 -1.250082E-08 +5.649086E-08 -1.250082E-08 -5.253414E-08 +2.459593E-08 +5.649086E-08 +2.459593E-08 +1.549655E-07 
 -9.854735E-08 -1.953697E-08 -3.249139E-08 -1.953697E-08 -4.911708E-08 -2.367186E-08 -3.249139E-08 -2.367186E-08 +1.476644E-07 
 -5.354529E-05 +1.051912E-04 -7.128779E-05 +1.051912E-04 -1.961765E-04 +7.979794E-05 -7.128779E-05 +7.979794E-05 +2.497218E-04 
 -5.314089E-08 -1.450626E-09 +1.843155E-08 -1.450626E-09 -3.565352E-08 -2.913740E-09 +1.843155E-08 -2.913740E-09 +8.879441E-08 
 -8.558402E-08 -2.354254E-07 -1.503107E-07 -2.354254E-07 -8.706305E-07 -5.077682E-07 -1.503107E-07 -5.077682E-07 +9.562144E-07 
 -3.176155E-05 +2.434368E-06 -3.919063E-06 +2.434368E-06 +6.078742E-08 +3.126129E-06 -3.919063E-06 +3.126129E-06 +3.170077E-05 
 -4.396241E-08 +1.338757E-08 -1.463324E-08 +1.338757E-08 -3.031285E-08 +6.248682E-09 -1.463324E-08 +6.248682E-09 +7.427526E-08 
 -6.584305E-08 -1.420220E-08 -9.594827E-09 -1.420220E-08 -5.413655E-08 -1.155426E-08 -9.594827E-09 -1.155426E-08 +1.199796E-07 
 -1.320242E-07 +6.959947E-09 -4.099638E-08 +6.959947E-09 -2.090690E-07 -7.299106E-08 -4.099638E-08 -7.299106E-08 +3.410932E-07 
 -4.561690E-09 +5.709890E-10 +2.433511E-09 +5.709890E-10 -5.795284E-09 +3.829229E-10 +2.433511E-09 +3.829229E-10 +1.035697E-08 
 -4.346590E-06 -9.321105E-06 +2.262542E-06 -9.321105E-06 -1.998926E-05 +4.852031E-06 +2.262542E-06 +4.852031E-06 +2.433585E-05 
 -9.132859E-09 -3.827667E-08 +3.018001E-08 -3.827667E-08 -3.303148E-07 -1.976962E-07 +3.018001E-08 -1.976962E-07 +3.394477E-07 
 -5.724969E-06 -5.578157E-06 +1.905315E-06 -5.578157E-06 -5.022010E-06 +4.082759E-06 +1.905315E-06 +4.082759E-06 +1.074698E-05 
 -3.176177E-06 -3.526981E-06 -1.091403E-06 -3.526981E-06 -3.900130E-06 -6.637687E-07 -1.091403E-06 -6.637687E-07 +7.076307E-06 
 -7.021035E-08 -1.173750E-08 +3.786648E-11 -1.173750E-08 -9.868690E-08 -8.592467E-10 +3.786648E-11 -8.592467E-10 +1.688972E-07 
 -5.401278E-05 +1.447136E-05 +6.314673E-06 +1.447136E-05 -3.883161E-06 -1.694862E-06 +6.314673E-06 -1.694862E-06 +5.789594E-05 
 -3.283128E-07 +1.314136E-06 -7.777441E-07 +1.314136E-06 -4.392564E-06 +7.073244E-07 -7.777441E-07 +7.073244E-07 +4.720876E-06 
 -5.830417E-07 +1.127429E-06 +2.275651E-07 +1.127429E-06 -1.803593E-06 +5.299688E-07 +2.275651E-07 +5.299688E-07 +2.386635E-06 
 -4.277247E-09 +5.682741E-07 +3.971114E-07 +5.682741E-07 -2.305216E-06 +8.375264E-07 +3.971114E-07 +8.375264E-07 +2.309493E-06 
 -9.043889E-05 -1.231663E-04 +1.945139E-05 -1.231663E-04 -1.451079E-04 +1.001691E-04 +1.945139E-05 +1.001691E-04 +2.355468E-04 
 -3.651608E-06 +7.602040E-07 +1.334223E-06 +7.602040E-07 -1.573401E-07 -4.050981E-07 +1.334223E-06 -4.050981E-07 +3.808948E-06 
 -1.761565E-08 -3.679829E-08 +4.638306E-08 -3.679829E-08 -5.856897E-08 +2.951709E-08 +4.638306E-08 +2.951709E-08 +7.618462E-08 
 -2.151093E-06 -3.128418E-06 -1.054644E-07 -3.128418E-06 -2.644985E-06 +2.873711E-06 -1.054644E-07 +2.873711E-06 +4.796078E-06 
 -5.566284E-08 +4.124017E-08 +2.070251E-09 +4.124017E-08 -9.525721E-08 -9.582457E-09 +2.070251E-09 -9.582457E-09 +1.509200E-07 
 -1.049575E-05 +1.685531E-05 +1.157745E-06 +1.685531E-05 -2.322018E-05 +9.565189E-06 +1.157745E-06 +9.565189E-06 +3.371593E-05 
 -8.634516E-07 -3.096667E-06 -1.528382E-06 -3.096667E-06 -7.094694E-06 +1.072166E-06 -1.528382E-06 +1.072166E-06 +7.958146E-06 
 -5.211641E-08 +1.409314E-08 -3.096065E-09 +1.409314E-08 -8.442660E-08 +9.956883E-09 -3.096065E-09 +9.956883E-09 +1.365430E-07 
 -6.517527E-08 +3.738318E-10 -2.976219E-08 +3.738318E-10 -3.147515E-08 -4.906388E-09 -2.976219E-08 -4.906388E-09 +9.665042E-08 
 -5.115359E-09 +2.882995E-08 -3.550144E-08 +2.882995E-08 -1.067266E-07 -6.488539E-08 -3.550144E-08 -6.488539E-08 +1.118420E-07 
 -3.747460E-06 -5.833886E-06 -6.553382E-07 -5.833886E-06 -9.006982E-06 -2.211603E-06 -6.553382E-07 -2.211603E-06 +1.275444E-05 
 -8.049350E-06 +5.171349E-05 -1.233535E-05 +5.171349E-05 -2.604408E-04 -6.522775E-05 -1.233535E-05 -6.522775E-05 +2.684902E-04 
 -1.455030E-08 +7.888597E-10 +3.208365E-09 +7.888597E-10 -9.419248E-09 -2.075369E-09 +3.208365E-09 -2.075369E-09 +2.396955E-08 
 -3.512775E-07 -1.251614E-06 -4.534691E-07 -1.251614E-06 -3.759820E-06 +2.121291E-07 -4.534691E-07 +2.121291E-07 +4.111097E-06 
 -1.724334E-05 +4.737229E-05 -3.934683E-06 +4.737229E-05 -1.301554E-04 +1.081063E-05 -3.934683E-06 +1.081063E-05 +1.473988E-04 
 -3.246866E-08 -2.279378E-10 +1.193939E-08 -2.279378E-10 -2.335435E-08 +8.957609E-09 +1.193939E-08 +8.957609E-09 +5.582300E-08 
 -6.422667E-06 -2.111832E-05 -6.795439E-06 -2.111832E-05 -5.211218E-05 +1.148261E-05 -6.795439E-06 +1.148261E-05 +5.853485E-05 
 -1.355953E-08 -1.995676E-09 -2.996142E-10 -1.995676E-09 -2.379005E-08 +8.097691E-09 -2.996142E-10 +8.097691E-09 +3.734957E-08 
 -2.672185E-05 -4.134262E-06 -5.643102E-07 -4.134262E-06 +9.274219E-07 -6.447521E-06 -5.643102E-07 -6.447521E-06 +2.579442E-05 
 -3.592584E-07 +6.529756E-07 +9.550251E-09 +6.529756E-07 -1.071524E-06 +5.402723E-07 +9.550251E-09 +5.402723E-07 +1.430782E-06 
 -3.723310E-05 +3.460214E-05 -2.161116E-06 +3.460214E-05 -3.186199E-05 -2.579049E-06 -2.161116E-06 -2.579049E-06 +6.909508E-05 
 -4.009992E-05 -4.778919E-05 -1.189278E-05 -4.778919E-05 -5.695308E-05 -1.417337E-05 -1.189278E-05 -1.417337E-05 +9.705300E-05 
 -3.797255E-07 +8.148213E-08 +2.043306E-07 +8.148213E-08 -2.818675E-08 -1.314141E-07 +2.043306E-07 -1.314141E-07 +4.079123E-07 
 -3.686224E-07 +1.346040E-06 +4.747451E-07 +1.346040E-06 -3.570206E-06 +7.860470E-07 +4.747451E-07 +7.860470E-07 +3.938828E-06 
 -1.200427E-06 -7.934573E-07 +5.881382E-07 -7.934573E-07 -2.549277E-07 -3.026178E-07 +5.881382E-07 -3.026178E-07 +1.455355E-06 
 +6.492843E-06 +4.769472E-06 -3.131407E-05 +4.769472E-06 -1.565320E-04 -2.130970E-05 -3.131407E-05 -2.130970E-05 +1.500392E-04 
 -4.124439E-08 -1.500043E-07 +6.717056E-08 -1.500043E-07 -2.754994E-07 -1.746424E-07 +6.717056E-08 -1.746424E-07 +3.167438E-07 
 -8.630181E-07 +9.976431E-08 +4.758728E-07 +9.976431E-08 -3.101562E-08 -1.677995E-07 +4.758728E-07 -1.677995E-07 +8.940337E-07 
 -9.750258E-07 -2.405961E-06 +1.957729E-06 -2.405961E-06 -3.901152E-06 +5.197038E-07 +1.957729E-06 +5.197038E-07 +4.876178E-06 
 -1.521793E-07 +3.342251E-08 +7.809890E-09 +3.342251E-08 -3.736918E-07 +3.305198E-08 +7.809890E-09 +3.305198E-08 +5.258711E-07 
 -6.479738E-09 +1.507873E-10 +7.001201E-10 +1.507873E-10 -5.559678E-09 +3.578670E-09 +7.001201E-10 +3.578670E-09 +1.203941E-08 
 -1.375919E-06 -9.164146E-06 -5.962395E-06 -9.164146E-06 -3.329168E-05 +1.346326E-06 -5.962395E-06 +1.346326E-06 +3.466760E-05 
 -5.606214E-09 +5.295831E-07 +7.558323E-07 +5.295831E-07 -6.759374E-06 -2.457442E-06 +7.558323E-07 -2.457442E-06 +6.764980E-06 
 -9.839553E-05 +7.061642E-05 +1.612141E-05 +7.061642E-05 -4.897497E-05 +4.447733E-06 +1.612141E-05 +4.447733E-06 +1.473705E-04 
 -1.884470E-06 -6.469488E-07 -7.373853E-07 -6.469488E-07 -2.247444E-07 -2.109870E-07 -7.373853E-07 -2.109870E-07 +2.109214E-06 
 +2.704748E-07 +5.322489E-08 -9.620961E-07 +5.322489E-08 -3.382431E-06 +8.254269E-07 -9.620961E-07 +8.254269E-07 +3.111956E-06 
 -6.788641E-06 +1.338074E-05 +4.059301E-06 +1.338074E-05 -2.227395E-05 +3.411275E-06 +4.059301E-06 +3.411275E-06 +2.906260E-05 
 -6.513304E-08 -2.309029E-08 -6.999133E-09 -2.309029E-08 -1.350153E-07 +4.473304E-08 -6.999133E-09 +4.473304E-08 +2.001483E-07 
 -2.762796E-07 +1.268162E-06 +2.143768E-07 +1.268162E-06 -5.669286E-06 -2.179972E-06 +2.143768E-07 -2.179972E-06 +5.945566E-06 
 -7.491554E-07 +3.451002E-07 -2.328316E-07 +3.451002E-07 -1.935663E-07 -1.070270E-07 -2.328316E-07 -1.070270E-07 +9.427217E-07 
 -1.234055E-04 -1.633606E-05 -3.024521E-05 -1.633606E-05 +1.940458E-06 -2.706373E-05 -3.024521E-05 -2.706373E-05 +1.214651E-04 
 -7.408889E-06 +3.939672E-06 -9.422932E-07 +3.939672E-06 -1.160551E-06 +3.352603E-06 -9.422932E-07 +3.352603E-06 +8.569440E-06 
 -3.095971E-06 +1.054426E-06 -8.825916E-08 +1.054426E-06 -2.757170E-07 -5.008087E-07 -8.825916E-08 -5.008087E-07 +3.371688E-06 
 -3.404454E-09 +1.932116E-08 -2.429237E-08 +1.932116E-08 -4.515298E-08 +1.191207E-08 -2.429237E-08 +1.191207E-08 +4.855743E-08 
 -1.018932E-08 -1.735344E-07 -1.671932E-07 -1.735344E-07 -2.367132E-07 -5.854907E-08 -1.671932E-07 -5.854907E-08 +2.469025E-07 
 -1.807079E-04 +8.053915E-05 -3.856817E-05 +8.053915E-05 -3.382684E-05 +3.868929E-05 -3.856817E-05 +3.868929E-05 +2.145347E-04 
 -5.428578E-08 +1.830131E-08 -7.281998E-09 +1.830131E-08 -6.315003E-08 -4.463345E-09 -7.281998E-09 -4.463345E-09 +1.174358E-07 
 -1.245182E-06 -1.109549E-06 +1.079012E-06 -1.109549E-06 -6.029725E-07 -2.113689E-07 +1.079012E-06 -2.113689E-07 +1.848154E-06 
 -1.683295E-08 -3.555562E-09 +3.646686E-10 -3.555562E-09 -1.481740E-08 -1.995980E-09 +3.646686E-10 -1.995980E-09 +3.165035E-08 
 -1.233251E-07 +7.491587E-08 -8.003541E-08 +7.491587E-08 -1.540873E-08 -2.990319E-08 -8.003541E-08 -2.990319E-08 +1.387338E-07 
 -8.932982E-08 -4.823399E-08 -2.063439E-08 -4.823399E-08 -8.262423E-08 -3.200696E-08 -2.063439E-08 -3.200696E-08 +1.719540E-07 
 -3.117077E-05 -8.473266E-06 -6.058737E-07 -8.473266E-06 +1.549122E-06 +1.078621E-05 -6.058737E-07 +1.078621E-05 +2.962165E-05 
 -4.010236E-05 -2.861911E-05 -5.051074E-06 -2.861911E-05 -1.973524E-05 +2.853248E-06 -5.051074E-06 +2.853248E-06 +5.983761E-05 
 -1.471017E-07 +1.668096E-07 +3.677378E-08 +1.668096E-07 -9.702060E-08 +1.125731E-07 +3.677378E-08 +1.125731E-07 +2.441222E-07 
 -2.385687E-05 -1.342482E-05 -5.341404E-06 -1.342482E-05 -5.889876E-06 -1.037316E-05 -5.341404E-06 -1.037316E-05 +2.974675E-05 
 -5.492890E-05 +5.468386E-05 +1.954212E-06 +5.468386E-05 -5.279620E-05 -1.527838E-05 +1.954212E-06 -1.527838E-05 +1.077251E-04 
 -2.341784E-08 +4.577883E-09 -5.506760E-09 +4.577883E-09 -2.612746E-08 +9.099681E-09 -5.506760E-09 +9.099681E-09 +4.954530E-08 
 -1.081355E-08 +8.437924E-09 -3.852556E-09 +8.437924E-09 -3.704217E-08 +9.398792E-09 -3.852556E-09 +9.398792E-09 +4.785573E-08 
 -1.840557E-07 -6.370350E-08 -1.660529E-08 -6.370350E-08 -1.335352E-07 -1.327407E-08 -1.660529E-08 -1.327407E-08 +3.175909E-07 
 -1.673933E-04 +6.092562E-05 +5.361484E-05 +6.092562E-05 -2.217696E-05 -1.951343E-05 +5.361484E-05 -1.951343E-05 +1.895703E-04 
 -9.656677E-08 -8.406842E-08 +8.794450E-08 -8.406842E-08 -3.926817E-07 +2.386195E-07 +8.794450E-08 +2.386195E-07 +4.892485E-07 
 -8.761710E-05 +8.604294E-05 +1.271231E-05 +8.604294E-05 -8.187709E-05 -3.368122E-05 +1.271231E-05 -3.368122E-05 +1.694942E-04 
 -8.525966E-08 +5.094262E-07 +1.764443E-07 +5.094262E-07 -1.957805E-06 +7.538772E-07 +1.764443E-07 +7.538772E-07 +2.043065E-06 
 -1.767283E-07 +1.088540E-06 +6.598273E-07 +1.088540E-06 -2.781667E-06 +5.768941E-07 +6.598273E-07 +5.768941E-07 +2.958395E-06 
 -1.405844E-06 -6.393028E-07 -5.415032E-07 -6.393028E-07 +5.683864E-08 +4.931428E-07 -5.415032E-07 +4.931428E-07 +1.349005E-06 
 -6.590180E-08 -4.160669E-08 -6.428871E-08 -4.160669E-08 -8.830668E-08 -2.257035E-08 -6.428871E-08 -2.257035E-08 +1.542085E-07 
 -1.057468E-06 -7.658425E-06 -3.312636E-06 -7.658425E-06 -4.197889E-05 +2.890048E-06 -3.312636E-06 +2.890048E-06 +4.303636E-05 
 -1.857027E-08 -4.356080E-09 +5.877638E-09 -4.356080E-09 -3.532411E-08 +9.392128E-09 +5.877638E-09 +9.392128E-09 +5.389439E-08 
 -2.576292E-08 +5.606496E-09 -8.301496E-09 +5.606496E-09 -2.497306E-08 +7.138013E-09 -8.301496E-09 +7.138013E-09 +5.073598E-08 
 -5.265128E-06 -3.907694E-06 -2.076081E-06 -3.907694E-06 -2.800755E-06 -5.930003E-07 -2.076081E-06 -5.930003E-07 +8.065883E-06 
 -1.446154E-08 -1.314421E-09 +1.112463E-10 -1.314421E-09 -9.087690E-09 -1.809066E-09 +1.112463E-10 -1.809066E-09 +2.354923E-08 
 -3.149093E-08 +1.525779E-08 +1.735734E-08 +1.525779E-08 -3.390124E-08 -1.523665E-08 +1.735734E-08 -1.523665E-08 +6.539217E-08 
 -6.613222E-08 -8.881945E-10 +3.956333E-09 -8.881945E-10 -6.363955E-08 -2.531158E-09 +3.956333E-09 -2.531158E-09 +1.297718E-07 
 -2.316505E-08 +5.276533E-09 +8.570265E-09 +5.276533E-09 -7.310755E-09 -6.373776E-09 +8.570265E-09 -6.373776E-09 +3.047580E-08 
 +1.052817E-07 -7.095076E-07 -1.199205E-06 -7.095076E-07 -1.151533E-05 +2.254123E-06 -1.199205E-06 +2.254123E-06 +1.141005E-05 
 -1.980338E-06 -9.997112E-09 +2.625573E-08 -9.997112E-09 +2.223296E-07 -6.330612E-07 +2.625573E-08 -6.330612E-07 +1.758008E-06 
 -1.555047E-05 +1.916431E-05 +4.673476E-06 +1.916431E-05 -2.288886E-05 -3.416280E-07 +4.673476E-06 -3.416280E-07 +3.843933E-05 
 -3.551771E-08 +1.279641E-07 -8.629065E-08 +1.279641E-07 -8.573004E-08 +1.503274E-07 -8.629065E-08 +1.503274E-07 +1.212478E-07 
 -2.514014E-07 -1.441243E-06 -1.469189E-06 -1.441243E-06 -3.575863E-06 -7.393210E-07 -1.469189E-06 -7.393210E-07 +3.827265E-06 
 -3.579480E-09 -8.756422E-10 +1.785053E-09 -8.756422E-10 -3.056760E-09 +2.851753E-11 +1.785053E-09 +2.851753E-11 +6.636239E-09 
 -4.959584E-08 -5.466120E-09 -1.507714E-09 -5.466120E-09 -6.315811E-08 -1.027303E-08 -1.507714E-09 -1.027303E-08 +1.127540E-07 
 -1.902104E-07 +3.910883E-07 -1.642762E-07 +3.910883E-07 -8.281378E-07 +5.586780E-07 -1.642762E-07 +5.586780E-07 +1.018348E-06 
 -3.809403E-06 +3.016589E-06 -5.572872E-07 +3.016589E-06 -1.691853E-06 -1.531697E-06 -5.572872E-07 -1.531697E-06 +5.501257E-06 
 -4.939116E-06 -1.206400E-05 +8.524778E-06 -1.206400E-05 -2.126214E-05 +2.498558E-06 +8.524778E-06 +2.498558E-06 +2.620125E-05 
 -1.593770E-07 +1.084506E-07 -7.215615E-08 +1.084506E-07 -3.423942E-08 -4.977735E-08 -7.215615E-08 -4.977735E-08 +1.936164E-07 
 -7.970438E-05 -5.895392E-05 -2.947801E-05 -5.895392E-05 -4.210136E-05 -7.636284E-06 -2.947801E-05 -7.636284E-06 +1.218057E-04 
 +3.615985E-06 +1.060702E-05 +2.356925E-05 +1.060702E-05 -6.508077E-05 -2.451517E-05 +2.356925E-05 -2.451517E-05 +6.146479E-05 
 -1.327728E-05 -1.637355E-05 -2.336375E-07 -1.637355E-05 -1.813029E-05 -8.336937E-06 -2.336375E-07 -8.336937E-06 +3.140757E-05 
 -4.961385E-06 -2.751673E-06 +6.218951E-08 -2.751673E-06 -1.130325E-06 +1.593830E-06 +6.218951E-08 +1.593830E-06 +6.091710E-06 
 -5.072866E-08 +6.627774E-07 +3.616195E-07 +6.627774E-07 -1.448816E-06 +7.272965E-07 +3.616195E-07 +7.272965E-07 +1.499544E-06 
 +6.576137E-08 +1.163371E-07 -7.726134E-07 +1.163371E-07 -8.908844E-06 -1.329900E-06 -7.726134E-07 -1.329900E-06 +8.843083E-06 
 -1.381791E-06 -1.615107E-06 -4.487602E-07 -1.615107E-06 -1.743143E-06 -1.230479E-06 -4.487602E-07 -1.230479E-06 +3.124934E-06 
 -5.052933E-06 -2.579464E-06 -2.355663E-06 -2.579464E-06 -1.025376E-06 +2.589994E-07 -2.355663E-06 +2.589994E-07 +6.078309E-06 
 -2.169780E-08 +3.754901E-08 -1.499344E-08 +3.754901E-08 -6.825887E-08 +4.970117E-08 -1.499344E-08 +4.970117E-08 +8.995668E-08 
 +3.254036E-07 +5.068242E-06 -6.840048E-06 +5.068242E-06 -3.372765E-05 +4.898993E-06 -6.840048E-06 +4.898993E-06 +3.340224E-05 
 -3.668017E-05 +6.258518E-06 +6.799253E-06 +6.258518E-06 -8.404597E-07 +1.984185E-06 +6.799253E-06 +1.984185E-06 +3.752063E-05 
 -3.709837E-08 -8.763909E-09 +4.507092E-09 -8.763909E-09 -2.261694E-08 -3.310125E-09 +4.507092E-09 -3.310125E-09 +5.971531E-08 
 +2.407013E-08 +6.909893E-09 -3.892282E-08 +6.909893E-09 -9.583236E-08 -3.507586E-08 -3.892282E-08 -3.507586E-08 +7.176224E-08 
 -2.086719E-08 -2.096065E-09 +9.975662E-09 -2.096065E-09 -1.660792E-08 +1.821521E-09 +9.975662E-09 +1.821521E-09 +3.747510E-08 
 -1.444596E-08 -2.849913E-09 +9.721216E-10 -2.849913E-09 -1.560144E-08 -3.042888E-09 +9.721216E-10 -3.042888E-09 +3.004740E-08 
 -1.208120E-05 +3.623422E-05 +6.045964E-06 +3.623422E-05 -8.291553E-05 +3.231375E-05 +6.045964E-06 +3.231375E-05 +9.499674E-05 
 -6.264535E-07 -1.488273E-06 -1.691704E-06 -1.488273E-06 -2.970790E-06 -1.654403E-06 -1.691704E-06 -1.654403E-06 +3.597244E-06 
 -3.146726E-07 +1.627893E-07 +3.009465E-08 +1.627893E-07 -4.057950E-08 +1.222631E-07 +3.009465E-08 +1.222631E-07 +3.552521E-07 
 -6.269576E-07 +1.031370E-06 -1.966998E-07 +1.031370E-06 -1.713829E-06 +8.236198E-07 -1.966998E-07 +8.236198E-07 +2.340786E-06 
 -5.248854E-06 +2.590143E-06 -8.068021E-07 +2.590143E-06 -1.245685E-06 +8.889109E-07 -8.068021E-07 +8.889109E-07 +6.494539E-06 
 +4.011174E-07 +8.349516E-06 +1.300222E-05 +8.349516E-06 -1.220944E-04 -2.653953E-05 +1.300222E-05 -2.653953E-05 +1.216933E-04 
 +7.018703E-09 +1.270820E-07 +1.866833E-07 +1.270820E-07 -6.104899E-07 -1.506189E-07 +1.866833E-07 -1.506189E-07 +6.034712E-07 
 -4.935599E-08 +3.571979E-09 +4.444589E-09 +3.571979E-09 -3.567505E-08 -1.442139E-09 +4.444589E-09 -1.442139E-09 +8.503104E-08 
 -1.756745E-07 +4.476255E-08 +3.202215E-08 +4.476255E-08 -1.779958E-08 +2.291367E-08 +3.202215E-08 +2.291367E-08 +1.934741E-07 
 -2.321402E-07 +8.431356E-07 +6.146893E-07 +8.431356E-07 -2.164109E-06 -3.199434E-07 +6.146893E-07 -3.199434E-07 +2.396250E-06 
 -1.147390E-06 +8.798782E-06 -7.267266E-06 +8.798782E-06 -2.426863E-05 +1.015034E-07 -7.267266E-06 +1.015034E-07 +2.541602E-05 
 -2.156229E-05 -3.079340E-05 -3.836080E-06 -3.079340E-05 -4.397815E-05 -5.478531E-06 -3.836080E-06 -5.478531E-06 +6.554045E-05 
 -2.709331E-06 -1.161229E-06 -6.254577E-07 -1.161229E-06 -4.357596E-07 +2.086902E-07 -6.254577E-07 +2.086902E-07 +3.145090E-06 
 -1.449500E-08 -8.401099E-10 +1.085967E-09 -8.401099E-10 -2.971213E-08 +2.954833E-09 +1.085967E-09 +2.954833E-09 +4.420713E-08 
 -1.156346E-07 -4.731663E-08 +9.651552E-09 -4.731663E-08 -6.959925E-08 +7.200944E-09 +9.651552E-09 +7.200944E-09 +1.852338E-07 
 +1.937300E-08 +1.534294E-07 -1.531713E-07 +1.534294E-07 -4.737412E-07 -1.115206E-07 -1.531713E-07 -1.115206E-07 +4.543682E-07 
 -6.918830E-06 +2.653716E-06 +2.419918E-07 +2.653716E-06 -9.708410E-07 +5.186493E-07 +2.419918E-07 +5.186493E-07 +7.889670E-06 
 -2.702226E-05 -5.794833E-05 +2.190800E-05 -5.794833E-05 -1.242710E-04 +4.698102E-05 +2.190800E-05 +4.698102E-05 +1.512933E-04 
 -3.950692E-07 +4.116547E-07 -3.917543E-08 +4.116547E-07 -2.619074E-07 -2.943562E-07 -3.917543E-08 -2.943562E-07 +6.569766E-07 
 -2.341706E-08 -3.517855E-09 +2.541784E-09 -3.517855E-09 -2.192102E-08 -4.399725E-09 +2.541784E-09 -4.399725E-09 +4.533808E-08 
 -2.305659E-06 +1.913328E-05 -6.008059E-06 +1.913328E-05 -6.930896E-05 -3.859054E-05 -6.008059E-06 -3.859054E-05 +7.161462E-05 
 -3.251096E-08 +7.777809E-09 -1.951993E-09 +7.777809E-09 -3.450961E-08 +5.748270E-09 -1.951993E-09 +5.748270E-09 +6.702057E-08 
 -5.541671E-08 +8.617327E-09 -2.806781E-08 +8.617327E-09 -4.113933E-08 +1.603585E-08 -2.806781E-08 +1.603585E-08 +9.655604E-08 
 -1.623206E-06 -1.892507E-07 -6.549255E-07 -1.892507E-07 +1.251824E-08 +1.865045E-07 -6.549255E-07 +1.865045E-07 +1.610688E-06 
 -3.996130E-06 +1.864705E-06 -2.147382E-06 +1.864705E-06 -6.561757E-07 -1.195784E-07 -2.147382E-06 -1.195784E-07 +4.652306E-06 
 -4.739111E-05 -2.844258E-05 -5.346185E-06 -2.844258E-05 -1.450311E-05 +9.501001E-06 -5.346185E-06 +9.501001E-06 +6.189421E-05 
 -5.529719E-07 -2.223315E-06 +1.754088E-06 -2.223315E-06 -7.617271E-06 +2.705437E-06 +1.754088E-06 +2.705437E-06 +8.170243E-06 
 -3.056512E-06 -2.066692E-06 +9.816490E-07 -2.066692E-06 -9.885376E-07 -6.791095E-07 +9.816490E-07 -6.791095E-07 +4.045050E-06 
 -2.055514E-08 +1.470003E-08 +1.070441E-09 +1.470003E-08 -4.001931E-08 -1.976241E-09 +1.070441E-09 -1.976241E-09 +6.057444E-08 
 -1.107339E-06 +7.667093E-07 -4.943998E-07 +7.667093E-07 -5.326488E-07 +3.327493E-07 -4.943998E-07 +3.327493E-07 +1.639988E-06 
 -8.411001E-05 +7.057551E-05 -1.450178E-05 +7.057551E-05 -5.922103E-05 +1.216921E-05 -1.450178E-05 +1.216921E-05 +1.433310E-04 
 -1.153164E-08 +7.809487E-10 -1.282121E-10 +7.809487E-10 -1.208630E-08 -6.130190E-09 -1.282121E-10 -6.130190E-09 +2.361795E-08 
 -3.291090E-06 -9.818144E-06 +3.041852E-06 -9.818144E-06 -2.712428E-05 +5.791927E-07 +3.041852E-06 +5.791927E-07 +3.041537E-05 
 -1.008459E-07 -1.170435E-08 +3.784339E-09 -1.170435E-08 -1.057188E-07 -8.397307E-09 +3.784339E-09 -8.397307E-09 +2.065647E-07 
 -4.631505E-05 +1.320832E-04 -1.898106E-05 +1.320832E-04 -3.502933E-04 -4.928689E-05 -1.898106E-05 -4.928689E-05 +3.966084E-04 
 -9.696387E-06 -1.331624E-05 +4.619364E-06 -1.331624E-05 -1.421717E-05 -4.347332E-06 +4.619364E-06 -4.347332E-06 +2.391355E-05 
 -2.617080E-05 +5.300437E-06 -6.162503E-06 +5.300437E-06 +9.655581E-07 +8.631118E-06 -6.162503E-06 +8.631118E-06 +2.520524E-05 
 +1.455503E-07 -5.934275E-07 -1.085104E-06 -5.934275E-07 -5.662220E-06 -9.566070E-08 -1.085104E-06 -9.566070E-08 +5.516670E-06 
 +2.529935E-09 -6.021395E-08 -5.094419E-08 -6.021395E-08 -1.494906E-07 +3.641513E-08 -5.094419E-08 +3.641513E-08 +1.469607E-07 
 -2.032102E-06 -2.901781E-06 +3.441737E-07 -2.901781E-06 -4.144399E-06 +4.914854E-07 +3.441737E-07 +4.914854E-07 +6.176501E-06 
 -3.334678E-05 -5.723092E-05 -2.949929E-06 -5.723092E-05 -9.433033E-05 -2.744185E-05 -2.949929E-06 -2.744185E-05 +1.276771E-04 
 -5.363019E-05 -1.947839E-06 -2.225889E-05 -1.947839E-06 +4.002178E-07 +4.653128E-06 -2.225889E-05 +4.653128E-06 +5.322997E-05 
 -1.344871E-07 +1.607075E-08 -3.922849E-08 +1.607075E-08 -3.693409E-08 +2.668821E-08 -3.922849E-08 +2.668821E-08 +1.714212E-07 
 -1.105675E-08 -3.740759E-09 +1.566524E-09 -3.740759E-09 -3.559178E-08 +2.620369E-09 +1.566524E-09 +2.620369E-09 +4.664853E-08 
 -5.656144E-08 -1.301765E-09 +1.074285E-08 -1.301765E-09 -6.157149E-08 -9.649475E-10 +1.074285E-08 -9.649475E-10 +1.181329E-07 
 +1.724157E-07 -4.637926E-07 -8.317189E-07 -4.637926E-07 -2.792295E-06 -1.206827E-07 -8.317189E-07 -1.206827E-07 +2.619880E-06 
 -7.071583E-08 -1.945438E-08 -8.772467E-09 -1.945438E-08 -7.237887E-08 -6.314395E-09 -8.772467E-09 -6.314395E-09 +1.430947E-07 
 -1.215500E-06 +4.861978E-09 -4.297017E-07 +4.861978E-09 -3.587923E-08 -9.137601E-09 -4.297017E-07 -9.137601E-09 +1.251379E-06 
 -9.693814E-05 +8.480999E-06 +1.276851E-05 +8.480999E-06 -7.426480E-07 -1.117623E-06 +1.276851E-05 -1.117623E-06 +9.768079E-05 
 -1.691424E-06 -1.293479E-06 -1.290948E-06 -1.293479E-06 -1.009659E-06 -8.348987E-07 -1.290948E-06 -8.348987E-07 +2.701083E-06 
 -2.024674E-06 -2.791906E-06 +3.470977E-07 -2.791906E-06 -2.918599E-06 +2.639690E-06 +3.470977E-07 +2.639690E-06 +4.943274E-06 
 -2.359990E-08 -8.646341E-09 -6.731888E-09 -8.646341E-09 -1.762037E-08 -5.644499E-09 -6.731888E-09 -5.644499E-09 +4.122028E-08 
 -3.049288E-08 -5.359082E-07 +6.543466E-07 -5.359082E-07 -2.225325E-06 +5.913352E-07 +6.543466E-07 +5.913352E-07 +2.255818E-06 
 -1.245477E-08 -7.044793E-08 -7.014333E-09 -7.044793E-08 -5.761614E-07 -3.345987E-07 -7.014333E-09 -3.345987E-07 +5.886162E-07 
 -3.832564E-08 +3.433276E-09 -5.082280E-09 +3.433276E-09 -7.669586E-08 -8.268483E-09 -5.082280E-09 -8.268483E-09 +1.150215E-07 
 -6.703027E-06 +1.210395E-05 -9.036568E-06 +1.210395E-05 -1.383352E-05 -1.537943E-08 -9.036568E-06 -1.537943E-08 +2.053654E-05 
 -2.220624E-05 +5.285625E-05 +8.375458E-06 +5.285625E-05 -8.266297E-05 +4.842120E-05 +8.375458E-06 +4.842120E-05 +1.048692E-04 
 -3.003754E-08 +1.477614E-09 +2.631490E-09 +1.477614E-09 -2.098525E-08 +3.971661E-09 +2.631490E-09 +3.971661E-09 +5.102279E-08 
 -3.563752E-08 +8.844177E-10 +1.465310E-08 +8.844177E-10 -3.401318E-08 -4.781643E-09 +1.465310E-08 -4.781643E-09 +6.965071E-08 
 -2.347530E-08 -1.050905E-09 +1.992003E-09 -1.050905E-09 -2.175024E-08 -4.197216E-09 +1.992003E-09 -4.197216E-09 +4.522554E-08 
 -2.120085E-07 +2.759471E-07 +1.767188E-07 +2.759471E-07 -3.479184E-07 -1.349440E-07 +1.767188E-07 -1.349440E-07 +5.599269E-07 
 -1.289311E-08 -4.247851E-10 -5.382903E-09 -4.247851E-10 -1.427438E-08 -1.756316E-09 -5.382903E-09 -1.756316E-09 +2.716749E-08 
 -2.986673E-08 -1.041003E-07 +4.135264E-08 -1.041003E-07 -1.837765E-07 -9.355332E-08 +4.135264E-08 -9.355332E-08 +2.136432E-07 
 -1.562227E-04 +1.535250E-04 +2.175951E-05 +1.535250E-04 -1.462071E-04 -5.917194E-05 +2.175951E-05 -5.917194E-05 +3.024298E-04 
 -1.354059E-07 +1.705889E-06 +1.228478E-06 +1.705889E-06 -5.320624E-06 +1.027155E-06 +1.228478E-06 +1.027155E-06 +5.456030E-06 
 -6.924179E-06 +4.101056E-06 +1.036904E-06 +4.101056E-06 -2.320973E-06 -1.631509E-06 +1.036904E-06 -1.631509E-06 +9.245153E-06 
 -1.672901E-07 -2.148190E-07 -1.633712E-07 -2.148190E-07 -4.732527E-07 -2.742538E-07 -1.633712E-07 -2.742538E-07 +6.405428E-07 
 -9.419932E-06 -1.653272E-05 +1.913656E-07 -1.653272E-05 -2.902074E-05 -1.117271E-07 +1.913656E-07 -1.117271E-07 +3.844067E-05 
 -3.542753E-06 +3.252670E-06 +6.762833E-07 +3.252670E-06 -2.264536E-06 +1.451196E-06 +6.762833E-07 +1.451196E-06 +5.807289E-06 
 -2.218662E-06 +1.330671E-06 +1.293515E-07 +1.330671E-06 -3.539920E-07 +9.964926E-07 +1.293515E-07 +9.964926E-07 +2.572654E-06 
 -1.137905E-04 +6.374424E-05 +9.132327E-06 +6.374424E-05 -3.350406E-05 +1.302834E-05 +9.132327E-06 +1.302834E-05 +1.472946E-04 
 -4.204725E-06 +2.065809E-06 +5.575990E-07 +2.065809E-06 -8.342403E-07 +7.142299E-07 +5.575990E-07 +7.142299E-07 +5.038966E-06 
 -1.468654E-07 -8.276876E-08 -1.738046E-08 -8.276876E-08 -1.762474E-07 -1.392182E-08 -1.738046E-08 -1.392182E-08 +3.231128E-07 
 -3.380664E-07 -3.234470E-08 -1.265315E-07 -3.234470E-08 -4.812301E-09 +1.565935E-08 -1.265315E-07 +1.565935E-08 +3.428787E-07 
 -3.672483E-08 -3.328142E-09 -9.763753E-09 -3.328142E-09 -5.583639E-08 -1.784033E-08 -9.763753E-09 -1.784033E-08 +9.256122E-08 
 -2.289797E-07 -6.518738E-07 +1.469003E-07 -6.518738E-07 -1.746996E-06 -6.875239E-08 +1.469003E-07 -6.875239E-08 +1.975976E-06 
 -1.150078E-07 +3.820337E-08 +1.220806E-08 +3.820337E-08 -5.226702E-08 +8.492853E-10 +1.220806E-08 +8.492853E-10 +1.672748E-07 
 -3.345693E-08 -1.136021E-08 +4.170442E-09 -1.136021E-08 -2.898937E-08 +1.992431E-09 +4.170442E-09 +1.992431E-09 +6.244630E-08 
 -4.260734E-08 +1.010932E-05 -9.666413E-06 +1.010932E-05 -1.128081E-04 -2.742104E-06 -9.666413E-06 -2.742104E-06 +1.128507E-04 
 +1.145074E-07 -1.329542E-06 -1.317794E-06 -1.329542E-06 -9.065669E-06 +3.030256E-06 -1.317794E-06 +3.030256E-06 +8.951162E-06 
 +1.560753E-08 +2.392324E-08 -4.197970E-09 +2.392324E-08 -3.177528E-08 +3.181551E-08 -4.197970E-09 +3.181551E-08 +1.616775E-08 
 -6.581340E-08 +4.012873E-09 -3.770935E-09 +4.012873E-09 -3.202843E-08 -6.544632E-09 -3.770935E-09 -6.544632E-09 +9.784183E-08 
 -1.414077E-09 +7.070668E-08 -4.740751E-08 +7.070668E-08 -1.514960E-07 -6.796778E-08 -4.740751E-08 -6.796778E-08 +1.529101E-07 
 -1.297285E-07 +3.205622E-08 -4.790081E-08 +3.205622E-08 -7.505347E-09 +1.514314E-08 -4.790081E-08 +1.514314E-08 +1.372339E-07 
 -1.371554E-08 -2.755897E-09 +2.329002E-09 -2.755897E-09 -1.273460E-08 +5.846249E-09 +2.329002E-09 +5.846249E-09 +2.645014E-08 
 -3.023375E-08 -4.404109E-08 +2.776488E-08 -4.404109E-08 -1.034159E-07 +7.151471E-09 +2.776488E-08 +7.151471E-09 +1.336497E-07 
 -7.906575E-06 +7.288921E-07 +1.512404E-06 +7.288921E-07 -1.227022E-08 +5.382536E-07 +1.512404E-06 +5.382536E-07 +7.918845E-06 
 -4.084096E-08 +5.142077E-09 -3.584570E-09 +5.142077E-09 -7.749552E-08 +8.830058E-09 -3.584570E-09 +8.830058E-09 +1.183365E-07 
 -1.805670E-08 -5.241664E-09 +9.638452E-09 -5.241664E-09 -1.511926E-08 +6.215773E-09 +9.638452E-09 +6.215773E-09 +3.317596E-08 
 -2.005188E-08 +4.308518E-09 -2.427653E-09 +4.308518E-09 -1.462731E-08 +3.109809E-09 -2.427653E-09 +3.109809E-09 +3.467919E-08 
 -5.674735E-08 +1.397449E-08 -3.015509E-08 +1.397449E-08 -2.631063E-08 +1.940877E-08 -3.015509E-08 +1.940877E-08 +8.305798E-08 
 -4.615588E-08 +1.235399E-08 -2.369771E-08 +1.235399E-08 -7.256882E-08 +2.882664E-08 -2.369771E-08 +2.882664E-08 +1.187247E-07 
 -1.469820E-07 +7.389411E-09 +1.386175E-08 +7.389411E-09 -8.477857E-08 -1.158570E-08 +1.386175E-08 -1.158570E-08 +2.317606E-07 
 -6.345404E-06 +2.321268E-06 -1.512275E-06 +2.321268E-06 +1.530368E-07 +3.149906E-06 -1.512275E-06 +3.149906E-06 +6.192367E-06 
 -1.793446E-04 +8.362876E-05 -4.774317E-05 +8.362876E-05 -3.899885E-05 +2.226203E-05 -4.774317E-05 +2.226203E-05 +2.183434E-04 
 -6.010455E-08 +6.116224E-09 -1.007800E-08 +6.116224E-09 -8.603646E-08 +6.193619E-09 -1.007800E-08 +6.193619E-09 +1.461410E-07 
 -3.818723E-06 +2.502492E-06 -7.322745E-07 +2.502492E-06 -8.310043E-07 -1.503387E-06 -7.322745E-07 -1.503387E-06 +4.649727E-06 
 -2.027941E-06 +3.135520E-06 -1.764877E-06 +3.135520E-06 -4.131799E-06 +3.744190E-07 -1.764877E-06 +3.744190E-07 +6.159741E-06 
 -8.126354E-06 +4.549659E-06 +3.208822E-07 +4.549659E-06 -2.477796E-06 +6.895971E-07 +3.208822E-07 +6.895971E-07 +1.060415E-05 
 -7.202451E-08 +1.458131E-08 +1.902466E-08 +1.458131E-08 -8.745357E-08 -2.899308E-08 +1.902466E-08 -2.899308E-08 +1.594781E-07 
 +4.225927E-07 +5.676406E-06 +4.810297E-06 +5.676406E-06 -2.094683E-05 +6.954735E-06 +4.810297E-06 +6.954735E-06 +2.052424E-05 
 -4.940266E-08 -1.173943E-08 +1.403890E-08 -1.173943E-08 -1.517732E-08 +2.391046E-09 +1.403890E-08 +2.391046E-09 +6.457998E-08 
 -3.559620E-06 -2.908868E-06 +8.611131E-07 -2.908868E-06 -2.376316E-06 +6.017942E-07 +8.611131E-07 +6.017942E-07 +5.935936E-06 
 -4.762462E-08 -1.754497E-07 -1.087550E-07 -1.754497E-07 -2.456882E-07 +6.670003E-08 -1.087550E-07 +6.670003E-08 +2.933128E-07 
 -4.440999E-06 -2.666367E-06 +1.612294E-06 -2.666367E-06 -1.565491E-06 +1.501452E-06 +1.612294E-06 +1.501452E-06 +6.006490E-06 
 -8.461090E-06 -1.526423E-06 +1.295753E-07 -1.526423E-06 +3.159205E-07 -2.186003E-06 +1.295753E-07 -2.186003E-06 +8.145170E-06 
 -1.335555E-08 +2.226273E-09 -4.461521E-11 +2.226273E-09 -2.049968E-08 +8.785956E-09 -4.461521E-11 +8.785956E-09 +3.385523E-08 
 +2.396602E-08 -8.523665E-09 -8.023193E-08 -8.523665E-09 -2.214553E-07 -7.019766E-08 -8.023193E-08 -7.019766E-08 +1.974893E-07 
 -5.110816E-05 +4.107710E-05 +1.621781E-05 +4.107710E-05 -2.442667E-05 +1.331409E-05 +1.621781E-05 +1.331409E-05 +7.553483E-05 
 -1.165247E-04 +1.922655E-05 +1.485122E-05 +1.922655E-05 -2.223965E-06 -1.316567E-05 +1.485122E-05 -1.316567E-05 +1.187486E-04 
 -6.807876E-06 +5.415881E-06 +1.152706E-06 +5.415881E-06 -4.247636E-06 -1.751898E-06 +1.152706E-06 -1.751898E-06 +1.105551E-05 
 -3.707295E-06 -3.165837E-06 -3.268283E-07 -3.165837E-06 -2.618796E-06 +4.684765E-07 -3.268283E-07 +4.684765E-07 +6.326091E-06 
 -4.627701E-07 +8.666500E-08 +2.566854E-07 +8.666500E-08 -1.721245E-08 -1.489099E-07 +2.566854E-07 -1.489099E-07 +4.799825E-07 
 -1.578016E-08 +2.797857E-10 -3.532646E-09 +2.797857E-10 -1.470948E-08 +9.650574E-10 -3.532646E-09 +9.650574E-10 +3.048964E-08 
 -1.643843E-08 -2.377250E-06 -2.189523E-06 -2.377250E-06 -2.604160E-05 +1.126723E-06 -2.189523E-06 +1.126723E-06 +2.605804E-05 
 -5.445651E-08 +9.537159E-09 -2.652152E-08 +9.537159E-09 -2.347089E-08 -3.802016E-09 -2.652152E-08 -3.802016E-09 +7.792740E-08 
 -2.515880E-06 +2.868281E-05 +1.106314E-06 +2.868281E-05 -3.278558E-04 -1.265227E-05 +1.106314E-06 -1.265227E-05 +3.303717E-04 
 -5.577551E-07 +2.712601E-07 +3.655924E-07 +2.712601E-07 -1.017393E-07 -9.894355E-09 +3.655924E-07 -9.894355E-09 +6.594943E-07 
 +5.472010E-08 +1.151367E-07 -1.876404E-07 +1.151367E-07 -6.177856E-07 -1.672124E-07 -1.876404E-07 -1.672124E-07 +5.630656E-07 
 -2.966162E-08 -9.877896E-09 -9.048091E-09 -9.877896E-09 -2.555031E-08 -7.277689E-09 -9.048091E-09 -7.277689E-09 +5.521193E-08 
 -1.429783E-06 +1.059673E-06 +4.875038E-07 +1.059673E-06 -5.839165E-07 +3.042426E-07 +4.875038E-07 +3.042426E-07 +2.013700E-06 
 -1.109491E-08 -9.770458E-10 +2.279781E-09 -9.770458E-10 -1.304582E-08 +2.479860E-10 +2.279781E-09 +2.479860E-10 +2.414073E-08 
 -1.429777E-06 -3.461888E-06 -1.922166E-06 -3.461888E-06 -7.879858E-06 -2.196307E-06 -1.922166E-06 -2.196307E-06 +9.309634E-06 
 -3.711773E-08 +1.777341E-08 +3.617421E-09 +1.777341E-08 -4.043221E-08 +2.799563E-09 +3.617421E-09 +2.799563E-09 +7.754993E-08 
 -1.222031E-06 +2.197502E-06 +9.889244E-07 +2.197502E-06 -2.908114E-06 +5.087916E-07 +9.889244E-07 +5.087916E-07 +4.130145E-06 
 -2.192779E-06 +7.478232E-06 -3.398648E-08 +7.478232E-06 -2.459602E-05 -5.035542E-06 -3.398648E-08 -5.035542E-06 +2.678880E-05 
 -2.920035E-08 -3.370382E-09 -2.820156E-09 -3.370382E-09 -1.573957E-08 -1.173961E-09 -2.820156E-09 -1.173961E-09 +4.493992E-08 
 -6.275837E-08 -5.620080E-09 +6.628366E-09 -5.620080E-09 -2.760259E-08 -5.739134E-10 +6.628366E-09 -5.739134E-10 +9.036097E-08 
 -2.448352E-06 +1.139590E-06 -3.879140E-07 +1.139590E-06 -5.059026E-07 +4.566452E-07 -3.879140E-07 +4.566452E-07 +2.954255E-06 
 -4.084125E-07 +1.527163E-07 -1.309749E-07 +1.527163E-07 +4.329088E-09 -1.224875E-07 -1.309749E-07 -1.224875E-07 +4.040834E-07 
 -1.897364E-07 +2.094909E-08 -1.398866E-08 +2.094909E-08 -1.115906E-07 +9.729832E-09 -1.398866E-08 +9.729832E-09 +3.013270E-07 
 -3.727019E-05 -1.644317E-07 -1.872935E-06 -1.644317E-07 +2.761008E-07 +3.232245E-06 -1.872935E-06 +3.232245E-06 +3.699409E-05 
 -5.920459E-07 +2.192872E-06 +4.497664E-07 +2.192872E-06 -8.384236E-06 -1.507241E-06 +4.497664E-07 -1.507241E-06 +8.976282E-06 
 -2.276766E-07 +3.592495E-08 +1.261230E-07 +3.592495E-08 +2.003416E-08 +5.142037E-08 +1.261230E-07 +5.142037E-08 +2.076425E-07 
 -6.475349E-08 +1.055198E-07 +1.067062E-07 +1.055198E-07 -1.021682E-07 -2.937384E-08 +1.067062E-07 -2.937384E-08 +1.669217E-07 
 -3.381130E-06 +7.568579E-07 -1.288547E-06 +7.568579E-07 -1.652342E-07 +1.117205E-07 -1.288547E-06 +1.117205E-07 +3.546364E-06 
 -1.024342E-04 +1.156261E-06 +6.865372E-07 +1.156261E-06 +5.675363E-07 +7.769170E-06 +6.865372E-07 +7.769170E-06 +1.018667E-04 
 -7.009242E-08 -6.238687E-07 -5.223110E-07 -6.238687E-07 -2.911971E-06 -3.684916E-07 -5.223110E-07 -3.684916E-07 +2.982063E-06 
 -2.787197E-08 -9.839129E-09 +2.915779E-09 -9.839129E-09 -2.529709E-08 +1.524715E-09 +2.915779E-09 +1.524715E-09 +5.316907E-08 
 -1.974258E-08 -1.734874E-07 -1.026546E-07 -1.734874E-07 -2.411652E-06 -8.736847E-07 -1.026546E-07 -8.736847E-07 +2.431395E-06 
 -5.706022E-08 +1.200311E-08 +5.454079E-09 +1.200311E-08 -3.264832E-08 -2.950017E-09 +5.454079E-09 -2.950017E-09 +8.970854E-08 
 -2.599795E-07 +6.652420E-08 +1.476025E-07 +6.652420E-08 -2.011213E-08 -6.363483E-08 +1.476025E-07 -6.363483E-08 +2.800917E-07 
 -3.250537E-05 +3.072218E-05 +2.077832E-05 +3.072218E-05 -2.146445E-05 +2.933494E-06 +2.077832E-05 +2.933494E-06 +5.396982E-05 
 -4.714690E-07 -4.080709E-07 +1.454712E-07 -4.080709E-07 -2.056937E-07 -2.107286E-07 +1.454712E-07 -2.107286E-07 +6.771627E-07 
 -2.458032E-06 -2.439952E-06 -8.781556E-07 -2.439952E-06 -2.485640E-06 -1.549894E-06 -8.781556E-07 -1.549894E-06 +4.943673E-06 
 -6.312671E-08 -2.514795E-08 +1.278975E-08 -2.514795E-08 -2.105930E-08 +2.995300E-08 +1.278975E-08 +2.995300E-08 +8.418600E-08 
 -7.841921E-06 -9.942439E-07 -2.872638E-07 -9.942439E-07 +2.725617E-08 +1.066989E-06 -2.872638E-07 +1.066989E-06 +7.814664E-06 
 -8.480451E-06 -3.401584E-05 +7.096006E-06 -3.401584E-05 -1.211067E-04 -1.729967E-05 +7.096006E-06 -1.729967E-05 +1.295872E-04 
 -4.056790E-06 -3.465693E-06 -1.389002E-07 -3.465693E-06 -1.645094E-06 +2.624894E-06 -1.389002E-07 +2.624894E-06 +5.701885E-06 
 -9.592078E-06 -2.635276E-05 +1.036696E-05 -2.635276E-05 -7.240355E-05 +2.848163E-05 +1.036696E-05 +2.848163E-05 +8.199563E-05 
 -1.363119E-07 +6.986143E-08 -1.820273E-08 +6.986143E-08 -4.531899E-08 +8.722468E-08 -1.820273E-08 +8.722468E-08 +1.816309E-07 
 -6.424321E-06 +3.395935E-06 -3.000537E-06 +3.395935E-06 -1.645514E-06 +2.976706E-07 -3.000537E-06 +2.976706E-07 +8.069835E-06 
 -9.849554E-09 -6.655534E-07 +4.634048E-07 -6.655534E-07 -2.781931E-06 -1.009032E-06 +4.634048E-07 -1.009032E-06 +2.791780E-06 
 -1.768483E-06 -1.598379E-06 -6.802238E-08 -1.598379E-06 -1.067874E-06 -1.181229E-06 -6.802238E-08 -1.181229E-06 +2.836357E-06 
 -2.454309E-06 -1.515601E-05 +2.484268E-06 -1.515601E-05 -7.372170E-05 -2.428110E-05 +2.484268E-06 -2.428110E-05 +7.617600E-05 
 -2.131958E-05 -4.233657E-05 -4.713554E-06 -4.233657E-05 -8.278769E-05 +2.731981E-06 -4.713554E-06 +2.731981E-06 +1.041073E-04 
 -3.017033E-04 -2.639531E-05 -2.998052E-06 -2.639531E-05 -2.312926E-06 -2.634212E-07 -2.998052E-06 -2.634212E-07 +3.040162E-04 
 -1.138033E-06 +7.293164E-07 -1.911007E-07 +7.293164E-07 -3.849799E-07 +5.603205E-07 -1.911007E-07 +5.603205E-07 +1.523013E-06 
 -4.482446E-05 -2.052894E-05 +2.246285E-05 -2.052894E-05 -7.182719E-06 -1.577703E-06 +2.246285E-05 -1.577703E-06 +5.200718E-05 
 -1.127326E-07 -2.120570E-08 +1.154963E-08 -2.120570E-08 -1.090292E-07 +4.065385E-09 +1.154963E-08 +4.065385E-09 +2.217618E-07 
 -1.238146E-04 -7.148394E-05 -4.450514E-05 -7.148394E-05 -4.127196E-05 -2.569481E-05 -4.450514E-05 -2.569481E-05 +1.650866E-04 
 -1.169737E-04 -1.263857E-04 -1.228084E-04 -1.263857E-04 -1.174370E-04 -4.915239E-05 -1.228084E-04 -4.915239E-05 +2.344107E-04 
 -3.064470E-06 -2.471619E-06 +2.715669E-07 -2.471619E-06 -1.898319E-06 +9.577547E-07 +2.715669E-07 +9.577547E-07 +4.962788E-06 
 -1.883401E-09 -2.823104E-06 -2.821816E-06 -2.823104E-06 -1.108098E-05 -7.394793E-10 -2.821816E-06 -7.394793E-10 +1.108286E-05 
 -1.060850E-07 -2.851047E-08 +1.534190E-08 -2.851047E-08 -9.661684E-08 -1.283551E-09 +1.534190E-08 -1.283551E-09 +2.027018E-07 
 -4.775877E-08 +1.549989E-08 +7.450872E-09 +1.549989E-08 -3.803114E-08 -1.268829E-09 +7.450872E-09 -1.268829E-09 +8.578990E-08 
 -4.882421E-08 -1.325187E-08 +3.590384E-09 -1.325187E-08 -3.625075E-08 +7.929323E-09 +3.590384E-09 +7.929323E-09 +8.507496E-08 
 -6.249072E-08 +1.679343E-08 +4.270102E-09 +1.679343E-08 -6.110248E-08 +1.031285E-08 +4.270102E-09 +1.031285E-08 +1.235932E-07 
 -1.842216E-07 +1.590401E-08 -1.429393E-08 +1.590401E-08 -2.935327E-07 +3.636038E-08 -1.429393E-08 +3.636038E-08 +4.777542E-07 
 -5.017108E-09 +5.138385E-08 +1.332098E-07 +5.138385E-08 -4.525960E-07 -2.505570E-07 +1.332098E-07 -2.505570E-07 +4.576131E-07 
 -3.339669E-08 -8.250299E-10 -4.179119E-09 -8.250299E-10 -4.492973E-08 -6.563942E-10 -4.179119E-09 -6.563942E-10 +7.832642E-08 
 -8.179227E-08 -1.640314E-07 +3.762130E-08 -1.640314E-07 -3.329056E-07 +2.436784E-07 +3.762130E-08 +2.436784E-07 +4.146978E-07 
 -3.604027E-06 -4.635911E-06 +7.304021E-07 -4.635911E-06 -5.670615E-06 -7.313225E-07 +7.304021E-07 -7.313225E-07 +9.274642E-06 
 -7.175034E-07 +5.327982E-06 +2.569605E-06 +5.327982E-06 -2.981892E-05 +6.898272E-07 +2.569605E-06 +6.898272E-07 +3.053642E-05 
 -4.032581E-08 +1.631498E-08 -1.886286E-08 +1.631498E-08 -2.504387E-08 +8.070183E-09 -1.886286E-08 +8.070183E-09 +6.536968E-08 
 -1.950324E-06 -2.742419E-06 -2.436372E-07 -2.742419E-06 -2.886813E-06 +1.833408E-06 -2.436372E-07 +1.833408E-06 +4.837137E-06 
 -5.473976E-08 +8.682655E-09 -1.633078E-08 +8.682655E-09 -2.625854E-08 +6.120332E-09 -1.633078E-08 +6.120332E-09 +8.099831E-08 
 -4.432360E-08 +4.808740E-08 +3.817625E-08 +4.808740E-08 -5.744097E-08 -4.009694E-08 +3.817625E-08 -4.009694E-08 +1.017646E-07 
 -1.827724E-06 +1.441159E-07 +1.304012E-07 +1.441159E-07 +1.342667E-07 -5.102637E-07 +1.304012E-07 -5.102637E-07 +1.693458E-06 
 -3.861450E-07 +1.133388E-06 -7.174222E-07 +1.133388E-06 -3.207863E-06 +1.155198E-06 -7.174222E-07 +1.155198E-06 +3.594008E-06 
 -2.129928E-07 -7.064518E-06 +5.836795E-06 -7.064518E-06 -3.620231E-05 -3.821908E-06 +5.836795E-06 -3.821908E-06 +3.641530E-05 
 -9.608772E-08 -1.007933E-06 +8.846023E-07 -1.007933E-06 -4.820130E-06 +6.000159E-07 +8.846023E-07 +6.000159E-07 +4.916217E-06 
 -3.611246E-05 +5.157054E-05 +2.578260E-05 +5.157054E-05 -7.365215E-05 -3.681960E-05 +2.578260E-05 -3.681960E-05 +1.097646E-04 
 -1.221419E-05 +1.945425E-05 +4.323069E-06 +1.945425E-05 -2.299550E-05 +1.026331E-05 +4.323069E-06 +1.026331E-05 +3.520969E-05 
 -3.231063E-06 -4.793783E-06 +1.752706E-06 -4.793783E-06 -6.853125E-06 +8.452882E-07 +1.752706E-06 +8.452882E-07 +1.008419E-05 
 -3.476853E-08 +1.398953E-08 -6.440924E-09 +1.398953E-08 -4.307821E-08 -6.346766E-09 -6.440924E-09 -6.346766E-09 +7.784674E-08 
 -5.477406E-09 -3.166969E-10 -9.196771E-10 -3.166969E-10 -2.331328E-08 +6.225644E-09 -9.196771E-10 +6.225644E-09 +2.879069E-08 
 -3.214624E-06 -1.206519E-06 +4.817103E-07 -1.206519E-06 -3.274133E-07 +8.590966E-07 +4.817103E-07 +8.590966E-07 +3.542038E-06 
 -4.448492E-08 +1.088095E-08 -2.202413E-08 +1.088095E-08 -1.687258E-08 +7.495013E-09 -2.202413E-08 +7.495013E-09 +6.135750E-08 
 -6.449893E-06 +5.686288E-07 -1.118615E-06 +5.686288E-07 +8.470388E-07 +2.391255E-06 -1.118615E-06 +2.391255E-06 +5.602854E-06 
 -2.220351E-07 +5.163883E-08 -1.192055E-08 +5.163883E-08 +8.978954E-09 -7.053411E-08 -1.192055E-08 -7.053411E-08 +2.130562E-07 
 -1.543808E-06 +6.669597E-07 -9.434783E-07 +6.669597E-07 -3.607638E-07 +4.071447E-07 -9.434783E-07 +4.071447E-07 +1.904572E-06 
 +2.255404E-08 +1.086191E-07 +1.483711E-07 +1.086191E-07 -3.639089E-07 -2.377504E-08 +1.483711E-07 -2.377504E-08 +3.413549E-07 
 -8.644344E-08 +9.781610E-09 +1.021912E-08 +9.781610E-09 -1.690799E-08 -1.993619E-09 +1.021912E-08 -1.993619E-09 +1.033514E-07 
 -1.106314E-05 +4.942574E-06 -2.043263E-06 +4.942574E-06 -2.209278E-06 +1.149610E-06 -2.043263E-06 +1.149610E-06 +1.327242E-05 
 -1.678476E-08 +4.298806E-09 -8.208601E-09 +4.298806E-09 -1.833618E-08 +5.030780E-09 -8.208601E-09 +5.030780E-09 +3.512094E-08 
 -1.226900E-06 -5.299495E-07 +4.246613E-07 -5.299495E-07 -1.986851E-07 +4.114518E-07 +4.246613E-07 +4.114518E-07 +1.425585E-06 
 -6.498958E-07 +6.943559E-08 +2.338203E-07 +6.943559E-08 -7.746667E-09 +5.101253E-08 +2.338203E-07 +5.101253E-08 +6.576425E-07 
 -1.244589E-08 -3.993032E-09 -7.068263E-09 -3.993032E-09 -1.058578E-08 -6.738938E-10 -7.068263E-09 -6.738938E-10 +2.303167E-08 
 -1.461763E-08 -5.152675E-09 -5.350025E-09 -5.152675E-09 -7.716969E-08 -4.851085E-08 -5.350025E-09 -4.851085E-08 +9.178731E-08 
 +2.867361E-07 +2.199092E-07 +8.880586E-07 +2.199092E-07 -2.752213E-06 -5.191072E-08 +8.880586E-07 -5.191072E-08 +2.465477E-06 
 -2.486996E-07 +2.092378E-08 -2.181674E-08 +2.092378E-08 -1.332554E-07 +2.022300E-08 -2.181674E-08 +2.022300E-08 +3.819551E-07 
 -6.578165E-08 -3.215598E-08 -4.257430E-08 -3.215598E-08 +2.184678E-08 -3.825429E-08 -4.257430E-08 -3.825429E-08 +4.393487E-08 
 -2.459064E-07 -4.992279E-07 -8.404070E-07 -4.992279E-07 -5.689481E-07 -4.220202E-07 -8.404070E-07 -4.220202E-07 +8.148545E-07 
 +2.718956E-08 +3.413586E-08 -8.879589E-08 +3.413586E-08 -2.565414E-07 -1.334732E-08 -8.879589E-08 -1.334732E-08 +2.293519E-07 
 -3.819016E-06 -2.742329E-06 +2.494959E-06 -2.742329E-06 -1.671395E-06 +3.276828E-07 +2.494959E-06 +3.276828E-07 +5.490411E-06 
 -4.509552E-06 +2.842158E-06 +1.183500E-06 +2.842158E-06 -1.534550E-06 +5.446396E-07 +1.183500E-06 +5.446396E-07 +6.044102E-06 
 -5.606363E-08 +5.426953E-09 -5.428392E-09 +5.426953E-09 -9.584423E-08 +8.104349E-09 -5.428392E-09 +8.104349E-09 +1.519079E-07 
 -6.429406E-07 +1.062461E-06 +5.381627E-07 +1.062461E-06 -1.096159E-06 +3.256013E-07 +5.381627E-07 +3.256013E-07 +1.739099E-06 
 -7.621172E-05 +1.295099E-05 +5.469902E-06 +1.295099E-05 -1.591262E-06 -7.872181E-06 +5.469902E-06 -7.872181E-06 +7.780299E-05 
 -8.388766E-06 -1.944818E-06 +3.215314E-06 -1.944818E-06 -4.407097E-07 +4.142013E-07 +3.215314E-06 +4.142013E-07 +8.829476E-06 
 -2.192539E-06 +2.671052E-07 -5.890307E-07 +2.671052E-07 +5.348796E-08 +5.791947E-07 -5.890307E-07 +5.791947E-07 +2.139051E-06 
 -2.531265E-06 +5.301019E-06 +1.857333E-06 +5.301019E-06 -1.081597E-05 -1.637240E-06 +1.857333E-06 -1.637240E-06 +1.334723E-05 
 -5.483167E-09 +4.987490E-07 +7.127997E-07 +4.987490E-07 -1.252379E-05 -4.553036E-06 +7.127997E-07 -4.553036E-06 +1.252928E-05 
 -1.515889E-04 +5.517361E-05 -3.381135E-05 +5.517361E-05 -2.008283E-05 +1.230666E-05 -3.381135E-05 +1.230666E-05 +1.716717E-04 
 -3.294932E-07 +1.278382E-06 +1.011353E-06 +1.278382E-06 -5.076013E-06 -1.677607E-06 +1.011353E-06 -1.677607E-06 +5.405506E-06 
 -7.222197E-05 -5.242824E-05 -1.020086E-05 -5.242824E-05 -3.647052E-05 -2.065858E-05 -1.020086E-05 -2.065858E-05 +1.086925E-04 
 -1.289616E-07 +2.130881E-08 +1.029648E-08 +2.130881E-08 -6.759040E-08 +3.416621E-09 +1.029648E-08 +3.416621E-09 +1.965520E-07 
 -3.539654E-09 +5.569809E-09 +5.297013E-09 +5.569809E-09 +4.082101E-09 -1.522920E-09 +5.297013E-09 -1.522920E-09 -5.424471E-10 
 -5.962376E-09 -6.659276E-10 +2.179596E-09 -6.659276E-10 -1.417879E-08 +6.147841E-09 +2.179596E-09 +6.147841E-09 +2.014116E-08 
 -1.058528E-07 -6.272745E-08 +6.438328E-09 -6.272745E-08 -1.127915E-07 +2.439969E-08 +6.438328E-09 +2.439969E-08 +2.186443E-07 
 -1.360035E-05 +1.403846E-05 -7.529131E-06 +1.403846E-05 -1.099427E-05 -2.273442E-06 -7.529131E-06 -2.273442E-06 +2.459462E-05 
 -1.870873E-08 +1.451909E-10 -3.811418E-09 +1.451909E-10 -2.835461E-08 +1.573117E-08 -3.811418E-09 +1.573117E-08 +4.706334E-08 
 -5.286879E-08 -9.234747E-09 +2.053252E-08 -9.234747E-09 -4.442764E-08 +9.966699E-09 +2.053252E-08 +9.966699E-09 +9.729644E-08 
 +1.337309E-07 +2.000433E-07 +4.540086E-07 +2.000433E-07 -1.451072E-06 +2.053301E-07 +4.540086E-07 +2.053301E-07 +1.317341E-06 
 -2.719457E-07 -5.205519E-07 -3.078984E-07 -5.205519E-07 -1.488789E-06 -8.955747E-07 -3.078984E-07 -8.955747E-07 +1.760734E-06 
 -5.822947E-05 -1.153971E-05 +2.222569E-05 -1.153971E-05 -7.405543E-08 +1.658860E-05 +2.222569E-05 +1.658860E-05 +5.830353E-05 
 -1.171436E-06 +1.251836E-06 +5.597240E-08 +1.251836E-06 -9.657977E-07 +9.008645E-07 +5.597240E-08 +9.008645E-07 +2.137233E-06 
 -1.882624E-07 +1.363890E-05 -1.160200E-05 +1.363890E-05 -1.439134E-04 -1.194441E-05 -1.160200E-05 -1.194441E-05 +1.441016E-04 
 -5.403702E-08 +5.018372E-07 +2.258884E-07 +5.018372E-07 -9.977581E-07 +6.201802E-07 +2.258884E-07 +6.201802E-07 +1.051795E-06 
 -1.219476E-07 -3.228949E-08 +1.237200E-08 -3.228949E-08 -5.532010E-08 +1.301170E-09 +1.237200E-08 +1.301170E-09 +1.772677E-07 
 -7.082900E-06 +1.289146E-06 -2.284672E-07 +1.289146E-06 -1.130161E-08 -1.227916E-06 -2.284672E-07 -1.227916E-06 +7.094201E-06 
 -8.063025E-08 +1.025954E-08 -3.313756E-09 +1.025954E-08 -1.137653E-07 -1.084207E-08 -3.313756E-09 -1.084207E-08 +1.943956E-07 
 -8.381821E-09 +3.492759E-09 -2.822041E-09 +3.492759E-09 -1.989866E-08 -5.905451E-09 -2.822041E-09 -5.905451E-09 +2.828048E-08 
 -3.077398E-08 -3.602701E-09 -1.476057E-09 -3.602701E-09 -6.084323E-08 -6.665848E-09 -1.476057E-09 -6.665848E-09 +9.161721E-08 
 -4.799260E-08 -2.725510E-08 +3.690415E-08 -2.725510E-08 +2.455705E-10 +4.198709E-09 +3.690415E-08 +4.198709E-09 +4.774703E-08 
 -2.286269E-08 -6.299993E-09 -6.919899E-10 -6.299993E-09 -2.150517E-08 +3.124508E-09 -6.919899E-10 +3.124508E-09 +4.436787E-08 
 -2.974736E-09 +1.635677E-08 +1.865903E-08 +1.635677E-08 -9.617338E-08 -5.457386E-08 +1.865903E-08 -5.457386E-08 +9.914812E-08 
 -4.218780E-08 -4.243932E-09 -7.850285E-09 -4.243932E-09 -8.484636E-08 +4.455674E-08 -7.850285E-09 +4.455674E-08 +1.270342E-07 
 -1.194479E-06 -2.027664E-06 -3.491252E-08 -2.027664E-06 -3.443408E-06 +1.982312E-08 -3.491252E-08 +1.982312E-08 +4.637886E-06 
 +2.666069E-07 +4.417300E-07 -1.254412E-06 +4.417300E-07 -4.995921E-06 -2.240268E-08 -1.254412E-06 -2.240268E-08 +4.729314E-06 
 -3.324763E-07 -6.013717E-07 +7.603868E-08 -6.013717E-07 -9.318636E-07 -3.128678E-07 +7.603868E-08 -3.128678E-07 +1.264340E-06 
 -3.021865E-08 -4.922381E-08 +2.352841E-08 -4.922381E-08 -1.229832E-08 +4.106927E-08 +2.352841E-08 +4.106927E-08 +4.251697E-08 
 -1.894033E-06 -2.405184E-07 +1.985445E-07 -2.405184E-07 +1.861125E-07 -5.959432E-07 +1.985445E-07 -5.959432E-07 +1.707920E-06 
 -1.446254E-06 -2.830506E-06 -3.151044E-07 -2.830506E-06 -4.693826E-06 +1.677563E-06 -3.151044E-07 +1.677563E-06 +6.140080E-06 
 -8.143646E-09 -1.594894E-09 -1.708224E-09 -1.594894E-09 -1.488066E-08 -7.018796E-09 -1.708224E-09 -7.018796E-09 +2.302431E-08 
 -6.946637E-08 +1.008819E-08 -3.801169E-09 +1.008819E-08 -5.386230E-08 +6.474760E-09 -3.801169E-09 +6.474760E-09 +1.233287E-07 
 -4.628592E-08 +2.009035E-07 +1.830772E-07 +2.009035E-07 -1.659528E-06 -9.369375E-07 +1.830772E-07 -9.369375E-07 +1.705813E-06 
 -1.861258E-08 +6.456874E-08 +1.237995E-07 +6.456874E-08 -4.196905E-07 -2.020185E-07 +1.237995E-07 -2.020185E-07 +4.383030E-07 
 -6.659340E-08 -1.592214E-09 +2.618543E-08 -1.592214E-09 -6.598555E-08 +9.081422E-09 +2.618543E-08 +9.081422E-09 +1.325789E-07 
 -1.980719E-06 -1.144092E-06 +9.296473E-08 -1.144092E-06 -6.375374E-07 -2.001268E-07 +9.296473E-08 -2.001268E-07 +2.618256E-06 
 +1.731971E-08 +7.346868E-08 -1.250475E-07 +7.346868E-08 -8.178091E-07 -3.334357E-07 -1.250475E-07 -3.334357E-07 +8.004893E-07 
 -3.194843E-08 +9.535871E-09 +4.043137E-09 +9.535871E-09 -2.436334E-08 +1.027982E-09 +4.043137E-09 +1.027982E-09 +5.631177E-08 
 -1.856099E-08 +1.198472E-09 +5.272438E-09 +1.198472E-09 -3.014139E-08 -1.417808E-08 +5.272438E-09 -1.417808E-08 +4.870239E-08 
 -8.455545E-06 +1.389197E-05 -4.571939E-06 +1.389197E-05 -1.531034E-05 -6.530202E-06 -4.571939E-06 -6.530202E-06 +2.376589E-05 
 -5.657411E-08 +1.663623E-08 -1.144817E-08 +1.663623E-08 -5.551930E-08 +2.500011E-09 -1.144817E-08 +2.500011E-09 +1.120934E-07 
 -7.268916E-09 -3.873387E-09 -2.035926E-09 -3.873387E-09 -1.008955E-08 -3.150840E-09 -2.035926E-09 -3.150840E-09 +1.735847E-08 
 -8.426527E-09 +1.412995E-09 +5.072264E-09 +1.412995E-09 -1.205187E-08 +1.070967E-09 +5.072264E-09 +1.070967E-09 +2.047840E-08 
 -8.371146E-07 -1.255783E-06 +1.980371E-07 -1.255783E-06 -1.806147E-06 -1.666363E-07 +1.980371E-07 -1.666363E-07 +2.643262E-06 
 -7.274759E-08 +1.147086E-08 -7.628675E-09 +1.147086E-08 -5.092210E-08 +1.086255E-09 -7.628675E-09 +1.086255E-09 +1.236697E-07 
 -1.018675E-07 -1.131814E-07 -2.974313E-08 -1.131814E-07 -1.051450E-07 +6.001859E-08 -2.974313E-08 +6.001859E-08 +2.070125E-07 
 -3.012963E-08 -2.832341E-09 -1.578297E-08 -2.832341E-09 -2.232539E-09 -1.026524E-08 -1.578297E-08 -1.026524E-08 +3.236217E-08 
 -1.431360E-07 -5.927603E-07 -4.356679E-07 -5.927603E-07 -2.202861E-06 -7.874739E-07 -4.356679E-07 -7.874739E-07 +2.345997E-06 
 -1.480398E-08 +2.205048E-08 +1.943094E-08 +2.205048E-08 -1.899399E-07 -9.875763E-08 +1.943094E-08 -9.875763E-08 +2.047438E-07 
 -8.287097E-05 -5.802595E-05 +1.734472E-05 -5.802595E-05 -4.063154E-05 +1.214413E-05 +1.734472E-05 +1.214413E-05 +1.235025E-04 
 -5.241591E-07 +4.002196E-06 +2.432144E-06 +4.002196E-06 -8.235514E-06 +2.590464E-06 +2.432144E-06 +2.590464E-06 +8.759673E-06 
 -5.090473E-09 -1.067706E-09 -1.667986E-09 -1.067706E-09 -8.322659E-09 -2.855882E-09 -1.667986E-09 -2.855882E-09 +1.341313E-08 
 -4.245007E-08 +1.272061E-08 +3.993815E-09 +1.272061E-08 -7.444210E-08 -2.416400E-08 +3.993815E-09 -2.416400E-08 +1.168922E-07 
 -1.056590E-07 +1.099402E-07 -9.546602E-08 +1.099402E-07 -2.662038E-07 -1.611700E-07 -9.546602E-08 -1.611700E-07 +3.718628E-07 
 -3.774006E-07 +7.438534E-08 +1.429136E-07 +7.438534E-08 -1.521752E-08 +7.943512E-08 +1.429136E-07 +7.943512E-08 +3.926181E-07 
 -2.222652E-07 -2.210338E-08 +1.817036E-08 -2.210338E-08 -1.270235E-07 +1.951042E-08 +1.817036E-08 +1.951042E-08 +3.492887E-07 
 -3.079857E-06 +3.180321E-06 +1.476872E-06 +3.180321E-06 -2.299240E-06 +9.262407E-07 +1.476872E-06 +9.262407E-07 +5.379097E-06 
 -3.611926E-05 +2.032561E-06 -4.725101E-06 +2.032561E-06 +1.827617E-06 -7.982765E-06 -4.725101E-06 -7.982765E-06 +3.429164E-05 
 -1.939646E-05 +1.365886E-05 -3.997974E-07 +1.365886E-05 -8.353312E-06 -5.682369E-06 -3.997974E-07 -5.682369E-06 +2.774978E-05 
 -1.294767E-08 -1.622701E-07 -7.454538E-08 -1.622701E-07 -4.619613E-07 +2.983043E-07 -7.454538E-08 +2.983043E-07 +4.749089E-07 
 -3.012897E-06 +6.148269E-07 -1.132175E-06 +6.148269E-07 -1.304897E-07 +1.377583E-07 -1.132175E-06 +1.377583E-07 +3.143387E-06 
 -1.253248E-05 -2.259811E-08 -2.105682E-06 -2.259811E-08 +8.942114E-08 -1.088530E-06 -2.105682E-06 -1.088530E-06 +1.244306E-05 
 -4.964641E-07 -1.951295E-06 -8.470481E-07 -1.951295E-06 -6.188215E-06 +1.490295E-07 -8.470481E-07 +1.490295E-07 +6.684679E-06 
 -1.524832E-07 +3.699792E-09 +3.091908E-08 +3.699792E-09 -1.090260E-07 +4.373908E-08 +3.091908E-08 +4.373908E-08 +2.615091E-07 
 -9.820836E-06 +1.475138E-05 +4.783052E-06 +1.475138E-05 -2.138616E-05 -2.073535E-06 +4.783052E-06 -2.073535E-06 +3.120700E-05 
 -1.112096E-07 +2.640354E-09 +1.648804E-09 +2.640354E-09 -4.964736E-08 +3.634726E-09 +1.648804E-09 +3.634726E-09 +1.608570E-07 
 -3.109812E-07 -1.094466E-07 -1.720663E-07 -1.094466E-07 -2.153241E-08 -1.580086E-07 -1.720663E-07 -1.580086E-07 +3.325137E-07 
 -2.075279E-08 -8.972249E-09 +1.021654E-10 -8.972249E-09 -4.877254E-08 -7.368655E-09 +1.021654E-10 -7.368655E-09 +6.952533E-08 
 -4.460867E-06 +4.645036E-06 +2.882306E-06 +4.645036E-06 -4.742340E-06 -1.950268E-06 +2.882306E-06 -1.950268E-06 +9.203208E-06 
 -2.848587E-08 -1.511803E-09 +9.569867E-09 -1.511803E-09 -1.401959E-08 +1.730035E-09 +9.569867E-09 +1.730035E-09 +4.250545E-08 
 -2.127708E-05 +4.561056E-05 +9.268610E-06 +4.561056E-05 -9.782021E-05 -1.986740E-05 +9.268610E-06 -1.986740E-05 +1.190973E-04 
 +1.038642E-07 +2.610124E-06 -3.425243E-06 +2.610124E-06 -7.370346E-05 -1.332656E-05 -3.425243E-06 -1.332656E-05 +7.359960E-05 
 -1.750816E-06 +8.137933E-07 +4.849072E-07 +8.137933E-07 -1.657181E-07 +5.227150E-07 +4.849072E-07 +5.227150E-07 +1.916534E-06 
 -3.048868E-06 -4.360913E-06 +1.768771E-06 -4.360913E-06 -4.735508E-06 -1.126305E-06 +1.768771E-06 -1.126305E-06 +7.784376E-06 
 -1.625697E-08 +1.921730E-09 +1.733385E-09 +1.921730E-09 -3.861268E-08 +3.888346E-09 +1.733385E-09 +3.888346E-09 +5.486965E-08 
 -1.191537E-04 +3.192681E-05 +7.353602E-06 +3.192681E-05 -8.556230E-06 -1.970500E-06 +7.353602E-06 -1.970500E-06 +1.277100E-04 
 -2.678811E-04 -1.329021E-04 +4.121780E-05 -1.329021E-04 -5.361813E-05 -4.326663E-05 +4.121780E-05 -4.326663E-05 +3.214993E-04 
 -1.903516E-05 +1.420859E-05 -2.031335E-06 +1.420859E-05 -5.746624E-06 -9.524091E-06 -2.031335E-06 -9.524091E-06 +2.478178E-05 
 +7.219134E-08 +1.447844E-07 +6.229572E-07 +1.447844E-07 -4.458999E-06 +1.718730E-06 +6.229572E-07 +1.718730E-06 +4.386808E-06 
 -1.011682E-08 +3.548181E-07 -6.134005E-07 +3.548181E-07 -2.811503E-06 +1.611940E-06 -6.134005E-07 +1.611940E-06 +2.821619E-06 
 -1.705762E-07 +3.158956E-08 -2.022363E-08 +3.158956E-08 -8.074240E-08 -1.791818E-09 -2.022363E-08 -1.791818E-09 +2.513186E-07 
 -2.405004E-06 -3.375724E-06 -1.664029E-07 -3.375724E-06 -4.136652E-06 -2.243800E-06 -1.664029E-07 -2.243800E-06 +6.541656E-06 
 -1.217433E-08 +6.779063E-09 -9.153255E-10 +6.779063E-09 -3.197968E-08 +1.450941E-08 -9.153255E-10 +1.450941E-08 +4.415401E-08 
 -9.010618E-08 +2.609095E-08 -5.118114E-08 +2.609095E-08 -1.135572E-08 +2.080308E-08 -5.118114E-08 +2.080308E-08 +1.014619E-07 
 -6.586428E-08 +3.787950E-08 -3.411776E-09 +3.787950E-08 -5.152464E-08 +7.118905E-09 -3.411776E-09 +7.118905E-09 +1.173889E-07 
 -1.778960E-05 +1.249048E-05 +3.230952E-07 +1.249048E-05 -8.471436E-06 +2.577783E-06 +3.230952E-07 +2.577783E-06 +2.626103E-05 
 -7.788667E-08 +7.330110E-09 -2.197548E-08 +7.330110E-09 -9.129337E-08 +3.010082E-08 -2.197548E-08 +3.010082E-08 +1.691800E-07 
 -3.600643E-05 +5.067213E-05 -2.831157E-05 +5.067213E-05 -6.225745E-05 +6.794266E-06 -2.831157E-05 +6.794266E-06 +9.826389E-05 
 -1.980296E-05 -1.002943E-05 +4.101289E-06 -1.002943E-05 -4.149896E-06 -2.742707E-06 +4.101289E-06 -2.742707E-06 +2.395286E-05 
 -8.023165E-07 -1.112256E-07 -5.177846E-07 -1.112256E-07 +1.274440E-08 +1.350462E-07 -5.177846E-07 +1.350462E-07 +7.895721E-07 
 -4.900358E-08 +5.013274E-07 -2.520018E-07 +5.013274E-07 -1.054433E-06 -5.791233E-07 -2.520018E-07 -5.791233E-07 +1.103437E-06 
 -2.108409E-07 +4.291001E-08 -3.707594E-08 +4.291001E-08 -2.748714E-08 +4.765200E-08 -3.707594E-08 +4.765200E-08 +2.383281E-07 
 -1.392283E-07 +2.057337E-08 +6.730026E-08 +2.057337E-08 -3.171412E-08 -2.903371E-08 +6.730026E-08 -2.903371E-08 +1.709424E-07 
 -2.938186E-07 +9.906347E-08 -1.303085E-07 +9.906347E-08 -5.671501E-08 -7.415433E-08 -1.303085E-07 -7.415433E-08 +3.505336E-07 
 -4.803344E-08 +2.886763E-09 -3.844911E-09 +2.886763E-09 -2.338116E-08 +4.595073E-11 -3.844911E-09 +4.595073E-11 +7.141460E-08 
 -1.011002E-07 -6.028840E-08 +1.097127E-07 -6.028840E-08 -4.565179E-08 +2.787687E-08 +1.097127E-07 +2.787687E-08 +1.467520E-07 
 -3.279735E-08 +1.047693E-08 -4.735276E-08 +1.047693E-08 -1.661909E-07 +1.060213E-07 -4.735276E-08 +1.060213E-07 +1.989883E-07 
 -5.928825E-06 +2.736153E-06 -1.087599E-07 +2.736153E-06 -1.020090E-06 +1.394195E-06 -1.087599E-07 +1.394195E-06 +6.948915E-06 
 -7.478781E-08 +2.090090E-08 -1.135421E-08 +2.090090E-08 -1.316784E-07 +1.748709E-08 -1.135421E-08 +1.748709E-08 +2.064662E-07 
 -2.945356E-08 +3.103006E-07 -1.889049E-07 +3.103006E-07 -9.375365E-07 -5.315750E-07 -1.889049E-07 -5.315750E-07 +9.669901E-07 
 +1.852256E-06 +2.491712E-06 -7.126407E-06 +2.491712E-06 -2.768660E-05 -2.594508E-06 -7.126407E-06 -2.594508E-06 +2.583434E-05 
 -5.095595E-08 -2.196757E-08 +2.853145E-09 -2.196757E-08 -1.079546E-07 +1.062934E-08 +2.853145E-09 +1.062934E-08 +1.589106E-07 
 -1.226605E-07 -9.220665E-09 +3.755104E-08 -9.220665E-09 -6.401898E-08 -8.400665E-09 +3.755104E-08 -8.400665E-09 +1.866795E-07 
 -9.756866E-06 +2.721819E-05 +1.520160E-05 +2.721819E-05 -5.988557E-05 -3.576319E-06 +1.520160E-05 -3.576319E-06 +6.964244E-05 
 -6.368159E-08 +1.473675E-07 +3.813640E-08 +1.473675E-07 -9.324016E-07 +3.352228E-07 +3.813640E-08 +3.352228E-07 +9.960831E-07 
 -6.766050E-05 +3.155022E-05 +1.212066E-05 +3.155022E-05 -1.471287E-05 -5.651422E-06 +1.212066E-05 -5.651422E-06 +8.237336E-05 
 -8.268538E-05 +3.800570E-05 +4.092202E-06 +3.800570E-05 -1.445484E-05 +1.531383E-05 +4.092202E-06 +1.531383E-05 +9.714023E-05 
 -1.558771E-04 -2.748522E-05 -6.466192E-05 -2.748522E-05 -4.847427E-06 -1.140233E-05 -6.466192E-05 -1.140233E-05 +1.607245E-04 
 +1.193539E-08 +5.237714E-09 -5.873418E-08 +5.237714E-09 -1.761994E-07 +4.487147E-08 -5.873418E-08 +4.487147E-08 +1.642640E-07 
 -6.499519E-06 +1.125653E-05 +1.765122E-06 +1.125653E-05 -1.949744E-05 -3.057430E-06 +1.765122E-06 -3.057430E-06 +2.599696E-05 
 -5.943767E-05 -2.901649E-06 +2.475194E-05 -2.901649E-06 +2.707324E-06 -1.262217E-05 +2.475194E-05 -1.262217E-05 +5.673035E-05 
 -7.096943E-07 +1.153940E-06 -5.506595E-07 +1.153940E-06 -1.158111E-06 -3.918426E-07 -5.506595E-07 -3.918426E-07 +1.867806E-06 
 -1.088255E-08 -3.323449E-09 +5.631657E-10 -3.323449E-09 -2.098271E-08 -1.698096E-09 +5.631657E-10 -1.698096E-09 +3.186527E-08 
 -3.055295E-08 +1.889783E-08 -1.073073E-08 +1.889783E-08 -2.670894E-08 +6.380697E-09 -1.073073E-08 +6.380697E-09 +5.726190E-08 
 -3.342983E-08 -6.064774E-08 +3.124226E-08 -6.064774E-08 -5.732372E-08 -2.315311E-08 +3.124226E-08 -2.315311E-08 +9.075355E-08 
 -1.944022E-05 +1.762078E-05 -9.060430E-06 +1.762078E-05 -9.524771E-06 -6.443465E-06 -9.060430E-06 -6.443465E-06 +2.896499E-05 
 -6.359566E-08 -1.587630E-07 -3.368524E-08 -1.587630E-07 -8.380097E-08 -1.300637E-07 -3.368524E-08 -1.300637E-07 +1.473966E-07 
 -2.572723E-06 +1.988570E-06 -8.233769E-07 +1.988570E-06 -1.447261E-06 -1.616213E-08 -8.233769E-07 -1.616213E-08 +4.019984E-06 
 -1.271733E-08 -2.049668E-09 -1.021147E-09 -2.049668E-09 -8.326143E-09 -1.517889E-09 -1.021147E-09 -1.517889E-09 +2.104348E-08 
 -2.299054E-06 -3.559313E-07 -8.579107E-07 -3.559313E-07 -4.885781E-08 +3.515032E-08 -8.579107E-07 +3.515032E-08 +2.347912E-06 
 -8.093836E-07 -8.914577E-07 +6.772445E-07 -8.914577E-07 -1.100231E-06 +8.119673E-07 +6.772445E-07 +8.119673E-07 +1.909614E-06 
 +4.015067E-07 +5.197827E-06 +9.762489E-06 +5.197827E-06 -8.559584E-05 -2.607923E-05 +9.762489E-06 -2.607923E-05 +8.519433E-05 
 -1.823099E-08 -1.517270E-10 -8.593873E-09 -1.517270E-10 -1.012689E-08 -7.420919E-10 -8.593873E-09 -7.420919E-10 +2.835788E-08 
 -8.255131E-06 +1.533883E-05 +6.892601E-06 +1.533883E-05 -2.199208E-05 +2.507484E-06 +6.892601E-06 +2.507484E-06 +3.024721E-05 
 +1.543795E-07 -2.792636E-07 +1.116622E-06 -2.792636E-07 -3.222735E-06 +1.938088E-06 +1.116622E-06 +1.938088E-06 +3.068355E-06 
 -9.846177E-05 -7.730868E-06 +1.005263E-05 -7.730868E-06 +1.528389E-07 +9.508923E-06 +1.005263E-05 +9.508923E-06 +9.830893E-05 
 -1.083750E-06 -2.691524E-06 -1.205249E-06 -2.691524E-06 -3.707402E-06 +1.344776E-06 -1.205249E-06 +1.344776E-06 +4.791153E-06 
 -4.831345E-07 +2.000658E-06 -5.870270E-07 +2.000658E-06 -7.316306E-06 -4.450210E-07 -5.870270E-07 -4.450210E-07 +7.799441E-06 
 -9.046869E-08 -8.691765E-09 +2.964539E-08 -8.691765E-09 -2.103431E-08 +1.894408E-08 +2.964539E-08 +1.894408E-08 +1.115030E-07 
 -5.282825E-06 +6.479432E-06 +1.330585E-06 +6.479432E-06 -7.942265E-06 -1.927336E-06 +1.330585E-06 -1.927336E-06 +1.322509E-05 
 -5.511716E-08 +1.282064E-08 -3.147887E-09 +1.282064E-08 -4.975836E-08 +2.119517E-12 -3.147887E-09 +2.119517E-12 +1.048755E-07 
 -7.278004E-08 -2.053931E-08 +1.004207E-08 -2.053931E-08 -1.104649E-07 +4.748064E-08 +1.004207E-08 +4.748064E-08 +1.832449E-07 
 +6.418146E-09 -2.300442E-08 -7.400940E-08 -2.300442E-08 -4.441063E-07 -1.655666E-07 -7.400940E-08 -1.655666E-07 +4.376881E-07 
 -4.102548E-05 -4.492213E-05 -1.568199E-05 -4.492213E-05 -4.358926E-05 +5.404595E-06 -1.568199E-05 +5.404595E-06 +8.461474E-05 
 -5.067509E-08 +2.173685E-07 +1.885503E-07 +2.173685E-07 -5.075371E-07 -5.612312E-08 +1.885503E-07 -5.612312E-08 +5.582122E-07 
 -8.567663E-05 -6.077447E-05 -7.334390E-06 -6.077447E-05 -4.165179E-05 +8.461857E-06 -7.334390E-06 +8.461857E-06 +1.273284E-04 
 -6.114504E-08 -1.160930E-07 +1.224352E-07 -1.160930E-07 -2.771242E-07 +1.487691E-07 +1.224352E-07 +1.487691E-07 +3.382692E-07 
 +2.546716E-07 +1.042251E-06 +1.223291E-06 +1.042251E-06 -4.041021E-06 +9.038919E-07 +1.223291E-06 +9.038919E-07 +3.786350E-06 
 -1.164490E-08 -2.406906E-09 +5.672747E-09 -2.406906E-09 -1.076319E-08 +4.384067E-09 +5.672747E-09 +4.384067E-09 +2.240808E-08 
 -5.233385E-06 -1.492402E-06 +9.998980E-07 -1.492402E-06 -3.801222E-07 -2.394606E-07 +9.998980E-07 -2.394606E-07 +5.613507E-06 
 -2.655002E-04 -6.958171E-05 -1.718879E-05 -6.958171E-05 -1.592571E-05 -3.008921E-05 -1.718879E-05 -3.008921E-05 +2.814259E-04 
 -9.139764E-05 +2.327435E-05 -8.175902E-06 +2.327435E-05 -1.838067E-06 -1.752825E-05 -8.175902E-06 -1.752825E-05 +9.323571E-05 
 +2.568530E-06 +1.167729E-05 -1.345029E-05 +1.167729E-05 -6.038996E-05 -2.375582E-05 -1.345029E-05 -2.375582E-05 +5.782143E-05 
 -5.349668E-07 +4.702262E-07 -4.447733E-07 +4.702262E-07 -4.279295E-07 +3.165690E-07 -4.447733E-07 +3.165690E-07 +9.628964E-07 
 +6.977891E-09 -1.289380E-07 +2.036466E-07 -1.289380E-07 -4.031027E-06 -7.293065E-07 +2.036466E-07 -7.293065E-07 +4.024050E-06 
 -3.382539E-05 -4.830472E-05 +1.056341E-05 -4.830472E-05 -6.898817E-05 +1.508537E-05 +1.056341E-05 +1.508537E-05 +1.028136E-04 
 -3.712995E-06 +3.186820E-06 -1.803475E-06 +3.186820E-06 -2.035502E-06 -6.127683E-07 -1.803475E-06 -6.127683E-07 +5.748497E-06 
 -9.299662E-08 -1.698415E-08 +4.284130E-08 -1.698415E-08 -2.465040E-08 +3.903093E-08 +4.284130E-08 +3.903093E-08 +1.176470E-07 
 -7.967571E-09 +3.449196E-09 +4.397404E-09 +3.449196E-09 -9.368485E-09 -2.640822E-09 +4.397404E-09 -2.640822E-09 +1.733606E-08 
 -7.382140E-08 +1.608795E-08 -2.643984E-08 +1.608795E-08 -7.137126E-08 +2.306133E-08 -2.643984E-08 +2.306133E-08 +1.451927E-07 
 -2.810384E-06 +3.897026E-06 +1.836146E-06 +3.897026E-06 -5.424055E-06 -2.362821E-06 +1.836146E-06 -2.362821E-06 +8.234439E-06 
 -1.227623E-06 +7.289816E-07 +7.328135E-07 +7.289816E-07 -1.714829E-07 +2.688421E-07 +7.328135E-07 +2.688421E-07 +1.399106E-06 
 -7.941492E-08 +1.172103E-07 +1.859808E-07 +1.172103E-07 -3.313043E-07 -1.544176E-07 +1.859808E-07 -1.544176E-07 +4.107192E-07 
 -1.191162E-06 -1.491347E-07 -3.603948E-07 -1.491347E-07 +9.677265E-08 -4.635989E-07 -3.603948E-07 -4.635989E-07 +1.094390E-06 
 -7.699692E-07 +9.906383E-07 -6.659713E-08 +9.906383E-07 -1.158865E-06 -4.248208E-07 -6.659713E-08 -4.248208E-07 +1.928834E-06 
 -3.407381E-06 -3.727911E-06 +8.614571E-07 -3.727911E-06 -3.123750E-06 -1.607448E-06 +8.614571E-07 -1.607448E-06 +6.531131E-06 
 -6.445883E-06 -8.553493E-08 -1.816807E-06 -8.553493E-08 +3.964441E-07 -1.671570E-06 -1.816807E-06 -1.671570E-06 +6.049439E-06 
 -2.309638E-06 -1.903320E-06 +1.106494E-06 -1.903320E-06 -1.579438E-06 +8.744630E-07 +1.106494E-06 +8.744630E-07 +3.889077E-06 
 -9.081396E-07 +1.075765E-06 +4.521053E-08 +1.075765E-06 -1.235334E-06 -3.453731E-07 +4.521053E-08 -3.453731E-07 +2.143473E-06 
 +2.449565E-08 +1.233679E-07 +1.391362E-07 +1.233679E-07 -4.330754E-07 +1.234060E-07 +1.391362E-07 +1.234060E-07 +4.085797E-07 
 -6.906421E-06 +4.325831E-06 -2.238280E-06 +4.325831E-06 -2.239995E-06 +3.570760E-06 -2.238280E-06 +3.570760E-06 +9.146416E-06 
 -1.269531E-06 +1.271362E-06 -3.147512E-07 +1.271362E-06 -1.274610E-06 +3.193948E-07 -3.147512E-07 +3.193948E-07 +2.544142E-06 
 -2.273378E-08 +3.905635E-09 +8.478785E-09 +3.905635E-09 -1.776217E-08 -1.280559E-09 +8.478785E-09 -1.280559E-09 +4.049595E-08 
 -8.657521E-08 +1.671384E-07 -7.595293E-08 +1.671384E-07 -3.525923E-07 +2.363783E-07 -7.595293E-08 +2.363783E-07 +4.391675E-07 
 -6.752127E-05 +1.703064E-05 -5.773711E-06 +1.703064E-05 -1.990430E-06 +1.421762E-05 -5.773711E-06 +1.421762E-05 +6.951171E-05 
 -4.387067E-07 +2.484600E-07 -3.191706E-07 +2.484600E-07 -1.387925E-07 +6.158007E-08 -3.191706E-07 +6.158007E-08 +5.774992E-07 
 -1.346836E-08 -1.211627E-10 +1.712729E-09 -1.211627E-10 -3.011884E-08 +3.316982E-09 +1.712729E-09 +3.316982E-09 +4.358720E-08 
 -1.492880E-08 +3.792278E-08 -9.601417E-09 +3.792278E-08 -7.879357E-08 -4.721240E-08 -9.601417E-09 -4.721240E-08 +9.372237E-08 
 -4.263049E-08 -2.571191E-09 +1.332103E-09 -2.571191E-09 -2.782063E-08 +5.432541E-09 +1.332103E-09 +5.432541E-09 +7.045112E-08 
 -1.438802E-07 +4.842348E-07 +2.929090E-07 +4.842348E-07 -7.020277E-07 +1.834970E-07 +2.929090E-07 +1.834970E-07 +8.459079E-07 
 -1.650582E-06 +3.436473E-06 -8.396997E-07 +3.436473E-06 -6.977485E-06 +3.134667E-06 -8.396997E-07 +3.134667E-06 +8.628068E-06 
 -6.834391E-08 -7.331339E-09 +9.255596E-09 -7.331339E-09 -5.245358E-08 +4.595649E-09 +9.255596E-09 +4.595649E-09 +1.207975E-07 
 -2.422773E-07 +1.264884E-06 +1.458051E-06 +1.264884E-06 -2.175135E-06 -5.620572E-07 +1.458051E-06 -5.620572E-07 +2.417413E-06 
 +2.560584E-08 -1.218088E-08 -9.954605E-08 -1.218088E-08 -2.816224E-07 -7.743314E-08 -9.954605E-08 -7.743314E-08 +2.560166E-07 
 -4.397351E-06 -2.651625E-06 +2.555347E-06 -2.651625E-06 -1.355354E-06 +2.103655E-07 +2.555347E-06 +2.103655E-07 +5.752705E-06 
 -2.789167E-07 +5.139335E-07 +2.732826E-07 +5.139335E-07 -9.898512E-07 -6.684076E-07 +2.732826E-07 -6.684076E-07 +1.268768E-06 
 -2.063924E-08 -1.481506E-08 -1.974513E-09 -1.481506E-08 -2.539432E-08 -1.036222E-08 -1.974513E-09 -1.036222E-08 +4.603356E-08 
 -1.923385E-08 +8.001499E-09 +5.274450E-09 +8.001499E-09 -2.143235E-08 -7.384605E-09 +5.274450E-09 -7.384605E-09 +4.066620E-08 
 -3.856441E-08 +7.453501E-10 -1.416050E-08 +7.453501E-10 -2.868681E-08 -2.461433E-09 -1.416050E-08 -2.461433E-09 +6.725122E-08 
 -8.477970E-07 +4.948739E-07 +2.307860E-08 +4.948739E-07 -1.258896E-07 +3.892086E-07 +2.307860E-08 +3.892086E-07 +9.736866E-07 
 -8.969840E-06 -4.266763E-07 +1.364896E-06 -4.266763E-07 +1.221456E-07 +1.222618E-06 +1.364896E-06 +1.222618E-06 +8.847695E-06 
 -4.377022E-08 +5.002674E-09 +1.429974E-08 +5.002674E-09 -8.247186E-08 -2.765139E-08 +1.429974E-08 -2.765139E-08 +1.262421E-07 
 -2.705497E-07 +1.792664E-06 +1.630946E-06 +1.792664E-06 -5.666462E-06 -9.080824E-07 +1.630946E-06 -9.080824E-07 +5.937011E-06 
 -6.468984E-08 -6.083292E-08 +2.704892E-08 -6.083292E-08 -5.797088E-08 +3.623778E-08 +2.704892E-08 +3.623778E-08 +1.226607E-07 
 +9.076859E-08 -1.076362E-06 +1.024946E-06 -1.076362E-06 -3.231803E-06 -5.586682E-07 +1.024946E-06 -5.586682E-07 +3.141035E-06 
 -4.654722E-08 -4.917807E-08 +5.692163E-08 -4.917807E-08 -6.515953E-08 +3.014300E-08 +5.692163E-08 +3.014300E-08 +1.117067E-07 
 -3.685042E-06 -2.305238E-06 -1.035885E-06 -2.305238E-06 -1.295203E-06 -1.571544E-06 -1.035885E-06 -1.571544E-06 +4.980245E-06 
 +2.172127E-06 +2.396642E-06 -8.922842E-06 +2.396642E-06 -3.464831E-05 +2.351189E-06 -8.922842E-06 +2.351189E-06 +3.247618E-05 
 -2.514111E-07 -3.078309E-07 -2.997134E-07 -3.078309E-07 -2.204825E-07 -3.959745E-09 -2.997134E-07 -3.959745E-09 +4.718936E-07 
 -4.178769E-08 +1.829747E-08 -9.437678E-09 +1.829747E-08 -6.555379E-08 -3.334433E-09 -9.437678E-09 -3.334433E-09 +1.073415E-07 
 -5.508797E-09 +2.067606E-09 -1.617176E-09 +2.067606E-09 -1.099811E-08 +5.496984E-09 -1.617176E-09 +5.496984E-09 +1.650690E-08 
 -1.425542E-07 +8.809607E-08 +5.265650E-08 +8.809607E-08 -1.167298E-07 -1.215761E-07 +5.265650E-08 -1.215761E-07 +2.592840E-07 
 -1.828703E-05 -1.606347E-05 -5.745894E-06 -1.606347E-05 -1.247986E-05 -1.241198E-05 -5.745894E-06 -1.241198E-05 +3.076689E-05 
 -7.321549E-07 +4.921051E-07 +7.199363E-09 +4.921051E-07 -1.681815E-07 -4.081714E-07 +7.199363E-09 -4.081714E-07 +9.003365E-07 
 -5.049202E-09 +2.286333E-08 +3.736623E-09 +2.286333E-08 -4.231811E-07 +2.417377E-07 +3.736623E-09 +2.417377E-07 +4.282304E-07 
 -6.322928E-09 +2.602215E-09 +4.628792E-09 +2.602215E-09 -2.322859E-08 -9.215242E-09 +4.628792E-09 -9.215242E-09 +2.955152E-08 
 -2.515031E-08 -7.033582E-09 +1.356691E-10 -7.033582E-09 -2.775761E-08 +6.695130E-09 +1.356691E-10 +6.695130E-09 +5.290792E-08 
 -5.438925E-05 +2.151535E-05 +2.069998E-06 +2.151535E-05 -5.898412E-06 +1.174417E-05 +2.069998E-06 +1.174417E-05 +6.028766E-05 
 -5.023249E-06 +2.291086E-05 +6.496884E-06 +2.291086E-05 -6.819788E-05 +2.549001E-05 +6.496884E-06 +2.549001E-05 +7.322113E-05 
 -3.480756E-08 -1.177916E-08 -1.416884E-08 -1.177916E-08 -1.619288E-07 -8.188741E-08 -1.416884E-08 -8.188741E-08 +1.967364E-07 
 -5.092804E-05 -6.069137E-05 +8.727960E-06 -6.069137E-05 -7.233077E-05 +1.040119E-05 +8.727960E-06 +1.040119E-05 +1.232588E-04 
 -1.242445E-04 +3.329104E-05 +2.297979E-05 +3.329104E-05 -8.921518E-06 -6.157906E-06 +2.297979E-05 -6.157906E-06 +1.331660E-04 
 -5.192471E-07 +1.774543E-07 +2.835415E-07 +1.774543E-07 -8.847454E-08 -1.585733E-07 +2.835415E-07 -1.585733E-07 +6.077217E-07 
 -7.881462E-06 -2.940799E-05 -2.362078E-06 -2.940799E-05 -1.097539E-04 -8.815539E-06 -2.362078E-06 -8.815539E-06 +1.176354E-04 
 -7.239231E-06 +1.001217E-06 -1.531150E-06 +1.001217E-06 +9.413270E-08 +1.545734E-06 -1.531150E-06 +1.545734E-06 +7.145099E-06 
 -6.924854E-08 -2.241714E-09 -2.243798E-08 -2.241714E-09 -3.797263E-08 -5.239031E-09 -2.243798E-08 -5.239031E-09 +1.072212E-07 
 -4.716169E-06 -1.539041E-06 -6.112134E-07 -1.539041E-06 -1.139059E-07 -1.594484E-06 -6.112134E-07 -1.594484E-06 +4.830075E-06 
 -1.009352E-05 +3.793364E-07 -1.419837E-06 +3.793364E-07 +6.603325E-07 -2.517930E-06 -1.419837E-06 -2.517930E-06 +9.433193E-06 
 -9.101893E-05 +1.202580E-04 -4.313431E-05 +1.202580E-04 -1.400919E-04 -1.194550E-05 -4.313431E-05 -1.194550E-05 +2.311109E-04 
 -3.561759E-07 -1.349832E-07 -9.605264E-08 -1.349832E-07 -4.649058E-08 +6.412625E-08 -9.605264E-08 +6.412625E-08 +4.026664E-07 
 -6.415141E-08 +9.415031E-09 +2.009627E-08 +9.415031E-09 -3.739356E-08 -1.250224E-09 +2.009627E-08 -1.250224E-09 +1.015450E-07 
 -2.309421E-07 +4.227272E-07 +4.564290E-07 +4.227272E-07 -5.967687E-07 -6.090008E-08 +4.564290E-07 -6.090008E-08 +8.277109E-07 
 -1.159620E-07 +8.787701E-07 -5.667732E-07 +8.787701E-07 -1.872385E-06 -5.097108E-07 -5.667732E-07 -5.097108E-07 +1.988347E-06 
 -8.636653E-06 -2.771915E-07 +2.879252E-06 -2.771915E-07 +1.583879E-07 +1.390210E-06 +2.879252E-06 +1.390210E-06 +8.478265E-06 
 -6.376925E-07 +1.051515E-08 +3.969417E-08 +1.051515E-08 +3.259040E-08 +1.581640E-07 +3.969417E-08 +1.581640E-07 +6.051021E-07 
 -4.496636E-08 -7.019268E-09 -2.330874E-08 -7.019268E-09 -2.295598E-07 -1.469219E-07 -2.330874E-08 -1.469219E-07 +2.745261E-07 
 -1.683946E-07 +2.162520E-08 +6.847421E-08 +2.162520E-08 +3.820169E-08 -6.734099E-08 +6.847421E-08 -6.734099E-08 +1.301929E-07 
 -3.769202E-06 +2.336577E-06 -2.350063E-07 +2.336577E-06 -1.268934E-06 +1.101135E-06 -2.350063E-07 +1.101135E-06 +5.038136E-06 
 -4.653067E-08 -2.012298E-08 -3.469683E-09 -2.012298E-08 -4.720221E-08 -5.610657E-09 -3.469683E-09 -5.610657E-09 +9.373287E-08 
 -8.687378E-09 +8.287644E-10 -5.627554E-10 +8.287644E-10 -1.694340E-08 -7.129842E-09 -5.627554E-10 -7.129842E-09 +2.563078E-08 
 -8.148116E-08 +2.462754E-08 +9.859606E-09 +2.462754E-08 -2.928817E-07 -2.230968E-08 +9.859606E-09 -2.230968E-08 +3.743629E-07 
 -3.422835E-08 +5.895741E-08 +4.363315E-08 +5.895741E-08 -5.876132E-08 +7.204532E-09 +4.363315E-08 +7.204532E-09 +9.298967E-08 
 -1.805057E-08 +1.780229E-09 -7.678654E-10 +1.780229E-09 -2.726413E-08 +9.295480E-09 -7.678654E-10 +9.295480E-09 +4.531470E-08 
 -1.662387E-06 +3.651720E-06 -1.325075E-07 +3.651720E-06 -5.648807E-06 -3.891558E-06 -1.325075E-07 -3.891558E-06 +7.311194E-06 
 -1.026636E-04 -6.173849E-05 -2.441412E-05 -6.173849E-05 -3.565962E-05 -1.241202E-07 -2.441412E-05 -1.241202E-07 +1.383232E-04 
 -1.827564E-08 -2.492322E-09 +3.139737E-09 -2.492322E-09 -1.242967E-08 +1.399746E-09 +3.139737E-09 +1.399746E-09 +3.070532E-08 
 -9.844364E-08 +1.601334E-07 -1.518210E-07 +1.601334E-07 -2.531955E-07 +1.479912E-07 -1.518210E-07 +1.479912E-07 +3.516392E-07 
 -1.571241E-07 -9.818488E-08 -1.694385E-07 -9.818488E-08 -7.618112E-08 -4.605682E-08 -1.694385E-07 -4.605682E-08 +2.333052E-07 
 -2.433930E-08 +9.468318E-10 -4.819108E-10 +9.468318E-10 -1.930066E-08 +4.811314E-09 -4.819108E-10 +4.811314E-09 +4.363996E-08 
 -1.655749E-08 -4.619698E-09 +4.838959E-09 -4.619698E-09 -1.975975E-08 +1.024545E-08 +4.838959E-09 +1.024545E-08 +3.631724E-08 
 -3.191557E-06 +7.941935E-07 -1.607496E-08 +7.941935E-07 -1.971162E-07 -5.900939E-08 -1.607496E-08 -5.900939E-08 +3.388673E-06 
 -2.596896E-06 -1.954523E-06 -2.969645E-07 -1.954523E-06 -4.542631E-07 -2.007243E-06 -2.969645E-07 -2.007243E-06 +3.051159E-06 
 -4.749710E-05 +5.009229E-05 -1.042418E-05 +5.009229E-05 -4.683352E-05 -1.308972E-05 -1.042418E-05 -1.308972E-05 +9.433062E-05 
 -1.717368E-08 +4.494182E-09 -5.393960E-09 +4.494182E-09 -1.228221E-08 +2.961951E-09 -5.393960E-09 +2.961951E-09 +2.945589E-08 
 -8.723370E-07 -1.216695E-06 +5.208300E-07 -1.216695E-06 -1.599093E-06 +2.023286E-07 +5.208300E-07 +2.023286E-07 +2.471430E-06 
 -2.169368E-07 +2.214657E-08 +8.751315E-08 +2.214657E-08 -1.418910E-07 +8.943038E-09 +8.751315E-08 +8.943038E-09 +3.588277E-07 
 -4.643840E-06 +1.497417E-06 -3.090829E-06 +1.497417E-06 -4.233804E-07 +1.965807E-07 -3.090829E-06 +1.965807E-07 +5.067221E-06 
 -5.371063E-05 -1.954869E-05 -9.361421E-07 -1.954869E-05 -7.116486E-06 -3.406045E-07 -9.361421E-07 -3.406045E-07 +6.082712E-05 
 -2.442133E-05 +6.651125E-06 +1.309466E-05 +6.651125E-06 -7.934615E-07 +2.196284E-06 +1.309466E-05 +2.196284E-06 +2.521479E-05 
 -1.841443E-07 -5.006990E-08 +1.442826E-08 -5.006990E-08 -1.226320E-07 +2.062993E-08 +1.442826E-08 +2.062993E-08 +3.067764E-07 
 -2.120427E-08 -3.092658E-09 +8.131328E-09 -3.092658E-09 -1.935399E-08 +3.521252E-09 +8.131328E-09 +3.521252E-09 +4.055825E-08 
 -3.016870E-08 -1.589305E-09 +2.541916E-09 -1.589305E-09 -4.368390E-08 -6.963061E-10 +2.541916E-09 -6.963061E-10 +7.385259E-08 
 +3.112222E-06 -1.985034E-06 -1.316345E-05 -1.985034E-06 -5.829779E-05 +3.530283E-06 -1.316345E-05 +3.530283E-06 +5.518557E-05 
 -3.297698E-06 -4.507419E-06 +7.627018E-08 -4.507419E-06 -5.733189E-06 -1.880687E-06 +7.627018E-08 -1.880687E-06 +9.030888E-06 
 -1.303360E-06 -1.869513E-05 +1.363266E-05 -1.869513E-05 -5.855884E-05 -1.090156E-05 +1.363266E-05 -1.090156E-05 +5.986220E-05 
 -6.747853E-05 -2.464243E-05 -8.843951E-07 -2.464243E-05 -8.342483E-06 +6.736243E-06 -8.843951E-07 +6.736243E-06 +7.582101E-05 
 -3.362769E-05 +3.731694E-05 +6.286402E-06 +3.731694E-05 -3.035577E-05 -3.408285E-05 +6.286402E-06 -3.408285E-05 +6.398346E-05 
 -9.190835E-08 -3.968579E-08 -1.156082E-08 -3.968579E-08 -7.446243E-08 -2.370810E-08 -1.156082E-08 -2.370810E-08 +1.663708E-07 
 -2.898074E-07 -1.689314E-08 -1.556303E-07 -1.689314E-08 -1.572191E-08 -3.869749E-08 -1.556303E-07 -3.869749E-08 +3.055293E-07 
 +3.010888E-07 -3.294716E-07 -1.282783E-06 -3.294716E-07 -4.976609E-06 -3.874058E-07 -1.282783E-06 -3.874058E-07 +4.675521E-06 
 -8.394592E-08 +4.173718E-08 +1.215128E-08 +4.173718E-08 -8.360193E-08 -4.560163E-09 +1.215128E-08 -4.560163E-09 +1.675478E-07 
 -9.776601E-08 +1.845629E-07 +1.719945E-07 +1.845629E-07 -1.865002E-07 -9.845205E-09 +1.719945E-07 -9.845205E-09 +2.842662E-07 
 +1.575339E-07 +1.981943E-07 +4.491311E-07 +1.981943E-07 -1.413155E-06 +5.432892E-07 +4.491311E-07 +5.432892E-07 +1.255622E-06 
 -9.972461E-09 -2.066159E-08 -8.267254E-09 -2.066159E-08 -4.465353E-08 -3.017721E-08 -8.267254E-09 -3.017721E-08 +5.462600E-08 
 -1.750623E-07 +4.083005E-08 -1.024753E-07 +4.083005E-08 -1.093497E-08 +1.727118E-08 -1.024753E-07 +1.727118E-08 +1.859972E-07 
 -3.045535E-08 -1.631685E-08 +1.149735E-08 -1.631685E-08 -2.473187E-08 +1.920528E-08 +1.149735E-08 +1.920528E-08 +5.518722E-08 
 -3.125279E-08 +1.112867E-09 -2.222033E-09 +1.112867E-09 -2.685906E-08 -4.704942E-09 -2.222033E-09 -4.704942E-09 +5.811184E-08 
 -6.398579E-06 -2.475331E-06 +9.886402E-07 -2.475331E-06 -9.197040E-07 +9.303670E-07 +9.886402E-07 +9.303670E-07 +7.318282E-06 
 -3.411974E-05 -1.312292E-05 -1.028828E-06 -1.312292E-05 -4.586956E-06 +3.846455E-06 -1.028828E-06 +3.846455E-06 +3.870669E-05 
 -1.943597E-07 -1.120982E-07 +4.820656E-09 -1.120982E-07 -3.034446E-08 -8.890610E-08 +4.820656E-09 -8.890610E-08 +2.247041E-07 
 -7.485731E-05 +9.381189E-05 +3.103763E-05 +9.381189E-05 -1.004150E-04 +1.791814E-05 +3.103763E-05 +1.791814E-05 +1.752723E-04 
 -2.096585E-07 +2.308201E-08 +5.788276E-08 +2.308201E-08 -1.778949E-07 -3.051934E-08 +5.788276E-08 -3.051934E-08 +3.875534E-07 
 -6.999032E-11 -2.460730E-11 -5.057286E-11 -2.460730E-11 -3.800972E-05 -8.618309E-06 -5.057286E-11 -8.618309E-06 +3.800979E-05 
 -4.420131E-07 +7.024419E-07 -1.771184E-07 +7.024419E-07 -8.493411E-07 -3.443068E-07 -1.771184E-07 -3.443068E-07 +1.291354E-06 
 +6.321018E-07 +3.143379E-06 -4.911306E-06 +3.143379E-06 -3.235607E-05 -7.104180E-06 -4.911306E-06 -7.104180E-06 +3.172396E-05 
 -2.024061E-08 +7.692206E-09 -4.208610E-09 +7.692206E-09 -3.368345E-08 +1.680090E-08 -4.208610E-09 +1.680090E-08 +5.392406E-08 
 +9.553046E-08 -1.914246E-07 +5.208066E-07 -1.914246E-07 -1.811971E-06 +4.717828E-07 +5.208066E-07 +4.717828E-07 +1.716441E-06 
 -2.836426E-08 +4.957581E-09 -4.807492E-09 +4.957581E-09 -3.660964E-08 +5.848694E-09 -4.807492E-09 +5.848694E-09 +6.497390E-08 
 -6.003432E-05 -2.310018E-05 -1.176385E-05 -2.310018E-05 -8.906326E-06 -3.153892E-06 -1.176385E-05 -3.153892E-06 +6.894065E-05 
 -6.274257E-06 +1.315295E-05 +1.270535E-06 +1.315295E-05 -2.513648E-05 +6.339949E-06 +1.270535E-06 +6.339949E-06 +3.141073E-05 
 -9.054128E-06 -1.454103E-05 -5.248599E-06 -1.454103E-05 -2.030061E-05 +1.524539E-06 -5.248599E-06 +1.524539E-06 +2.935473E-05 
 -4.853535E-08 +2.209322E-09 -2.837248E-08 +2.209322E-09 -3.770830E-08 +8.508644E-10 -2.837248E-08 +8.508644E-10 +8.624365E-08 
 -7.430368E-07 +1.091637E-06 -4.509968E-09 +1.091637E-06 -1.301695E-06 +8.138452E-07 -4.509968E-09 +8.138452E-07 +2.044732E-06 
 -1.489861E-06 -1.408616E-06 +1.001270E-06 -1.408616E-06 -6.291982E-07 -4.652796E-07 +1.001270E-06 -4.652796E-07 +2.119059E-06 
 -8.023063E-07 +7.712510E-07 -2.719265E-07 +7.712510E-07 -7.495767E-07 +4.896064E-07 -2.719265E-07 +4.896064E-07 +1.551883E-06 
 -1.280049E-06 -3.087306E-06 -9.287829E-07 -3.087306E-06 -7.452565E-06 -1.254383E-06 -9.287829E-07 -1.254383E-06 +8.732613E-06 
 -2.671105E-08 -7.666271E-09 +2.573564E-10 -7.666271E-09 -2.338953E-08 -2.562610E-10 +2.573564E-10 -2.562610E-10 +5.010058E-08 
 -1.690773E-08 -1.115526E-10 -7.760617E-09 -1.115526E-10 -1.055554E-08 +3.159698E-09 -7.760617E-09 +3.159698E-09 +2.746327E-08 
 -3.798982E-06 +1.043617E-05 -1.465849E-06 +1.043617E-05 -2.867374E-05 +4.027469E-06 -1.465849E-06 +4.027469E-06 +3.247273E-05 
 -3.580054E-08 +5.798741E-09 -1.536877E-09 +5.798741E-09 -2.174159E-08 +3.455934E-09 -1.536877E-09 +3.455934E-09 +5.754213E-08 
 -8.848240E-06 -1.606999E-05 +4.260008E-06 -1.606999E-05 -2.799755E-05 +9.323991E-07 +4.260008E-06 +9.323991E-07 +3.684579E-05 
 -4.203228E-05 +4.061847E-05 +2.572420E-06 +4.061847E-05 -2.237637E-05 -3.557884E-05 +2.572420E-06 -3.557884E-05 +6.440865E-05 
 -1.229428E-05 -3.479868E-06 +2.267367E-07 -3.479868E-06 -8.476062E-07 -1.292673E-06 +2.267367E-07 -1.292673E-06 +1.314189E-05 
 -8.632112E-07 +4.142889E-07 -5.267586E-07 +4.142889E-07 -1.450666E-07 -1.297341E-07 -5.267586E-07 -1.297341E-07 +1.008278E-06 
 -2.902794E-07 -2.221344E-07 +1.834246E-07 -2.221344E-07 -1.906511E-07 +1.939780E-07 +1.834246E-07 +1.939780E-07 +4.809306E-07 
 -2.199217E-08 -7.814242E-09 -3.039539E-09 -7.814242E-09 -3.307877E-08 +3.076683E-09 -3.039539E-09 +3.076683E-09 +5.507094E-08 
 -5.831834E-08 -1.942039E-08 -2.347549E-08 -1.942039E-08 -3.935993E-08 -1.557244E-09 -2.347549E-08 -1.557244E-09 +9.767827E-08 
 -1.385906E-07 -1.674761E-08 -1.792825E-08 -1.674761E-08 +1.279992E-08 -4.737511E-08 -1.792825E-08 -4.737511E-08 +1.257907E-07 
 -3.415409E-08 -3.212532E-09 +2.012555E-08 -3.212532E-09 -3.241947E-08 +4.183334E-10 +2.012555E-08 +4.183334E-10 +6.657356E-08 
 -5.026509E-08 +2.719752E-09 -6.649400E-09 +2.719752E-09 -4.847446E-08 +5.698471E-09 -6.649400E-09 +5.698471E-09 +9.873955E-08 
 -4.908847E-08 +1.476248E-08 -1.091330E-08 +1.476248E-08 -8.175534E-08 +4.092836E-08 -1.091330E-08 +4.092836E-08 +1.308438E-07 
 -1.276764E-06 +1.299170E-07 -1.145843E-07 +1.299170E-07 +7.392002E-08 -3.142555E-07 -1.145843E-07 -3.142555E-07 +1.202844E-06 
 -1.561466E-07 -6.890571E-08 -6.131462E-08 -6.890571E-08 -6.945585E-08 -6.841083E-08 -6.131462E-08 -6.841083E-08 +2.256024E-07 
 -2.877175E-05 +6.109845E-05 -2.867816E-06 +6.109845E-05 -1.232429E-04 +3.761227E-05 -2.867816E-06 +3.761227E-05 +1.520146E-04 
 -3.108384E-08 +4.901765E-09 -1.210841E-10 +4.901765E-09 -2.546542E-08 -3.537343E-09 -1.210841E-10 -3.537343E-09 +5.654926E-08 
 -6.159215E-06 -5.095801E-06 +2.407397E-06 -5.095801E-06 -3.134246E-06 -1.348373E-06 +2.407397E-06 -1.348373E-06 +9.293461E-06 
 -1.856406E-07 +8.824112E-08 -2.556512E-08 +8.824112E-08 -3.903410E-07 +3.308084E-08 -2.556512E-08 +3.308084E-08 +5.759815E-07 
 -3.013108E-05 -8.073273E-06 -6.790112E-06 -8.073273E-06 -2.164709E-06 -1.819411E-06 -6.790112E-06 -1.819411E-06 +3.229579E-05 
 -6.302181E-05 +1.605626E-05 +2.604081E-05 +1.605626E-05 -3.367026E-06 +9.635514E-07 +2.604081E-05 +9.635514E-07 +6.638883E-05 
 -5.888573E-08 +1.661144E-08 +2.643157E-08 +1.661144E-08 -1.733100E-08 -5.572657E-09 +2.643157E-08 -5.572657E-09 +7.621672E-08 
 -4.255817E-08 -1.945652E-08 +1.144005E-08 -1.945652E-08 -2.838235E-08 +9.775437E-09 +1.144005E-08 +9.775437E-09 +7.094052E-08 
 -2.687580E-05 -6.133244E-06 +7.791773E-06 -6.133244E-06 -4.704935E-07 -3.512105E-06 +7.791773E-06 -3.512105E-06 +2.734630E-05 
 -4.158837E-08 +1.086862E-06 -9.105588E-07 +1.086862E-06 -5.618928E-06 -5.471136E-07 -9.105588E-07 -5.471136E-07 +5.660517E-06 
 -3.627599E-06 +2.251377E-06 +2.296122E-07 +2.251377E-06 -1.238949E-06 -1.053276E-06 +2.296122E-07 -1.053276E-06 +4.866548E-06 
 -2.668829E-05 +4.077241E-05 -2.162743E-05 +4.077241E-05 -4.666009E-05 -4.738122E-06 -2.162743E-05 -4.738122E-06 +7.334838E-05 
 -1.394405E-04 +8.003815E-06 +2.368693E-05 +8.003815E-06 +3.892870E-06 -2.604835E-05 +2.368693E-05 -2.604835E-05 +1.355476E-04 
 -5.062032E-07 +3.811892E-07 -2.928983E-07 +3.811892E-07 -2.966209E-07 +3.633778E-07 -2.928983E-07 +3.633778E-07 +8.028241E-07 
 -1.579260E-08 -1.756040E-07 +1.293593E-07 -1.756040E-07 -1.559053E-06 +2.577912E-07 +1.293593E-07 +2.577912E-07 +1.574845E-06 
 -2.107219E-06 +7.320406E-07 +6.012519E-07 +7.320406E-07 +8.336333E-08 -1.082541E-06 +6.012519E-07 -1.082541E-06 +2.023856E-06 
 -3.377713E-05 -1.035199E-05 -6.650574E-07 -1.035199E-05 -3.066775E-06 +1.821740E-06 -6.650574E-07 +1.821740E-06 +3.684390E-05 
 -3.806437E-08 +7.590836E-09 +5.222789E-11 +7.590836E-09 -6.079705E-08 +5.965773E-09 +5.222789E-11 +5.965773E-09 +9.886143E-08 
 -1.304148E-08 -7.605361E-10 +5.951893E-09 -7.605361E-10 -1.057225E-08 -4.235570E-10 +5.951893E-09 -4.235570E-10 +2.361373E-08 
 -3.354225E-06 -2.986199E-06 +5.141898E-07 -2.986199E-06 -2.013365E-06 -1.438321E-06 +5.141898E-07 -1.438321E-06 +5.367589E-06 
 -1.701690E-06 -1.091301E-06 +5.720561E-07 -1.091301E-06 -6.356530E-07 -4.129990E-08 +5.720561E-07 -4.129990E-08 +2.337343E-06 
 -1.258189E-08 +4.978587E-09 -3.663756E-09 +4.978587E-09 -1.799673E-08 +7.629221E-09 -3.663756E-09 +7.629221E-09 +3.057862E-08 
 -4.115142E-08 -2.367224E-08 +4.938672E-09 -2.367224E-08 -7.532641E-08 +7.963172E-09 +4.938672E-09 +7.963172E-09 +1.164778E-07 
 -2.624327E-05 -3.747873E-05 +1.624289E-06 -3.747873E-05 -5.352559E-05 +2.319791E-06 +1.624289E-06 +2.319791E-06 +7.976886E-05 
 -1.630785E-06 -7.740507E-06 -2.893061E-06 -7.740507E-06 -3.539831E-05 -6.119958E-06 -2.893061E-06 -6.119958E-06 +3.702909E-05 
 -1.281501E-07 +4.271378E-10 +4.216265E-08 +4.271378E-10 -2.113845E-08 -6.426268E-09 +4.216265E-08 -6.426268E-09 +1.492886E-07 
 -1.152623E-06 -3.382479E-06 -2.122831E-07 -3.382479E-06 -9.208597E-06 +2.114635E-06 -2.122831E-07 +2.114635E-06 +1.036122E-05 
 -1.721970E-07 -2.461292E-08 -8.936546E-08 -2.461292E-08 -4.078695E-08 -6.297735E-08 -8.936546E-08 -6.297735E-08 +2.129839E-07 
 -8.526002E-05 -3.975666E-05 -9.974285E-06 -3.975666E-05 -1.854029E-05 -4.651465E-06 -9.974285E-06 -4.651465E-06 +1.038003E-04 
 -3.156668E-05 +9.284474E-06 -6.006581E-06 +9.284474E-06 -2.735970E-06 +8.949983E-07 -6.006581E-06 +8.949983E-07 +3.430265E-05 
 -3.617352E-08 +6.669449E-09 +8.504744E-09 +6.669449E-09 -5.163194E-08 +5.325614E-10 +8.504744E-09 +5.325614E-10 +8.780547E-08 
 -4.479375E-06 -1.335264E-06 -7.878678E-07 -1.335264E-06 -4.695849E-09 +1.119290E-06 -7.878678E-07 +1.119290E-06 +4.484070E-06 
 -1.110357E-07 -2.813089E-08 +5.906886E-08 -2.813089E-08 -3.522111E-08 -1.423943E-08 +5.906886E-08 -1.423943E-08 +1.462568E-07 
 -2.121098E-08 -1.618378E-09 -9.783180E-09 -1.618378E-09 -9.098316E-09 -2.777072E-09 -9.783180E-09 -2.777072E-09 +3.030929E-08 
 -6.402994E-07 -4.075924E-07 -2.533891E-07 -4.075924E-07 -2.620700E-07 -2.124641E-07 -2.533891E-07 -2.124641E-07 +9.023695E-07 
 -5.246943E-07 +6.032020E-07 +1.628642E-08 +6.032020E-07 -4.469157E-07 +5.049105E-07 +1.628642E-08 +5.049105E-07 +9.716100E-07 
 -3.331523E-05 +1.284305E-06 -4.754170E-06 +1.284305E-06 +2.189440E-06 -8.302508E-06 -4.754170E-06 -8.302508E-06 +3.112579E-05 
 -5.873153E-05 +4.150282E-05 -3.551771E-06 +4.150282E-05 -2.833500E-05 -6.810484E-06 -3.551771E-06 -6.810484E-06 +8.706652E-05 
 -8.125100E-07 -6.177004E-08 -4.513614E-07 -6.177004E-08 -2.678133E-08 -1.045356E-07 -4.513614E-07 -1.045356E-07 +8.392913E-07 
 -5.883353E-05 -4.119539E-05 -5.612344E-06 -4.119539E-05 -2.884562E-05 -3.929414E-06 -5.612344E-06 -3.929414E-06 +8.767915E-05 
 -2.791355E-05 -7.661099E-06 +6.801545E-07 -7.661099E-06 +1.510701E-08 -7.529396E-06 +6.801545E-07 -7.529396E-06 +2.789845E-05 
 -6.103965E-08 +3.199402E-08 -5.940912E-08 +3.199402E-08 +5.757484E-08 +5.148356E-09 -5.940912E-08 +5.148356E-09 +3.464810E-09 
 -2.411106E-08 -8.045403E-09 -1.043813E-08 -8.045403E-09 -1.370548E-08 -6.315103E-09 -1.043813E-08 -6.315103E-09 +3.781654E-08 
 +1.735012E-08 +3.584597E-08 -2.061844E-08 +3.584597E-08 -8.600603E-09 +2.335962E-08 -2.061844E-08 +2.335962E-08 -8.749522E-09 
 -2.314648E-05 +4.141411E-05 +1.175296E-06 +4.141411E-05 -7.410168E-05 +6.895974E-07 +1.175296E-06 +6.895974E-07 +9.724816E-05 
 -2.379602E-07 +4.864646E-08 +2.003081E-08 +4.864646E-08 -7.921461E-07 -2.763823E-07 +2.003081E-08 -2.763823E-07 +1.030106E-06 
 -7.825770E-05 +1.857544E-05 +2.640840E-05 +1.857544E-05 -3.668551E-06 -1.449358E-05 +2.640840E-05 -1.449358E-05 +8.192625E-05 
 -1.096877E-07 -6.771788E-10 -3.062387E-08 -6.771788E-10 -3.174932E-08 -3.899010E-09 -3.062387E-08 -3.899010E-09 +1.414371E-07 
 +2.288181E-06 +1.299997E-05 -1.693626E-05 +1.299997E-05 -6.732123E-05 -4.168183E-06 -1.693626E-05 -4.168183E-06 +6.503305E-05 
 -4.869169E-07 +2.849811E-07 -1.497068E-07 +2.849811E-07 -1.105263E-07 +2.953171E-07 -1.497068E-07 +2.953171E-07 +5.974431E-07 
 -7.716726E-05 +1.360645E-05 -6.330699E-06 +1.360645E-05 -2.400858E-06 +1.115496E-06 -6.330699E-06 +1.115496E-06 +7.956812E-05 
 -4.185553E-08 +1.545714E-07 +1.315555E-07 +1.545714E-07 -2.312055E-07 +3.055265E-09 +1.315555E-07 +3.055265E-09 +2.730610E-07 
 -1.507998E-08 -5.914951E-09 -8.224465E-09 -5.914951E-09 -1.764837E-08 -5.994862E-09 -8.224465E-09 -5.994862E-09 +3.272834E-08 
 -5.763575E-08 -1.372706E-08 +3.122565E-08 -1.372706E-08 -1.423628E-08 -2.459839E-09 +3.122565E-08 -2.459839E-09 +7.187202E-08 
 -2.240788E-06 +2.029374E-06 +9.500030E-07 +2.029374E-06 -1.845644E-06 -1.139416E-06 +9.500030E-07 -1.139416E-06 +4.086432E-06 
 -4.634177E-08 -1.872079E-09 +4.703107E-09 -1.872079E-09 -6.083838E-08 -4.242650E-09 +4.703107E-09 -4.242650E-09 +1.071802E-07 
 -5.505911E-07 -2.894955E-07 +1.134632E-07 -2.894955E-07 -9.651382E-08 -1.368708E-07 +1.134632E-07 -1.368708E-07 +6.471049E-07 
 -1.619694E-06 -1.838636E-06 +1.128356E-07 -1.838636E-06 -1.948066E-06 +8.428274E-07 +1.128356E-07 +8.428274E-07 +3.567760E-06 
 -9.239575E-06 +3.448184E-05 +1.708284E-05 +3.448184E-05 -1.286878E-04 -6.375375E-05 +1.708284E-05 -6.375375E-05 +1.379273E-04 
 -2.075229E-07 -4.025988E-08 -1.514389E-08 -4.025988E-08 -1.118565E-07 -1.146556E-08 -1.514389E-08 -1.146556E-08 +3.193794E-07 
 -3.340892E-05 -9.726265E-06 -4.255555E-06 -9.726265E-06 -1.668077E-06 +5.249371E-06 -4.255555E-06 +5.249371E-06 +3.507700E-05 
 -1.539924E-08 -2.832135E-09 -7.449029E-09 -2.832135E-09 -1.229981E-08 +6.702160E-10 -7.449029E-09 +6.702160E-10 +2.769906E-08 
 -4.152846E-08 +2.447217E-09 -5.091281E-09 +2.447217E-09 -2.835622E-08 -2.870149E-09 -5.091281E-09 -2.870149E-09 +6.988468E-08 
 -2.081836E-07 +2.730786E-06 -1.923993E-06 +2.730786E-06 -8.417454E-06 -1.718026E-06 -1.923993E-06 -1.718026E-06 +8.625639E-06 
 -4.376011E-07 +5.068863E-07 +2.494762E-07 +5.068863E-07 -5.985363E-07 -2.776921E-07 +2.494762E-07 -2.776921E-07 +1.036137E-06 
 -1.052641E-08 +1.914582E-08 -1.103012E-08 +1.914582E-08 -1.117861E-07 +5.956838E-08 -1.103012E-08 +5.956838E-08 +1.223125E-07 
 -1.341723E-07 -6.582829E-08 -1.043443E-08 -6.582829E-08 -2.188234E-07 -2.211411E-08 -1.043443E-08 -2.211411E-08 +3.529957E-07 
 +3.255795E-09 -6.198352E-10 -2.487271E-10 -6.198352E-10 -1.397737E-07 +8.139649E-08 -2.487271E-10 +8.139649E-08 +1.365179E-07 
 -1.574021E-07 -2.104746E-07 +1.843218E-09 -2.104746E-07 -3.022250E-07 -2.045468E-07 +1.843218E-09 -2.045468E-07 +4.596270E-07 
 -4.137292E-08 +2.481248E-07 +1.427586E-07 +2.481248E-07 -8.686391E-07 +8.526459E-08 +1.427586E-07 +8.526459E-08 +9.100120E-07 
 -2.812989E-06 -1.594000E-05 +5.887700E-07 -1.594000E-05 -9.040222E-05 +3.337623E-06 +5.887700E-07 +3.337623E-06 +9.321521E-05 
 -2.438860E-08 -1.425813E-09 +1.064850E-08 -1.425813E-09 -7.269506E-09 +5.239825E-10 +1.064850E-08 +5.239825E-10 +3.165811E-08 
 -2.532307E-08 -1.719107E-08 -1.905329E-10 -1.719107E-08 -9.612363E-08 +7.660263E-09 -1.905329E-10 +7.660263E-09 +1.214467E-07 
 -4.073806E-06 +4.417642E-07 +1.243583E-09 +4.417642E-07 -2.676789E-09 -4.431093E-07 +1.243583E-09 -4.431093E-07 +4.076483E-06 
 -1.789482E-08 -5.875186E-09 -2.497049E-09 -5.875186E-09 -1.444571E-08 +1.463611E-10 -2.497049E-09 +1.463611E-10 +3.234053E-08 
 -5.823776E-08 +2.003898E-08 -4.123984E-09 +2.003898E-08 -2.602598E-08 +3.141432E-09 -4.123984E-09 +3.141432E-09 +8.426374E-08 
 +3.424596E-09 +3.542499E-08 -1.257471E-07 +3.542499E-08 -7.529145E-07 +4.106518E-07 -1.257471E-07 +4.106518E-07 +7.494899E-07 
 -4.844324E-08 -7.585133E-09 -6.142578E-09 -7.585133E-09 -4.271832E-08 -4.659506E-09 -6.142578E-09 -4.659506E-09 +9.116156E-08 
 -2.560422E-08 -3.144504E-09 -8.532328E-09 -3.144504E-09 -1.494513E-08 -2.278604E-09 -8.532328E-09 -2.278604E-09 +4.054935E-08 
 -1.010461E-07 +4.577438E-07 +2.867011E-07 +4.577438E-07 -8.311356E-07 +1.770093E-07 +2.867011E-07 +1.770093E-07 +9.321817E-07 
 -5.420994E-08 +4.906940E-07 -5.624005E-07 +4.906940E-07 -1.012643E-06 +2.091097E-07 -5.624005E-07 +2.091097E-07 +1.066853E-06 
 -3.817920E-08 -8.195455E-09 -3.172060E-09 -8.195455E-09 -2.440574E-08 -4.756888E-09 -3.172060E-09 -4.756888E-09 +6.258494E-08 
 -4.414264E-07 -2.595579E-07 +3.152634E-07 -2.595579E-07 -1.689392E-07 +1.358842E-07 +3.152634E-07 +1.358842E-07 +6.103656E-07 
 -1.940101E-08 +1.646901E-09 +7.895708E-09 +1.646901E-09 -1.473116E-08 +2.628407E-09 +7.895708E-09 +2.628407E-09 +3.413217E-08 
 -3.990091E-06 +4.667226E-07 +7.025992E-07 +4.667226E-07 -2.291438E-09 +3.902345E-07 +7.025992E-07 +3.902345E-07 +3.992382E-06 
 -5.963414E-05 -1.014833E-04 +1.025318E-05 -1.014833E-04 -1.657711E-04 +5.718619E-05 +1.025318E-05 +5.718619E-05 +2.254053E-04 
 -2.226622E-08 +4.630238E-09 +7.593053E-09 +4.630238E-09 -2.044372E-08 -5.185707E-09 +7.593053E-09 -5.185707E-09 +4.270995E-08 
 -7.593090E-08 +6.760705E-09 +2.954353E-08 +6.760705E-09 -5.608701E-08 -1.157835E-09 +2.954353E-08 -1.157835E-09 +1.320179E-07 
 -1.267150E-05 +3.446967E-07 -3.295289E-07 +3.446967E-07 +2.691311E-07 -1.860269E-06 -3.295289E-07 -1.860269E-06 +1.240237E-05 
 -1.865817E-05 +5.125834E-05 +2.025089E-05 +5.125834E-05 -1.408332E-04 -5.564272E-05 +2.025089E-05 -5.564272E-05 +1.594914E-04 
 -1.986109E-05 +3.554531E-05 +1.631399E-05 +3.554531E-05 -5.660034E-05 -3.883042E-06 +1.631399E-05 -3.883042E-06 +7.646144E-05 
 -1.876002E-08 -2.451589E-09 -2.250932E-09 -2.451589E-09 -1.630952E-08 -1.922924E-09 -2.250932E-09 -1.922924E-09 +3.506955E-08 
 -5.645279E-09 +1.609388E-09 -8.358375E-10 +1.609388E-09 -7.855874E-09 -2.962468E-09 -8.358375E-10 -2.962468E-09 +1.350115E-08 
 +1.458379E-07 -4.464952E-07 -7.279065E-07 -4.464952E-07 -1.974191E-06 -2.002048E-07 -7.279065E-07 -2.002048E-07 +1.828354E-06 
 -1.524251E-08 +5.242241E-09 +2.210425E-09 +5.242241E-09 -2.119866E-08 -1.093153E-09 +2.210425E-09 -1.093153E-09 +3.644118E-08 
 -7.036088E-08 +1.404358E-09 +7.548141E-09 +1.404358E-09 -6.929286E-08 +1.070215E-08 +7.548141E-09 +1.070215E-08 +1.396537E-07 
 -2.206314E-06 -2.541638E-06 -4.963736E-07 -2.541638E-06 -2.766057E-06 +3.465344E-07 -4.963736E-07 +3.465344E-07 +4.972371E-06 
 -7.387383E-08 +4.130382E-08 +1.469880E-08 +4.130382E-08 -3.620685E-08 +6.702015E-09 +1.469880E-08 +6.702015E-09 +1.100807E-07 
 -1.819144E-06 -1.670143E-05 -1.278780E-05 -1.670143E-05 -1.043393E-04 -1.907223E-05 -1.278780E-05 -1.907223E-05 +1.061584E-04 
 -3.509553E-06 -4.320944E-06 -5.165451E-07 -4.320944E-06 -4.703058E-06 +1.634571E-06 -5.165451E-07 +1.634571E-06 +8.212612E-06 
 -4.450228E-07 +1.347178E-07 -2.621968E-07 +1.347178E-07 -5.143424E-08 -2.613508E-08 -2.621968E-07 -2.613508E-08 +4.964571E-07 
 -7.784473E-09 -1.960340E-08 -2.183936E-08 -1.960340E-08 -8.764971E-08 -1.386632E-08 -2.183936E-08 -1.386632E-08 +9.543418E-08 
 -3.225318E-06 -2.251083E-06 +1.380560E-06 -2.251083E-06 -1.280145E-06 -2.577518E-07 +1.380560E-06 -2.577518E-07 +4.505463E-06 
 -7.666537E-06 +4.354668E-06 -9.894208E-07 +4.354668E-06 -2.154905E-06 +2.344202E-06 -9.894208E-07 +2.344202E-06 +9.821443E-06 
 -1.388796E-07 -1.049019E-08 -2.493522E-08 -1.049019E-08 -3.818627E-07 -1.807999E-08 -2.493522E-08 -1.807999E-08 +5.207423E-07 
 -3.985475E-05 +1.067839E-05 +5.698234E-06 +1.067839E-05 -2.863595E-06 -1.526295E-06 +5.698234E-06 -1.526295E-06 +4.271834E-05 
 -8.711773E-09 -1.704258E-09 +4.648856E-09 -1.704258E-09 -5.175844E-09 +1.002257E-09 +4.648856E-09 +1.002257E-09 +1.388762E-08 
 -3.465656E-06 +3.177365E-06 -1.236761E-06 +3.177365E-06 -2.753912E-06 +2.177147E-06 -1.236761E-06 +2.177147E-06 +6.219569E-06 
 -1.494227E-06 +1.212706E-06 -1.310679E-06 +1.212706E-06 -9.675109E-07 +6.646297E-07 -1.310679E-06 +6.646297E-07 +2.461738E-06 
 -5.157889E-08 -2.545107E-07 +3.597834E-07 -2.545107E-07 -8.001322E-07 +4.373147E-07 +3.597834E-07 +4.373147E-07 +8.517110E-07 
 -9.573999E-05 +2.411841E-05 -1.689508E-05 +2.411841E-05 -5.242121E-06 +1.366382E-05 -1.689508E-05 +1.366382E-05 +1.009821E-04 
 -5.627265E-08 -3.729793E-10 +6.127035E-09 -3.729793E-10 -7.292268E-08 -3.789158E-09 +6.127035E-09 -3.789158E-09 +1.291953E-07 
 -4.296788E-08 +1.002708E-08 +4.457280E-09 +1.002708E-08 -3.357102E-08 -3.807778E-09 +4.457280E-09 -3.807778E-09 +7.653889E-08 
 -3.260230E-06 -1.009650E-05 +2.829267E-06 -1.009650E-05 -2.836639E-05 -1.324418E-06 +2.829267E-06 -1.324418E-06 +3.162662E-05 
 -1.028965E-06 -3.330407E-07 -1.550018E-07 -3.330407E-07 +2.790129E-08 +3.286262E-07 -1.550018E-07 +3.286262E-07 +1.001064E-06 
 -2.263759E-07 +1.446746E-07 +8.987384E-08 +1.446746E-07 -2.976970E-07 -7.392577E-08 +8.987384E-08 -7.392577E-08 +5.240729E-07 
 -6.635413E-05 +8.062045E-06 +1.330632E-05 +8.062045E-06 +3.781497E-06 -1.932678E-05 +1.330632E-05 -1.932678E-05 +6.257263E-05 
 -7.982345E-05 +3.674046E-05 -2.016574E-05 +3.674046E-05 -1.583335E-05 -1.205795E-06 -2.016574E-05 -1.205795E-06 +9.565680E-05 
 -4.399681E-06 +2.009922E-06 +2.030836E-06 +2.009922E-06 -8.592787E-07 -3.019332E-07 +2.030836E-06 -3.019332E-07 +5.258959E-06 
 -1.339176E-04 +5.032365E-05 -1.702053E-05 +5.032365E-05 -1.758831E-05 -7.905105E-06 -1.702053E-05 -7.905105E-06 +1.515059E-04 
 -4.032356E-05 +6.983400E-05 -3.118735E-05 +6.983400E-05 -1.209610E-04 +5.401895E-05 -3.118735E-05 +5.401895E-05 +1.612845E-04 
 -3.497701E-05 +6.057941E-05 -2.952858E-05 +6.057941E-05 -1.049278E-04 +5.114545E-05 -2.952858E-05 +5.114545E-05 +1.399048E-04 
 +1.519611E-06 +2.539225E-06 -6.695462E-06 +2.539225E-06 -2.679280E-05 -7.289478E-07 -6.695462E-06 -7.289478E-07 +2.527319E-05 
 -5.938229E-07 +5.735863E-07 -1.966398E-07 +5.735863E-07 -5.433965E-07 +3.676055E-07 -1.966398E-07 +3.676055E-07 +1.137219E-06 
 -7.757225E-06 +4.095870E-06 -6.019999E-08 +4.095870E-06 -1.424645E-06 -2.583559E-06 -6.019999E-08 -2.583559E-06 +9.181869E-06 
 -4.705495E-08 -4.405548E-08 +6.006131E-08 -4.405548E-08 -2.979559E-07 -1.298657E-07 +6.006131E-08 -1.298657E-07 +3.450108E-07 
 -1.860619E-07 +1.567761E-08 +1.148695E-07 +1.567761E-08 -2.909822E-08 +7.810712E-09 +1.148695E-07 +7.810712E-09 +2.151601E-07 
 -1.122757E-06 +4.507641E-07 +6.470686E-07 +4.507641E-07 -2.257091E-07 -3.387152E-07 +6.470686E-07 -3.387152E-07 +1.348467E-06 
 -1.668775E-07 -3.601114E-07 +9.378958E-08 -3.601114E-07 -4.414594E-07 -2.938163E-07 +9.378958E-08 -2.938163E-07 +6.083368E-07 
 -4.896856E-07 +1.453086E-06 +8.919408E-07 +1.453086E-06 -3.179194E-06 -1.586244E-07 +8.919408E-07 -1.586244E-07 +3.668879E-06 
 -5.892500E-08 -1.271839E-08 +5.345419E-10 -1.271839E-08 -7.991819E-08 +2.906845E-08 +5.345419E-10 +2.906845E-08 +1.388432E-07 
 -5.476724E-08 +7.378349E-09 +7.780010E-09 +7.378349E-09 -1.239379E-09 +1.687810E-08 +7.780010E-09 +1.687810E-08 +5.600663E-08 
 -1.276139E-07 +1.075424E-08 +4.687647E-08 +1.075424E-08 -3.324729E-08 -3.227887E-08 +4.687647E-08 -3.227887E-08 +1.608612E-07 
 -2.882386E-05 +2.574003E-06 -5.102456E-06 +2.574003E-06 -2.411799E-07 +4.033813E-07 -5.102456E-06 +4.033813E-07 +2.906504E-05 
 -4.492616E-05 +6.322617E-05 -6.075703E-06 +6.322617E-05 -8.593418E-05 +2.863147E-05 -6.075703E-06 +2.863147E-05 +1.308603E-04 
 -2.968249E-08 -8.760304E-10 -6.332615E-09 -8.760304E-10 -3.364891E-08 +1.531396E-08 -6.332615E-09 +1.531396E-08 +6.333141E-08 
 -1.345381E-04 +7.188875E-05 +2.827835E-05 +7.188875E-05 -3.135498E-05 -5.006544E-05 +2.827835E-05 -5.006544E-05 +1.658931E-04 
 +5.475540E-07 +1.954342E-06 -4.414573E-06 +1.954342E-06 -3.178666E-05 -5.120830E-06 -4.414573E-06 -5.120830E-06 +3.123911E-05 
 -2.453318E-05 +1.448225E-05 -3.920504E-06 +1.448225E-05 -7.041954E-06 -4.667593E-06 -3.920504E-06 -4.667593E-06 +3.157513E-05 
 -1.006292E-06 +6.931958E-07 -5.619400E-07 +6.931958E-07 -2.434196E-07 -2.286093E-07 -5.619400E-07 -2.286093E-07 +1.249711E-06 
 -1.789203E-08 -2.940324E-09 +8.457211E-09 -2.940324E-09 -3.425791E-08 +1.461157E-08 +8.457211E-09 +1.461157E-08 +5.214994E-08 
 +1.393703E-07 -1.840707E-06 +2.092309E-06 -1.840707E-06 -1.117621E-05 -7.621160E-07 +2.092309E-06 -7.621160E-07 +1.103684E-05 
 -1.077484E-07 -7.137310E-06 -6.264067E-06 -7.137310E-06 -3.013171E-05 +2.922346E-06 -6.264067E-06 +2.922346E-06 +3.023946E-05 
 -5.347168E-09 +1.815792E-09 -4.025144E-10 +1.815792E-09 -2.087451E-08 -7.959180E-09 -4.025144E-10 -7.959180E-09 +2.622168E-08 
 -9.227016E-08 -5.434737E-08 -3.428467E-08 -5.434737E-08 -7.466325E-08 -4.386944E-08 -3.428467E-08 -4.386944E-08 +1.669334E-07 
 -3.148029E-06 -1.063912E-05 -2.665839E-06 -1.063912E-05 -2.743161E-05 +7.763369E-06 -2.665839E-06 +7.763369E-06 +3.057964E-05 
 -2.423791E-05 -1.130233E-05 -1.234077E-06 -1.130233E-05 -5.270417E-06 -5.754425E-07 -1.234077E-06 -5.754425E-07 +2.950833E-05 
 -9.900292E-08 -2.585145E-08 +1.242164E-08 -2.585145E-08 -6.051837E-08 -8.361122E-09 +1.242164E-08 -8.361122E-09 +1.595213E-07 
 +6.423649E-07 -1.143299E-06 +2.233449E-06 -1.143299E-06 -8.085178E-06 -2.348309E-06 +2.233449E-06 -2.348309E-06 +7.442813E-06 
 -1.994830E-06 -1.037734E-06 -1.027830E-06 -1.037734E-06 -4.801561E-07 -9.788919E-08 -1.027830E-06 -9.788919E-08 +2.474986E-06 
 -3.543560E-08 -1.528579E-08 -3.643414E-09 -1.528579E-08 -1.163302E-08 +2.511432E-09 -3.643414E-09 +2.511432E-09 +4.706862E-08 
 -3.056645E-08 -1.323139E-08 -4.465979E-09 -1.323139E-08 -1.128982E-07 +3.148153E-08 -4.465979E-09 +3.148153E-08 +1.434647E-07 
 +1.482180E-08 +8.476733E-08 -1.031890E-07 +8.476733E-08 -3.009339E-07 -1.011957E-08 -1.031890E-07 -1.011957E-08 +2.861121E-07 
 -2.019961E-08 +7.465658E-09 +7.286780E-09 +7.465658E-09 -1.455856E-08 -7.967801E-09 +7.286780E-09 -7.967801E-09 +3.475816E-08 
 -1.311041E-06 -2.193954E-06 +6.445489E-07 -2.193954E-06 -3.599024E-06 +1.728223E-06 +6.445489E-07 +1.728223E-06 +4.910065E-06 
 -5.499178E-06 -1.957299E-07 +5.927670E-08 -1.957299E-07 +7.565055E-08 +6.740684E-07 +5.927670E-08 +6.740684E-07 +5.423527E-06 
 -4.075479E-06 -3.289828E-06 +6.670482E-07 -3.289828E-06 -2.609702E-06 +1.102060E-06 +6.670482E-07 +1.102060E-06 +6.685180E-06 
 -3.557604E-08 -1.670638E-08 -3.521947E-09 -1.670638E-08 -2.340195E-08 -1.521963E-09 -3.521947E-09 -1.521963E-09 +5.897799E-08 
 -1.285995E-08 +1.040833E-09 +4.406864E-09 +1.040833E-09 -9.923665E-09 +3.998744E-10 +4.406864E-09 +3.998744E-10 +2.278362E-08 
 -2.122212E-08 +6.402625E-09 +3.847944E-09 +6.402625E-09 -5.441182E-08 -2.655934E-08 +3.847944E-09 -2.655934E-08 +7.563393E-08 
 -2.717194E-06 +3.530959E-06 +1.379184E-06 +3.530959E-06 -4.561263E-06 -2.298678E-06 +1.379184E-06 -2.298678E-06 +7.278457E-06 
 -3.246108E-05 -3.423916E-06 +1.224633E-05 -3.423916E-06 -2.692788E-07 -1.157485E-06 +1.224633E-05 -1.157485E-06 +3.273036E-05 
 -3.769956E-07 -3.930789E-08 +6.869877E-08 -3.930789E-08 +3.291610E-08 +1.335929E-07 +6.869877E-08 +1.335929E-07 +3.440796E-07 
 -1.259063E-07 -2.404196E-08 +1.006596E-07 -2.404196E-08 -1.261650E-08 -1.329893E-08 +1.006596E-07 -1.329893E-08 +1.385228E-07 
 -8.596143E-09 -3.943339E-09 +3.110824E-09 -3.943339E-09 -2.739590E-08 +7.735907E-10 +3.110824E-09 +7.735907E-10 +3.599204E-08 
 -6.019904E-08 +3.079508E-08 -1.963776E-08 +3.079508E-08 -7.670745E-08 +3.465845E-08 -1.963776E-08 +3.465845E-08 +1.369065E-07 
 -6.172930E-08 +3.996919E-08 +2.797437E-08 +3.996919E-08 -2.909003E-07 +1.008066E-07 +2.797437E-08 +1.008066E-07 +3.526296E-07 
 -6.229188E-07 -7.156643E-07 -4.861346E-07 -7.156643E-07 -4.074359E-07 +2.078962E-07 -4.861346E-07 +2.078962E-07 +1.030355E-06 
 -6.492953E-09 +1.166977E-06 +9.081846E-07 +1.166977E-06 -6.381274E-06 +1.528103E-06 +9.081846E-07 +1.528103E-06 +6.387768E-06 
 -2.184538E-08 +1.134214E-08 +7.559757E-10 +1.134214E-08 -4.573992E-08 +5.420775E-09 +7.559757E-10 +5.420775E-09 +6.758530E-08 
 -1.102617E-08 +3.278221E-08 +3.876387E-08 +3.278221E-08 -9.188140E-08 -5.025171E-08 +3.876387E-08 -5.025171E-08 +1.029076E-07 
 -3.079338E-06 +4.960394E-06 -7.109360E-07 +4.960394E-06 -7.975709E-06 +1.835199E-06 -7.109360E-07 +1.835199E-06 +1.105505E-05 
 -2.181111E-06 +9.859378E-07 +7.245413E-07 +9.859378E-07 -4.328608E-07 -6.248944E-07 +7.245413E-07 -6.248944E-07 +2.613971E-06 
 +2.153207E-08 -5.777345E-08 +3.321729E-08 -5.777345E-08 -4.605370E-08 +4.750559E-08 +3.321729E-08 +4.750559E-08 +2.452163E-08 
 -7.573157E-05 -3.772798E-06 -1.609108E-05 -3.772798E-06 +2.181044E-06 -1.440199E-05 -1.609108E-05 -1.440199E-05 +7.355052E-05 
 -4.830362E-07 +2.474189E-07 -3.449249E-07 +2.474189E-07 -2.819963E-07 +4.072209E-08 -3.449249E-07 +4.072209E-08 +7.650325E-07 
 -1.218437E-08 -1.116188E-08 -1.419685E-08 -1.116188E-08 +4.587392E-09 -1.509593E-09 -1.419685E-08 -1.509593E-09 +7.596980E-09 
 -7.665169E-08 -2.113871E-08 +4.463575E-09 -2.113871E-08 -2.275741E-08 +4.302314E-09 +4.463575E-09 +4.302314E-09 +9.940910E-08 
 -1.879828E-06 +6.268364E-07 +6.057087E-07 +6.268364E-07 -1.984863E-07 -4.594114E-07 +6.057087E-07 -4.594114E-07 +2.078314E-06 
 -3.838982E-08 -4.852766E-08 -3.647969E-08 -4.852766E-08 -1.791374E-07 -1.205232E-07 -3.647969E-08 -1.205232E-07 +2.175272E-07 
 -4.323161E-08 +3.608470E-09 -5.554876E-10 +3.608470E-09 -3.928683E-08 -4.515902E-09 -5.554876E-10 -4.515902E-09 +8.251844E-08 
 -2.176576E-05 -3.168332E-05 +6.266957E-06 -3.168332E-05 -4.613473E-05 +1.022142E-05 +6.266957E-06 +1.022142E-05 +6.790050E-05 
 -1.559484E-07 +1.472286E-07 +1.751906E-07 +1.472286E-07 -1.319794E-07 -6.791463E-08 +1.751906E-07 -6.791463E-08 +2.879277E-07 
 -8.571244E-08 -4.393348E-08 -5.600155E-08 -4.393348E-08 -3.414430E-09 -3.253774E-08 -5.600155E-08 -3.253774E-08 +8.912686E-08 
 -5.808157E-08 -6.255741E-08 -3.603136E-08 -6.255741E-08 -2.306728E-07 +1.278996E-07 -3.603136E-08 +1.278996E-07 +2.887544E-07 
 -2.877428E-07 +1.876702E-06 +7.803020E-07 +1.876702E-06 -1.001846E-05 +2.096074E-07 +7.803020E-07 +2.096074E-07 +1.030620E-05 
 -2.357076E-07 +4.482335E-07 -2.123512E-07 +4.482335E-07 -9.292095E-07 +6.262532E-07 -2.123512E-07 +6.262532E-07 +1.164917E-06 
 -8.182633E-08 -2.240761E-08 -4.104461E-08 -2.240761E-08 -3.149987E-08 -1.629144E-08 -4.104461E-08 -1.629144E-08 +1.133262E-07 
 -1.821884E-08 -6.919759E-09 +5.188313E-09 -6.919759E-09 -1.803929E-08 +5.532534E-09 +5.188313E-09 +5.532534E-09 +3.625813E-08 
 -4.771220E-08 -6.315179E-09 -1.060200E-08 -6.315179E-09 -4.401739E-08 -2.771038E-09 -1.060200E-08 -2.771038E-09 +9.172959E-08 
 -6.248273E-08 +1.842167E-07 +2.328743E-08 +1.842167E-07 -4.715255E-07 -3.314547E-07 +2.328743E-08 -3.314547E-07 +5.340082E-07 
 -8.397192E-08 +1.257782E-08 -7.165486E-09 +1.257782E-08 -1.104469E-07 +1.334829E-08 -7.165486E-09 +1.334829E-08 +1.944188E-07 
 -3.922360E-05 -8.264199E-05 -3.367481E-06 -8.264199E-05 -1.426017E-04 -8.302969E-05 -3.367481E-06 -8.302969E-05 +1.818253E-04 
 -2.628615E-07 -1.022531E-06 -6.505304E-08 -1.022531E-06 -3.684503E-06 -1.500229E-06 -6.505304E-08 -1.500229E-06 +3.947364E-06 
 -1.541929E-06 -2.044430E-06 -7.788564E-07 -2.044430E-06 -2.401023E-06 +1.492246E-07 -7.788564E-07 +1.492246E-07 +3.942952E-06 
 -1.403878E-06 +1.003953E-07 -4.264536E-07 +1.003953E-07 +4.169352E-08 +3.104033E-07 -4.264536E-07 +3.104033E-07 +1.362184E-06 
 -1.778667E-06 -6.548412E-07 -7.349078E-07 -6.548412E-07 -2.313026E-07 -6.277553E-08 -7.349078E-07 -6.277553E-08 +2.009970E-06 
 -4.198761E-07 +2.464212E-05 +1.980723E-05 +2.464212E-05 -2.532969E-04 +2.825659E-05 +1.980723E-05 +2.825659E-05 +2.537168E-04 
 -3.136588E-04 -7.908459E-05 -5.473022E-05 -7.908459E-05 -1.716136E-05 -4.462096E-05 -5.473022E-05 -4.462096E-05 +3.308202E-04 
 -4.412293E-07 -3.473543E-07 -9.959618E-08 -3.473543E-07 -1.666792E-07 +1.906043E-07 -9.959618E-08 +1.906043E-07 +6.079084E-07 
 +5.142812E-07 -9.820162E-06 -1.272353E-05 -9.820162E-06 -6.382478E-05 -7.974592E-06 -1.272353E-05 -7.974592E-06 +6.331050E-05 
 +1.067204E-06 -9.916106E-07 +5.927372E-06 -9.916106E-07 -2.423966E-05 +9.581810E-06 +5.927372E-06 +9.581810E-06 +2.317246E-05 
 -3.458188E-06 +2.477159E-06 -3.771025E-08 +2.477159E-06 -1.502402E-06 +1.196639E-06 -3.771025E-08 +1.196639E-06 +4.960591E-06 
 -4.507652E-07 -1.478641E-08 +2.134099E-07 -1.478641E-08 -3.156648E-08 +1.033669E-07 +2.134099E-07 +1.033669E-07 +4.823316E-07 
 -4.997932E-08 -6.137701E-08 -4.455686E-08 -6.137701E-08 -1.031756E-07 -5.646471E-08 -4.455686E-08 -5.646471E-08 +1.531549E-07 
 -5.095345E-08 -9.175180E-09 -6.062530E-09 -9.175180E-09 -4.876780E-08 -7.501582E-10 -6.062530E-09 -7.501582E-10 +9.972125E-08 
 -3.705054E-05 +4.601572E-05 -1.368271E-05 +4.601572E-05 -5.534909E-05 +3.732108E-06 -1.368271E-05 +3.732108E-06 +9.239963E-05 
 -2.613141E-04 -1.787921E-04 +3.903933E-05 -1.787921E-04 -1.179638E-04 +6.782896E-05 +3.903933E-05 +6.782896E-05 +3.792779E-04 
 -4.784923E-07 +9.269920E-08 +6.289483E-08 +9.269920E-08 +3.921978E-09 -1.502966E-07 +6.289483E-08 -1.502966E-07 +4.745704E-07 
 -1.840437E-07 -8.552976E-08 +1.097886E-07 -8.552976E-08 -4.419202E-08 +5.359169E-08 +1.097886E-07 +5.359169E-08 +2.282357E-07 
 -6.294649E-06 +1.349839E-05 +4.598781E-08 +1.349839E-05 -2.894755E-05 -9.847003E-08 +4.598781E-08 -9.847003E-08 +3.524220E-05 
 -4.428177E-06 -8.348801E-07 -1.605639E-06 -8.348801E-07 -1.698173E-08 +5.764109E-07 -1.605639E-06 +5.764109E-07 +4.445159E-06 
 -1.124340E-07 +1.875607E-08 +1.163265E-08 +1.875607E-08 -5.081140E-08 -5.943100E-09 +1.163265E-08 -5.943100E-09 +1.632454E-07 
 -3.175633E-07 -2.397228E-06 -9.152656E-07 -2.397228E-06 -6.204242E-06 +3.537040E-06 -9.152656E-07 +3.537040E-06 +6.521806E-06 
 -2.300657E-08 -2.641213E-09 +1.306755E-08 -2.641213E-09 -1.688593E-08 +2.074301E-09 +1.306755E-08 +2.074301E-09 +3.989250E-08 
 -4.850360E-08 +3.036266E-07 +9.195301E-08 +3.036266E-07 -1.098767E-06 +5.007498E-07 +9.195301E-08 +5.007498E-07 +1.147270E-06 
 -1.825819E-06 +3.590827E-07 -1.040576E-07 +3.590827E-07 +1.487009E-07 -5.954425E-07 -1.040576E-07 -5.954425E-07 +1.677118E-06 
 -7.145817E-08 -2.175504E-08 +1.276238E-08 -2.175504E-08 -3.470404E-07 +1.803640E-07 +1.276238E-08 +1.803640E-07 +4.184986E-07 
 -2.711512E-05 +1.207690E-05 -2.401641E-07 +1.207690E-05 -5.372555E-06 -5.109773E-07 -2.401641E-07 -5.109773E-07 +3.248767E-05 
 -4.095023E-06 -5.703410E-07 +6.261770E-07 -5.703410E-07 +1.252180E-07 -8.340117E-07 +6.261770E-07 -8.340117E-07 +3.969805E-06 
 -2.832207E-07 +2.926265E-07 -2.113345E-07 +2.926265E-07 -2.559056E-07 +1.310070E-08 -2.113345E-07 +1.310070E-08 +5.391263E-07 
 -3.409397E-08 -7.125180E-09 +1.279340E-08 -7.125180E-09 -6.972522E-08 +6.514443E-09 +1.279340E-08 +6.514443E-09 +1.038192E-07 
 -6.447941E-09 +2.917671E-09 -3.366758E-09 +2.917671E-09 -1.338033E-08 +3.017489E-09 -3.366758E-09 +3.017489E-09 +1.982827E-08 
 -3.905407E-06 +1.297685E-06 +7.681226E-07 +1.297685E-06 -4.279545E-07 -1.228666E-07 +7.681226E-07 -1.228666E-07 +4.333362E-06 
 -2.032234E-05 -1.862035E-05 -2.518403E-06 -1.862035E-05 -1.611585E-05 +3.598398E-06 -2.518403E-06 +3.598398E-06 +3.643818E-05 
 -4.120591E-08 -2.081996E-08 +6.635365E-10 -2.081996E-08 -6.050613E-08 +6.312361E-09 +6.635365E-10 +6.312361E-09 +1.017120E-07 
 -3.079386E-07 -5.063954E-07 -2.300348E-07 -5.063954E-07 -8.519854E-07 -3.494233E-07 -2.300348E-07 -3.494233E-07 +1.159924E-06 
 -4.017020E-06 +1.209124E-06 +7.059531E-07 +1.209124E-06 -5.611853E-09 +1.014216E-06 +7.059531E-07 +1.014216E-06 +4.022632E-06 
 -1.637698E-08 +4.997714E-09 -9.874769E-09 +4.997714E-09 -2.409613E-08 +1.115205E-08 -9.874769E-09 +1.115205E-08 +4.047311E-08 
 -9.012768E-08 +1.928619E-08 +8.148915E-09 +1.928619E-08 -3.414212E-08 -2.507637E-08 +8.148915E-09 -2.507637E-08 +1.242698E-07 
 -1.938142E-04 -5.193170E-05 -6.578399E-06 -5.193170E-05 -1.391740E-05 -1.763183E-06 -6.578399E-06 -1.763183E-06 +2.077316E-04 
 -2.364019E-06 -4.254266E-06 -1.174941E-07 -4.254266E-06 -7.417367E-06 -1.843220E-06 -1.174941E-07 -1.843220E-06 +9.781385E-06 
 -1.296781E-08 -1.956413E-09 +7.410808E-09 -1.956413E-09 -1.193652E-08 +4.246605E-09 +7.410808E-09 +4.246605E-09 +2.490433E-08 
 -3.095699E-06 +1.106068E-06 +1.232323E-06 +1.106068E-06 -1.775769E-07 +4.790907E-07 +1.232323E-06 +4.790907E-07 +3.273276E-06 
 +4.003990E-07 -1.848960E-06 -2.727082E-06 -1.848960E-06 -1.015928E-05 -2.389538E-07 -2.727082E-06 -2.389538E-07 +9.758881E-06 
 -2.030020E-05 +3.081560E-05 -7.873363E-06 +3.081560E-05 -4.476136E-05 +2.423566E-05 -7.873363E-06 +2.423566E-05 +6.506156E-05 
 -4.683643E-06 -4.328626E-07 +1.428893E-06 -4.328626E-07 +2.984254E-07 +1.437168E-06 +1.428893E-06 +1.437168E-06 +4.385217E-06 
 -2.484843E-06 +8.108335E-07 +3.937975E-07 +8.108335E-07 +6.884633E-08 +7.953218E-07 +3.937975E-07 +7.953218E-07 +2.415997E-06 
 -6.411993E-08 -2.778908E-08 +2.561006E-08 -2.778908E-08 -1.042038E-07 +4.459192E-08 +2.561006E-08 +4.459192E-08 +1.683238E-07 
 -9.168061E-09 -1.773343E-09 +4.292821E-09 -1.773343E-09 -8.019805E-09 +7.416744E-10 +4.292821E-09 +7.416744E-10 +1.718787E-08 
 -1.326056E-08 +1.646547E-09 +1.423018E-09 +1.646547E-09 -5.161866E-09 +7.765880E-10 +1.423018E-09 +7.765880E-10 +1.842242E-08 
 -9.812194E-06 -4.809383E-05 +4.106362E-05 -4.809383E-05 -1.483082E-04 +3.133948E-05 +4.106362E-05 +3.133948E-05 +1.581204E-04 
 -3.464262E-07 +9.998035E-08 -3.592076E-08 +9.998035E-08 -2.214947E-07 +1.991168E-08 -3.592076E-08 +1.991168E-08 +5.679209E-07 
 -4.082109E-08 +2.185178E-08 -5.505995E-09 +2.185178E-08 -2.107330E-08 +4.358880E-09 -5.505995E-09 +4.358880E-09 +6.189440E-08 
 -2.456541E-08 -1.342844E-08 +6.113254E-10 -1.342844E-08 -5.510183E-08 +2.614798E-08 +6.113254E-10 +2.614798E-08 +7.966723E-08 
 -5.852266E-06 +1.700392E-06 +4.345576E-07 +1.700392E-06 -3.147217E-07 +9.308656E-07 +4.345576E-07 +9.308656E-07 +6.166988E-06 
 -7.572354E-05 +5.395115E-05 +4.384384E-06 +5.395115E-05 -3.340447E-05 +2.040503E-05 +4.384384E-06 +2.040503E-05 +1.091280E-04 
 -1.866743E-05 -2.723413E-05 +1.822196E-05 -2.723413E-05 -3.443672E-05 +7.164134E-06 +1.822196E-05 +7.164134E-06 +5.310416E-05 
 -3.223491E-08 -5.325396E-07 +4.177965E-07 -5.325396E-07 -2.684968E-06 -1.521536E-07 +4.177965E-07 -1.521536E-07 +2.717203E-06 
 -5.080934E-06 +2.098017E-05 +6.004242E-06 +2.098017E-05 -7.655143E-05 +5.176534E-06 +6.004242E-06 +5.176534E-06 +8.163237E-05 
 +3.797743E-09 +3.884535E-08 +5.101179E-08 +3.884535E-08 -1.503053E-07 -9.737305E-10 +5.101179E-08 -9.737305E-10 +1.465075E-07 
 -1.192998E-05 +1.277380E-06 -1.435065E-07 +1.277380E-06 -7.974226E-08 -8.135924E-07 -1.435065E-07 -8.135924E-07 +1.200972E-05 
 -1.324005E-06 +1.330087E-06 +3.561148E-07 +1.330087E-06 -1.099865E-06 -1.141317E-06 +3.561148E-07 -1.141317E-06 +2.423870E-06 
 -2.508215E-08 +1.436969E-08 +1.904965E-09 +1.436969E-08 -6.106375E-08 -5.382338E-09 +1.904965E-09 -5.382338E-09 +8.614590E-08 
 -4.746960E-08 -1.244579E-08 -5.156537E-09 -1.244579E-08 -3.071985E-08 -2.121389E-09 -5.156537E-09 -2.121389E-09 +7.818944E-08 
 -3.611567E-08 +2.993093E-09 +1.126001E-08 +2.993093E-09 -2.544601E-08 -7.656300E-09 +1.126001E-08 -7.656300E-09 +6.156168E-08 
 -8.108806E-08 -1.828172E-08 +6.182621E-09 -1.828172E-08 -6.510934E-08 +1.000744E-08 +6.182621E-09 +1.000744E-08 +1.461974E-07 
 -1.843176E-05 +1.201601E-05 -1.158549E-05 +1.201601E-05 -5.180747E-06 -1.549638E-06 -1.158549E-05 -1.549638E-06 +2.361250E-05 
 -1.435423E-08 -1.915751E-09 +3.954117E-09 -1.915751E-09 -3.349250E-08 +1.572104E-08 +3.954117E-09 +1.572104E-08 +4.784673E-08 
 -1.035675E-07 -3.859087E-08 -6.956350E-09 -3.859087E-08 -9.330707E-08 -1.306163E-08 -6.956350E-09 -1.306163E-08 +1.968746E-07 
 +8.738706E-08 +8.811740E-08 +2.880127E-07 +8.811740E-08 -9.265545E-07 +2.348335E-07 +2.880127E-07 +2.348335E-07 +8.391675E-07 
 -1.256610E-04 +1.794596E-04 -6.970968E-06 +1.794596E-04 -2.562967E-04 +9.956441E-06 -6.970968E-06 +9.956441E-06 +3.819577E-04 
 -6.906026E-06 -4.364264E-06 -1.853850E-06 -4.364264E-06 -2.354970E-06 +8.142554E-07 -1.853850E-06 +8.142554E-07 +9.260996E-06 
 -4.970785E-08 +5.696694E-09 +5.139525E-09 +5.696694E-09 -1.128499E-07 -1.130471E-08 +5.139525E-09 -1.130471E-08 +1.625577E-07 
 -1.366362E-04 +1.951336E-04 -4.229202E-05 +1.951336E-04 -2.786818E-04 +6.040085E-05 -4.229202E-05 +6.040085E-05 +4.153181E-04 
 -4.229642E-06 -1.131489E-05 +2.044167E-06 -1.131489E-05 -2.910852E-05 -9.561677E-07 +2.044167E-06 -9.561677E-07 +3.333816E-05 
 -1.411246E-07 -5.411047E-07 -4.679123E-07 -5.411047E-07 -1.633902E-06 -5.726245E-07 -4.679123E-07 -5.726245E-07 +1.775026E-06 
 -2.948551E-08 -5.907705E-09 -1.599394E-08 -5.907705E-09 -2.154737E-08 -8.012057E-09 -1.599394E-08 -8.012057E-09 +5.103288E-08 
 -2.385301E-05 -1.002499E-05 +5.467152E-06 -1.002499E-05 -2.812587E-06 -3.991518E-06 +5.467152E-06 -3.991518E-06 +2.666560E-05 
 -8.106413E-05 +3.355275E-05 +2.168856E-05 +3.355275E-05 -1.028168E-05 -2.785341E-05 +2.168856E-05 -2.785341E-05 +9.134581E-05 
 -5.613956E-08 +7.758289E-09 -3.353740E-09 +7.758289E-09 -3.411764E-08 +4.914049E-09 -3.353740E-09 +4.914049E-09 +9.025719E-08 
 -8.464198E-07 +3.571474E-07 -4.709036E-07 +3.571474E-07 -1.455928E-07 +3.661832E-07 -4.709036E-07 +3.661832E-07 +9.920126E-07 
 +8.978772E-09 +7.032531E-08 -1.234092E-07 +7.032531E-08 -1.885783E-07 +8.774640E-08 -1.234092E-07 +8.774640E-08 +1.795995E-07 
 -4.842555E-06 +1.725092E-06 +1.154313E-07 +1.725092E-06 -2.177390E-07 -1.477822E-06 +1.154313E-07 -1.477822E-06 +5.060294E-06 
 -2.993254E-06 +1.588567E-06 +4.418531E-07 +1.588567E-06 -2.080929E-07 +1.231691E-06 +4.418531E-07 +1.231691E-06 +3.201347E-06 
 +2.470325E-08 +3.526586E-08 -6.303933E-09 +3.526586E-08 -2.930665E-08 -3.911132E-08 -6.303933E-09 -3.911132E-08 +4.603400E-09 
 -1.229038E-06 +4.116346E-06 -2.044387E-06 +4.116346E-06 -7.468389E-06 -1.912090E-06 -2.044387E-06 -1.912090E-06 +8.697427E-06 
 -3.431238E-07 +2.678020E-06 +2.124056E-06 +2.678020E-06 -1.214138E-05 -1.568360E-06 +2.124056E-06 -1.568360E-06 +1.248450E-05 
 -2.324388E-07 -2.218702E-08 -1.310526E-07 -2.218702E-08 -9.734011E-09 +1.211910E-08 -1.310526E-07 +1.211910E-08 +2.421728E-07 
 -5.575030E-05 +6.643749E-05 +3.224544E-05 +6.643749E-05 -7.917998E-05 -3.843077E-05 +3.224544E-05 -3.843077E-05 +1.349303E-04 
 +3.352150E-08 -1.467553E-07 +3.167278E-07 -1.467553E-07 -1.153543E-06 +4.361036E-07 +3.167278E-07 +4.361036E-07 +1.120021E-06 
 -3.312209E-08 +9.117485E-09 +4.744272E-10 +9.117485E-09 -3.439836E-08 -4.990835E-09 +4.744272E-10 -4.990835E-09 +6.752045E-08 
 -3.287037E-07 -1.169063E-06 +9.042143E-07 -1.169063E-06 -3.569390E-06 +1.134375E-06 +9.042143E-07 +1.134375E-06 +3.898093E-06 
 -1.765015E-06 +3.391510E-07 +6.312833E-07 +3.391510E-07 -5.072940E-08 -3.205904E-07 +6.312833E-07 -3.205904E-07 +1.815745E-06 
 -1.278746E-08 +3.245075E-09 +3.149554E-09 +3.245075E-09 -1.804045E-08 -9.612497E-09 +3.149554E-09 -9.612497E-09 +3.082791E-08 
 -2.304002E-08 +8.960841E-09 -3.992516E-09 +8.960841E-09 -3.075941E-08 +1.494812E-08 -3.992516E-09 +1.494812E-08 +5.379943E-08 
 +2.378018E-07 +7.555993E-07 -1.343230E-06 +7.555993E-07 -2.963974E-06 +8.179009E-07 -1.343230E-06 +8.179009E-07 +2.726172E-06 
 -9.252235E-07 +1.180447E-07 -1.008834E-07 +1.180447E-07 +9.030876E-08 -2.907393E-07 -1.008834E-07 -2.907393E-07 +8.349147E-07 
 +1.698817E-07 +3.878204E-08 -4.801649E-07 +3.878204E-08 -1.506400E-06 -1.030857E-07 -4.801649E-07 -1.030857E-07 +1.336518E-06 
 -2.304991E-06 -1.593327E-06 -7.141500E-07 -1.593327E-06 -1.051427E-06 -6.944054E-08 -7.141500E-07 -6.944054E-08 +3.356418E-06 
 -9.394571E-07 -1.832212E-06 +6.427799E-07 -1.832212E-06 -3.082385E-06 -2.933511E-07 +6.427799E-07 -2.933511E-07 +4.021842E-06 
 -1.832387E-04 -8.544342E-05 +5.594193E-05 -8.544342E-05 -3.984808E-05 +2.608689E-05 +5.594193E-05 +2.608689E-05 +2.230868E-04 
 -1.906384E-07 +8.430254E-08 +7.528815E-08 +8.430254E-08 -6.451308E-08 -9.248539E-08 +7.528815E-08 -9.248539E-08 +2.551515E-07 
 -4.660828E-06 -2.853305E-06 +4.145920E-07 -2.853305E-06 -1.196290E-06 -1.549404E-06 +4.145920E-07 -1.549404E-06 +5.857119E-06 
 -2.237391E-07 -5.616846E-08 -7.211104E-08 -5.616846E-08 -2.517213E-08 -9.010334E-08 -7.211104E-08 -9.010334E-08 +2.489112E-07 
 -6.860095E-08 +4.589292E-09 -2.818165E-09 +4.589292E-09 -6.445895E-08 +1.109311E-08 -2.818165E-09 +1.109311E-08 +1.330599E-07 
 -3.675267E-05 -2.070046E-06 -4.234369E-06 -2.070046E-06 +2.356630E-06 -9.592502E-06 -4.234369E-06 -9.592502E-06 +3.439604E-05 
 -5.429716E-07 -1.566874E-08 -1.440139E-07 -1.566874E-08 +2.494711E-08 -1.828896E-07 -1.440139E-07 -1.828896E-07 +5.180245E-07 
 -3.263489E-06 +1.849759E-05 -1.057835E-06 +1.849759E-05 -1.049078E-04 +5.994249E-06 -1.057835E-06 +5.994249E-06 +1.081713E-04 
 -2.588313E-06 -1.999929E-06 +1.641565E-06 -1.999929E-06 -1.102926E-06 -1.896707E-07 +1.641565E-06 -1.896707E-07 +3.691239E-06 
 -2.431871E-08 +7.164146E-10 +6.118964E-09 +7.164146E-10 -5.662922E-09 -1.253909E-09 +6.118964E-09 -1.253909E-09 +2.998163E-08 
 +1.058945E-07 +5.378511E-07 +7.567984E-07 +5.378511E-07 -2.954607E-06 +6.034023E-08 +7.567984E-07 +6.034023E-08 +2.848713E-06 
 -3.121661E-08 -3.095558E-09 -2.175104E-09 -3.095558E-09 -4.320963E-08 +4.513898E-09 -2.175104E-09 +4.513898E-09 +7.442624E-08 
 -1.756138E-08 +2.546089E-09 -2.389241E-09 +2.546089E-09 -1.875389E-08 +7.494324E-09 -2.389241E-09 +7.494324E-09 +3.631527E-08 
 +1.687716E-06 +4.740113E-06 -1.190138E-05 +4.740113E-06 -6.605143E-05 +5.865157E-06 -1.190138E-05 +5.865157E-06 +6.436372E-05 
 -1.477024E-05 -1.898902E-05 -3.668750E-06 -1.898902E-05 -1.358887E-05 +1.308945E-05 -3.668750E-06 +1.308945E-05 +2.835911E-05 
 -2.147673E-08 -4.619184E-10 +1.414243E-09 -4.619184E-10 -1.440102E-08 +3.168499E-10 +1.414243E-09 +3.168499E-10 +3.587775E-08 
 -5.505471E-08 +4.418628E-08 -2.349387E-08 +4.418628E-08 -8.038235E-08 +1.678494E-08 -2.349387E-08 +1.678494E-08 +1.354371E-07 
 -1.458276E-05 -1.591824E-05 +1.116387E-06 -1.591824E-05 -1.724005E-05 -9.342211E-07 +1.116387E-06 -9.342211E-07 +3.182281E-05 
 -1.049401E-05 -9.813510E-07 +1.349524E-06 -9.813510E-07 +2.228763E-07 +1.950987E-06 +1.349524E-06 +1.950987E-06 +1.027113E-05 
 -1.906429E-08 +2.508377E-09 +6.429413E-09 +2.508377E-09 -6.951222E-09 -1.001922E-09 +6.429413E-09 -1.001922E-09 +2.601551E-08 
 -3.103326E-08 -6.155488E-08 +8.300514E-08 -6.155488E-08 -1.356869E-07 +9.588278E-08 +8.300514E-08 +9.588278E-08 +1.667202E-07 
 -1.669329E-08 -1.001774E-08 +9.586651E-09 -1.001774E-08 -5.339231E-08 +2.005318E-08 +9.586651E-09 +2.005318E-08 +7.008560E-08 
 -5.321698E-08 +1.344309E-08 +2.647321E-08 +1.344309E-08 -3.854854E-08 -1.438650E-08 +2.647321E-08 -1.438650E-08 +9.176552E-08 
 -8.898944E-09 -3.004848E-09 -2.508018E-09 -3.004848E-09 -1.192792E-08 -3.222236E-09 -2.508018E-09 -3.222236E-09 +2.082686E-08 
 -6.623733E-07 +6.199416E-08 +2.406658E-07 +6.199416E-08 -8.206386E-09 -2.697157E-08 +2.406658E-07 -2.697157E-08 +6.705797E-07 
 -1.813958E-05 -9.464251E-06 -1.003922E-05 -9.464251E-06 -2.799524E-06 +2.306315E-06 -1.003922E-05 +2.306315E-06 +2.093910E-05 
 -5.196586E-05 -2.842460E-05 -1.421655E-05 -2.842460E-05 -9.842815E-06 +1.161772E-05 -1.421655E-05 +1.161772E-05 +6.180868E-05 
 -7.520708E-05 -4.341823E-05 -3.817212E-06 -4.341823E-05 -2.507225E-05 -2.204707E-06 -3.817212E-06 -2.204707E-06 +1.002793E-04 
 -6.432288E-07 +1.622446E-07 +2.893777E-07 +1.622446E-07 +4.571575E-08 +1.886453E-07 +2.893777E-07 +1.886453E-07 +5.975131E-07 
 -3.150052E-05 +5.294794E-06 +1.167014E-05 +5.294794E-06 -8.960598E-07 -1.682494E-06 +1.167014E-05 -1.682494E-06 +3.239658E-05 
 -2.395392E-04 -3.350598E-05 +9.821822E-05 -3.350598E-05 -2.483605E-06 +3.880453E-05 +9.821822E-05 +3.880453E-05 +2.420228E-04 
 -3.255236E-06 +7.061626E-08 +1.857464E-06 +7.061626E-08 -2.276027E-08 -4.385342E-07 +1.857464E-06 -4.385342E-07 +3.277996E-06 
 -3.376381E-05 +2.953378E-06 +8.629700E-06 +2.953378E-06 -2.625569E-07 -7.526642E-07 +8.629700E-06 -7.526642E-07 +3.402637E-05 
 -6.072615E-07 -9.982954E-07 -3.103025E-07 -9.982954E-07 -1.431988E-06 -1.314890E-06 -3.103025E-07 -1.314890E-06 +2.039250E-06 
 -3.335995E-08 +5.070832E-09 +5.875498E-09 +5.070832E-09 -4.927164E-08 -1.610332E-08 +5.875498E-09 -1.610332E-08 +8.263159E-08 
 -3.004114E-08 -3.089369E-09 -9.499030E-10 -3.089369E-09 -3.068729E-08 -6.290894E-09 -9.499030E-10 -6.290894E-09 +6.072842E-08 
 -2.080053E-06 +1.433516E-06 +2.404129E-07 +1.433516E-06 -9.586952E-07 -5.375450E-07 +2.404129E-07 -5.375450E-07 +3.038748E-06 
 -2.991596E-05 +2.469157E-06 -1.086070E-05 +2.469157E-06 -7.915276E-08 -1.734310E-06 -1.086070E-05 -1.734310E-06 +2.999511E-05 
 -1.088462E-07 -7.979170E-08 -4.335670E-08 -7.979170E-08 -7.398886E-08 +8.578868E-09 -4.335670E-08 +8.578868E-09 +1.828350E-07 
 +9.596788E-10 +1.061976E-07 -2.015157E-07 +1.061976E-07 -1.494368E-06 +5.107136E-07 -2.015157E-07 +5.107136E-07 +1.493408E-06 
 -2.246324E-04 +1.502273E-05 -5.270966E-05 +1.502273E-05 +8.087809E-07 +2.426315E-05 -5.270966E-05 +2.426315E-05 +2.238236E-04 
 -7.379700E-06 -1.384232E-05 +7.337836E-06 -1.384232E-05 -1.902459E-05 -1.786894E-06 +7.337836E-06 -1.786894E-06 +2.640429E-05 
 -1.623118E-07 +4.682416E-08 +1.069438E-07 +4.682416E-08 -1.486325E-08 -2.170681E-10 +1.069438E-07 -2.170681E-10 +1.771750E-07 
 -2.620593E-06 -3.305834E-06 +7.428225E-07 -3.305834E-06 -3.710462E-06 +2.692799E-06 +7.428225E-07 +2.692799E-06 +6.331056E-06 
 -1.489582E-04 +3.991273E-05 +4.384771E-05 +3.991273E-05 -1.069671E-05 -1.174820E-05 +4.384771E-05 -1.174820E-05 +1.596549E-04 
 -5.659599E-08 +5.091135E-08 -2.307843E-08 +5.091135E-08 -3.402174E-07 -1.654809E-07 -2.307843E-08 -1.654809E-07 +3.968134E-07 
 -4.456144E-08 -3.639684E-08 +2.886581E-08 -3.639684E-08 -3.244482E-08 -2.032122E-09 +2.886581E-08 -2.032122E-09 +7.700626E-08 
 -2.080609E-08 -1.170773E-09 -8.712924E-09 -1.170773E-09 -1.122015E-08 -8.942330E-10 -8.712924E-09 -8.942330E-10 +3.202624E-08 
 -2.449467E-07 -1.049088E-07 +1.527619E-07 -1.049088E-07 -8.343861E-08 +4.398812E-08 +1.527619E-07 +4.398812E-08 +3.283853E-07 
 -4.676996E-06 +1.878171E-05 -2.099433E-06 +1.878171E-05 -5.007239E-05 -2.938801E-05 -2.099433E-06 -2.938801E-05 +5.474939E-05 
 -5.371762E-08 -1.433059E-08 -2.094099E-09 -1.433059E-08 -6.654294E-08 -1.381047E-08 -2.094099E-09 -1.381047E-08 +1.202606E-07 
 -8.953335E-07 +4.570604E-07 -7.613650E-07 +4.570604E-07 -1.631296E-07 +7.742009E-09 -7.613650E-07 +7.742009E-09 +1.058463E-06 
 -5.553722E-05 -2.476420E-05 +2.426742E-05 -2.476420E-05 -8.436826E-06 -3.159169E-06 +2.426742E-05 -3.159169E-06 +6.397405E-05 
 -4.791725E-06 -1.824966E-06 +1.833570E-06 -1.824966E-06 -6.992547E-07 +7.930452E-07 +1.833570E-06 +7.930452E-07 +5.490979E-06 
 -1.317842E-06 -2.348555E-06 -1.319570E-07 -2.348555E-06 -2.964439E-06 +2.060459E-06 -1.319570E-07 +2.060459E-06 +4.282281E-06 
 -3.356104E-06 -3.117688E-06 +6.096399E-07 -3.117688E-06 -2.869598E-06 +9.810844E-07 +6.096399E-07 +9.810844E-07 +6.225701E-06 
 -8.798862E-07 +2.482147E-06 -1.245777E-06 +2.482147E-06 -6.284754E-06 +9.736732E-07 -1.245777E-06 +9.736732E-07 +7.164640E-06 
 -3.385044E-07 -1.926669E-07 -2.036924E-07 -1.926669E-07 -1.475575E-07 -1.399314E-07 -2.036924E-07 -1.399314E-07 +4.860619E-07 
 -2.486847E-08 -6.503210E-09 +1.040270E-08 -6.503210E-09 -4.046176E-08 +1.922421E-08 +1.040270E-08 +1.922421E-08 +6.533023E-08 
 -6.488719E-06 -3.399359E-06 +1.687538E-06 -3.399359E-06 -1.441506E-06 +2.585652E-06 +1.687538E-06 +2.585652E-06 +7.930224E-06 
 -1.327201E-07 -1.071448E-08 -1.756469E-08 -1.071448E-08 -8.207415E-08 -1.690144E-08 -1.756469E-08 -1.690144E-08 +2.147943E-07 
 -9.046209E-09 -1.396328E-09 -4.671357E-09 -1.396328E-09 -6.738170E-09 -2.614408E-09 -4.671357E-09 -2.614408E-09 +1.578438E-08 
 -1.175322E-08 -3.562664E-10 -4.969303E-09 -3.562664E-10 -7.919904E-09 +3.001414E-09 -4.969303E-09 +3.001414E-09 +1.967312E-08 
 -7.033935E-08 +5.502386E-07 +1.397629E-07 +5.502386E-07 -3.612862E-06 +6.631384E-07 +1.397629E-07 +6.631384E-07 +3.683201E-06 
 -3.869933E-06 -1.890575E-06 -9.214140E-07 -1.890575E-06 -8.689208E-07 +9.670822E-08 -9.214140E-07 +9.670822E-08 +4.738854E-06 
 -2.053705E-05 +1.529663E-05 -4.302362E-06 +1.529663E-05 -9.962179E-06 -3.543393E-06 -4.302362E-06 -3.543393E-06 +3.049923E-05 
 +1.684448E-07 -1.730113E-06 +2.088378E-06 -1.730113E-06 -5.202287E-06 +4.108578E-07 +2.088378E-06 +4.108578E-07 +5.033842E-06 
 -1.207478E-08 +3.918040E-09 -1.379385E-09 +3.918040E-09 -1.533238E-08 +9.044332E-10 -1.379385E-09 +9.044332E-10 +2.740716E-08 
 -1.994866E-07 +1.126025E-06 +7.462058E-07 +1.126025E-06 -2.840682E-06 +3.265493E-07 +7.462058E-07 +3.265493E-07 +3.040168E-06 
 -2.591878E-08 +2.065512E-09 +4.676076E-09 +2.065512E-09 -3.272904E-08 -1.140404E-08 +4.676076E-09 -1.140404E-08 +5.864782E-08 
 -3.025601E-08 +8.641199E-08 +5.298712E-08 +8.641199E-08 -1.928570E-07 +2.272864E-08 +5.298712E-08 +2.272864E-08 +2.231130E-07 
 -3.805683E-05 +1.094716E-05 +9.944206E-07 +1.094716E-05 -2.932440E-06 +2.726204E-06 +9.944206E-07 +2.726204E-06 +4.098927E-05 
 -5.148691E-08 +1.429565E-07 -3.754662E-08 +1.429565E-07 -1.827320E-07 -1.380490E-07 -3.754662E-08 -1.380490E-07 +2.342189E-07 
 -2.676544E-08 -1.453430E-08 +1.104766E-08 -1.453430E-08 -3.551976E-08 +7.844653E-09 +1.104766E-08 +7.844653E-09 +6.228520E-08 
 -7.135695E-07 +6.594997E-08 +4.296137E-07 +6.594997E-08 +3.499647E-08 -2.554513E-07 +4.296137E-07 -2.554513E-07 +6.785731E-07 
 -1.047110E-07 +1.182349E-07 -5.640790E-08 +1.182349E-07 -1.431351E-07 +6.655684E-08 -5.640790E-08 +6.655684E-08 +2.478461E-07 
 -5.210270E-08 +3.629904E-08 -2.736955E-08 +3.629904E-08 -6.878648E-08 +2.541371E-09 -2.736955E-08 +2.541371E-09 +1.208892E-07 
 -9.978871E-09 -8.328897E-07 -6.101673E-07 -8.328897E-07 -2.144210E-06 +6.816753E-07 -6.101673E-07 +6.816753E-07 +2.154188E-06 
 -1.208871E-06 +2.663355E-06 +1.137895E-06 +2.663355E-06 -5.522534E-06 -8.483198E-07 +1.137895E-06 -8.483198E-07 +6.731404E-06 
 -1.733587E-06 +2.116697E-07 +7.154192E-07 +2.116697E-07 +1.647825E-07 +5.994482E-07 +7.154192E-07 +5.994482E-07 +1.568804E-06 
 +1.022265E-06 -4.329434E-07 -6.042140E-06 -4.329434E-07 -2.925581E-05 -1.200462E-05 -6.042140E-06 -1.200462E-05 +2.823355E-05 
 +6.837084E-07 -2.224401E-07 -1.983961E-06 -2.224401E-07 -5.198297E-06 -1.863189E-06 -1.983961E-06 -1.863189E-06 +4.514589E-06 
 -5.718054E-06 +1.345033E-05 -5.129749E-06 +1.345033E-05 -2.096263E-05 -6.236325E-06 -5.129749E-06 -6.236325E-06 +2.668069E-05 
 -1.544777E-06 +8.101761E-07 +9.478798E-07 +8.101761E-07 -2.794611E-07 +1.017589E-07 +9.478798E-07 +1.017589E-07 +1.824238E-06 
 +1.414986E-09 +3.213435E-10 -1.192370E-08 +3.213435E-10 -4.049490E-08 -1.018825E-08 -1.192370E-08 -1.018825E-08 +3.907991E-08 
 -4.739646E-06 -1.694809E-06 +8.766754E-07 -1.694809E-06 -6.076801E-07 +3.453121E-07 +8.766754E-07 +3.453121E-07 +5.347326E-06 
 -2.495634E-06 -6.375548E-07 +4.444229E-07 -6.375548E-07 -1.670218E-07 +1.456432E-07 +4.444229E-07 +1.456432E-07 +2.662656E-06 
 -5.142790E-08 +6.088917E-08 -6.681236E-08 +6.088917E-08 -9.057005E-08 +4.410635E-08 -6.681236E-08 +4.410635E-08 +1.419979E-07 
 -1.249607E-06 +5.082189E-07 -3.718260E-07 +5.082189E-07 -1.844874E-07 +3.846833E-07 -3.718260E-07 +3.846833E-07 +1.434094E-06 
 -8.051649E-08 +3.104434E-08 -4.609101E-09 +3.104434E-08 -5.703523E-08 +1.441969E-08 -4.609101E-09 +1.441969E-08 +1.375517E-07 
 -1.511108E-05 -1.262862E-05 +1.262423E-05 -1.262862E-05 -7.406818E-06 +3.339867E-07 +1.262423E-05 +3.339867E-07 +2.251789E-05 
 -3.733408E-08 -5.119159E-09 +1.650101E-08 -5.119159E-09 -6.256082E-09 +1.134994E-08 +1.650101E-08 +1.134994E-08 +4.359016E-08 
 -6.877181E-07 +7.548405E-07 -5.657348E-07 +7.548405E-07 -7.553535E-07 +2.442718E-07 -5.657348E-07 +2.442718E-07 +1.443072E-06 
 -1.239141E-06 +1.332814E-05 -1.290737E-05 +1.332814E-05 -5.603880E-05 +9.211082E-06 -1.290737E-05 +9.211082E-06 +5.727794E-05 
 -7.908593E-05 -2.363102E-05 +5.600402E-06 -2.363102E-05 -4.849832E-06 -1.200286E-05 +5.600402E-06 -1.200286E-05 +8.393576E-05 
 -2.506902E-07 -6.644604E-08 +2.338174E-09 -6.644604E-08 +1.061776E-08 +8.725027E-08 +2.338174E-09 +8.725027E-08 +2.400724E-07 
 -4.485509E-06 +7.723851E-07 +1.005544E-06 +7.723851E-07 +2.445828E-07 -1.481425E-06 +1.005544E-06 -1.481425E-06 +4.240926E-06 
 -2.255936E-05 +1.579494E-05 -3.580233E-07 +1.579494E-05 -1.106161E-05 +2.500373E-07 -3.580233E-07 +2.500373E-07 +3.362097E-05 
 -7.917831E-08 -5.661593E-07 -2.724946E-07 -5.661593E-07 -1.492149E-06 +6.000249E-07 -2.724946E-07 +6.000249E-07 +1.571327E-06 
 -1.235454E-07 -2.349834E-07 -2.463814E-07 -2.349834E-07 -4.025987E-07 -2.240724E-07 -2.463814E-07 -2.240724E-07 +5.261442E-07 
 -8.472819E-07 -3.537470E-07 +3.487672E-07 -3.537470E-07 -1.526307E-07 +1.019696E-07 +3.487672E-07 +1.019696E-07 +9.999126E-07 
 +1.329990E-07 -5.958996E-07 -6.726188E-07 -5.958996E-07 -2.243220E-06 +5.410986E-07 -6.726188E-07 +5.410986E-07 +2.110221E-06 
 -4.050584E-06 +3.922401E-06 -1.030047E-06 +3.922401E-06 -3.677390E-06 +1.985535E-06 -1.030047E-06 +1.985535E-06 +7.727975E-06 
 -2.119607E-07 -1.895568E-07 -2.283611E-07 -1.895568E-07 -1.681604E-07 -7.873997E-08 -2.283611E-07 -7.873997E-08 +3.801212E-07 
 -9.825347E-08 -3.411703E-08 -2.627335E-08 -3.411703E-08 -1.240416E-07 +8.464641E-09 -2.627335E-08 +8.464641E-09 +2.222951E-07 
 -1.121954E-06 -5.611800E-07 +1.126945E-07 -5.611800E-07 -1.037976E-07 -4.296199E-07 +1.126945E-07 -4.296199E-07 +1.225752E-06 
 -9.773849E-08 -2.082135E-07 +1.263581E-08 -2.082135E-07 -3.070936E-07 -2.241457E-07 +1.263581E-08 -2.241457E-07 +4.048321E-07 
 -4.799581E-06 +3.926480E-06 -1.373057E-06 +3.926480E-06 -2.543951E-06 -1.151688E-06 -1.373057E-06 -1.151688E-06 +7.343532E-06 
 -2.095993E-04 -1.758742E-04 -9.268129E-05 -1.758742E-04 -1.475762E-04 -7.776875E-05 -9.268129E-05 -7.776875E-05 +3.571755E-04 
 -1.886308E-05 +1.629901E-05 +4.229318E-06 +1.629901E-05 -1.367359E-05 +1.560907E-07 +4.229318E-06 +1.560907E-07 +3.253667E-05 
 -9.475321E-06 +2.765998E-05 -1.168325E-05 +2.765998E-05 -5.096483E-05 -1.319443E-05 -1.168325E-05 -1.319443E-05 +6.044015E-05 
 -2.059650E-08 -9.142508E-10 -7.727035E-09 -9.142508E-10 -1.429168E-08 -2.470606E-09 -7.727035E-09 -2.470606E-09 +3.488818E-08 
 -1.132255E-08 +2.126831E-09 +2.069379E-09 +2.126831E-09 -1.649938E-08 -5.526048E-09 +2.069379E-09 -5.526048E-09 +2.782192E-08 
 -5.466904E-08 -1.557104E-08 -2.353760E-09 -1.557104E-08 -1.288554E-07 +1.096094E-08 -2.353760E-09 +1.096094E-08 +1.835244E-07 
 -3.864827E-06 -3.904236E-06 -6.868850E-07 -3.904236E-06 -3.574522E-06 +9.819668E-07 -6.868850E-07 +9.819668E-07 +7.439349E-06 
 -1.638550E-07 -5.745287E-08 +9.990484E-09 -5.745287E-08 -2.245841E-07 +2.405790E-08 +9.990484E-09 +2.405790E-08 +3.884391E-07 
 -3.421915E-06 -3.072089E-06 -8.743187E-07 -3.072089E-06 -2.437172E-06 +6.140816E-07 -8.743187E-07 +6.140816E-07 +5.859086E-06 
 -6.215390E-07 -1.872908E-06 -6.590440E-07 -1.872908E-06 -5.227913E-06 -3.164311E-07 -6.590440E-07 -3.164311E-07 +5.849452E-06 
 -1.762590E-06 -2.647318E-06 +2.004718E-06 -2.647318E-06 -3.423515E-06 +9.688589E-07 +2.004718E-06 +9.688589E-07 +5.186106E-06 
 -3.957844E-06 +2.788715E-06 +2.477933E-06 +2.788715E-06 -1.670951E-06 -2.863227E-07 +2.477933E-06 -2.863227E-07 +5.628794E-06 
 -3.977460E-08 +5.694678E-09 +9.319140E-09 +5.694678E-09 -1.722551E-07 +6.185797E-08 +9.319140E-09 +6.185797E-08 +2.120296E-07 
 -1.076594E-06 +1.145102E-06 +1.453445E-07 +1.145102E-06 -7.525039E-07 +7.768565E-07 +1.453445E-07 +7.768565E-07 +1.829098E-06 
 -1.681895E-07 +1.468219E-08 -1.021954E-07 +1.468219E-08 -3.230079E-09 -3.350732E-08 -1.021954E-07 -3.350732E-08 +1.714196E-07 
 -9.656215E-08 +5.980648E-08 +4.540546E-08 +5.980648E-08 -1.944882E-08 +2.456065E-08 +4.540546E-08 +2.456065E-08 +1.160110E-07 
 +1.542110E-07 -1.186514E-07 -5.314297E-07 -1.186514E-07 -1.686683E-06 +7.475614E-07 -5.314297E-07 +7.475614E-07 +1.532472E-06 
 -2.887379E-05 +8.881213E-06 -8.829810E-06 +8.881213E-06 -2.094541E-06 +7.609816E-06 -8.829810E-06 +7.609816E-06 +3.096833E-05 
 -4.218228E-07 -1.357616E-07 +1.900871E-07 -1.357616E-07 -8.679071E-08 +1.620695E-07 +1.900871E-07 +1.620695E-07 +5.086135E-07 
 -6.949424E-05 -1.418251E-06 -8.040334E-06 -1.418251E-06 +2.085040E-06 +1.187950E-05 -8.040334E-06 +1.187950E-05 +6.740920E-05 
 +4.557854E-08 -1.467608E-09 -1.526164E-08 -1.467608E-09 -3.828679E-08 -3.574748E-08 -1.526164E-08 -3.574748E-08 -7.291755E-09 
 -7.772604E-08 -1.762749E-08 +1.799156E-08 -1.762749E-08 -1.115951E-07 +6.469958E-10 +1.799156E-08 +6.469958E-10 +1.893211E-07 
 -2.376594E-09 -2.765032E-08 +2.600770E-08 -2.765032E-08 -1.029387E-07 -2.983858E-08 +2.600770E-08 -2.983858E-08 +1.053153E-07 
 -2.013811E-08 +5.687604E-09 -7.099810E-10 +5.687604E-09 -2.939653E-08 -4.013859E-09 -7.099810E-10 -4.013859E-09 +4.953464E-08 
 -2.744202E-07 -6.220905E-07 +1.000642E-08 -6.220905E-07 -1.110775E-06 -6.593182E-07 +1.000642E-08 -6.593182E-07 +1.385195E-06 
 -8.723383E-05 -3.900503E-05 -1.732138E-05 -3.900503E-05 -1.644394E-05 -1.808362E-05 -1.732138E-05 -1.808362E-05 +1.036778E-04 
 -9.569926E-05 -5.419239E-05 +1.184268E-05 -5.419239E-05 -2.900016E-05 +2.140151E-05 +1.184268E-05 +2.140151E-05 +1.246994E-04 
 -9.878884E-07 +1.238840E-06 -6.843060E-07 +1.238840E-06 -1.195875E-06 -1.370592E-07 -6.843060E-07 -1.370592E-07 +2.183763E-06 
 -6.502755E-08 +9.865907E-09 -6.907360E-09 +9.865907E-09 -2.711057E-08 +1.234625E-10 -6.907360E-09 +1.234625E-10 +9.213812E-08 
 -9.044976E-05 -1.077927E-04 -2.955546E-05 -1.077927E-04 -1.284629E-04 -3.522217E-05 -2.955546E-05 -3.522217E-05 +2.189127E-04 
 -2.183466E-06 -3.712496E-07 -7.831486E-07 -3.712496E-07 -5.672734E-08 -3.273325E-07 -7.831486E-07 -3.273325E-07 +2.240194E-06 
 -5.553400E-08 -3.570636E-09 +1.560488E-08 -3.570636E-09 -1.966691E-08 +1.034583E-08 +1.560488E-08 +1.034583E-08 +7.520091E-08 
 +9.964168E-09 +7.867138E-08 -1.149375E-07 +7.867138E-08 -4.268626E-07 -1.711036E-07 -1.149375E-07 -1.711036E-07 +4.168984E-07 
 -2.716114E-06 +7.919555E-07 -1.832070E-06 +7.919555E-07 -1.618549E-07 -4.272803E-08 -1.832070E-06 -4.272803E-08 +2.877969E-06 
 -7.435373E-07 -1.867302E-06 +2.492762E-07 -1.867302E-06 -4.597946E-06 -1.170074E-07 +2.492762E-07 -1.170074E-07 +5.341484E-06 
 -7.760852E-07 +1.539820E-06 -8.641071E-07 +1.539820E-06 -2.612101E-06 +3.207636E-07 -8.641071E-07 +3.207636E-07 +3.388187E-06 
 -1.384180E-08 +1.296885E-08 -3.541854E-08 +1.296885E-08 -2.101004E-07 +1.135361E-07 -3.541854E-08 +1.135361E-07 +2.239422E-07 
 -7.223087E-09 +1.732000E-08 -2.035036E-08 +1.732000E-08 +5.556859E-08 +1.960794E-08 -2.035036E-08 +1.960794E-08 -4.834550E-08 
 -1.244501E-08 +2.378175E-09 -7.085612E-09 +2.378175E-09 -8.816730E-09 +2.772074E-09 -7.085612E-09 +2.772074E-09 +2.126174E-08 
 -1.665764E-05 +1.462108E-05 -7.622345E-06 +1.462108E-05 -1.281305E-05 +7.600169E-06 -7.622345E-06 +7.600169E-06 +2.947068E-05 
 -3.995371E-08 -1.371426E-07 -2.964711E-08 -1.371426E-07 -5.687618E-07 +3.377138E-07 -2.964711E-08 +3.377138E-07 +6.087155E-07 
 -4.663361E-08 +2.053120E-09 +3.958460E-09 +2.053120E-09 -7.237792E-08 +7.834417E-09 +3.958460E-09 +7.834417E-09 +1.190115E-07 
 -3.910799E-07 +3.265278E-07 -3.273951E-07 +3.265278E-07 -1.932244E-07 +9.446337E-09 -3.273951E-07 +9.446337E-09 +5.843042E-07 
 -2.240770E-04 -1.341933E-04 +4.773716E-05 -1.341933E-04 -7.718798E-05 -2.870052E-06 +4.773716E-05 -2.870052E-06 +3.012650E-04 
 -1.523314E-05 -3.265687E-05 +8.775075E-06 -3.265687E-05 -7.003715E-05 +1.881114E-05 +8.775075E-06 +1.881114E-05 +8.527029E-05 
 -1.735861E-08 -7.498457E-09 -1.457546E-08 -7.498457E-09 +1.518742E-08 -7.460118E-09 -1.457546E-08 -7.460118E-09 +2.171189E-09 
 -2.590831E-06 -3.937993E-06 +1.521856E-06 -3.937993E-06 -3.712754E-06 -1.734165E-06 +1.521856E-06 -1.734165E-06 +6.303585E-06 
 -9.246889E-09 +1.044628E-09 +4.192810E-09 +1.044628E-09 -4.068091E-09 +3.823550E-10 +4.192810E-09 +3.823550E-10 +1.331498E-08 
 -9.171015E-06 +1.487410E-06 -3.095718E-06 +1.487410E-06 -1.456698E-07 +1.530248E-06 -3.095718E-06 +1.530248E-06 +9.316685E-06 
 -1.132873E-04 -1.842724E-05 -3.163474E-05 -1.842724E-05 +5.409932E-06 +2.620806E-05 -3.163474E-05 +2.620806E-05 +1.078774E-04 
 -6.730657E-08 +9.887714E-08 -1.060963E-07 +9.887714E-08 -1.840942E-07 +6.617148E-08 -1.060963E-07 +6.617148E-08 +2.514007E-07 
 -1.452833E-05 +2.485533E-05 +6.413092E-07 +2.485533E-05 -3.638670E-05 -1.902030E-05 +6.413092E-07 -1.902030E-05 +5.091503E-05 
 -4.701699E-07 +5.337381E-06 -1.092505E-06 +5.337381E-06 -6.100635E-05 +1.247950E-05 -1.092505E-06 +1.247950E-05 +6.147652E-05 
 -7.651448E-08 +8.179145E-08 +5.620961E-08 +8.179145E-08 -7.476032E-08 -1.761470E-08 +5.620961E-08 -1.761470E-08 +1.512748E-07 
 -9.962641E-06 +2.738249E-05 +1.290116E-07 +2.738249E-05 -7.009543E-05 +2.010928E-05 +1.290116E-07 +2.010928E-05 +8.005807E-05 
 -1.193523E-06 +1.099599E-06 -2.468170E-07 +1.099599E-06 -9.268654E-07 -2.068309E-07 -2.468170E-07 -2.068309E-07 +2.120388E-06 
 -1.494710E-07 +4.284272E-09 +4.436725E-08 +4.284272E-09 -5.643201E-08 -7.755738E-10 +4.436725E-08 -7.755738E-10 +2.059030E-07 
 -1.761159E-06 -4.163810E-06 -9.662190E-07 -4.163810E-06 -9.150811E-06 +5.592303E-07 -9.662190E-07 +5.592303E-07 +1.091197E-05 
 -5.349502E-08 -2.295162E-08 +1.322035E-08 -2.295162E-08 -6.745336E-08 -1.161897E-08 +1.322035E-08 -1.161897E-08 +1.209484E-07 
 -8.410155E-08 -2.820474E-07 +3.845712E-07 -2.820474E-07 -9.231711E-07 +3.982622E-07 +3.845712E-07 +3.982622E-07 +1.007273E-06 
 -2.952666E-06 -2.754816E-06 +1.978326E-07 -2.754816E-06 -1.921117E-06 +2.005536E-06 +1.978326E-07 +2.005536E-06 +4.873783E-06 
 +1.783527E-06 +4.939715E-07 -1.048421E-05 +4.939715E-07 -6.320955E-05 -1.852270E-06 -1.048421E-05 -1.852270E-06 +6.142603E-05 
 -2.810376E-05 +7.934833E-06 +4.573239E-06 +7.934833E-06 -1.177177E-06 -6.950269E-06 +4.573239E-06 -6.950269E-06 +2.928093E-05 
 -3.304086E-08 -3.397470E-08 +1.190118E-09 -3.397470E-08 -7.321395E-08 -3.049045E-08 +1.190118E-09 -3.049045E-08 +1.062548E-07 
 -1.391390E-04 -1.167509E-04 -6.949362E-05 -1.167509E-04 -9.796589E-05 -5.831221E-05 -6.949362E-05 -5.831221E-05 +2.371049E-04 
 -8.821292E-05 +2.982784E-05 +7.908571E-06 +2.982784E-05 -2.723980E-06 -2.875401E-05 +7.908571E-06 -2.875401E-05 +9.093690E-05 
 -2.975332E-07 +1.609477E-07 -1.097602E-07 +1.609477E-07 -2.618653E-07 +2.007876E-07 -1.097602E-07 +2.007876E-07 +5.593985E-07 
 -3.917114E-08 -7.036665E-09 +2.886309E-09 -7.036665E-09 -1.764359E-08 +3.894422E-09 +2.886309E-09 +3.894422E-09 +5.681473E-08 
 -9.438860E-08 -5.701883E-08 -1.569760E-08 -5.701883E-08 -4.981991E-08 +2.673263E-08 -1.569760E-08 +2.673263E-08 +1.442085E-07 
 -4.747501E-08 +1.590793E-08 +1.566644E-08 +1.590793E-08 -3.198516E-08 -7.158519E-09 +1.566644E-08 -7.158519E-09 +7.946017E-08 
 -3.720777E-08 +1.056493E-08 +4.705838E-09 +1.056493E-08 -4.108689E-08 -3.759355E-09 +4.705838E-09 -3.759355E-09 +7.829465E-08 
 -1.100856E-05 +1.417607E-05 -3.878910E-06 +1.417607E-05 -1.612864E-05 -2.814971E-06 -3.878910E-06 -2.814971E-06 +2.713720E-05 
 -2.373268E-05 +5.351250E-06 -2.415804E-06 +5.351250E-06 +1.669055E-07 -5.177963E-06 -2.415804E-06 -5.177963E-06 +2.356578E-05 
 -8.332768E-05 +9.930503E-05 +4.443058E-06 +9.930503E-05 -1.183478E-04 -5.295311E-06 +4.443058E-06 -5.295311E-06 +2.016754E-04 
 -4.949246E-07 +4.717843E-07 -3.160721E-07 +4.717843E-07 -5.078334E-07 +4.485933E-07 -3.160721E-07 +4.485933E-07 +1.002758E-06 
 -8.417170E-08 -1.850233E-09 -9.205947E-09 -1.850233E-09 -5.091569E-08 -6.551955E-09 -9.205947E-09 -6.551955E-09 +1.350874E-07 
 -6.229246E-05 +3.396347E-05 +1.968803E-05 +3.396347E-05 -1.766415E-05 -1.943156E-05 +1.968803E-05 -1.943156E-05 +7.995661E-05 
 -1.309262E-05 +1.906247E-05 -3.061460E-07 +1.906247E-05 -2.777354E-05 -2.199163E-07 -3.061460E-07 -2.199163E-07 +4.086616E-05 
 -1.075948E-08 -1.470235E-09 -2.537544E-09 -1.470235E-09 -5.173787E-08 +3.668610E-09 -2.537544E-09 +3.668610E-09 +6.249735E-08 
 -1.620067E-05 -1.976676E-05 +1.695928E-06 -1.976676E-05 -2.129626E-05 -8.260024E-06 +1.695928E-06 -8.260024E-06 +3.749693E-05 
 -9.205548E-08 +1.148878E-07 +5.382162E-08 +1.148878E-07 -1.000131E-06 -5.569474E-07 +5.382162E-08 -5.569474E-07 +1.092186E-06 
 -7.335839E-08 +3.059824E-08 -2.527163E-09 +3.059824E-08 -2.011189E-07 -1.869255E-08 -2.527163E-09 -1.869255E-08 +2.744773E-07 
 -8.183951E-09 +9.313468E-09 -1.279453E-08 +9.313468E-09 -3.274507E-08 +1.906111E-08 -1.279453E-08 +1.906111E-08 +4.092902E-08 
 -1.633778E-05 +3.130886E-05 +8.633361E-06 +3.130886E-05 -5.114029E-05 +8.812723E-06 +8.633361E-06 +8.812723E-06 +6.747807E-05 
 -1.268787E-06 -1.714468E-06 -4.567825E-07 -1.714468E-06 -2.309971E-06 -4.504014E-07 -4.567825E-07 -4.504014E-07 +3.578758E-06 
 +1.537642E-07 +3.036329E-07 +6.294682E-07 +3.036329E-07 -2.048595E-06 -7.052828E-08 +6.294682E-07 -7.052828E-08 +1.894830E-06 
 -1.390362E-06 -1.404772E-07 -7.998299E-07 -1.404772E-07 -7.952037E-09 +8.123012E-08 -7.998299E-07 +8.123012E-08 +1.398314E-06 
 -1.603427E-07 -3.131752E-08 +1.022729E-09 -3.131752E-08 -3.536886E-08 +2.768751E-08 +1.022729E-09 +2.768751E-08 +1.957116E-07 
 -2.399270E-05 +5.144733E-05 +5.972033E-06 +5.144733E-05 -1.103312E-04 -1.280703E-05 +5.972033E-06 -1.280703E-05 +1.343240E-04 
 -2.119575E-08 -2.245236E-08 -1.884006E-08 -2.245236E-08 -4.202116E-08 -3.858207E-10 -1.884006E-08 -3.858207E-10 +6.321690E-08 
 -1.587161E-08 -1.238572E-08 +3.182855E-08 -1.238572E-08 -2.160048E-07 -1.327150E-07 +3.182855E-08 -1.327150E-07 +2.318764E-07 
 -1.040402E-07 +1.441572E-07 -6.327055E-08 +1.441572E-07 -2.363525E-07 +1.784156E-07 -6.327055E-08 +1.784156E-07 +3.403927E-07 
 -5.403410E-08 +1.375803E-08 -1.308660E-09 +1.375803E-08 -4.702847E-08 +1.348510E-09 -1.308660E-09 +1.348510E-09 +1.010626E-07 
 -5.367720E-08 +1.178160E-08 -1.501777E-08 +1.178160E-08 -2.595670E-08 +7.073130E-09 -1.501777E-08 +7.073130E-09 +7.963390E-08 
 -3.190920E-05 +5.757323E-05 +1.317443E-05 +5.757323E-05 -9.968429E-05 +2.049036E-07 +1.317443E-05 +2.049036E-07 +1.315935E-04 
 -1.653266E-07 -4.419371E-08 +4.595966E-08 -4.419371E-08 -6.309921E-08 +9.121280E-09 +4.595966E-08 +9.121280E-09 +2.284258E-07 
 -3.986118E-07 -5.159508E-07 -2.169229E-07 -5.159508E-07 -7.716270E-07 -3.362499E-07 -2.169229E-07 -3.362499E-07 +1.170239E-06 
 +3.889766E-08 +2.313549E-07 -3.013014E-07 +2.313549E-07 -1.199213E-06 -7.326820E-08 -3.013014E-07 -7.326820E-08 +1.160315E-06 
 -7.277816E-08 +1.039608E-08 +2.119856E-08 +1.039608E-08 -3.003473E-08 -3.768458E-09 +2.119856E-08 -3.768458E-09 +1.028129E-07 
 -3.752354E-07 -7.232747E-08 -1.851516E-07 -7.232747E-08 -4.216747E-08 +7.111575E-08 -1.851516E-07 +7.111575E-08 +4.174029E-07 
 -1.283133E-06 -2.980542E-06 -1.200460E-06 -2.980542E-06 -4.401544E-06 +1.358306E-06 -1.200460E-06 +1.358306E-06 +5.684677E-06 
 +6.608084E-08 +4.142360E-07 +3.123494E-07 +4.142360E-07 -9.496932E-07 +5.233496E-07 +3.123494E-07 +5.233496E-07 +8.836124E-07 
 -9.367208E-09 +1.177060E-05 +9.875166E-06 +1.177060E-05 -3.634515E-05 +6.404719E-06 +9.875166E-06 +6.404719E-06 +3.635452E-05 
 -1.750703E-07 -4.136718E-07 -4.405487E-07 -4.136718E-07 -9.359274E-07 -5.171398E-07 -4.405487E-07 -5.171398E-07 +1.110998E-06 
 -1.014739E-08 -1.883274E-09 -5.040862E-09 -1.883274E-09 -7.374368E-09 -4.972261E-10 -5.040862E-09 -4.972261E-10 +1.752176E-08 
 -3.778369E-05 -3.656514E-05 +3.092800E-05 -3.656514E-05 -2.590241E-05 +8.464769E-07 +3.092800E-05 +8.464769E-07 +6.368610E-05 
 -1.151976E-07 -1.046794E-07 +4.233237E-08 -1.046794E-07 -1.221124E-07 -3.148029E-09 +4.233237E-08 -3.148029E-09 +2.373100E-07 
 -3.760834E-07 -2.233185E-07 +1.258120E-07 -2.233185E-07 -6.387189E-08 -1.137055E-07 +1.258120E-07 -1.137055E-07 +4.399553E-07 
 -3.998331E-06 +4.945642E-06 +6.691610E-07 +4.945642E-06 -5.407212E-06 +1.779550E-06 +6.691610E-07 +1.779550E-06 +9.405542E-06 
 -2.353436E-07 +9.956184E-07 -5.396155E-07 +9.956184E-07 -4.338302E-06 +1.569505E-06 -5.396155E-07 +1.569505E-06 +4.573646E-06 
 -1.993389E-06 -1.598168E-06 -5.061231E-07 -1.598168E-06 -7.742584E-07 +8.438737E-07 -5.061231E-07 +8.438737E-07 +2.767648E-06 
 -8.235974E-07 +1.085680E-06 +9.378336E-08 +1.085680E-06 -8.773204E-07 +8.965686E-07 +9.378336E-08 +8.965686E-07 +1.700918E-06 
 -9.260571E-07 -1.551215E-06 -4.934412E-07 -1.551215E-06 -2.330650E-06 +8.777001E-07 -4.934412E-07 +8.777001E-07 +3.256707E-06 
 -7.409117E-06 +1.985247E-06 +3.270916E-07 +1.985247E-06 -5.320142E-07 -8.768764E-08 +3.270916E-07 -8.768764E-08 +7.941131E-06 
 -7.905388E-06 +2.086533E-08 -2.201206E-06 +2.086533E-08 +5.438970E-07 +2.104748E-06 -2.201206E-06 +2.104748E-06 +7.361491E-06 
 -3.750029E-06 +3.104105E-06 +1.825937E-07 +3.104105E-06 -2.252274E-06 -1.534126E-06 +1.825937E-07 -1.534126E-06 +6.002303E-06 
 -1.928565E-07 -2.880383E-07 +1.565072E-07 -2.880383E-07 -4.449557E-07 +1.714974E-07 +1.565072E-07 +1.714974E-07 +6.378121E-07 
 -3.615962E-08 +9.875796E-09 -2.028834E-09 +9.875796E-09 -3.725479E-08 +6.898821E-09 -2.028834E-09 +6.898821E-09 +7.341441E-08 
 -1.116040E-08 -7.564786E-09 +3.517139E-09 -7.564786E-09 -5.127708E-08 +1.275222E-08 +3.517139E-09 +1.275222E-08 +6.243748E-08 
 -4.468912E-09 -1.476783E-09 +2.349482E-09 -1.476783E-09 -1.030664E-08 +4.397167E-09 +2.349482E-09 +4.397167E-09 +1.477555E-08 
 -3.044286E-08 -2.225715E-08 -6.562721E-09 -2.225715E-08 -6.630153E-08 -3.659625E-09 -6.562721E-09 -3.659625E-09 +9.674439E-08 
 -9.720775E-08 -5.867512E-07 +1.175719E-08 -5.867512E-07 -4.689512E-06 +1.726143E-06 +1.175719E-08 +1.726143E-06 +4.786720E-06 
 -2.911632E-06 +2.055188E-05 +1.257173E-05 +2.055188E-05 -9.066174E-05 +1.095349E-06 +1.257173E-05 +1.095349E-06 +9.357338E-05 
 -1.102266E-06 -3.620562E-08 -3.652815E-07 -3.620562E-08 +1.033389E-08 -1.723198E-07 -3.652815E-07 -1.723198E-07 +1.091932E-06 
 -4.570822E-05 -5.882512E-05 +3.202268E-05 -5.882512E-05 -7.310440E-05 +2.199619E-05 +3.202268E-05 +2.199619E-05 +1.188126E-04 
 -3.899418E-07 +7.914990E-08 +3.474415E-08 +7.914990E-08 +2.010583E-08 +1.246562E-07 +3.474415E-08 +1.246562E-07 +3.698360E-07 
 -3.626320E-07 -2.319838E-06 -2.726334E-06 -2.319838E-06 -6.297778E-06 -2.189880E-06 -2.726334E-06 -2.189880E-06 +6.660411E-06 
 +7.093635E-09 +2.733484E-07 -4.803044E-07 +2.733484E-07 -3.628422E-06 +1.247016E-06 -4.803044E-07 +1.247016E-06 +3.621328E-06 
 -1.610088E-08 -3.614457E-10 -4.436736E-09 -3.614457E-10 -7.658914E-09 -1.803764E-09 -4.436736E-09 -1.803764E-09 +2.375980E-08 
 -1.757495E-07 +3.970831E-07 +1.891914E-09 +3.970831E-07 -8.789064E-07 -1.954625E-07 +1.891914E-09 -1.954625E-07 +1.054656E-06 
 -3.009236E-06 -1.582402E-06 -1.401651E-06 -1.582402E-06 -7.645917E-07 -1.439795E-07 -1.401651E-06 -1.439795E-07 +3.773828E-06 
 -7.520524E-08 +4.269656E-08 +7.883543E-08 +4.269656E-08 -3.334755E-08 -1.595051E-08 +7.883543E-08 -1.595051E-08 +1.085528E-07 
 -9.830883E-07 +2.525645E-06 +2.393966E-06 +2.525645E-06 -3.280308E-06 -4.573402E-07 +2.393966E-06 -4.573402E-07 +4.263397E-06 
 -8.215657E-09 +2.312639E-09 +9.538293E-10 +2.312639E-09 -1.253601E-08 -5.412321E-09 +9.538293E-10 -5.412321E-09 +2.075166E-08 
 -2.958328E-07 -2.018751E-07 +1.297713E-07 -2.018751E-07 -8.566467E-08 +2.412910E-07 +1.297713E-07 +2.412910E-07 +3.814975E-07 
 -6.981795E-08 -3.842706E-08 -2.055281E-08 -3.842706E-08 -2.151406E-08 +1.329439E-08 -2.055281E-08 +1.329439E-08 +9.133201E-08 
 -4.746123E-08 +2.134284E-08 -3.632075E-09 +2.134284E-08 -3.338143E-08 +3.844359E-09 -3.632075E-09 +3.844359E-09 +8.084267E-08 
 -1.762980E-08 -6.271483E-09 -2.615114E-09 -6.271483E-09 -2.267537E-08 -1.586075E-09 -2.615114E-09 -1.586075E-09 +4.030518E-08 
 -8.740296E-09 -4.712344E-09 -3.823356E-09 -4.712344E-09 -1.293853E-08 -4.894097E-09 -3.823356E-09 -4.894097E-09 +2.167883E-08 
 -7.618731E-08 -5.236817E-08 +1.121783E-09 -5.236817E-08 -2.013893E-07 +2.336075E-08 +1.121783E-09 +2.336075E-08 +2.775766E-07 
 -4.273391E-08 +2.076812E-08 -2.336696E-08 +2.076812E-08 -6.420962E-08 +2.758747E-08 -2.336696E-08 +2.758747E-08 +1.069435E-07 
 -3.846724E-08 +9.877175E-12 +5.486763E-09 +9.877175E-12 -4.560743E-08 +6.309028E-09 +5.486763E-09 +6.309028E-09 +8.407466E-08 
 -6.870264E-07 +1.699876E-06 +3.618862E-07 +1.699876E-06 -2.755853E-06 +1.403210E-06 +3.618862E-07 +1.403210E-06 +3.442879E-06 
 -5.174875E-08 +3.804147E-09 +2.647420E-08 +3.804147E-09 -4.058715E-08 +3.258642E-09 +2.647420E-08 +3.258642E-09 +9.233590E-08 
 -5.330245E-08 +2.669558E-08 -1.037810E-08 +2.669558E-08 -2.514529E-08 -1.017713E-08 -1.037810E-08 -1.017713E-08 +7.844774E-08 
 -2.070496E-08 -5.914817E-09 +8.993728E-09 -5.914817E-09 -1.078300E-08 +4.635643E-09 +8.993728E-09 +4.635643E-09 +3.148797E-08 
 -1.634850E-06 -2.845990E-06 -4.210523E-08 -2.845990E-06 -3.499988E-06 +2.671971E-06 -4.210523E-08 +2.671971E-06 +5.134838E-06 
 -3.572255E-07 +1.444222E-06 +4.648562E-07 +1.444222E-06 -2.325921E-06 +1.542454E-06 +4.648562E-07 +1.542454E-06 +2.683147E-06 
 -5.184038E-08 -1.780460E-08 +1.322044E-08 -1.780460E-08 -2.872956E-08 +1.082833E-08 +1.322044E-08 +1.082833E-08 +8.056993E-08 
 +4.825277E-08 -1.243613E-07 +2.412276E-07 -1.243613E-07 -9.345928E-07 -4.547213E-07 +2.412276E-07 -4.547213E-07 +8.863400E-07 
 -1.838392E-08 +1.506746E-07 -1.658180E-07 +1.506746E-07 -7.330133E-07 +2.267819E-07 -1.658180E-07 +2.267819E-07 +7.513973E-07 
 -1.556628E-06 -2.542764E-06 -1.816280E-07 -2.542764E-06 -3.173583E-06 -2.459716E-06 -1.816280E-07 -2.459716E-06 +4.730211E-06 
 +1.448984E-07 +3.772926E-07 +5.074541E-07 +3.772926E-07 -1.709592E-06 +6.172921E-07 +5.074541E-07 +6.172921E-07 +1.564694E-06 
 -1.015859E-05 -2.456294E-06 -1.911968E-06 -2.456294E-06 -5.875442E-07 -1.847268E-07 -1.911968E-06 -1.847268E-07 +1.074614E-05 
 -8.537504E-07 -1.380402E-06 +3.549800E-10 -1.380402E-06 -2.078857E-06 +6.743990E-07 +3.549800E-10 +6.743990E-07 +2.932607E-06 
 -3.050841E-08 -1.231395E-08 -2.853401E-09 -1.231395E-08 -6.595956E-08 -2.079738E-08 -2.853401E-09 -2.079738E-08 +9.646797E-08 
 -1.624994E-07 -1.645033E-06 +1.003816E-06 -1.645033E-06 -1.001846E-05 -2.690706E-07 +1.003816E-06 -2.690706E-07 +1.018095E-05 
 -2.415181E-06 +3.294709E-06 -2.289340E-06 +3.294709E-06 -4.183199E-06 +1.447399E-06 -2.289340E-06 +1.447399E-06 +6.598380E-06 
 -6.884927E-07 +2.179437E-07 -1.614237E-07 +2.179437E-07 -3.079610E-08 +2.347326E-07 -1.614237E-07 +2.347326E-07 +7.192887E-07 
 -6.225019E-08 -1.782041E-08 +1.723092E-08 -1.782041E-08 -3.040572E-08 +8.619224E-09 +1.723092E-08 +8.619224E-09 +9.265592E-08 
 -2.869978E-08 -1.535138E-08 -1.280300E-08 -1.535138E-08 -6.661571E-08 -1.978631E-08 -1.280300E-08 -1.978631E-08 +9.531550E-08 
 -8.887821E-06 -1.104469E-06 +1.567176E-06 -1.104469E-06 -1.325248E-10 +1.316207E-06 +1.567176E-06 +1.316207E-06 +8.887953E-06 
 -1.395297E-05 +2.416542E-05 -6.885569E-06 +2.416542E-05 -4.185675E-05 +1.192614E-05 -6.885569E-06 +1.192614E-05 +5.580972E-05 
 -6.398514E-05 -1.372141E-04 -5.760514E-06 -1.372141E-04 -2.942574E-04 -1.235199E-05 -5.760514E-06 -1.235199E-05 +3.582425E-04 
 -1.040547E-07 +4.678157E-08 -1.337364E-08 +4.678157E-08 -8.440015E-08 +3.220129E-09 -1.337364E-08 +3.220129E-09 +1.884548E-07 
 -4.941381E-07 +6.660722E-07 -4.778817E-08 +6.660722E-07 -6.909735E-07 -4.323421E-07 -4.778817E-08 -4.323421E-07 +1.185112E-06 
 -2.708244E-08 +2.569482E-09 -6.483240E-10 +2.569482E-09 -2.143546E-08 -3.505449E-09 -6.483240E-10 -3.505449E-09 +4.851790E-08 
 -2.947787E-06 +3.562403E-06 -5.301331E-07 +3.562403E-06 -4.164052E-06 -3.709941E-07 -5.301331E-07 -3.709941E-07 +7.111839E-06 
 -2.761402E-06 +2.686165E-06 -3.743150E-07 +2.686165E-06 -2.052984E-06 -1.295394E-06 -3.743150E-07 -1.295394E-06 +4.814386E-06 
 -8.182633E-07 -5.860510E-07 +4.671930E-08 -5.860510E-07 -2.683352E-07 +4.640952E-07 +4.671930E-08 +4.640952E-07 +1.086599E-06 
 -4.682030E-05 +8.370922E-05 +1.497558E-05 +8.370922E-05 -1.436988E-04 +7.391938E-06 +1.497558E-05 +7.391938E-06 +1.905191E-04 
 -1.221754E-06 +2.307632E-06 -5.612707E-07 +2.307632E-06 -3.728559E-06 -7.686326E-07 -5.612707E-07 -7.686326E-07 +4.950314E-06 
 -8.027978E-09 -5.650742E-10 -1.682466E-09 -5.650742E-10 -9.120449E-09 -2.343019E-09 -1.682466E-09 -2.343019E-09 +1.714843E-08 
 -6.335939E-08 +1.042593E-07 +4.932748E-08 +1.042593E-07 -1.155071E-07 +3.696935E-08 +4.932748E-08 +3.696935E-08 +1.788665E-07 
 -2.767721E-05 +1.168533E-05 +2.146626E-06 +1.168533E-05 -4.272054E-06 +3.715077E-06 +2.146626E-06 +3.715077E-06 +3.194926E-05 
 -2.920358E-07 +1.406565E-06 +4.843367E-07 +1.406565E-06 -4.338814E-06 +1.340375E-06 +4.843367E-07 +1.340375E-06 +4.630850E-06 
 -1.435523E-08 +7.407867E-10 -5.418440E-09 +7.407867E-10 -1.717439E-08 +7.592681E-09 -5.418440E-09 +7.592681E-09 +3.152962E-08 
 -1.087388E-06 +1.018584E-06 +5.910603E-07 +1.018584E-06 -9.549393E-07 -4.574226E-07 +5.910603E-07 -4.574226E-07 +2.042328E-06 
 -2.987493E-08 -6.516055E-09 +1.097073E-09 -6.516055E-09 -2.910774E-08 -2.097429E-09 +1.097073E-09 -2.097429E-09 +5.898267E-08 
 -6.027140E-05 +1.062673E-05 -7.200364E-06 +1.062673E-05 -1.877667E-06 +1.268405E-06 -7.200364E-06 +1.268405E-06 +6.214906E-05 
 -9.903301E-05 -9.488010E-05 +1.660332E-05 -9.488010E-05 -7.964131E-05 +6.114156E-05 +1.660332E-05 +6.114156E-05 +1.786743E-04 
 -4.535200E-09 +3.021100E-09 -2.782538E-09 +3.021100E-09 -8.332496E-09 +3.156672E-10 -2.782538E-09 +3.156672E-10 +1.286770E-08 
 -5.989064E-05 +1.025550E-05 -1.454581E-05 +1.025550E-05 +4.572228E-07 -9.338622E-06 -1.454581E-05 -9.338622E-06 +5.943342E-05 
 -3.199400E-05 -4.253028E-05 -3.238453E-05 -4.253028E-05 -5.434721E-05 -2.684911E-05 -3.238453E-05 -2.684911E-05 +8.634121E-05 
 -4.614438E-08 -2.802097E-07 +9.235892E-08 -2.802097E-07 -1.945073E-06 +1.135450E-06 +9.235892E-08 +1.135450E-06 +1.991217E-06 
 -3.957446E-08 +1.306112E-08 +3.198074E-08 +1.306112E-08 -8.157087E-08 +1.989091E-08 +3.198074E-08 +1.989091E-08 +1.211453E-07 
 -5.037325E-08 -2.020782E-09 +2.531411E-09 -2.020782E-09 -7.625781E-08 -6.039884E-09 +2.531411E-09 -6.039884E-09 +1.266311E-07 
 -2.817445E-05 +3.479807E-05 -4.505526E-06 +3.479807E-05 -3.798398E-05 -1.276214E-05 -4.505526E-06 -1.276214E-05 +6.615843E-05 
 -9.006171E-08 -7.713955E-08 +5.936472E-08 -7.713955E-08 -2.059629E-07 +1.259225E-07 +5.936472E-08 +1.259225E-07 +2.960246E-07 
 -3.177689E-08 -4.899857E-08 +1.811642E-08 -4.899857E-08 -1.539826E-07 +9.200574E-08 +1.811642E-08 +9.200574E-08 +1.857595E-07 
 -2.277716E-08 +3.943762E-09 -1.469867E-09 +3.943762E-09 -1.561089E-08 +7.482575E-09 -1.469867E-09 +7.482575E-09 +3.838805E-08 
 -5.387437E-06 +3.772278E-06 -1.190169E-06 +3.772278E-06 -2.641465E-06 +8.334086E-07 -1.190169E-06 +8.334086E-07 +8.028903E-06 
 -8.309546E-08 -6.680254E-09 -8.545245E-09 -6.680254E-09 -4.321285E-08 -1.653561E-10 -8.545245E-09 -1.653561E-10 +1.263083E-07 
 -7.858609E-05 +4.185830E-06 -2.358452E-07 +4.185830E-06 -1.350374E-07 -2.678438E-06 -2.358452E-07 -2.678438E-06 +7.872112E-05 
 -4.349439E-07 -1.864146E-07 +1.884550E-07 -1.864146E-07 -2.726738E-07 +4.469133E-08 +1.884550E-07 +4.469133E-08 +7.076177E-07 
 -8.775280E-08 -1.224485E-08 +3.222469E-08 -1.224485E-08 -5.915582E-08 +1.372569E-08 +3.222469E-08 +1.372569E-08 +1.469086E-07 
 +2.777161E-07 -2.598312E-07 -1.805726E-06 -2.598312E-07 -1.192467E-05 +2.403081E-06 -1.805726E-06 +2.403081E-06 +1.164696E-05 
 +1.939518E-07 -3.962268E-07 -8.471068E-07 -3.962268E-07 -2.174296E-06 -4.565555E-07 -8.471068E-07 -4.565555E-07 +1.980345E-06 
 -1.237760E-07 -3.992178E-07 +4.286987E-07 -3.992178E-07 -1.306223E-06 +7.194991E-07 +4.286987E-07 +7.194991E-07 +1.430000E-06 
 -6.535644E-06 +2.434524E-06 +6.694390E-07 +2.434524E-06 -6.351144E-07 +1.157628E-06 +6.694390E-07 +1.157628E-06 +7.170759E-06 
 -2.542898E-08 -4.774017E-09 +1.198558E-08 -4.774017E-09 -1.139263E-08 +4.071553E-09 +1.198558E-08 +4.071553E-09 +3.682161E-08 
 -3.188481E-07 -3.423415E-07 +4.122753E-08 -3.423415E-07 -1.659477E-07 -2.705736E-07 +4.122753E-08 -2.705736E-07 +4.847957E-07 
 -4.229826E-08 +8.094376E-09 -9.788039E-09 +8.094376E-09 -6.314719E-08 -2.663185E-08 -9.788039E-09 -2.663185E-08 +1.054455E-07 
 -8.618263E-06 +3.505963E-06 +1.253976E-07 +3.505963E-06 -1.412555E-06 +3.470840E-07 +1.253976E-07 +3.470840E-07 +1.003082E-05 
 -5.350147E-07 -9.874976E-07 -2.781605E-07 -9.874976E-07 -1.861378E-06 -8.204793E-07 -2.781605E-07 -8.204793E-07 +2.396393E-06 
 -1.896211E-08 -1.041536E-09 +2.205471E-09 -1.041536E-09 -2.561538E-08 +6.898582E-09 +2.205471E-09 +6.898582E-09 +4.457749E-08 
 -1.002062E-07 +1.794497E-09 +6.311800E-09 +1.794497E-09 -3.457252E-08 -1.359091E-08 +6.311800E-09 -1.359091E-08 +1.347787E-07 
 -2.617042E-07 -7.130909E-09 +9.895111E-08 -7.130909E-09 +1.181422E-08 -7.982788E-08 +9.895111E-08 -7.982788E-08 +2.498900E-07 
 -2.080393E-07 +1.498864E-07 +2.611736E-08 +1.498864E-07 -1.983623E-07 -9.295105E-08 +2.611736E-08 -9.295105E-08 +4.064016E-07 
 -1.391067E-08 +2.626726E-07 -1.999166E-07 +2.626726E-07 -7.228228E-07 -3.500071E-07 -1.999166E-07 -3.500071E-07 +7.367335E-07 
 -4.927499E-08 -1.582859E-08 +1.132247E-08 -1.582859E-08 -4.360463E-08 +5.886913E-09 +1.132247E-08 +5.886913E-09 +9.287962E-08 
 -2.481137E-05 +1.481969E-05 +2.444825E-06 +1.481969E-05 -7.509114E-06 +5.166052E-06 +2.444825E-06 +5.166052E-06 +3.232048E-05 
 -1.526570E-07 -1.477934E-07 +7.278039E-08 -1.477934E-07 -7.134078E-08 -6.672763E-08 +7.278039E-08 -6.672763E-08 +2.239978E-07 
 -1.205285E-07 +1.386303E-09 +9.234558E-09 +1.386303E-09 -6.245025E-08 -1.536196E-08 +9.234558E-09 -1.536196E-08 +1.829787E-07 
 -3.855958E-07 +2.159715E-06 -3.453337E-08 +2.159715E-06 -1.082866E-05 +4.210613E-06 -3.453337E-08 +4.210613E-06 +1.121426E-05 
 -1.881319E-08 -1.069892E-08 -1.008291E-08 -1.069892E-08 -1.659996E-08 -9.980291E-09 -1.008291E-08 -9.980291E-09 +3.541315E-08 
 -1.095561E-07 -3.698578E-07 -1.918961E-07 -3.698578E-07 -1.083994E-06 -1.425520E-07 -1.918961E-07 -1.425520E-07 +1.193550E-06 
 -2.302891E-09 +5.923683E-07 -4.381446E-07 +5.923683E-07 -1.532342E-06 -4.879940E-07 -4.381446E-07 -4.879940E-07 +1.534645E-06 
 -1.311912E-05 +1.873574E-05 +2.540369E-06 +1.873574E-05 -2.675760E-05 -3.628291E-06 +2.540369E-06 -3.628291E-06 +3.987672E-05 
 -6.423241E-08 +6.909790E-09 -5.909170E-09 +6.909790E-09 -4.898554E-08 -1.443046E-08 -5.909170E-09 -1.443046E-08 +1.132180E-07 
 -2.072412E-07 +4.416726E-07 -4.238149E-08 +4.416726E-07 -8.514515E-07 +4.369009E-07 -4.238149E-08 +4.369009E-07 +1.058693E-06 
 -9.065331E-06 +4.763690E-06 +9.000997E-08 +4.763690E-06 -1.615351E-06 +3.035119E-06 +9.000997E-08 +3.035119E-06 +1.068068E-05 
 -2.686760E-05 -6.355578E-06 +9.303781E-06 -6.355578E-06 -1.249417E-06 +5.038018E-06 +9.303781E-06 +5.038018E-06 +2.811702E-05 
 -3.466282E-05 +9.522054E-05 +2.370389E-05 +9.522054E-05 -2.616224E-04 -6.512968E-05 +2.370389E-05 -6.512968E-05 +2.962852E-04 
 -2.126287E-08 +3.205225E-09 -6.730869E-09 +3.205225E-09 -1.072577E-08 +3.681009E-09 -6.730869E-09 +3.681009E-09 +3.198864E-08 
 -1.470009E-06 +2.995732E-06 +8.574763E-07 +2.995732E-06 -4.327313E-06 +1.612121E-06 +8.574763E-07 +1.612121E-06 +5.797322E-06 
 -1.390221E-06 +9.904956E-07 -8.736183E-07 +9.904956E-07 -3.746474E-07 -2.855023E-07 -8.736183E-07 -2.855023E-07 +1.764868E-06 
 -8.308590E-06 +3.405082E-06 -1.204395E-06 +3.405082E-06 -9.440745E-07 +2.560155E-06 -1.204395E-06 +2.560155E-06 +9.252664E-06 
 -6.873536E-08 +1.299440E-08 -5.569817E-09 +1.299440E-08 -6.358330E-08 +9.280962E-09 -5.569817E-09 +9.280962E-09 +1.323187E-07 
 -4.132431E-06 +1.079931E-05 -4.660513E-06 +1.079931E-05 -2.266858E-05 -1.181604E-06 -4.660513E-06 -1.181604E-06 +2.680101E-05 
 -3.158409E-08 +1.796087E-09 -1.542233E-08 +1.796087E-09 -1.456633E-08 +1.255433E-09 -1.542233E-08 +1.255433E-09 +4.615043E-08 
 -3.219342E-05 +7.716259E-06 +7.188651E-06 +7.716259E-06 -1.355271E-06 +2.456342E-06 +7.188651E-06 +2.456342E-06 +3.354869E-05 
 -1.814641E-06 +4.265530E-06 +1.621227E-06 +4.265530E-06 -6.668447E-06 +1.978644E-06 +1.621227E-06 +1.978644E-06 +8.483088E-06 
 -2.496055E-05 -4.322908E-05 -4.789728E-06 -4.322908E-05 -7.487695E-05 -8.295907E-06 -4.789728E-06 -8.295907E-06 +9.983750E-05 
 -1.183232E-06 -3.842131E-09 -3.796974E-07 -3.842131E-09 +1.039083E-08 -2.045970E-07 -3.796974E-07 -2.045970E-07 +1.172841E-06 
 -2.197797E-08 -5.236148E-09 -6.630088E-09 -5.236148E-09 -1.669244E-08 -4.267907E-09 -6.630088E-09 -4.267907E-09 +3.867042E-08 
 -2.015757E-05 +3.615953E-05 -3.650354E-06 +3.615953E-05 -5.547894E-05 -2.031580E-05 -3.650354E-06 -2.031580E-05 +7.563652E-05 
 -1.729904E-04 -1.513426E-05 -2.610449E-05 -1.513426E-05 -1.326777E-06 -2.283130E-06 -2.610449E-05 -2.283130E-06 +1.743172E-04 
 -7.083572E-06 -3.890771E-06 +9.520701E-07 -3.890771E-06 -1.895603E-06 +2.011426E-06 +9.520701E-07 +2.011426E-06 +8.979175E-06 
 -1.391482E-06 -9.589389E-06 +6.253017E-06 -9.589389E-06 -3.787280E-05 -5.456033E-07 +6.253017E-06 -5.456033E-07 +3.926428E-05 
 +4.619777E-06 -2.155489E-06 +1.876582E-05 -2.155489E-06 -8.058168E-05 -5.033172E-06 +1.876582E-05 -5.033172E-06 +7.596191E-05 
 -1.197549E-04 -3.918988E-06 -2.222071E-05 -3.918988E-06 +3.600005E-06 +2.047139E-05 -2.222071E-05 +2.047139E-05 +1.161549E-04 
 -9.181882E-09 -8.549929E-08 +6.800405E-08 -8.549929E-08 -3.563837E-08 +4.557618E-08 +6.800405E-08 +4.557618E-08 +4.482025E-08 
 -5.611811E-05 +4.183078E-05 -2.377864E-05 +4.183078E-05 -3.009178E-05 +7.447227E-06 -2.377864E-05 +7.447227E-06 +8.620989E-05 
 -8.875535E-09 -5.239102E-10 +3.856968E-09 -5.239102E-10 -8.304717E-09 -1.019315E-09 +3.856968E-09 -1.019315E-09 +1.718025E-08 
 -2.692950E-08 +3.017776E-09 -1.545127E-08 +3.017776E-09 -2.311590E-08 +2.596788E-09 -1.545127E-08 +2.596788E-09 +5.004540E-08 
 -2.200813E-07 +2.500875E-07 -2.995463E-07 +2.500875E-07 -2.406242E-07 +1.208391E-07 -2.995463E-07 +1.208391E-07 +4.607055E-07 
 -1.400682E-06 -7.336316E-07 -2.616347E-07 -7.336316E-07 -2.501275E-07 -6.195688E-07 -2.616347E-07 -6.195688E-07 +1.650810E-06 
 -3.645561E-06 +3.197148E-07 +8.828317E-07 +3.197148E-07 +4.127484E-07 -1.319995E-06 +8.828317E-07 -1.319995E-06 +3.232813E-06 
 -5.836187E-05 -1.251542E-04 +3.901561E-05 -1.251542E-04 -2.683958E-04 +8.366835E-05 +3.901561E-05 +8.366835E-05 +3.267577E-04 
 -1.297856E-07 +1.680959E-07 +7.870609E-08 +1.680959E-07 -1.410353E-07 +5.724023E-08 +7.870609E-08 +5.724023E-08 +2.708209E-07 
 -1.579597E-07 -6.512825E-08 +2.379960E-09 -6.512825E-08 -1.468915E-07 -2.336222E-08 +2.379960E-09 -2.336222E-08 +3.048512E-07 
 -8.745064E-07 +2.968872E-07 -3.276068E-07 +2.968872E-07 -1.083132E-07 +1.309270E-07 -3.276068E-07 +1.309270E-07 +9.828196E-07 
 -4.635487E-08 -5.160779E-09 -7.071771E-09 -5.160779E-09 -2.405678E-08 -6.181164E-09 -7.071771E-09 -6.181164E-09 +7.041166E-08 
 -5.483115E-07 +7.858850E-07 +3.446457E-07 +7.858850E-07 -1.130005E-06 -5.033366E-07 +3.446457E-07 -5.033366E-07 +1.678316E-06 
 -6.104754E-08 -2.429063E-09 -3.971411E-09 -2.429063E-09 -3.406986E-08 -5.885960E-09 -3.971411E-09 -5.885960E-09 +9.511740E-08 
 +1.195629E-06 -2.400592E-06 -8.835307E-06 -2.400592E-06 -6.589616E-05 +1.314082E-05 -8.835307E-06 +1.314082E-05 +6.470053E-05 
 -9.803908E-06 -1.540708E-05 -1.354194E-06 -1.540708E-05 -2.399337E-05 +7.781280E-07 -1.354194E-06 +7.781280E-07 +3.379728E-05 
 +6.137353E-08 +5.345254E-07 -7.948987E-07 +5.345254E-07 -8.056106E-06 -1.571309E-06 -7.948987E-07 -1.571309E-06 +7.994732E-06 
 -7.441366E-08 +3.558041E-08 -3.689836E-09 +3.558041E-08 -1.293081E-07 -1.826370E-08 -3.689836E-09 -1.826370E-08 +2.037217E-07 
 -7.900591E-08 +4.553353E-08 -1.679401E-08 +4.553353E-08 -1.933434E-07 +1.260137E-08 -1.679401E-08 +1.260137E-08 +2.723494E-07 
 -4.367531E-09 -3.124120E-07 +4.459951E-07 -3.124120E-07 -2.842812E-06 +1.032748E-06 +4.459951E-07 +1.032748E-06 +2.847179E-06 
 -1.679503E-04 +2.940799E-05 +2.314622E-06 +2.940799E-05 -3.801418E-06 -1.566047E-05 +2.314622E-06 -1.566047E-05 +1.717517E-04 
 -3.548491E-07 -4.069304E-07 +1.419546E-07 -4.069304E-07 -3.249131E-07 -1.921163E-07 +1.419546E-07 -1.921163E-07 +6.797621E-07 
 -4.398591E-06 +1.544417E-05 -9.251138E-06 +1.544417E-05 -3.426988E-05 -1.623152E-06 -9.251138E-06 -1.623152E-06 +3.866847E-05 
 -5.328588E-06 -2.242042E-07 -8.968015E-07 -2.242042E-07 +3.514683E-07 -1.409696E-06 -8.968015E-07 -1.409696E-06 +4.977120E-06 
 -6.940645E-06 +3.162747E-06 -2.325593E-06 +3.162747E-06 -9.110240E-07 +3.221079E-06 -2.325593E-06 +3.221079E-06 +7.851669E-06 
 -5.627356E-06 -6.184800E-06 -9.405101E-07 -6.184800E-06 -6.420134E-06 +1.121922E-06 -9.405101E-07 +1.121922E-06 +1.204749E-05 
 -1.674324E-06 +2.091950E-07 +7.790098E-07 +2.091950E-07 +1.096644E-07 +4.176215E-07 +7.790098E-07 +4.176215E-07 +1.564660E-06 
 -1.295749E-06 -4.592382E-07 +5.608863E-07 -4.592382E-07 -1.507744E-07 +3.618324E-08 +5.608863E-07 +3.618324E-08 +1.446524E-06 
 -2.343209E-08 -1.269586E-08 +1.126615E-08 -1.269586E-08 -3.039359E-08 +1.681243E-08 +1.126615E-08 +1.681243E-08 +5.382568E-08 
 -5.171576E-06 -1.885475E-05 +1.246568E-06 -1.885475E-05 -6.121752E-05 +2.707394E-05 +1.246568E-06 +2.707394E-05 +6.638910E-05 
 -5.705765E-08 -5.488701E-09 +2.918742E-09 -5.488701E-09 -4.464651E-08 -7.479165E-09 +2.918742E-09 -7.479165E-09 +1.017042E-07 
 +4.131935E-07 -1.850579E-06 +4.729378E-06 -1.850579E-06 -5.448026E-05 -2.114837E-05 +4.729378E-06 -2.114837E-05 +5.406707E-05 
 -7.301341E-08 +1.178343E-08 +1.280413E-09 +1.178343E-08 -5.301352E-08 -9.109723E-09 +1.280413E-09 -9.109723E-09 +1.260269E-07 
 -5.997621E-05 -3.399982E-05 +6.202906E-06 -3.399982E-05 -1.846877E-05 +1.150473E-05 +6.202906E-06 +1.150473E-05 +7.844498E-05 
 -1.267721E-05 +1.577029E-05 -1.903102E-06 +1.577029E-05 -1.663293E-05 -7.060481E-06 -1.903102E-06 -7.060481E-06 +2.931015E-05 
 -2.532925E-08 -9.646041E-09 +1.840099E-08 -9.646041E-09 +1.389399E-08 -1.930559E-09 +1.840099E-08 -1.930559E-09 +1.143526E-08 
 -5.301310E-07 -4.564513E-07 -1.722997E-07 -4.564513E-07 -3.803725E-07 -3.308799E-08 -1.722997E-07 -3.308799E-08 +9.105035E-07 
 +9.071363E-08 +1.077771E-07 +2.540228E-07 +1.077771E-07 -7.948944E-07 +2.943547E-07 +2.540228E-07 +2.943547E-07 +7.041808E-07 
 -2.109508E-07 +2.959270E-07 +6.811423E-09 +2.959270E-07 -2.513566E-07 +2.758218E-07 +6.811423E-09 +2.758218E-07 +4.623074E-07 
 -2.976544E-05 -1.687740E-05 -6.482528E-07 -1.687740E-05 -7.377703E-06 -9.410096E-06 -6.482528E-07 -9.410096E-06 +3.714315E-05 
 -3.966874E-07 -8.663038E-08 +2.218911E-07 -8.663038E-08 -3.137097E-08 +7.178997E-08 +2.218911E-07 +7.178997E-08 +4.280583E-07 
 -1.726077E-07 -3.253845E-07 +1.799217E-07 -3.253845E-07 -3.115092E-07 -1.141851E-07 +1.799217E-07 -1.141851E-07 +4.841169E-07 
 -8.933571E-08 -2.800786E-08 -2.194301E-09 -2.800786E-08 -5.677243E-08 -1.430659E-08 -2.194301E-09 -1.430659E-08 +1.461081E-07 
 -5.913145E-08 -2.377405E-09 +4.406414E-09 -2.377405E-09 -1.251207E-08 +2.939051E-10 +4.406414E-09 +2.939051E-10 +7.164352E-08 
 -1.451415E-06 +9.478678E-06 +8.838534E-06 +9.478678E-06 -2.753484E-05 -4.356216E-06 +8.838534E-06 -4.356216E-06 +2.898625E-05 
 -3.140925E-06 +2.053211E-06 +9.953060E-07 +2.053211E-06 -1.087123E-06 -1.748257E-06 +9.953060E-07 -1.748257E-06 +4.228048E-06 
 -2.977509E-08 +6.202673E-09 +1.288622E-08 +6.202673E-09 -3.121605E-08 -8.674524E-09 +1.288622E-08 -8.674524E-09 +6.099114E-08 
 -9.082456E-05 +1.634980E-05 -3.795716E-06 +1.634980E-05 -2.222406E-06 -7.588796E-06 -3.795716E-06 -7.588796E-06 +9.304697E-05 
 -7.765704E-07 -8.265000E-07 -6.425781E-07 -8.265000E-07 -5.312538E-07 +1.237115E-07 -6.425781E-07 +1.237115E-07 +1.307824E-06 
 -2.450448E-07 -2.597801E-07 -2.795680E-07 -2.597801E-07 -2.574428E-07 -1.504793E-07 -2.795680E-07 -1.504793E-07 +5.024877E-07 
 -3.077617E-07 +1.462378E-07 +1.601845E-07 +1.462378E-07 -7.994262E-08 -1.637772E-07 +1.601845E-07 -1.637772E-07 +3.877043E-07 
 -1.468196E-08 +1.878173E-09 +1.966754E-09 +1.878173E-09 -2.734080E-08 +1.269424E-08 +1.966754E-09 +1.269424E-08 +4.202276E-08 
 +1.297267E-07 -5.538661E-07 +8.555207E-07 -5.538661E-07 -3.245015E-06 +6.389911E-08 +8.555207E-07 +6.389911E-08 +3.115288E-06 
 -1.065719E-06 +2.957319E-07 -3.165065E-08 +2.957319E-07 +5.024872E-08 -3.663751E-07 -3.165065E-08 -3.663751E-07 +1.015470E-06 
 -3.732658E-08 +1.111328E-08 +9.872990E-09 +1.111328E-08 -2.480153E-08 -9.021726E-09 +9.872990E-09 -9.021726E-09 +6.212812E-08 
 +3.746776E-09 +1.360506E-08 +5.621011E-08 +1.360506E-08 -1.735475E-07 -7.612165E-08 +5.621011E-08 -7.612165E-08 +1.698007E-07 
 -4.510683E-08 +1.935544E-07 +2.280994E-08 +1.935544E-07 -4.749253E-07 +3.754856E-07 +2.280994E-08 +3.754856E-07 +5.200321E-07 
 -2.355112E-07 +3.810724E-07 -1.229953E-07 +3.810724E-07 -6.099183E-07 +2.889659E-07 -1.229953E-07 +2.889659E-07 +8.454296E-07 
 -3.112174E-06 +1.764308E-05 -3.756241E-06 +1.764308E-05 -1.000597E-04 +2.130083E-05 -3.756241E-06 +2.130083E-05 +1.031719E-04 
 -2.771319E-05 +3.545398E-06 -4.885985E-06 +3.545398E-06 -1.360861E-09 +4.225048E-06 -4.885985E-06 +4.225048E-06 +2.771456E-05 
 -5.436271E-08 -9.870043E-09 -2.755177E-08 -9.870043E-09 -3.542298E-08 -5.549621E-09 -2.755177E-08 -5.549621E-09 +8.978569E-08 
 -4.292834E-05 -1.002583E-04 +1.977627E-05 -1.002583E-04 -1.918759E-04 -5.548896E-05 +1.977627E-05 -5.548896E-05 +2.348042E-04 
 -2.747978E-06 +5.994610E-07 -6.304522E-07 +5.994610E-07 -7.301428E-08 -2.781162E-07 -6.304522E-07 -2.781162E-07 +2.820992E-06 
 -7.731754E-08 -5.825874E-08 +7.866237E-09 -5.825874E-08 -4.023039E-08 -3.924449E-08 +7.866237E-09 -3.924449E-08 +1.175479E-07 
 -5.535426E-06 -2.671345E-06 -9.359494E-07 -2.671345E-06 -1.225506E-06 +2.157634E-07 -9.359494E-07 +2.157634E-07 +6.760932E-06 
 -1.816127E-08 -6.204729E-09 +2.163282E-09 -6.204729E-09 -2.955031E-08 +1.010190E-08 +2.163282E-09 +1.010190E-08 +4.771158E-08 
 -1.802889E-06 -1.372822E-05 +9.137490E-06 -1.372822E-05 -3.554026E-05 -6.399177E-06 +9.137490E-06 -6.399177E-06 +3.734315E-05 
 -3.257392E-06 -1.625129E-06 +1.150938E-06 -1.625129E-06 -7.599797E-07 +1.090781E-06 +1.150938E-06 +1.090781E-06 +4.017372E-06 
 -3.971994E-08 +7.399992E-08 -5.025009E-08 +7.399992E-08 -1.565883E-07 +9.559816E-08 -5.025009E-08 +9.559816E-08 +1.963082E-07 
 -6.273806E-06 -2.446449E-05 +1.092332E-05 -2.446449E-05 -7.583651E-05 -1.924514E-06 +1.092332E-05 -1.924514E-06 +8.211032E-05 
 -2.769014E-05 -8.841782E-06 -8.665796E-06 -8.841782E-06 -2.300199E-06 -7.139784E-06 -8.665796E-06 -7.139784E-06 +2.999034E-05 
 -5.001389E-08 -4.633726E-09 -4.617174E-09 -4.633726E-09 -3.274079E-08 -2.336162E-09 -4.617174E-09 -2.336162E-09 +8.275468E-08 
 -2.708916E-08 -4.721416E-09 -2.882231E-12 -4.721416E-09 -2.486795E-08 -3.525960E-09 -2.882231E-12 -3.525960E-09 +5.195711E-08 
 +9.751391E-08 +1.531323E-07 +4.889738E-07 +1.531323E-07 -2.510032E-06 +1.039500E-06 +4.889738E-07 +1.039500E-06 +2.412518E-06 
 -2.181875E-08 +2.534072E-09 -2.349638E-09 +2.534072E-09 -1.054083E-08 -1.016102E-09 -2.349638E-09 -1.016102E-09 +3.235958E-08 
 -9.844304E-07 +7.511597E-07 -8.799677E-07 +7.511597E-07 -5.449838E-07 +3.463898E-07 -8.799677E-07 +3.463898E-07 +1.529414E-06 
 -3.990061E-08 +2.636826E-08 +1.291165E-08 +2.636826E-08 -3.760534E-08 -3.026706E-08 +1.291165E-08 -3.026706E-08 +7.750594E-08 
 -7.302562E-08 +4.290006E-07 +1.852592E-07 +4.290006E-07 -1.195301E-06 +4.745040E-07 +1.852592E-07 +4.745040E-07 +1.268327E-06 
 -2.647819E-06 +3.024721E-05 -4.037547E-06 +3.024721E-05 -3.457319E-04 +4.614945E-05 -4.037547E-06 +4.614945E-05 +3.483797E-04 
 -1.298112E-08 +2.424865E-09 -2.704178E-09 +2.424865E-09 -1.179520E-07 -7.945461E-08 -2.704178E-09 -7.945461E-08 +1.309331E-07 
 -5.706837E-08 -2.104889E-08 +2.873490E-08 -2.104889E-08 -1.480090E-08 +3.147312E-08 +2.873490E-08 +3.147312E-08 +7.186927E-08 
 -1.157248E-04 -1.210560E-04 +4.313143E-05 -1.210560E-04 -1.227482E-04 +1.363171E-05 +4.313143E-05 +1.363171E-05 +2.384729E-04 
 -6.356929E-08 +3.037000E-08 -3.755504E-08 +3.037000E-08 -3.298362E-08 -9.877061E-09 -3.755504E-08 -9.877061E-09 +9.655291E-08 
 -1.955602E-08 -6.791588E-09 -6.109440E-09 -6.791588E-09 -3.977468E-08 -1.357490E-08 -6.109440E-09 -1.357490E-08 +5.933071E-08 
 -6.104050E-07 -4.047889E-07 -4.151722E-07 -4.047889E-07 -2.005274E-07 -1.384199E-09 -4.151722E-07 -1.384199E-09 +8.109324E-07 
 -8.298501E-07 -3.949892E-07 -4.684937E-07 -3.949892E-07 -1.991272E-07 -3.514043E-07 -4.684937E-07 -3.514043E-07 +1.028977E-06 
 -7.268849E-07 -4.576342E-07 +4.223145E-07 -4.576342E-07 -2.745850E-07 +4.268743E-07 +4.223145E-07 +4.268743E-07 +1.001470E-06 
 -2.426250E-07 +2.764605E-07 -1.426634E-07 +2.764605E-07 -3.095770E-07 +2.995208E-07 -1.426634E-07 +2.995208E-07 +5.522020E-07 
 -8.769675E-06 -2.898757E-05 -1.878146E-05 -2.898757E-05 -6.499056E-05 -2.707276E-06 -1.878146E-05 -2.707276E-06 +7.376023E-05 
 -2.814393E-07 +6.601228E-08 -2.582888E-08 +6.601228E-08 -1.726151E-07 +1.709466E-08 -2.582888E-08 +1.709466E-08 +4.540544E-07 
 -1.100179E-07 +2.816591E-08 +4.233848E-08 +2.816591E-08 -3.266122E-08 -4.630883E-08 +4.233848E-08 -4.630883E-08 +1.426792E-07 
 -1.820650E-06 +1.485407E-06 -6.523695E-07 +1.485407E-06 -1.151301E-06 +8.834409E-08 -6.523695E-07 +8.834409E-08 +2.971951E-06 
 -2.291481E-05 +5.602192E-05 -1.658880E-05 +5.602192E-05 -1.115939E-04 -2.051254E-05 -1.658880E-05 -2.051254E-05 +1.345087E-04 
 -4.171711E-05 -2.967223E-05 -2.156947E-06 -2.967223E-05 -1.832347E-05 +1.140804E-05 -2.156947E-06 +1.140804E-05 +6.004057E-05 
 -6.340579E-07 +5.244779E-06 +3.291503E-06 +5.244779E-06 -3.109872E-05 -2.685976E-06 +3.291503E-06 -2.685976E-06 +3.173278E-05 
 +2.903487E-08 +4.503184E-08 +3.488921E-08 +4.503184E-08 -1.787908E-07 -1.138038E-07 +3.488921E-08 -1.138038E-07 +1.497559E-07 
 -7.283812E-05 -2.360880E-05 -1.089032E-05 -2.360880E-05 +2.461709E-06 +2.347380E-05 -1.089032E-05 +2.347380E-05 +7.037642E-05 
 -1.060915E-05 +1.271012E-05 -2.159897E-07 +1.271012E-05 -9.049836E-06 -1.079941E-05 -2.159897E-07 -1.079941E-05 +1.965899E-05 
 -9.051367E-09 -3.062877E-07 +2.395348E-07 -3.062877E-07 -6.719604E-07 -1.581415E-07 +2.395348E-07 -1.581415E-07 +6.810117E-07 
 -1.218022E-06 -2.069035E-06 +6.291017E-08 -2.069035E-06 -3.202057E-06 -1.070125E-06 +6.291017E-08 -1.070125E-06 +4.420079E-06 
 -2.136130E-08 +1.256741E-08 -7.926919E-09 +1.256741E-08 -2.765558E-08 +5.421263E-09 -7.926919E-09 +5.421263E-09 +4.901688E-08 
 -2.812205E-08 -1.259759E-08 -1.733547E-09 -1.259759E-08 -4.183565E-08 +7.101693E-09 -1.733547E-09 +7.101693E-09 +6.995770E-08 
 -1.681757E-08 -5.508196E-09 +5.020641E-09 -5.508196E-09 -2.430056E-08 +3.515783E-09 +5.020641E-09 +3.515783E-09 +4.111813E-08 
 -7.096843E-07 -4.618826E-07 -1.694967E-07 -4.618826E-07 -2.991399E-07 -6.790319E-08 -1.694967E-07 -6.790319E-08 +1.008824E-06 
 -3.356303E-06 +8.179367E-09 +1.304866E-06 +8.179367E-09 +8.818883E-08 +6.104968E-07 +1.304866E-06 +6.104968E-07 +3.268115E-06 
 -1.239111E-07 -2.174775E-08 +3.575016E-08 -2.174775E-08 -5.503640E-08 +6.359662E-09 +3.575016E-08 +6.359662E-09 +1.789475E-07 
 -1.098567E-07 +1.103900E-08 -2.214843E-08 +1.103900E-08 -7.092456E-08 +3.869812E-09 -2.214843E-08 +3.869812E-09 +1.807812E-07 
 -1.058989E-04 -1.140414E-04 -6.581663E-05 -1.140414E-04 -1.187470E-04 -3.802337E-05 -6.581663E-05 -3.802337E-05 +2.246459E-04 
 -5.350682E-05 -3.174470E-05 +4.502767E-06 -3.174470E-05 -1.317721E-05 -1.681569E-05 +4.502767E-06 -1.681569E-05 +6.668404E-05 
 -2.228377E-08 +1.506207E-07 +6.620887E-08 +1.506207E-07 -8.057734E-07 +5.013571E-07 +6.620887E-08 +5.013571E-07 +8.280572E-07 
 -7.799506E-07 -2.067788E-06 +1.623336E-06 -2.067788E-06 -4.734962E-06 +1.634042E-06 +1.623336E-06 +1.634042E-06 +5.514913E-06 
 -1.129541E-06 +1.622852E-06 -1.017364E-06 +1.622852E-06 -2.247653E-06 +8.287542E-07 -1.017364E-06 +8.287542E-07 +3.377194E-06 
 -1.403517E-05 -1.744517E-05 +5.289116E-06 -1.744517E-05 -2.100068E-05 +1.535869E-06 +5.289116E-06 +1.535869E-06 +3.503585E-05 
 -3.471595E-08 -9.057477E-09 -8.316756E-09 -9.057477E-09 -3.450142E-08 -1.353017E-08 -8.316756E-09 -1.353017E-08 +6.921736E-08 
 -5.709763E-06 -5.972538E-06 -3.690731E-07 -5.972538E-06 -5.427141E-06 +2.652481E-06 -3.690731E-07 +2.652481E-06 +1.113690E-05 
 -9.469355E-05 +1.669594E-05 -1.716090E-06 +1.669594E-05 -2.949865E-06 +3.040207E-07 -1.716090E-06 +3.040207E-07 +9.764342E-05 
 +4.056552E-08 +3.827397E-08 -1.551977E-08 +3.827397E-08 -1.658471E-07 -1.071119E-07 -1.551977E-08 -1.071119E-07 +1.252815E-07 
 -2.607885E-07 +1.125857E-07 -8.464064E-08 +1.125857E-07 -8.326822E-08 +1.223309E-07 -8.464064E-08 +1.223309E-07 +3.440567E-07 
 -2.277027E-07 +1.855333E-07 +1.721030E-09 +1.855333E-07 -5.934105E-08 -1.651707E-07 +1.721030E-09 -1.651707E-07 +2.870437E-07 
 -3.926853E-05 -9.840194E-05 -3.409048E-05 -9.840194E-05 -1.999195E-04 +2.665504E-05 -3.409048E-05 +2.665504E-05 +2.391880E-04 
 -1.255899E-07 +1.902533E-07 +1.648312E-09 +1.902533E-07 -3.273770E-07 -1.544038E-07 +1.648312E-09 -1.544038E-07 +4.529669E-07 
 -9.704310E-07 -1.449666E-06 +1.312178E-07 -1.449666E-06 -1.293631E-06 -1.228055E-06 +1.312178E-07 -1.228055E-06 +2.264062E-06 
 -5.502404E-08 -8.259822E-06 +7.718339E-06 -8.259822E-06 -9.114813E-05 -3.256329E-06 +7.718339E-06 -3.256329E-06 +9.120315E-05 
 -1.882374E-07 -4.106358E-07 +2.684794E-07 -4.106358E-07 -8.408537E-07 +3.003452E-07 +2.684794E-07 +3.003452E-07 +1.029091E-06 
 -6.330011E-08 +4.839375E-08 +1.498693E-08 +4.839375E-08 -6.235837E-08 -1.370793E-08 +1.498693E-08 -1.370793E-08 +1.256585E-07 
 -1.110449E-07 +1.916202E-08 +3.885499E-08 +1.916202E-08 -1.293644E-08 +3.240482E-08 +3.885499E-08 +3.240482E-08 +1.239814E-07 
 -3.735653E-07 +1.767984E-07 -2.656637E-07 +1.767984E-07 -1.001957E-07 +4.896897E-08 -2.656637E-07 +4.896897E-08 +4.737609E-07 
 -7.517967E-06 -1.201869E-07 +6.871394E-08 -1.201869E-07 +7.650251E-08 +7.746311E-07 +6.871394E-08 +7.746311E-07 +7.441465E-06 
 -1.065167E-07 -2.785357E-08 +1.057461E-08 -2.785357E-08 -5.821735E-08 +7.008382E-09 +1.057461E-08 +7.008382E-09 +1.647340E-07 
 -5.745179E-07 +9.590412E-08 +2.956536E-07 +9.590412E-08 -1.429628E-07 -6.970659E-08 +2.956536E-07 -6.970659E-08 +7.174808E-07 
 -2.605468E-08 -4.220222E-09 +8.140496E-09 -4.220222E-09 -4.478549E-09 -2.888882E-09 +8.140496E-09 -2.888882E-09 +3.053323E-08 
 -1.046388E-06 -2.185372E-07 +7.262080E-07 -2.185372E-07 +1.671536E-08 -1.699366E-07 +7.262080E-07 -1.699366E-07 +1.029672E-06 
 -3.842562E-08 +8.683933E-08 -1.573938E-07 +8.683933E-08 -4.423374E-07 +1.900680E-07 -1.573938E-07 +1.900680E-07 +4.807630E-07 
 -3.001226E-06 +3.457152E-06 -4.774870E-07 +3.457152E-06 -3.914472E-06 +1.246727E-06 -4.774870E-07 +1.246727E-06 +6.915697E-06 
 -1.373599E-08 +4.805257E-08 +1.036017E-08 +4.805257E-08 -1.954363E-07 +1.268814E-07 +1.036017E-08 +1.268814E-07 +2.091723E-07 
 -1.269348E-08 +1.263312E-08 -4.372817E-08 +1.263312E-08 -1.108058E-07 +7.839497E-08 -4.372817E-08 +7.839497E-08 +1.234993E-07 
 -1.363599E-06 -3.852972E-06 -2.243600E-06 -3.852972E-06 -8.550279E-06 -6.802934E-07 -2.243600E-06 -6.802934E-07 +9.913878E-06 
 -1.414463E-08 -1.567254E-09 -7.321601E-09 -1.567254E-09 -1.071553E-08 -1.790431E-09 -7.321601E-09 -1.790431E-09 +2.486016E-08 
 -2.083978E-06 -1.487425E-06 +9.251008E-08 -1.487425E-06 -7.614848E-07 -8.630337E-07 +9.251008E-08 -8.630337E-07 +2.845463E-06 
 -5.070096E-07 -4.167554E-09 -1.100953E-07 -4.167554E-09 +5.005212E-08 -1.680153E-07 -1.100953E-07 -1.680153E-07 +4.569576E-07 
 -5.903963E-08 +7.251457E-09 -6.880852E-09 +7.251457E-09 -4.807771E-08 +6.334770E-09 -6.880852E-09 +6.334770E-09 +1.071173E-07 
 -2.474742E-07 +1.327571E-07 -1.693010E-07 +1.327571E-07 -4.299648E-07 +1.736711E-07 -1.693010E-07 +1.736711E-07 +6.774391E-07 
 -8.469584E-05 -5.714355E-05 +4.051688E-05 -5.714355E-05 -3.289491E-05 -5.382229E-07 +4.051688E-05 -5.382229E-07 +1.175908E-04 
 -6.916979E-05 +1.069225E-05 +2.621459E-05 +1.069225E-05 +7.864812E-07 +9.801312E-06 +2.621459E-05 +9.801312E-06 +6.838331E-05 
 -4.845378E-07 -2.564034E-07 -2.085767E-07 -2.564034E-07 -1.615246E-07 +9.139421E-08 -2.085767E-07 +9.139421E-08 +6.460624E-07 
 -1.254220E-05 +1.586515E-05 -8.776959E-06 +1.586515E-05 -1.522263E-05 -1.727427E-06 -8.776959E-06 -1.727427E-06 +2.776483E-05 
 -1.621765E-08 +7.085721E-09 -1.949211E-09 +7.085721E-09 -2.411326E-08 +4.168802E-09 -1.949211E-09 +4.168802E-09 +4.033091E-08 
 -1.671412E-06 +6.622369E-07 +1.513270E-07 +6.622369E-07 -2.081213E-07 +2.617453E-07 +1.513270E-07 +2.617453E-07 +1.879533E-06 
 -1.265485E-08 +3.171499E-08 -3.157857E-08 +3.171499E-08 -9.781660E-10 +8.711020E-09 -3.157857E-08 +8.711020E-09 +1.363301E-08 
 -3.931806E-08 -4.115421E-09 +3.030303E-09 -4.115421E-09 -5.148668E-08 +1.248028E-08 +3.030303E-09 +1.248028E-08 +9.080474E-08 
 -2.131521E-06 -2.805221E-07 +8.061472E-07 -2.805221E-07 +6.256235E-08 +5.985942E-07 +8.061472E-07 +5.985942E-07 +2.068959E-06 
 -2.152055E-09 +7.412863E-07 +6.222331E-07 +7.412863E-07 -3.986821E-06 +7.020799E-07 +6.222331E-07 +7.020799E-07 +3.988972E-06 
 -7.364462E-07 -2.498326E-07 +3.971248E-07 -2.498326E-07 -9.346753E-08 +2.868406E-07 +3.971248E-07 +2.868406E-07 +8.299137E-07 
 -2.054438E-08 +4.704123E-08 +8.593695E-10 +4.704123E-08 -1.698395E-07 -1.085290E-07 +8.593695E-10 -1.085290E-07 +1.903838E-07 
 -2.793435E-08 -4.835746E-09 +3.527630E-09 -4.835746E-09 -1.298233E-08 -2.055215E-09 +3.527630E-09 -2.055215E-09 +4.091669E-08 
 -8.058572E-05 -1.149301E-04 +1.023143E-06 -1.149301E-04 -1.583573E-04 +3.790035E-05 +1.023143E-06 +3.790035E-05 +2.389430E-04 
 -2.269522E-07 +1.520287E-07 +1.456100E-07 +1.520287E-07 -1.338861E-07 -2.140298E-07 +1.456100E-07 -2.140298E-07 +3.608384E-07 
 -1.581249E-08 -7.259832E-10 +7.564949E-09 -7.259832E-10 -4.431118E-08 +1.745543E-08 +7.564949E-09 +1.745543E-08 +6.012367E-08 
 -6.517853E-07 -2.464376E-07 +2.321858E-07 -2.464376E-07 -1.438823E-08 -1.734355E-07 +2.321858E-07 -1.734355E-07 +6.661735E-07 
 -7.003352E-06 -4.043375E-06 -7.510224E-07 -4.043375E-06 -2.334453E-06 -4.335855E-07 -7.510224E-07 -4.335855E-07 +9.337805E-06 
 -4.822502E-07 +6.821072E-07 +2.163033E-07 +6.821072E-07 -6.215590E-07 +3.517286E-07 +2.163033E-07 +3.517286E-07 +1.103809E-06 
 -3.581772E-05 +4.884580E-05 -1.502791E-05 +4.884580E-05 -6.417094E-05 +3.670099E-05 -1.502791E-05 +3.670099E-05 +9.998865E-05 
 -2.502322E-08 -4.008006E-09 -1.410578E-08 -4.008006E-09 -1.813165E-08 -4.304019E-09 -1.410578E-08 -4.304019E-09 +4.315488E-08 
 -1.107439E-07 -9.065528E-07 +5.217997E-07 -9.065528E-07 -6.284803E-06 +1.086295E-06 +5.217997E-07 +1.086295E-06 +6.395547E-06 
 -7.959243E-07 -9.084133E-07 -7.736867E-08 -9.084133E-07 -7.769578E-07 -7.410839E-07 -7.736867E-08 -7.410839E-07 +1.572882E-06 
 -5.427048E-08 -5.269498E-10 -3.200643E-09 -5.269498E-10 -5.479099E-08 -9.249444E-09 -3.200643E-09 -9.249444E-09 +1.090615E-07 
 -2.205722E-09 -1.228875E-09 +2.535097E-09 -1.228875E-09 -1.424543E-08 -7.771974E-09 +2.535097E-09 -7.771974E-09 +1.645115E-08 
 -3.880966E-08 -1.192491E-07 +9.236911E-08 -1.192491E-07 -5.853602E-07 +3.315475E-07 +9.236911E-08 +3.315475E-07 +6.241698E-07 
 +5.715737E-06 +4.232478E-06 +2.149709E-05 +4.232478E-06 -8.606655E-05 +1.579103E-05 +2.149709E-05 +1.579103E-05 +8.035081E-05 
 -1.378421E-08 +3.969738E-08 +4.222041E-08 +3.969738E-08 -1.332108E-07 -7.457798E-08 +4.222041E-08 -7.457798E-08 +1.469950E-07 
 -7.602899E-08 -2.423602E-08 -5.445901E-08 -2.423602E-08 -9.460100E-09 +8.744120E-09 -5.445901E-08 +8.744120E-09 +8.548908E-08 
 -3.191546E-06 +1.984043E-07 +1.074279E-06 +1.984043E-07 -2.891693E-08 +4.527047E-07 +1.074279E-06 +4.527047E-07 +3.220463E-06 
 -4.766331E-05 -3.112233E-05 -1.040065E-05 -3.112233E-05 -1.723749E-05 -2.123999E-05 -1.040065E-05 -2.123999E-05 +6.490080E-05 
 +3.200643E-07 +3.215807E-07 -1.398595E-06 +3.215807E-07 -4.392547E-06 +1.660519E-06 -1.398595E-06 +1.660519E-06 +4.072482E-06 
 -2.504461E-08 +5.632312E-10 -4.583832E-10 +5.632312E-10 -2.478051E-08 +1.043148E-08 -4.583832E-10 +1.043148E-08 +4.982511E-08 
 +2.962730E-07 +8.440109E-07 -1.119174E-06 +8.440109E-07 -3.771714E-06 -1.424627E-06 -1.119174E-06 -1.424627E-06 +3.475441E-06 
 -7.171536E-06 -1.283294E-05 -2.357687E-06 -1.283294E-05 -2.204793E-05 +1.027971E-06 -2.357687E-06 +1.027971E-06 +2.921946E-05 
 -3.836182E-05 +1.349237E-05 -5.247794E-06 +1.349237E-05 -4.268891E-06 +6.501167E-06 -5.247794E-06 +6.501167E-06 +4.263071E-05 
 -1.260335E-04 -3.377039E-05 -2.593769E-05 -3.377039E-05 -9.049600E-06 -6.949904E-06 -2.593769E-05 -6.949904E-06 +1.350831E-04 
 -1.207502E-08 -4.645841E-09 +3.981933E-09 -4.645841E-09 -1.911905E-08 +5.182957E-09 +3.981933E-09 +5.182957E-09 +3.119407E-08 
 -6.507939E-08 +4.371711E-07 -4.455451E-07 +4.371711E-07 -1.921321E-06 +6.841397E-07 -4.455451E-07 +6.841397E-07 +1.986401E-06 
 -4.103077E-08 -4.946258E-09 +4.936310E-09 -4.946258E-09 -5.556629E-09 -5.075231E-09 +4.936310E-09 -5.075231E-09 +4.658740E-08 
 -1.832081E-06 +1.338646E-06 -9.244558E-07 +1.338646E-06 -4.263551E-07 -5.541544E-07 -9.244558E-07 -5.541544E-07 +2.258436E-06 
 -6.815606E-08 +7.110767E-09 +1.759502E-08 +7.110767E-09 -5.043040E-08 -6.845412E-09 +1.759502E-08 -6.845412E-09 +1.185865E-07 
 -2.002439E-07 -5.584391E-07 +4.976049E-07 -5.584391E-07 -7.087822E-07 +2.925430E-08 +4.976049E-07 +2.925430E-08 +9.090261E-07 
 -2.607174E-07 -4.587886E-07 +2.600259E-07 -4.587886E-07 -9.349250E-07 +3.257510E-07 +2.600259E-07 +3.257510E-07 +1.195642E-06 
 -1.839348E-05 +1.360087E-05 -6.759029E-06 +1.360087E-05 -9.708854E-06 +1.731790E-06 -6.759029E-06 +1.731790E-06 +2.810233E-05 
 -1.516088E-07 +1.546657E-08 +2.144561E-08 +1.546657E-08 -2.898549E-07 -3.539931E-08 +2.144561E-08 -3.539931E-08 +4.414637E-07 
 -5.188524E-05 +4.561520E-05 +4.317598E-05 +4.561520E-05 -3.447453E-05 -1.166285E-05 +4.317598E-05 -1.166285E-05 +8.635977E-05 
 +5.702206E-08 +1.137974E-06 +1.745131E-06 +1.137974E-06 -4.325407E-06 -1.487721E-06 +1.745131E-06 -1.487721E-06 +4.268386E-06 
 -1.034995E-07 -6.782685E-09 -1.562714E-08 -6.782685E-09 -1.111038E-08 -1.948653E-08 -1.562714E-08 -1.948653E-08 +1.146099E-07 
 -1.169243E-05 -7.568361E-07 +2.818159E-06 -7.568361E-07 +9.752112E-07 +3.620052E-06 +2.818159E-06 +3.620052E-06 +1.071722E-05 
 +5.758170E-07 -1.022024E-06 -2.516618E-06 -1.022024E-06 -1.012856E-05 +5.027194E-07 -2.516618E-06 +5.027194E-07 +9.552744E-06 
 -1.505290E-07 -1.543807E-07 -1.248610E-08 -1.543807E-07 -2.433187E-07 -1.706423E-08 -1.248610E-08 -1.706423E-08 +3.938478E-07 
 -3.525226E-06 -7.294680E-07 -4.345900E-07 -7.294680E-07 -6.911259E-08 -6.511699E-07 -4.345900E-07 -6.511699E-07 +3.594339E-06 
 -3.540024E-08 +3.535026E-09 +1.786174E-08 +3.535026E-09 -3.298278E-08 -9.984272E-09 +1.786174E-08 -9.984272E-09 +6.838302E-08 
 -1.392587E-08 +2.260812E-09 -5.360422E-09 +2.260812E-09 -1.987253E-08 +8.890895E-09 -5.360422E-09 +8.890895E-09 +3.379839E-08 
 +6.541321E-08 -6.303935E-06 -4.689065E-06 -6.303935E-06 -2.204171E-05 +7.180754E-06 -4.689065E-06 +7.180754E-06 +2.197630E-05 
 -3.951297E-05 -2.152517E-05 -2.396003E-05 -2.152517E-05 -8.373908E-06 +1.496732E-06 -2.396003E-05 +1.496732E-06 +4.788688E-05 
 +3.194746E-08 -1.254417E-07 +2.677241E-07 -1.254417E-07 -1.417504E-06 +1.796980E-07 +2.677241E-07 +1.796980E-07 +1.385557E-06 
 -1.297246E-06 +1.730808E-06 +9.536371E-07 +1.730808E-06 -2.336436E-06 -9.056139E-07 +9.536371E-07 -9.056139E-07 +3.633682E-06 
 -9.183481E-08 +3.298941E-06 -2.328301E-06 +3.298941E-06 -3.562284E-05 -1.293271E-05 -2.328301E-06 -1.293271E-05 +3.571468E-05 
 -3.528804E-06 +1.113657E-06 -9.230352E-07 +1.113657E-06 -2.209884E-07 -4.356410E-07 -9.230352E-07 -4.356410E-07 +3.749793E-06 
 -2.781210E-08 +2.148094E-07 +2.415338E-07 +2.148094E-07 -4.393290E-07 -8.462122E-08 +2.415338E-07 -8.462122E-08 +4.671411E-07 
 +4.807603E-08 -2.409245E-07 +2.827197E-07 -2.409245E-07 -7.471438E-07 -6.071884E-08 +2.827197E-07 -6.071884E-08 +6.990677E-07 
 -1.507667E-07 -3.052658E-08 +7.983909E-08 -3.052658E-08 -3.172445E-08 +4.467485E-08 +7.983909E-08 +4.467485E-08 +1.824911E-07 
 -6.012048E-08 +3.205358E-08 -2.688489E-09 +3.205358E-08 -6.701464E-08 +7.848872E-09 -2.688489E-09 +7.848872E-09 +1.271351E-07 
 -4.814835E-06 -4.327366E-07 -1.320124E-07 -4.327366E-07 -2.713632E-09 +4.110224E-07 -1.320124E-07 +4.110224E-07 +4.817549E-06 
 -6.810448E-07 -5.576765E-06 +2.158762E-06 -5.576765E-06 -3.899388E-05 -1.874360E-07 +2.158762E-06 -1.874360E-07 +3.967493E-05 
 -4.296578E-07 +7.074009E-07 -2.126038E-07 +7.074009E-07 -1.016158E-06 +9.285116E-07 -2.126038E-07 +9.285116E-07 +1.445816E-06 
 -2.534922E-05 -1.182041E-05 -4.244951E-06 -1.182041E-05 -5.512244E-06 -1.979398E-06 -4.244951E-06 -1.979398E-06 +3.086147E-05 
 -1.564119E-06 -1.105866E-06 -3.873168E-07 -1.105866E-06 -3.264961E-07 +6.855851E-07 -3.873168E-07 +6.855851E-07 +1.890616E-06 
 -8.364505E-07 -3.669780E-07 +3.050270E-07 -3.669780E-07 -1.650390E-07 +2.099238E-07 +3.050270E-07 +2.099238E-07 +1.001490E-06 
 -1.170226E-08 -8.162342E-09 +4.271060E-09 -8.162342E-09 -2.094393E-08 +1.020238E-08 +4.271060E-09 +1.020238E-08 +3.264619E-08 
 -2.873897E-06 +1.055980E-06 -7.770176E-07 +1.055980E-06 -2.811370E-07 +9.293797E-07 -7.770176E-07 +9.293797E-07 +3.155034E-06 
 -6.189156E-06 -1.327073E-05 +1.500893E-06 -1.327073E-05 -2.846024E-05 +3.218038E-06 +1.500893E-06 +3.218038E-06 +3.464940E-05 
 -1.606123E-08 +2.310444E-09 -5.108991E-09 +2.310444E-09 -2.949544E-08 +1.368122E-08 -5.108991E-09 +1.368122E-08 +4.555667E-08 
 -1.209881E-08 +1.017219E-08 +1.052513E-08 +1.017219E-08 -4.598357E-08 -1.989815E-08 +1.052513E-08 -1.989815E-08 +5.808237E-08 
 -6.268413E-06 -5.367818E-06 +6.367093E-07 -5.367818E-06 -4.468858E-06 -6.361551E-07 +6.367093E-07 -6.361551E-07 +1.073727E-05 
 -5.813526E-07 -2.112863E-07 +3.253477E-07 -2.112863E-07 -3.757953E-08 +3.070346E-07 +3.253477E-07 +3.070346E-07 +6.189321E-07 
 -2.722931E-06 +1.068986E-05 +4.660742E-06 +1.068986E-05 -3.378712E-05 +8.201545E-07 +4.660742E-06 +8.201545E-07 +3.651006E-05 
 -1.713269E-07 -3.879858E-08 +1.160019E-08 -3.879858E-08 -1.415099E-07 -3.179985E-08 +1.160019E-08 -3.179985E-08 +3.128368E-07 
 -8.744480E-08 -2.633307E-09 -1.167387E-08 -2.633307E-09 -4.947082E-08 -1.425254E-10 -1.167387E-08 -1.425254E-10 +1.369156E-07 
 -1.344224E-05 +1.343532E-05 +1.229792E-05 +1.343532E-05 -9.751157E-06 -1.033129E-06 +1.229792E-05 -1.033129E-06 +2.319340E-05 
 -5.884622E-06 +2.152567E-06 -1.229119E-07 +2.152567E-06 -7.325097E-07 -5.701127E-07 -1.229119E-07 -5.701127E-07 +6.617132E-06 
 -4.163427E-08 +1.886385E-07 +1.622292E-07 +1.886385E-07 -4.366351E-07 -4.768806E-08 +1.622292E-07 -4.768806E-08 +4.782694E-07 
 -2.305201E-08 +6.670322E-09 -8.125495E-09 +6.670322E-09 -1.000317E-08 +5.609764E-09 -8.125495E-09 +5.609764E-09 +3.305518E-08 
 -1.285536E-07 -6.207263E-07 -6.511601E-07 -6.207263E-07 -2.878330E-06 -8.886014E-07 -6.511601E-07 -8.886014E-07 +3.006884E-06 
 -2.645068E-06 +3.018710E-05 +9.128790E-06 +3.018710E-05 -3.450465E-04 -1.043590E-04 +9.128790E-06 -1.043590E-04 +3.476916E-04 
 -3.954919E-06 -4.230308E-06 -1.952366E-07 -4.230308E-06 -4.511725E-06 +1.973429E-07 -1.952366E-07 +1.973429E-07 +8.466644E-06 
 -8.003331E-07 -4.360180E-07 +4.545052E-07 -4.360180E-07 -2.210562E-07 +4.370462E-07 +4.545052E-07 +4.370462E-07 +1.021389E-06 
 -3.435070E-05 +8.731271E-06 -6.370936E-06 +8.731271E-06 -2.218402E-06 +1.125499E-06 -6.370936E-06 +1.125499E-06 +3.656910E-05 
 -3.781444E-06 +1.074359E-07 +4.569313E-10 +1.074359E-07 -9.651832E-10 -1.076254E-07 +4.569313E-10 -1.076254E-07 +3.782409E-06 
 -8.768101E-08 -1.615873E-08 +9.919773E-09 -1.615873E-08 -3.957110E-08 -1.919081E-09 +9.919773E-09 -1.919081E-09 +1.272521E-07 
 -2.670787E-08 +6.940301E-08 -2.277505E-08 +6.940301E-08 -3.444030E-07 +1.998356E-07 -2.277505E-08 +1.998356E-07 +3.711109E-07 
 -5.984798E-06 -1.234333E-06 -1.045471E-06 -1.234333E-06 -2.494436E-07 -4.010028E-07 -1.045471E-06 -4.010028E-07 +6.234241E-06 
 -7.352131E-08 -5.708547E-08 +7.510660E-10 -5.708547E-08 -6.305900E-08 -3.095408E-08 +7.510660E-10 -3.095408E-08 +1.365803E-07 
 -3.674180E-06 +1.099921E-06 +2.681172E-06 +1.099921E-06 -1.254101E-07 +4.001948E-07 +2.681172E-06 +4.001948E-07 +3.799590E-06 
 +1.067071E-06 -3.151136E-05 -2.211776E-05 -3.151136E-05 -1.722594E-04 +9.279944E-05 -2.211776E-05 +9.279944E-05 +1.711924E-04 
 +1.672394E-08 +3.737593E-07 -5.266903E-07 +3.737593E-07 -1.715132E-06 +4.315208E-07 -5.266903E-07 +4.315208E-07 +1.698408E-06 
 -3.666672E-07 -2.284681E-06 -2.373222E-06 -2.284681E-06 -5.697384E-06 -1.251669E-06 -2.373222E-06 -1.251669E-06 +6.064051E-06 
 -1.288295E-07 -6.644635E-08 -2.553033E-09 -6.644635E-08 -1.541501E-07 -2.261442E-08 -2.553033E-09 -2.261442E-08 +2.829796E-07 
 -6.573005E-06 -1.591982E-05 -8.528838E-06 -1.591982E-05 -2.613459E-05 +2.711457E-06 -8.528838E-06 +2.711457E-06 +3.270760E-05 
 -7.183862E-05 +6.325882E-05 +2.612573E-05 +6.325882E-05 -5.395035E-05 -7.561323E-06 +2.612573E-05 -7.561323E-06 +1.257890E-04 
 -1.128127E-04 +4.106031E-05 +1.164694E-05 +4.106031E-05 -1.494536E-05 -4.239021E-06 +1.164694E-05 -4.239021E-06 +1.277580E-04 
 -3.838496E-06 +1.153798E-06 -1.210590E-06 +1.153798E-06 +2.106066E-07 -1.142993E-06 -1.210590E-06 -1.142993E-06 +3.627890E-06 
 -2.732696E-08 -1.069036E-07 +6.471750E-08 -1.069036E-07 -3.499265E-07 +5.586451E-08 +6.471750E-08 +5.586451E-08 +3.772534E-07 
 -2.081961E-07 +6.322951E-08 -1.656493E-07 +6.322951E-08 -4.681722E-08 +6.006515E-09 -1.656493E-07 +6.006515E-09 +2.550134E-07 
 -2.665862E-08 -1.536168E-08 -2.195554E-08 -1.536168E-08 -6.887649E-08 -2.465960E-08 -2.195554E-08 -2.465960E-08 +9.553511E-08 
 -3.181132E-06 -1.151549E-06 +1.230937E-06 -1.151549E-06 -4.225677E-07 +4.413348E-07 +1.230937E-06 +4.413348E-07 +3.603700E-06 
 -5.797833E-08 +1.158972E-07 -5.929747E-08 +1.158972E-07 -2.207783E-07 +8.431078E-08 -5.929747E-08 +8.431078E-08 +2.787567E-07 
 -6.424698E-07 -7.946971E-07 +5.242709E-07 -7.946971E-07 -1.042586E-06 +7.764931E-07 +5.242709E-07 +7.764931E-07 +1.685056E-06 
 -2.153465E-08 -9.317773E-09 -3.574588E-10 -9.317773E-09 -2.701646E-08 -3.824073E-09 -3.574588E-10 -3.824073E-09 +4.855111E-08 
 -4.589250E-08 -7.534889E-08 +9.946935E-09 -7.534889E-08 -1.425669E-07 +1.188919E-07 +9.946935E-09 +1.188919E-07 +1.884594E-07 
 -1.953433E-07 +3.391043E-08 -7.894447E-08 +3.391043E-08 -7.875680E-08 +1.272772E-08 -7.894447E-08 +1.272772E-08 +2.741001E-07 
 +2.641434E-07 -1.186837E-06 -1.832337E-06 -1.186837E-06 -7.461843E-06 -1.605789E-07 -1.832337E-06 -1.605789E-07 +7.197700E-06 
 -2.900478E-06 -4.428503E-06 -9.412046E-07 -4.428503E-06 -5.908032E-06 +1.361310E-06 -9.412046E-07 +1.361310E-06 +8.808510E-06 
 -5.036431E-06 +3.359879E-06 -3.420984E-06 +3.359879E-06 -1.685326E-06 +3.724716E-08 -3.420984E-06 +3.724716E-08 +6.721757E-06 
 -4.204048E-07 -1.139548E-06 +4.885584E-07 -1.139548E-06 -1.327728E-06 -6.997880E-07 +4.885584E-07 -6.997880E-07 +1.748132E-06 
 -3.484263E-08 +2.697251E-09 -1.172944E-08 +2.697251E-09 -7.158926E-08 -1.123270E-08 -1.172944E-08 -1.123270E-08 +1.064319E-07 
 -2.397834E-05 -4.173491E-05 -2.439381E-05 -4.173491E-05 -6.218101E-05 -8.359480E-06 -2.439381E-05 -8.359480E-06 +8.615936E-05 
 -1.762307E-07 +1.532904E-06 +3.574083E-07 +1.532904E-06 -9.039593E-06 +3.565163E-06 +3.574083E-07 +3.565163E-06 +9.215824E-06 
 -5.141117E-08 +2.998717E-08 -1.488347E-08 +2.998717E-08 -4.615108E-08 +1.471595E-08 -1.488347E-08 +1.471595E-08 +9.756224E-08 
 -8.034446E-08 +1.801511E-09 +1.317231E-08 +1.801511E-09 -5.325647E-08 +6.002203E-09 +1.317231E-08 +6.002203E-09 +1.336009E-07 
 -4.267096E-05 -5.855909E-05 +1.545776E-05 -5.855909E-05 -7.748527E-05 +4.038797E-05 +1.545776E-05 +4.038797E-05 +1.201562E-04 
 -7.418131E-05 -2.534341E-06 -2.230720E-05 -2.534341E-06 +2.332633E-06 -1.464626E-05 -2.230720E-05 -1.464626E-05 +7.184868E-05 
 -2.732920E-09 +1.725304E-10 -2.514553E-10 +1.725304E-10 -4.600645E-09 +1.791478E-09 -2.514553E-10 +1.791478E-09 +7.333565E-09 
 -3.452810E-08 -3.518729E-09 -2.975475E-09 -3.518729E-09 -1.806895E-08 -1.718079E-09 -2.975475E-09 -1.718079E-09 +5.259704E-08 
 -1.523273E-06 -3.265689E-06 -2.326367E-07 -3.265689E-06 -7.003704E-06 -4.989355E-07 -2.326367E-07 -4.989355E-07 +8.526978E-06 
 -1.239425E-06 -2.287035E-06 +8.151555E-07 -2.287035E-06 -4.208237E-06 +1.817795E-06 +8.151555E-07 +1.817795E-06 +5.447662E-06 
 -3.863283E-07 +8.556519E-08 +1.869414E-07 +8.556519E-08 +1.430480E-08 -1.723115E-07 +1.869414E-07 -1.723115E-07 +3.720235E-07 
 -4.458420E-07 -4.435016E-08 -1.775018E-08 -4.435016E-08 +4.602823E-08 +1.466732E-07 -1.775018E-08 +1.466732E-07 +3.998138E-07 
 -5.134579E-08 +2.041096E-08 +1.945324E-08 +2.041096E-08 -5.171315E-08 -2.632844E-08 +1.945324E-08 -2.632844E-08 +1.030589E-07 
 -6.760793E-06 +2.725235E-06 -1.192657E-06 +2.725235E-06 -1.088951E-06 +7.699425E-07 -1.192657E-06 +7.699425E-07 +7.849745E-06 
 -3.692180E-07 +1.811148E-06 -1.064004E-06 +1.811148E-06 -4.378909E-06 -7.779278E-07 -1.064004E-06 -7.779278E-07 +4.748127E-06 
 -4.330743E-07 +1.497007E-07 +2.543174E-07 +1.497007E-07 -9.174266E-08 -9.664360E-08 +2.543174E-07 -9.664360E-08 +5.248169E-07 
 -5.601675E-06 -1.717672E-06 -2.244255E-06 -1.717672E-06 -5.133229E-07 -3.313058E-07 -2.244255E-06 -3.313058E-07 +6.114998E-06 
 -8.039540E-07 +1.492922E-07 -7.298407E-07 +1.492922E-07 -1.559384E-08 +2.697804E-07 -7.298407E-07 +2.697804E-07 +8.195478E-07 
 -2.699452E-05 +5.569862E-05 +1.052765E-05 +5.569862E-05 -1.089500E-04 -5.070588E-05 +1.052765E-05 -5.070588E-05 +1.359445E-04 
 -4.135931E-05 -3.218300E-05 +2.206229E-05 -3.218300E-05 -2.403931E-05 +2.597960E-05 +2.206229E-05 +2.597960E-05 +6.539862E-05 
 -1.574713E-07 +1.388527E-07 +6.430730E-08 +1.388527E-07 -2.471714E-07 -3.733926E-08 +6.430730E-08 -3.733926E-08 +4.046428E-07 
 -7.840683E-09 -2.494287E-08 -3.018302E-08 -2.494287E-08 -9.242711E-08 -4.498942E-08 -3.018302E-08 -4.498942E-08 +1.002678E-07 
 -3.504599E-08 -8.017282E-09 -1.131060E-08 -8.017282E-09 -4.401539E-08 -1.899185E-08 -1.131060E-08 -1.899185E-08 +7.906139E-08 
 -2.106121E-05 -1.632795E-05 +2.407323E-06 -1.632795E-05 -9.227462E-06 +1.228431E-05 +2.407323E-06 +1.228431E-05 +3.028867E-05 
 -2.492415E-05 -8.490195E-06 -1.092555E-05 -8.490195E-06 -2.516775E-06 -1.724514E-07 -1.092555E-05 -1.724514E-07 +2.744092E-05 
 -4.759165E-06 +2.582436E-06 -1.884744E-06 +2.582436E-06 -1.159956E-06 -2.685327E-07 -1.884744E-06 -2.685327E-07 +5.919121E-06 
 -3.166559E-08 +2.636525E-09 -2.373441E-09 +2.636525E-09 -2.957672E-08 +4.462701E-09 -2.373441E-09 +4.462701E-09 +6.124231E-08 
 -3.012387E-06 +2.869139E-06 +9.543470E-07 +2.869139E-06 -2.692218E-06 -1.858715E-06 +9.543470E-07 -1.858715E-06 +5.704605E-06 
 -1.495173E-04 +6.943888E-05 -5.424423E-05 +6.943888E-05 -1.482462E-05 +8.205676E-05 -5.424423E-05 +8.205676E-05 +1.643419E-04 
 -2.238261E-06 -3.376760E-06 -5.808552E-07 -3.376760E-06 -4.250496E-06 +1.526114E-06 -5.808552E-07 +1.526114E-06 +6.488758E-06 
 -3.085203E-06 -9.505385E-06 -4.064593E-06 -9.505385E-06 -2.700905E-05 -3.476501E-06 -4.064593E-06 -3.476501E-06 +3.009426E-05 
 -7.827265E-06 -1.513707E-06 +1.248316E-06 -1.513707E-06 -2.522233E-07 +8.391200E-07 +1.248316E-06 +8.391200E-07 +8.079489E-06 
 -5.565415E-07 +1.069310E-07 +3.289536E-07 +1.069310E-07 +2.817605E-09 +6.916562E-08 +3.289536E-07 +6.916562E-08 +5.537239E-07 
 -3.711835E-04 +1.393033E-04 -4.515785E-05 +1.393033E-04 -4.859661E-05 -2.264294E-05 -4.515785E-05 -2.264294E-05 +4.197801E-04 
 +3.882587E-07 -5.930589E-07 +1.366525E-06 -5.930589E-07 -3.994906E-06 +2.865534E-07 +1.366525E-06 +2.865534E-07 +3.606647E-06 
 -9.380921E-09 -2.582376E-09 +1.633298E-09 -2.582376E-09 -2.640538E-08 +1.131911E-08 +1.633298E-09 +1.131911E-08 +3.578630E-08 
 -2.659152E-08 -9.639865E-09 -1.823965E-10 -9.639865E-09 -4.988761E-08 +2.908319E-08 -1.823965E-10 +2.908319E-08 +7.647913E-08 
 -9.755364E-07 -2.408633E-06 +2.191724E-06 -2.408633E-06 -4.438085E-06 +1.449055E-06 +2.191724E-06 +1.449055E-06 +5.413621E-06 
 -3.393797E-07 -1.155582E-06 -1.445336E-07 -1.155582E-06 -4.065903E-06 -7.585301E-07 -1.445336E-07 -7.585301E-07 +4.405282E-06 
 -6.351198E-05 +1.522780E-10 -2.226207E-05 +1.522780E-10 -3.336276E-09 +7.139587E-10 -2.226207E-05 +7.139587E-10 +6.351531E-05 
 -2.728589E-06 +4.352481E-06 -1.231327E-06 +4.352481E-06 -6.897328E-06 +1.248370E-06 -1.231327E-06 +1.248370E-06 +9.625916E-06 
 -1.779956E-08 +5.633710E-09 -7.215261E-09 +5.633710E-09 -1.851646E-08 +7.945925E-09 -7.215261E-09 +7.945925E-09 +3.631601E-08 
 +1.781638E-06 +2.052090E-06 -6.672491E-06 +2.052090E-06 -2.673604E-05 -7.634905E-06 -6.672491E-06 -7.634905E-06 +2.495441E-05 
 -1.861862E-07 +2.171141E-08 -1.518488E-08 +2.171141E-08 -1.190207E-07 -1.797478E-08 -1.518488E-08 -1.797478E-08 +3.052070E-07 
 +9.624122E-08 -3.153760E-07 -7.799441E-07 -3.153760E-07 -5.866348E-06 +9.507898E-07 -7.799441E-07 +9.507898E-07 +5.770106E-06 
 -7.730729E-08 +5.723096E-08 +3.186533E-08 +5.723096E-08 -1.215296E-07 -2.832114E-08 +3.186533E-08 -2.832114E-08 +1.988369E-07 
 -1.887728E-08 -3.075996E-09 +4.916659E-09 -3.075996E-09 -5.270017E-09 +1.721111E-09 +4.916659E-09 +1.721111E-09 +2.414730E-08 
 -2.491257E-05 -1.293516E-06 +3.274520E-06 -1.293516E-06 +1.619991E-06 +6.527617E-06 +3.274520E-06 +6.527617E-06 +2.329258E-05 
 -2.018860E-04 -3.559635E-05 +7.141297E-06 -3.559635E-05 -6.283963E-06 +1.256869E-06 +7.141297E-06 +1.256869E-06 +2.081699E-04 
 -1.916527E-06 +4.536285E-06 +6.484285E-07 +4.536285E-06 -9.050812E-06 +2.814450E-06 +6.484285E-07 +2.814450E-06 +1.096734E-05 
 -5.799237E-05 +1.591635E-05 -1.020859E-05 +1.591635E-05 -4.056492E-08 -1.333919E-05 -1.020859E-05 -1.333919E-05 +5.803294E-05 
 -2.759455E-06 -1.061858E-06 +4.293828E-07 -1.061858E-06 -1.668436E-07 +1.017724E-06 +4.293828E-07 +1.017724E-06 +2.926298E-06 
 -1.696143E-08 +6.569115E-09 +3.509733E-10 +6.569115E-09 -2.031026E-08 +2.564238E-09 +3.509733E-10 +2.564238E-09 +3.727168E-08 
 -1.566018E-05 +1.866281E-05 -4.974772E-06 +1.866281E-05 -2.224163E-05 +5.928791E-06 -4.974772E-06 +5.928791E-06 +3.790181E-05 
 -3.520338E-08 +2.887282E-09 -1.911479E-09 +2.887282E-09 -2.312894E-08 +1.818865E-09 -1.911479E-09 +1.818865E-09 +5.833232E-08 
 -2.560811E-06 -1.452054E-05 -5.582981E-06 -1.452054E-05 -8.235029E-05 -3.166213E-05 -5.582981E-06 -3.166213E-05 +8.491109E-05 
 -2.304278E-05 +1.763291E-05 -8.596559E-07 +1.763291E-05 -1.340244E-05 -1.231102E-06 -8.596559E-07 -1.231102E-06 +3.644522E-05 
 -5.985912E-06 +1.883184E-06 -1.002625E-06 +1.883184E-06 -5.789485E-07 +6.281298E-07 -1.002625E-06 +6.281298E-07 +6.564861E-06 
 -8.609811E-08 +4.986036E-08 -1.513561E-08 +4.986036E-08 -1.182716E-07 +7.162574E-09 -1.513561E-08 +7.162574E-09 +2.043697E-07 
 -4.792276E-05 -4.021182E-05 +7.786250E-06 -4.021182E-05 -3.374193E-05 +6.533384E-06 +7.786250E-06 +6.533384E-06 +8.166469E-05 
 -6.114845E-06 +2.769156E-06 +2.237385E-06 +2.769156E-06 -1.207123E-06 -1.641075E-06 +2.237385E-06 -1.641075E-06 +7.321969E-06 
 -6.214331E-07 +4.039700E-07 +2.862009E-07 +4.039700E-07 -1.295746E-07 +1.611168E-07 +2.862009E-07 +1.611168E-07 +7.510077E-07 
 -1.858135E-05 +7.210359E-05 +4.625583E-05 +7.210359E-05 -2.208183E-04 -3.470650E-05 +4.625583E-05 -3.470650E-05 +2.393997E-04 
 -1.074456E-05 +6.092433E-05 +1.195090E-05 +6.092433E-05 -3.455205E-04 -6.776883E-05 +1.195090E-05 -6.776883E-05 +3.562650E-04 
 -1.767453E-08 -1.162603E-07 -2.767269E-08 -1.162603E-07 -7.627861E-07 +4.625321E-07 -2.767269E-08 +4.625321E-07 +7.804607E-07 
 -6.602033E-06 -9.836166E-07 +1.163942E-06 -9.836166E-07 -5.253424E-10 +1.172198E-06 +1.163942E-06 +1.172198E-06 +6.602558E-06 
 -1.615491E-08 +3.096385E-09 -5.986168E-10 +3.096385E-09 -2.921071E-08 +1.379614E-08 -5.986168E-10 +1.379614E-08 +4.536562E-08 
 -6.985266E-06 +4.796941E-06 +5.380317E-08 +4.796941E-06 -3.295591E-06 +7.537531E-08 +5.380317E-08 +7.537531E-08 +1.028086E-05 
 -2.175363E-08 -1.260021E-09 +9.811813E-09 -1.260021E-09 -6.736284E-09 +2.726970E-09 +9.811813E-09 +2.726970E-09 +2.848991E-08 
 -7.082851E-08 +9.057679E-08 +1.013166E-08 +9.057679E-08 -1.024177E-07 +5.952392E-08 +1.013166E-08 +5.952392E-08 +1.732462E-07 
 -7.014350E-08 -1.814116E-08 +6.032575E-08 -1.814116E-08 +6.046365E-08 -1.332712E-08 +6.032575E-08 -1.332712E-08 +9.679851E-09 
 -1.553212E-06 +3.607681E-07 +5.530382E-07 +3.607681E-07 -5.298893E-08 -3.706279E-07 +5.530382E-07 -3.706279E-07 +1.606200E-06 
 -2.652136E-06 -1.502020E-05 -1.617603E-07 -1.502020E-05 -8.518725E-05 -9.175116E-07 -1.617603E-07 -9.175116E-07 +8.783939E-05 
 -4.743588E-07 -1.504126E-06 -4.871269E-07 -1.504126E-06 -4.743004E-06 -7.973607E-07 -4.871269E-07 -7.973607E-07 +5.217363E-06 
 -1.251870E-05 +5.527668E-05 -2.534995E-05 +5.527668E-05 -2.125623E-04 +1.853438E-05 -2.534995E-05 +1.853438E-05 +2.250811E-04 
 -4.221885E-06 +8.254656E-07 -1.548961E-06 +8.254656E-07 -1.626020E-07 +3.912525E-07 -1.548961E-06 +3.912525E-07 +4.384487E-06 
 -1.195715E-06 +6.693357E-07 +4.451568E-07 +6.693357E-07 -3.681706E-07 -3.861979E-07 +4.451568E-07 -3.861979E-07 +1.563885E-06 
 -3.515379E-07 -4.279926E-07 -2.112160E-07 -4.279926E-07 -5.304906E-07 -2.380854E-07 -2.112160E-07 -2.380854E-07 +8.820285E-07 
 -5.662413E-06 -4.792540E-06 +4.249336E-06 -4.792540E-06 -3.389412E-06 +7.301330E-07 +4.249336E-06 +7.301330E-07 +9.051825E-06 
 -2.477325E-07 +2.279179E-07 -2.044859E-07 +2.279179E-07 -1.211448E-07 -3.316595E-08 -2.044859E-07 -3.316595E-08 +3.688773E-07 
 -1.333455E-06 +3.813705E-08 +3.123874E-07 +3.813705E-08 +7.452221E-08 +3.096110E-07 +3.123874E-07 +3.096110E-07 +1.258933E-06 
 +2.431651E-06 -3.880251E-06 +1.066544E-05 -3.880251E-06 -3.424154E-05 +7.575694E-06 +1.066544E-05 +7.575694E-06 +3.180989E-05 
 -4.018690E-05 -1.231973E-05 -4.584606E-06 -1.231973E-05 -2.769810E-06 -8.069388E-06 -4.584606E-06 -8.069388E-06 +4.295671E-05 
 +5.378272E-07 -9.584001E-06 +7.788257E-06 -9.584001E-06 -5.731402E-05 -2.581430E-05 +7.788257E-06 -2.581430E-05 +5.677620E-05 
 -2.492918E-08 -5.806441E-09 -1.114414E-08 -5.806441E-09 -1.558153E-08 -6.714550E-09 -1.114414E-08 -6.714550E-09 +4.051071E-08 
 -4.441427E-08 +1.584337E-08 -2.140266E-09 +1.584337E-08 -4.479598E-08 +6.866270E-09 -2.140266E-09 +6.866270E-09 +8.921025E-08 
 -4.376480E-09 +5.022325E-07 -3.814791E-07 +5.022325E-07 -1.104648E-05 -1.988862E-06 -3.814791E-07 -1.988862E-06 +1.105086E-05 
 -3.222074E-06 +2.502454E-05 +1.920633E-05 +2.502454E-05 -9.615617E-05 -4.028001E-06 +1.920633E-05 -4.028001E-06 +9.937825E-05 
 -2.379280E-08 -5.632768E-09 +8.263551E-09 -5.632768E-09 -2.231293E-08 +5.270436E-09 +8.263551E-09 +5.270436E-09 +4.610573E-08 
 -7.144060E-07 +3.388820E-07 +2.070686E-07 +3.388820E-07 -4.680914E-08 +2.127793E-07 +2.070686E-07 +2.127793E-07 +7.612151E-07 
 -3.900913E-07 -1.249691E-06 -3.753757E-07 -1.249691E-06 -3.569269E-06 +1.751886E-07 -3.753757E-07 +1.751886E-07 +3.959361E-06 
 -1.205597E-08 +9.309564E-10 -2.035974E-10 +9.309564E-10 -1.190353E-08 -3.289947E-10 -2.035974E-10 -3.289947E-10 +2.395949E-08 
 -4.145494E-07 -8.639828E-08 +1.401098E-07 -8.639828E-08 -3.534322E-08 +6.133280E-08 +1.401098E-07 +6.133280E-08 +4.498926E-07 
 -3.153945E-09 -5.720326E-09 -3.474649E-09 -5.720326E-09 -4.634146E-08 +2.582275E-08 -3.474649E-09 +2.582275E-08 +4.949541E-08 
 -2.832704E-05 +2.937860E-06 +1.705168E-06 +2.937860E-06 +1.619751E-06 +7.020928E-06 +1.705168E-06 +7.020928E-06 +2.670729E-05 
 -3.206557E-06 +1.550880E-06 -1.080102E-06 +1.550880E-06 -6.072269E-07 +1.312492E-06 -1.080102E-06 +1.312492E-06 +3.813784E-06 
 -3.339844E-07 +1.223510E-07 +1.137260E-07 +1.223510E-07 -3.841036E-08 -1.124074E-07 +1.137260E-07 -1.124074E-07 +3.723947E-07 
 -1.577411E-08 +4.210502E-09 -5.089156E-09 +4.210502E-09 -1.240156E-08 +3.419060E-09 -5.089156E-09 +3.419060E-09 +2.817567E-08 
 -1.475313E-06 -9.562809E-07 -3.544804E-07 -9.562809E-07 -6.161881E-07 -1.368001E-07 -3.544804E-07 -1.368001E-07 +2.091501E-06 
 -5.605655E-08 -6.880376E-09 -2.036132E-08 -6.880376E-09 -3.438504E-08 -1.415671E-08 -2.036132E-08 -1.415671E-08 +9.044160E-08 
 -1.940779E-08 -7.030134E-09 -3.573125E-10 -7.030134E-09 -5.408900E-08 -4.932363E-09 -3.573125E-10 -4.932363E-09 +7.349679E-08 
 -2.208759E-07 +3.178013E-07 +3.204148E-08 +3.178013E-07 -3.379616E-07 -3.076291E-07 +3.204148E-08 -3.076291E-07 +5.588375E-07 
 -1.017541E-07 +8.246106E-08 -4.707212E-08 +8.246106E-08 -2.243373E-07 +5.476279E-08 -4.707212E-08 +5.476279E-08 +3.260914E-07 
 -2.048806E-05 +5.628986E-05 -1.032827E-05 +5.628986E-05 -1.546548E-04 +2.837587E-05 -1.032827E-05 +2.837587E-05 +1.751428E-04 
 -3.407935E-08 +4.233801E-09 +7.225170E-10 +4.233801E-09 -1.438440E-08 -3.905700E-09 +7.225170E-10 -3.905700E-09 +4.846375E-08 
 -1.050544E-06 +2.353170E-06 -9.210718E-07 +2.353170E-06 -3.656723E-06 -9.213907E-07 -9.210718E-07 -9.213907E-07 +4.707267E-06 
 -9.817077E-08 +3.255629E-08 +5.811920E-09 +3.255629E-08 -1.247267E-07 +1.829694E-08 +5.811920E-09 +1.829694E-08 +2.228975E-07 
 -1.095695E-06 -1.157745E-06 +4.391640E-08 -1.157745E-06 -1.220305E-06 -4.402456E-08 +4.391640E-08 -4.402456E-08 +2.316000E-06 
 -3.978601E-08 +7.668110E-09 +1.295382E-09 +7.668110E-09 -5.746307E-08 -2.016366E-08 +1.295382E-09 -2.016366E-08 +9.724909E-08 
 -3.245986E-05 +3.028671E-06 +2.152635E-06 +3.028671E-06 -3.373809E-08 +2.663747E-06 +2.152635E-06 +2.663747E-06 +3.249360E-05 
 -2.239304E-05 -2.095426E-05 -9.637322E-06 -2.095426E-05 -1.944541E-05 -1.216374E-05 -9.637322E-06 -1.216374E-05 +4.183845E-05 
 -3.231233E-09 -1.483081E-08 -4.991838E-08 -1.483081E-08 -2.918183E-07 -1.578704E-07 -4.991838E-08 -1.578704E-07 +2.950495E-07 
 -7.243248E-05 -7.243150E-05 -9.594043E-06 -7.243150E-05 -7.243244E-05 -9.593982E-06 -9.594043E-06 -9.593982E-06 +1.448649E-04 
 -1.649629E-06 +1.657200E-06 -6.504054E-07 +1.657200E-06 -1.608390E-06 +2.038665E-07 -6.504054E-07 +2.038665E-07 +3.258020E-06 
 -1.596498E-08 -3.760681E-10 +2.708271E-09 -3.760681E-10 -1.995942E-08 -7.342278E-10 +2.708271E-09 -7.342278E-10 +3.592440E-08 
 -6.856038E-08 -1.139253E-07 -4.222611E-08 -1.139253E-07 -1.854515E-07 -8.309988E-08 -4.222611E-08 -8.309988E-08 +2.540118E-07 
 -1.433024E-07 +3.742862E-07 +3.663813E-07 +3.742862E-07 -4.965466E-07 -7.987289E-08 +3.663813E-07 -7.987289E-08 +6.398490E-07 
 +6.439924E-08 +2.403822E-07 -3.169986E-07 +2.403822E-07 -1.020801E-06 -1.671643E-07 -3.169986E-07 -1.671643E-07 +9.564018E-07 
 -5.718454E-07 -1.090043E-06 -5.917775E-07 -1.090043E-06 -1.502471E-06 +1.205474E-07 -5.917775E-07 +1.205474E-07 +2.074317E-06 
 -8.227699E-08 +1.162252E-08 +2.799045E-09 +1.162252E-08 -5.608346E-08 +1.280454E-08 +2.799045E-09 +1.280454E-08 +1.383604E-07 
 -5.181584E-08 +5.051475E-08 +4.168348E-08 +5.051475E-08 -3.218039E-08 +1.069303E-08 +4.168348E-08 +1.069303E-08 +8.399623E-08 
 -9.028964E-05 -7.254269E-05 +2.814348E-05 -7.254269E-05 -5.626686E-05 +4.034755E-05 +2.814348E-05 +4.034755E-05 +1.465565E-04 
 -3.868307E-06 -2.192515E-05 +9.319038E-07 -2.192515E-05 -1.243469E-04 +5.290708E-06 +9.319038E-07 +5.290708E-06 +1.282152E-04 
 -1.453524E-08 +5.854492E-09 -2.383764E-09 +5.854492E-09 -1.920012E-08 +1.708861E-09 -2.383764E-09 +1.708861E-09 +3.373536E-08 
 -3.008018E-06 +9.261755E-06 +2.015872E-06 +9.261755E-06 -2.174717E-05 +7.200310E-06 +2.015872E-06 +7.200310E-06 +2.475519E-05 
 -3.154269E-07 +8.930465E-07 +6.650925E-07 +8.930465E-07 -2.170660E-06 -6.560076E-07 +6.650925E-07 -6.560076E-07 +2.486087E-06 
 -4.687536E-07 +8.332685E-07 -1.480103E-07 +8.332685E-07 -1.485304E-06 +3.119249E-07 -1.480103E-07 +3.119249E-07 +1.954058E-06 
 -4.481011E-07 +2.206056E-07 -7.887105E-08 +2.206056E-07 -4.054344E-08 -1.573220E-07 -7.887105E-08 -1.573220E-07 +4.886446E-07 
 -4.005000E-07 +3.578989E-07 -3.626247E-07 +3.578989E-07 -3.367950E-07 +1.913085E-07 -3.626247E-07 +1.913085E-07 +7.372950E-07 
 -1.365983E-06 +2.368580E-06 +2.448965E-08 +2.368580E-06 -3.948268E-06 +8.863904E-07 +2.448965E-08 +8.863904E-07 +5.314252E-06 
 -1.653556E-06 +2.682737E-07 -5.945463E-07 +2.682737E-07 -3.732720E-08 +2.298764E-07 -5.945463E-07 +2.298764E-07 +1.690883E-06 
 -2.020450E-06 +1.108539E-06 -6.605723E-07 +1.108539E-06 -6.030039E-07 +6.867684E-07 -6.605723E-07 +6.867684E-07 +2.623453E-06 
 -7.873508E-07 -4.452626E-06 -2.886155E-07 -4.452626E-06 -2.525464E-05 -1.639086E-06 -2.886155E-07 -1.639086E-06 +2.604199E-05 
 -1.491753E-08 +1.688946E-08 +2.868937E-09 +1.688946E-08 -2.205399E-08 +8.403566E-09 +2.868937E-09 +8.403566E-09 +3.697152E-08 
 -1.979517E-06 -4.322686E-07 +7.202999E-07 -4.322686E-07 -9.240102E-08 +2.478507E-07 +7.202999E-07 +2.478507E-07 +2.071918E-06 
 -9.428398E-08 -9.051091E-08 +7.764784E-08 -9.051091E-08 -1.308790E-07 +3.104719E-08 +7.764784E-08 +3.104719E-08 +2.251629E-07 
 +1.401496E-07 +3.510672E-07 +1.337917E-06 +3.510672E-07 -1.038506E-05 -1.930107E-06 +1.337917E-06 -1.930107E-06 +1.024491E-05 
 -1.014508E-07 +4.982097E-07 -2.267170E-07 +4.982097E-07 -1.190824E-06 -4.753180E-07 -2.267170E-07 -4.753180E-07 +1.292275E-06 
 -5.646153E-06 -3.797506E-06 -5.785484E-07 -3.797506E-06 -2.425089E-06 -1.509615E-06 -5.785484E-07 -1.509615E-06 +8.071242E-06 
 -1.850740E-06 -1.270185E-08 -5.605791E-07 -1.270185E-08 +2.567978E-07 +7.050190E-07 -5.605791E-07 +7.050190E-07 +1.593942E-06 
 -6.942817E-09 +5.482318E-08 -2.863684E-08 +5.482318E-08 -1.115091E-07 -4.706015E-08 -2.863684E-08 -4.706015E-08 +1.184519E-07 
 +3.162230E-08 +1.514881E-08 +1.328099E-07 +1.514881E-08 -4.675174E-07 +2.050673E-07 +1.328099E-07 +2.050673E-07 +4.358951E-07 
 -7.965208E-06 -1.137381E-06 -9.787017E-07 -1.137381E-06 +4.012100E-07 -2.226735E-06 -9.787017E-07 -2.226735E-06 +7.563998E-06 
 -6.278228E-08 -1.201095E-08 +7.819822E-08 -1.201095E-08 +1.336093E-07 -2.248472E-08 +7.819822E-08 -2.248472E-08 -7.082699E-08 
 -9.320260E-07 -3.478021E-06 -1.146043E-06 -3.478021E-06 -9.658300E-06 +2.094866E-06 -1.146043E-06 +2.094866E-06 +1.059033E-05 
 -4.846006E-08 -6.364046E-09 +6.754650E-09 -6.364046E-09 -3.052002E-08 -1.043932E-09 +6.754650E-09 -1.043932E-09 +7.898009E-08 
 -3.521292E-05 +5.028686E-05 +1.977163E-05 +5.028686E-05 -7.181871E-05 -2.823678E-05 +1.977163E-05 -2.823678E-05 +1.070316E-04 
 -9.251631E-07 +3.387345E-06 +2.323438E-06 +3.387345E-06 -7.863621E-06 -2.469849E-07 +2.323438E-06 -2.469849E-07 +8.788785E-06 
 -9.794217E-05 +5.754139E-05 +9.856198E-06 +5.754139E-05 -3.246741E-05 +7.481929E-06 +9.856198E-06 +7.481929E-06 +1.304096E-04 
 -8.569780E-05 -4.058406E-05 -3.228300E-06 -4.058406E-05 -1.540825E-05 +1.815127E-05 -3.228300E-06 +1.815127E-05 +1.011060E-04 
 -2.241718E-06 +6.469488E-07 +6.746921E-07 +6.469488E-07 +9.213842E-08 +6.473384E-07 +6.746921E-07 +6.473384E-07 +2.149580E-06 
 -3.693052E-08 +9.182614E-09 -5.993354E-09 +9.182614E-09 -6.846994E-08 +2.153153E-08 -5.993354E-09 +2.153153E-08 +1.054005E-07 
 -1.002379E-08 +2.888393E-09 +1.526046E-10 +2.888393E-09 -1.308025E-08 -2.179011E-09 +1.526046E-10 -2.179011E-09 +2.310404E-08 
 -9.007177E-06 +4.199954E-06 -1.045856E-06 +4.199954E-06 -1.958861E-06 +4.877662E-07 -1.045856E-06 +4.877662E-07 +1.096604E-05 
 -3.077616E-07 -2.117314E-07 -1.973918E-07 -2.117314E-07 -5.034439E-07 -2.493358E-07 -1.973918E-07 -2.493358E-07 +8.112056E-07 
 -5.052294E-05 +2.525681E-05 -1.760717E-05 +2.525681E-05 -1.199246E-05 +2.178655E-06 -1.760717E-05 +2.178655E-06 +6.251540E-05 
 -6.951689E-08 +9.960488E-08 -8.565186E-08 +9.960488E-08 +5.294675E-08 +5.468024E-08 -8.565186E-08 +5.468024E-08 +1.657014E-08 
 -3.352010E-08 -1.062256E-06 -7.336096E-07 -1.062256E-06 -8.176290E-06 +2.964036E-06 -7.336096E-07 +2.964036E-06 +8.209810E-06 
 -1.049146E-07 +3.231045E-07 -2.243382E-07 +3.231045E-07 -5.357774E-07 -5.464756E-08 -2.243382E-07 -5.464756E-08 +6.406920E-07 
 -3.722339E-08 -8.894611E-09 -9.170266E-09 -8.894611E-09 -6.697064E-08 -2.062170E-08 -9.170266E-09 -2.062170E-08 +1.041940E-07 
 -1.373930E-08 +2.313630E-09 +2.510295E-09 +2.313630E-09 -1.420815E-08 -7.541100E-09 +2.510295E-09 -7.541100E-09 +2.794745E-08 
 -1.182247E-06 -2.123478E-06 -1.088182E-06 -2.123478E-06 -3.068459E-06 +2.978861E-08 -1.088182E-06 +2.978861E-08 +4.250706E-06 
 -2.750637E-08 +1.646024E-08 +1.179311E-08 +1.646024E-08 -6.229734E-08 -2.782355E-08 +1.179311E-08 -2.782355E-08 +8.980371E-08 
 -4.331590E-08 +6.429148E-09 +3.975304E-09 +6.429148E-09 -4.027141E-08 -5.821694E-09 +3.975304E-09 -5.821694E-09 +8.358732E-08 
 -6.973604E-10 +1.316276E-08 -1.482530E-08 +1.316276E-08 -3.698813E-08 +6.130150E-09 -1.482530E-08 +6.130150E-09 +3.768549E-08 
 -4.134452E-07 +1.347923E-07 +2.145858E-07 +1.347923E-07 -1.442557E-07 -2.706003E-08 +2.145858E-07 -2.706003E-08 +5.577009E-07 
 -1.004165E-05 +1.526562E-05 +7.956084E-06 +1.526562E-05 -1.740017E-05 +1.937609E-06 +7.956084E-06 +1.937609E-06 +2.744182E-05 
 -1.444709E-08 -3.476683E-10 -5.154244E-09 -3.476683E-10 -1.357838E-08 -2.967167E-09 -5.154244E-09 -2.967167E-09 +2.802547E-08 
 +6.650177E-07 -8.847678E-07 -2.693625E-06 -8.847678E-07 -1.151898E-05 +3.532845E-06 -2.693625E-06 +3.532845E-06 +1.085396E-05 
 -2.433646E-07 -1.575968E-06 -7.855574E-07 -1.575968E-06 -5.924195E-06 +1.152721E-06 -7.855574E-07 +1.152721E-06 +6.167560E-06 
 -4.145806E-06 +3.915345E-06 -3.101733E-06 +3.915345E-06 -2.722977E-06 -7.043460E-08 -3.101733E-06 -7.043460E-08 +6.868782E-06 
 -5.989092E-08 -2.153171E-07 +9.430212E-08 -2.153171E-07 -3.338322E-07 -1.788787E-07 +9.430212E-08 -1.788787E-07 +3.937231E-07 
 -2.930164E-07 +2.056525E-06 -1.658423E-06 +2.056525E-06 -8.896430E-06 +1.480892E-06 -1.658423E-06 +1.480892E-06 +9.189446E-06 
 -2.774217E-05 +4.662911E-05 -2.001480E-05 +4.662911E-05 -7.183621E-05 +6.095259E-06 -2.001480E-05 +6.095259E-06 +9.957839E-05 
 -2.992370E-06 +3.100103E-06 -9.603573E-07 +3.100103E-06 -2.753447E-06 -6.721589E-07 -9.603573E-07 -6.721589E-07 +5.745817E-06 
 -6.105122E-08 -2.992786E-08 -4.809150E-09 -2.992786E-08 -3.653260E-08 -3.459405E-09 -4.809150E-09 -3.459405E-09 +9.758381E-08 
 -4.317071E-06 +7.918649E-07 +8.020253E-07 +7.918649E-07 -1.178511E-07 +2.782465E-07 +8.020253E-07 +2.782465E-07 +4.434922E-06 
 +7.368698E-08 +2.127168E-07 -4.198327E-07 +2.127168E-07 -1.260900E-06 +2.796262E-07 -4.198327E-07 +2.796262E-07 +1.187213E-06 
 -1.512908E-08 -1.110022E-09 +4.284329E-10 -1.110022E-09 -1.620988E-08 +9.286650E-09 +4.284329E-10 +9.286650E-09 +3.133895E-08 
 -9.682294E-07 -4.334268E-07 -2.109399E-07 -4.334268E-07 -4.275265E-08 +3.096266E-07 -2.109399E-07 +3.096266E-07 +1.010982E-06 
 -2.705587E-08 -1.107322E-08 -2.616601E-09 -1.107322E-08 -3.466444E-08 -3.491256E-09 -2.616601E-09 -3.491256E-09 +6.172031E-08 
 -5.934359E-07 +6.008372E-07 +3.470405E-07 +6.008372E-07 -3.346827E-07 +2.223643E-07 +3.470405E-07 +2.223643E-07 +9.281186E-07 
 -7.050669E-05 -7.165210E-05 +4.658547E-06 -7.165210E-05 -6.444363E-05 -2.897523E-05 +4.658547E-06 -2.897523E-05 +1.349503E-04 
 -6.181436E-05 +4.076442E-05 +2.493804E-05 +4.076442E-05 -2.296354E-05 +2.852751E-06 +2.493804E-05 +2.852751E-06 +8.477789E-05 
 -2.104314E-07 +2.974030E-07 +1.909902E-07 +2.974030E-07 -5.758431E-07 -3.594455E-07 +1.909902E-07 -3.594455E-07 +7.862745E-07 
 -8.485900E-08 -2.967001E-07 -1.461878E-09 -2.967001E-07 -6.798310E-07 +5.354755E-07 -1.461878E-09 +5.354755E-07 +7.646900E-07 
 -3.845062E-08 +2.945458E-09 -1.343359E-08 +2.945458E-09 -4.640481E-08 +1.118728E-08 -1.343359E-08 +1.118728E-08 +8.485542E-08 
 -9.257000E-08 +3.991843E-09 +7.631775E-09 +3.991843E-09 -5.191399E-08 -8.340770E-09 +7.631775E-09 -8.340770E-09 +1.444840E-07 
 -7.675817E-07 -3.622881E-07 +2.707902E-07 -3.622881E-07 -1.032007E-07 +4.295963E-07 +2.707902E-07 +4.295963E-07 +8.707824E-07 
 -3.812734E-08 +1.394719E-09 +1.601411E-08 +1.394719E-09 +1.148190E-08 +1.304839E-08 +1.601411E-08 +1.304839E-08 +2.664543E-08 
 -2.095937E-05 +1.323865E-05 +5.202135E-06 +1.323865E-05 -8.265746E-06 -1.553194E-06 +5.202135E-06 -1.553194E-06 +2.922512E-05 
 -6.465616E-08 +4.866893E-08 +1.865368E-08 +4.866893E-08 -5.377536E-08 -1.803341E-08 +1.865368E-08 -1.803341E-08 +1.184315E-07 
 -9.355449E-09 +2.204056E-09 +4.261334E-09 +2.204056E-09 -4.208873E-09 -2.078308E-09 +4.261334E-09 -2.078308E-09 +1.356432E-08 
 -5.580435E-06 +2.167072E-06 -2.237030E-06 +2.167072E-06 -3.656865E-07 -9.760738E-07 -2.237030E-06 -9.760738E-07 +5.946121E-06 
 -9.828075E-08 +3.738329E-08 +5.203444E-09 +3.738329E-08 -8.328197E-08 -1.304746E-08 +5.203444E-09 -1.304746E-08 +1.815627E-07 
 -3.210586E-05 -2.456514E-05 +1.951906E-05 -2.456514E-05 -1.808912E-05 +8.307595E-06 +1.951906E-05 +8.307595E-06 +5.019498E-05 
 -1.649553E-07 +2.755684E-07 +3.148609E-07 +2.755684E-07 -6.671556E-07 -1.921039E-07 +3.148609E-07 -1.921039E-07 +8.321109E-07 
 -2.154200E-07 -1.466243E-07 -1.070201E-07 -1.466243E-07 -1.028692E-07 -4.057339E-08 -1.070201E-07 -4.057339E-08 +3.182892E-07 
 -3.136494E-06 +3.072262E-06 -8.199680E-07 +3.072262E-06 -3.008554E-06 +7.122049E-07 -8.199680E-07 +7.122049E-07 +6.145049E-06 
 -4.298234E-07 -3.038105E-07 -5.002562E-08 -3.038105E-07 -3.877497E-07 -3.156134E-07 -5.002562E-08 -3.156134E-07 +8.175731E-07 
 -4.473237E-08 -2.337426E-09 +1.252856E-08 -2.337426E-09 -2.995605E-08 -1.063295E-08 +1.252856E-08 -1.063295E-08 +7.468843E-08 
 +1.666196E-06 +9.735863E-06 +1.345775E-05 +9.735863E-06 -6.610021E-05 +4.899062E-06 +1.345775E-05 +4.899062E-06 +6.443402E-05 
 +2.600721E-06 +9.323946E-06 +1.948729E-05 +9.323946E-06 -1.115977E-04 -2.475665E-06 +1.948729E-05 -2.475665E-06 +1.089970E-04 
 -4.367334E-08 -2.266050E-08 -6.927740E-09 -2.266050E-08 -5.137449E-08 -2.998775E-09 -6.927740E-09 -2.998775E-09 +9.504782E-08 
 -1.553864E-06 +1.053150E-06 +3.106491E-07 +1.053150E-06 -7.157030E-07 -2.521695E-07 +3.106491E-07 -2.521695E-07 +2.269567E-06 
 -6.667594E-08 -4.686264E-07 -3.830370E-07 -4.686264E-07 -3.076995E-06 -1.108554E-06 -3.830370E-07 -1.108554E-06 +3.143671E-06 
 -6.222293E-05 -9.729687E-05 +2.753942E-05 -9.729687E-05 -1.326616E-04 -2.053674E-05 +2.753942E-05 -2.053674E-05 +1.948845E-04 
 -4.744525E-08 -4.850927E-09 -8.033043E-09 -4.850927E-09 -6.262137E-08 +3.149623E-10 -8.033043E-09 +3.149623E-10 +1.100666E-07 
 -1.162338E-07 -4.653306E-08 +7.842527E-09 -4.653306E-08 -1.114620E-07 +1.489046E-08 +7.842527E-09 +1.489046E-08 +2.276958E-07 
 -8.379773E-05 -1.477517E-05 +1.144964E-05 -1.477517E-05 -2.608819E-06 +2.018462E-06 +1.144964E-05 +2.018462E-06 +8.640654E-05 
 -3.772298E-05 +1.187583E-05 -7.827902E-06 +1.187583E-05 -3.035610E-06 -3.074689E-06 -7.827902E-06 -3.074689E-06 +4.075859E-05 
 -1.367177E-06 -3.214906E-07 -3.779481E-07 -3.214906E-07 -2.890096E-09 +2.391032E-07 -3.779481E-07 +2.391032E-07 +1.370067E-06 
 -4.374704E-07 +2.755660E-07 -1.416271E-07 +2.755660E-07 -1.174879E-07 -1.264690E-07 -1.416271E-07 -1.264690E-07 +5.549584E-07 
 -3.974422E-05 +6.254287E-05 -1.250411E-05 +6.254287E-05 -7.309826E-05 -3.478186E-05 -1.250411E-05 -3.478186E-05 +1.128425E-04 
 -8.242525E-09 -7.871910E-10 -2.637653E-09 -7.871910E-10 -3.114201E-09 -1.293893E-09 -2.637653E-09 -1.293893E-09 +1.135673E-08 
 -1.418760E-08 +4.183993E-10 -4.366168E-09 +4.183993E-10 -1.225613E-08 -3.345327E-09 -4.366168E-09 -3.345327E-09 +2.644373E-08 
 -1.761805E-06 +9.990516E-06 -4.460511E-07 +9.990516E-06 -5.665950E-05 +2.528879E-06 -4.460511E-07 +2.528879E-06 +5.842131E-05 
 -4.724386E-07 +9.410541E-07 +2.591626E-07 +9.410541E-07 -1.866106E-06 -8.278669E-07 +2.591626E-07 -8.278669E-07 +2.338545E-06 
 -6.728700E-06 -1.023123E-06 -9.085794E-07 -1.023123E-06 +5.846053E-08 -1.352695E-06 -9.085794E-07 -1.352695E-06 +6.670240E-06 
 -3.902512E-05 -3.693439E-06 -7.424756E-06 -3.693439E-06 +9.368726E-07 -7.850717E-06 -7.424756E-06 -7.850717E-06 +3.808824E-05 
 -1.012797E-04 +2.713774E-05 +1.861393E-06 +2.713774E-05 -7.272170E-06 -4.986414E-07 +1.861393E-06 -4.986414E-07 +1.085519E-04 
 -9.373069E-05 +2.191653E-05 -3.010442E-05 +2.191653E-05 -1.765271E-06 -1.178348E-05 -3.010442E-05 -1.178348E-05 +9.549596E-05 
 -9.984070E-08 +2.523529E-08 -2.827744E-11 +2.523529E-08 -1.090205E-07 -1.209954E-08 -2.827744E-11 -1.209954E-08 +2.088612E-07 
 -2.398901E-07 +1.924292E-07 +1.387884E-07 +1.924292E-07 -1.445455E-07 -3.697638E-08 +1.387884E-07 -3.697638E-08 +3.844355E-07 
 -2.719257E-08 +8.244499E-09 -4.132524E-10 +8.244499E-09 -3.671247E-08 +1.836401E-09 -4.132524E-10 +1.836401E-09 +6.390504E-08 
 -6.014002E-08 -3.421108E-08 +8.131788E-08 -3.421108E-08 -2.248183E-07 -5.192121E-08 +8.131788E-08 -5.192121E-08 +2.849583E-07 
 +2.921001E-09 -1.402315E-07 +1.757724E-07 -1.402315E-07 -4.544210E-07 +2.077945E-08 +1.757724E-07 +2.077945E-08 +4.515000E-07 
 -4.446595E-07 +8.866600E-07 +6.800167E-07 +8.866600E-07 -1.555229E-06 -5.230845E-07 +6.800167E-07 -5.230845E-07 +1.999889E-06 
 -6.566664E-07 -1.392579E-06 +4.519298E-08 -1.392579E-06 -2.856873E-06 +6.889726E-07 +4.519298E-08 +6.889726E-07 +3.513539E-06 
 -1.130190E-07 -1.730638E-08 +1.308600E-08 -1.730638E-08 -1.300807E-07 +2.011373E-08 +1.308600E-08 +2.011373E-08 +2.430997E-07 
 -6.431893E-08 +8.830469E-09 -7.327496E-09 +8.830469E-09 -4.280927E-08 -1.703201E-08 -7.327496E-09 -1.703201E-08 +1.071282E-07 
 -1.271736E-07 +6.686995E-08 -9.833081E-08 +6.686995E-08 -4.194723E-08 +1.542696E-08 -9.833081E-08 +1.542696E-08 +1.691208E-07 
 -7.385356E-08 -3.473658E-08 -4.746695E-09 -3.473658E-08 -8.926401E-08 -1.127534E-08 -4.746695E-09 -1.127534E-08 +1.631176E-07 
 -8.227066E-08 -1.686729E-08 -8.025171E-09 -1.686729E-08 -4.678460E-08 -5.237438E-09 -8.025171E-09 -5.237438E-09 +1.290553E-07 
 -2.957889E-08 +5.329210E-09 +1.244211E-08 +5.329210E-09 -8.046244E-08 -1.941132E-08 +1.244211E-08 -1.941132E-08 +1.100413E-07 
 -1.815369E-07 +6.263913E-09 +4.140206E-08 +6.263913E-09 +2.141904E-08 +6.265515E-08 +4.140206E-08 +6.265515E-08 +1.601178E-07 
 -1.680135E-07 -4.697320E-08 +1.997124E-08 -4.697320E-08 -1.212711E-07 +3.332072E-09 +1.997124E-08 +3.332072E-09 +2.892846E-07 
 +2.772780E-07 -3.371198E-07 -3.171641E-06 -3.371198E-07 -3.653257E-05 +3.852482E-06 -3.171641E-06 +3.852482E-06 +3.625529E-05 
 -1.305082E-08 +1.587106E-09 +1.247958E-09 +1.587106E-09 -1.461131E-08 -6.221618E-10 +1.247958E-09 -6.221618E-10 +2.766214E-08 
 -1.228569E-04 -1.050133E-04 -1.685829E-05 -1.050133E-04 -8.699686E-05 +9.818868E-06 -1.685829E-05 +9.818868E-06 +2.098538E-04 
 -2.361008E-07 +1.349292E-07 -1.411033E-07 +1.349292E-07 -1.949201E-07 +1.260625E-07 -1.411033E-07 +1.260625E-07 +4.310209E-07 
 -2.475288E-06 +2.395569E-06 -1.543633E-06 +2.395569E-06 -1.794880E-06 -1.619235E-07 -1.543633E-06 -1.619235E-07 +4.270168E-06 
 -2.698546E-05 +1.852170E-05 -9.514779E-06 +1.852170E-05 -8.958873E-06 -5.622452E-06 -9.514779E-06 -5.622452E-06 +3.594434E-05 
 -2.406037E-08 -8.113897E-09 -2.536535E-09 -8.113897E-09 -3.968974E-08 +6.049864E-09 -2.536535E-09 +6.049864E-09 +6.375011E-08 
 -1.223698E-07 -1.800472E-08 +6.323439E-08 -1.800472E-08 -2.867960E-08 +1.638915E-08 +6.323439E-08 +1.638915E-08 +1.510494E-07 
 -3.804807E-06 +1.028675E-06 -1.017697E-07 +1.028675E-06 -2.451298E-07 -3.393979E-07 -1.017697E-07 -3.393979E-07 +4.049937E-06 
 -1.151298E-07 +1.438629E-08 -9.257589E-09 +1.438629E-08 -4.169086E-08 +6.257154E-09 -9.257589E-09 +6.257154E-09 +1.568207E-07 
 -1.481764E-08 +5.052536E-09 -8.137613E-09 +5.052536E-09 -1.553882E-08 +1.872453E-09 -8.137613E-09 +1.872453E-09 +3.035646E-08 
 -9.401456E-08 +8.458304E-09 +9.288196E-09 +8.458304E-09 -4.284477E-08 -4.264369E-09 +9.288196E-09 -4.264369E-09 +1.368593E-07 
 -4.209405E-08 +1.872304E-07 -1.051727E-07 +1.872304E-07 -4.479961E-07 -8.907603E-08 -1.051727E-07 -8.907603E-08 +4.900901E-07 
 -4.584399E-07 -5.648478E-07 -4.260084E-07 -5.648478E-07 -3.337839E-07 +1.320696E-07 -4.260084E-07 +1.320696E-07 +7.922238E-07 
 -3.685428E-08 +2.362246E-08 +1.230770E-08 +2.362246E-08 -5.273923E-08 -1.388041E-08 +1.230770E-08 -1.388041E-08 +8.959351E-08 
 -1.780767E-06 +1.611721E-06 +5.122417E-07 +1.611721E-06 -1.289314E-06 +2.763273E-07 +5.122417E-07 +2.763273E-07 +3.070081E-06 
 -1.772596E-08 -1.066928E-07 -3.960185E-08 -1.066928E-07 -7.565619E-07 +4.560562E-07 -3.960185E-08 +4.560562E-07 +7.742879E-07 
 +1.224580E-06 -3.413507E-07 +6.701590E-06 -3.413507E-07 -3.552225E-05 +7.322550E-06 +6.701590E-06 +7.322550E-06 +3.429767E-05 
 -1.317385E-08 +4.149971E-09 -3.791024E-09 +4.149971E-09 -7.773517E-09 +2.262574E-09 -3.791024E-09 +2.262574E-09 +2.094736E-08 
 +3.611676E-06 -2.369791E-06 +1.370544E-05 -2.369791E-06 -5.498581E-05 -8.801568E-06 +1.370544E-05 -8.801568E-06 +5.137413E-05 
 -2.750365E-09 +6.028858E-07 -4.113636E-07 +6.028858E-07 -4.516280E-06 -1.809958E-06 -4.113636E-07 -1.809958E-06 +4.519030E-06 
 -6.605317E-08 -2.640010E-08 +1.019308E-08 -2.640010E-08 +8.081573E-10 +3.256175E-08 +1.019308E-08 +3.256175E-08 +6.524501E-08 
 -4.914250E-05 -1.350043E-04 +2.764910E-05 -1.350043E-04 -3.709257E-04 +7.596166E-05 +2.764910E-05 +7.596166E-05 +4.200682E-04 
 -1.362843E-06 +7.037360E-07 -7.301956E-07 +7.037360E-07 -2.071125E-07 -1.804235E-07 -7.301956E-07 -1.804235E-07 +1.569956E-06 
 -1.030079E-05 -4.119281E-06 +1.774158E-06 -4.119281E-06 -7.189029E-07 -2.533525E-06 +1.774158E-06 -2.533525E-06 +1.101970E-05 
 -9.238769E-08 +1.934028E-07 +1.735062E-07 +1.934028E-07 -7.208060E-08 -7.261613E-08 +1.735062E-07 -7.261613E-08 +1.644683E-07 
 -4.315442E-08 -9.046991E-08 +1.962365E-07 -9.046991E-08 -9.088276E-07 +4.650913E-07 +1.962365E-07 +4.650913E-07 +9.519820E-07 
 -1.147659E-04 +3.453316E-11 -5.563582E-06 +3.453316E-11 -1.208048E-09 +2.192488E-10 -5.563582E-06 +2.192488E-10 +1.147672E-04 
 -7.026396E-07 -2.621539E-06 -1.151929E-06 -2.621539E-06 -9.154082E-06 -1.426354E-06 -1.151929E-06 -1.426354E-06 +9.856722E-06 
 -1.072136E-07 -4.645026E-08 +5.921633E-08 -4.645026E-08 -8.876974E-08 +3.691185E-08 +5.921633E-08 +3.691185E-08 +1.959833E-07 
 -4.891159E-08 -5.485705E-09 +2.177492E-09 -5.485705E-09 -6.317865E-08 +9.926627E-09 +2.177492E-09 +9.926627E-09 +1.120902E-07 
 +3.640977E-08 -4.377211E-07 -6.494502E-07 -4.377211E-07 -3.087473E-06 -5.934442E-07 -6.494502E-07 -5.934442E-07 +3.051063E-06 
 -5.366701E-05 -6.422834E-05 +2.049290E-06 -6.422834E-05 -7.450949E-05 -1.499670E-05 +2.049290E-06 -1.499670E-05 +1.281765E-04 
 -2.591876E-05 +1.957084E-05 -4.486407E-06 +1.957084E-05 -1.323243E-05 -4.483298E-06 -4.486407E-06 -4.483298E-06 +3.915119E-05 
 -1.322163E-08 -4.519791E-10 -1.719781E-09 -4.519791E-10 -7.819546E-09 +4.418754E-09 -1.719781E-09 +4.418754E-09 +2.104117E-08 
 -4.674237E-09 -5.434956E-08 +3.729044E-08 -5.434956E-08 -1.294824E-07 -5.460119E-08 +3.729044E-08 -5.460119E-08 +1.341566E-07 
 -2.851551E-08 +1.721426E-09 +3.261755E-09 +1.721426E-09 -2.246149E-08 +4.819834E-09 +3.261755E-09 +4.819834E-09 +5.097699E-08 
 -1.493500E-06 -9.439376E-07 -7.027475E-07 -9.439376E-07 -5.922965E-07 -3.169289E-07 -7.027475E-07 -3.169289E-07 +2.085797E-06 
 -5.080960E-08 +1.351355E-08 +7.422677E-09 +1.351355E-08 -5.725873E-08 -9.790750E-09 +7.422677E-09 -9.790750E-09 +1.080683E-07 
 -1.054160E-05 +6.829226E-07 +1.634625E-06 +6.829226E-07 +5.720793E-08 -1.277164E-06 +1.634625E-06 -1.277164E-06 +1.048439E-05 
 -7.882828E-09 -1.969410E-09 -1.273654E-09 -1.969410E-09 -3.746426E-08 +9.883196E-09 -1.273654E-09 +9.883196E-09 +4.534709E-08 
 -4.123403E-08 -7.097867E-10 +3.658718E-09 -7.097867E-10 -2.019069E-08 +1.612059E-09 +3.658718E-09 +1.612059E-09 +6.142471E-08 
 -1.693634E-06 +1.319864E-06 +2.507743E-07 +1.319864E-06 -3.977898E-07 +9.692601E-07 +2.507743E-07 +9.692601E-07 +2.091424E-06 
 -1.710320E-06 -1.511794E-06 +1.254703E-06 -1.511794E-06 -7.573866E-07 -3.021692E-07 +1.254703E-06 -3.021692E-07 +2.467706E-06 
 +1.307891E-08 +1.166535E-07 +1.422817E-07 +1.166535E-07 -4.238346E-07 +3.282653E-08 +1.422817E-07 +3.282653E-08 +4.107557E-07 
 -1.069936E-06 +6.005458E-07 -2.566725E-07 +6.005458E-07 -1.385069E-07 -3.604941E-07 -2.566725E-07 -3.604941E-07 +1.208442E-06 
 -2.834279E-07 -9.507573E-08 -3.070708E-08 -9.507573E-08 -1.076188E-07 +1.628317E-08 -3.070708E-08 +1.628317E-08 +3.910467E-07 
 -2.333840E-08 -5.041187E-09 -8.222455E-09 -5.041187E-09 -2.265999E-08 -6.165610E-09 -8.222455E-09 -6.165610E-09 +4.599839E-08 
 -5.679616E-07 +8.095108E-07 -2.599854E-07 +8.095108E-07 -7.366984E-07 -4.102411E-07 -2.599854E-07 -4.102411E-07 +1.304660E-06 
 -1.259836E-07 -5.120207E-07 +3.883627E-07 -5.120207E-07 -1.127020E-06 +4.205088E-08 +3.883627E-07 +4.205088E-08 +1.253004E-06 
 -3.346360E-06 -2.849567E-06 +2.906070E-07 -2.849567E-06 -2.352161E-06 -4.162558E-07 +2.906070E-07 -4.162558E-07 +5.698521E-06 
 -4.725153E-06 +1.427208E-05 +5.283300E-06 +1.427208E-05 -3.531454E-05 +3.056010E-06 +5.283300E-06 +3.056010E-06 +4.003969E-05 
 -5.947707E-08 -1.156253E-07 -3.357367E-08 -1.156253E-07 -2.312342E-07 -1.714832E-07 -3.357367E-08 -1.714832E-07 +2.907113E-07 
 -6.642065E-08 +4.836799E-07 +6.907042E-08 +4.836799E-07 -2.696853E-06 +1.059141E-06 +6.907042E-08 +1.059141E-06 +2.763274E-06 
 -7.791374E-08 -4.855074E-09 +2.384643E-09 -4.855074E-09 -5.382996E-08 -1.264608E-08 +2.384643E-09 -1.264608E-08 +1.317437E-07 
 -4.956084E-07 -1.435619E-06 +1.494758E-07 -1.435619E-06 -3.979661E-06 +1.709566E-06 +1.494758E-07 +1.709566E-06 +4.475269E-06 
 -7.028148E-06 +6.148397E-07 +1.855971E-06 +6.148397E-07 -5.480656E-08 -1.626206E-07 +1.855971E-06 -1.626206E-07 +7.082955E-06 
 +1.903985E-07 -3.045232E-07 -7.463188E-07 -3.045232E-07 -3.004107E-06 +9.009194E-07 -7.463188E-07 +9.009194E-07 +2.813708E-06 
 -3.286367E-05 -8.409013E-06 -9.618656E-06 -8.409013E-06 +4.269803E-07 +7.106656E-06 -9.618656E-06 +7.106656E-06 +3.243669E-05 
 -1.109808E-04 +1.956848E-05 +1.893267E-05 +1.956848E-05 -3.453195E-06 -3.339024E-06 +1.893267E-05 -3.339024E-06 +1.144339E-04 
 -1.021128E-05 +3.070838E-06 +2.100958E-06 +3.070838E-06 -8.847720E-07 +5.336357E-08 +2.100958E-06 +5.336357E-08 +1.109606E-05 
 -2.032697E-06 -2.917562E-06 +7.854741E-07 -2.917562E-06 -4.118317E-06 +2.108807E-06 +7.854741E-07 +2.108807E-06 +6.151014E-06 
 -5.443644E-06 -1.220417E-05 +6.746005E-06 -1.220417E-05 -2.162271E-05 +4.843905E-07 +6.746005E-06 +4.843905E-07 +2.706636E-05 
 +5.658467E-09 +3.272281E-08 -4.207927E-08 +3.272281E-08 -1.412931E-07 -3.236606E-08 -4.207927E-08 -3.236606E-08 +1.356346E-07 
 -1.570132E-08 +3.043403E-09 -9.391786E-10 +3.043403E-09 -1.222232E-08 -2.051352E-09 -9.391786E-10 -2.051352E-09 +2.792364E-08 
 -2.964503E-07 +3.343769E-07 +2.111400E-07 +3.343769E-07 -3.991829E-07 -3.329761E-07 +2.111400E-07 -3.329761E-07 +6.956332E-07 
 -7.270776E-08 +1.673990E-07 -1.637104E-07 +1.673990E-07 -1.882965E-07 +2.046202E-08 -1.637104E-07 +2.046202E-08 +2.610043E-07 
 -3.263345E-08 +5.997470E-09 -2.867893E-09 +5.997470E-09 -1.918395E-08 +3.919305E-09 -2.867893E-09 +3.919305E-09 +5.181740E-08 
 -9.695871E-09 -3.387120E-11 +2.157369E-09 -3.387120E-11 -1.390888E-08 +7.323257E-09 +2.157369E-09 +7.323257E-09 +2.360475E-08 
 -7.154456E-08 +7.085999E-07 -4.282969E-07 +7.085999E-07 -4.301145E-06 -1.150421E-07 -4.282969E-07 -1.150421E-07 +4.372689E-06 
 +1.471654E-08 -4.472742E-07 +4.787751E-07 -4.472742E-07 -1.261558E-06 +1.732513E-08 +4.787751E-07 +1.732513E-08 +1.246841E-06 
 -1.007835E-05 +1.660106E-05 +2.682461E-06 +1.660106E-05 -2.730777E-05 -6.057248E-06 +2.682461E-06 -6.057248E-06 +3.738612E-05 
 -3.471070E-08 -1.727226E-08 -5.388360E-09 -1.727226E-08 -3.304872E-08 -4.215362E-09 -5.388360E-09 -4.215362E-09 +6.775943E-08 
 +5.461291E-08 +4.861899E-07 +4.042932E-07 +4.861899E-07 -1.466634E-06 +6.149673E-07 +4.042932E-07 +6.149673E-07 +1.412021E-06 
 -6.096345E-07 -1.916687E-06 +5.983479E-07 -1.916687E-06 -3.704267E-06 -1.494665E-06 +5.983479E-07 -1.494665E-06 +4.313902E-06 
 -9.860316E-08 -1.968614E-07 -1.269252E-07 -1.968614E-07 -4.231252E-07 -2.624811E-07 -1.269252E-07 -2.624811E-07 +5.217283E-07 
 -3.931076E-06 +3.199206E-06 +1.900142E-06 +3.199206E-06 -2.624845E-06 -1.429920E-06 +1.900142E-06 -1.429920E-06 +6.555921E-06 
 -1.229014E-07 -7.693902E-08 +5.323290E-08 -7.693902E-08 -5.753899E-08 +7.773681E-08 +5.323290E-08 +7.773681E-08 +1.804404E-07 
 -5.571172E-07 +7.830168E-08 -1.143312E-07 +7.830168E-08 +4.204284E-08 +1.899777E-07 -1.143312E-07 +1.899777E-07 +5.150744E-07 
 -7.504665E-07 -1.386129E-06 +7.830592E-07 -1.386129E-06 -2.506034E-06 +9.405589E-07 +7.830592E-07 +9.405589E-07 +3.256500E-06 
 -5.992928E-08 -9.038332E-09 +2.078028E-08 -9.038332E-09 -4.415793E-08 +7.937492E-09 +2.078028E-08 +7.937492E-09 +1.040872E-07 
 -1.719759E-08 -2.819323E-09 -3.783398E-09 -2.819323E-09 -1.937472E-08 -6.641767E-09 -3.783398E-09 -6.641767E-09 +3.657232E-08 
 -2.522560E-08 -4.274320E-09 +4.160636E-09 -4.274320E-09 -5.184889E-08 +2.241301E-08 +4.160636E-09 +2.241301E-08 +7.707450E-08 
 -8.970446E-08 +2.552022E-07 +9.634832E-08 +2.552022E-07 -2.717074E-07 +1.904929E-07 +9.634832E-08 +1.904929E-07 +3.614118E-07 
 -9.500754E-06 -4.011636E-06 +7.366746E-07 -4.011636E-06 -1.466891E-06 -1.274905E-06 +7.366746E-07 -1.274905E-06 +1.096765E-05 
 -4.415771E-05 -2.956274E-05 +7.281353E-06 -2.956274E-05 -1.942650E-05 +9.808999E-06 +7.281353E-06 +9.808999E-06 +6.358422E-05 
 -9.988417E-06 +1.117490E-06 -8.473150E-07 +1.117490E-06 +5.058671E-07 +2.554744E-06 -8.473150E-07 +2.554744E-06 +9.482550E-06 
 -5.223242E-07 +1.998477E-06 +5.847753E-07 +1.998477E-06 -5.963884E-06 +1.262705E-06 +5.847753E-07 +1.262705E-06 +6.486208E-06 
 -3.685081E-08 -1.768470E-09 +1.950049E-09 -1.768470E-09 -8.079638E-08 +7.625482E-09 +1.950049E-09 +7.625482E-09 +1.176472E-07 
 +2.947809E-08 +4.328573E-08 -4.653142E-08 +4.328573E-08 -3.956234E-08 +2.466414E-08 -4.653142E-08 +2.466414E-08 +1.008425E-08 
 -3.287610E-05 -1.231453E-05 +6.309273E-06 -1.231453E-05 -4.614689E-06 +1.984887E-06 +6.309273E-06 +1.984887E-06 +3.749079E-05 
 -6.071728E-06 -2.631682E-06 -2.597027E-07 -2.631682E-06 -9.753701E-07 +9.705814E-07 -2.597027E-07 +9.705814E-07 +7.047098E-06 
 -7.777815E-08 -1.009768E-08 +7.644498E-09 -1.009768E-08 -4.194698E-08 +2.499570E-09 +7.644498E-09 +2.499570E-09 +1.197251E-07 
 -2.638497E-07 +6.336663E-08 +2.325180E-08 +6.336663E-08 -1.280222E-07 -1.664754E-08 +2.325180E-08 -1.664754E-08 +3.918719E-07 
 -2.501975E-05 -1.274703E-05 -6.192327E-06 -1.274703E-05 -3.743103E-06 +5.997373E-06 -6.192327E-06 +5.997373E-06 +2.876286E-05 
 -3.418412E-08 +6.012090E-09 +1.863448E-08 +6.012090E-09 -3.206168E-08 -5.013743E-09 +1.863448E-08 -5.013743E-09 +6.624580E-08 
 -1.514485E-06 +2.023819E-06 +5.604898E-07 +2.023819E-06 -2.693158E-06 -5.128851E-07 +5.604898E-07 -5.128851E-07 +4.207643E-06 
 -1.478884E-06 -1.894717E-06 -7.644977E-07 -1.894717E-06 -2.419236E-06 -1.208971E-06 -7.644977E-07 -1.208971E-06 +3.898120E-06 
 -4.914202E-07 -6.402350E-08 +5.616535E-08 -6.402350E-08 +4.751906E-08 +1.699976E-07 +5.616535E-08 +1.699976E-07 +4.439011E-07 
 -9.760831E-08 +9.042281E-09 +2.221916E-08 +9.042281E-09 -1.570408E-07 -4.847955E-09 +2.221916E-08 -4.847955E-09 +2.546491E-07 
 -2.106164E-05 -3.382064E-05 -1.224122E-05 -3.382064E-05 -4.723996E-05 +3.498851E-06 -1.224122E-05 +3.498851E-06 +6.830160E-05 
 -8.051102E-05 +3.754276E-05 -1.525558E-05 +3.754276E-05 -1.750676E-05 +7.113822E-06 -1.525558E-05 +7.113822E-06 +9.801778E-05 
 -9.398678E-08 -6.963817E-07 +1.074313E-06 -6.963817E-07 -2.170448E-06 +7.127130E-07 +1.074313E-06 +7.127130E-07 +2.264435E-06 
 -4.801285E-08 +5.840438E-09 +5.387217E-09 +5.840438E-09 -2.968734E-08 -2.655471E-09 +5.387217E-09 -2.655471E-09 +7.770019E-08 
 -6.252244E-07 +4.472718E-07 -3.302001E-07 +4.472718E-07 -3.134867E-07 +1.358033E-07 -3.302001E-07 +1.358033E-07 +9.387111E-07 
 -1.339761E-04 +3.770537E-05 -9.911538E-06 +3.770537E-05 -5.945856E-06 -2.287188E-05 -9.911538E-06 -2.287188E-05 +1.399219E-04 
 -3.467491E-06 -2.142309E-06 -9.389009E-07 -2.142309E-06 -1.247956E-06 +5.068956E-08 -9.389009E-07 +5.068956E-08 +4.715447E-06 
 -1.009561E-06 -5.626737E-07 +5.086256E-07 -5.626737E-07 -1.255978E-07 -2.413111E-07 +5.086256E-07 -2.413111E-07 +1.135159E-06 
 -6.705290E-06 +9.766826E-07 +2.673123E-06 +9.766826E-07 +7.686280E-07 +2.148184E-06 +2.673123E-06 +2.148184E-06 +5.936662E-06 
 -1.089750E-04 +1.942019E-05 +1.921569E-05 +1.942019E-05 -2.777957E-09 -2.314314E-05 +1.921569E-05 -2.314314E-05 +1.089778E-04 
 -2.955178E-06 -3.150111E-06 -1.920115E-06 -3.150111E-06 -2.539463E-06 +3.064944E-07 -1.920115E-06 +3.064944E-07 +5.494641E-06 
 -3.095500E-06 +5.291081E-06 +1.805617E-06 +5.291081E-06 -8.811891E-06 -1.295812E-06 +1.805617E-06 -1.295812E-06 +1.190739E-05 
 -1.664918E-06 -4.599417E-06 +2.489033E-06 -4.599417E-06 -1.005829E-05 +4.543164E-07 +2.489033E-06 +4.543164E-07 +1.172321E-05 
 -4.192115E-08 -1.732670E-09 +2.169344E-09 -1.732670E-09 -8.247629E-08 -9.176792E-09 +2.169344E-09 -9.176792E-09 +1.243974E-07 
 +3.422435E-07 -4.856747E-07 +1.285124E-06 -4.856747E-07 -3.125003E-06 +9.178776E-07 +1.285124E-06 +9.178776E-07 +2.782759E-06 
 -4.125867E-07 -3.274180E-07 +5.038445E-09 -3.274180E-07 -1.172314E-07 +2.843896E-07 +5.038445E-09 +2.843896E-07 +5.298181E-07 
 -1.070088E-07 +1.154105E-07 +2.726877E-08 +1.154105E-07 -9.975206E-08 +6.542373E-08 +2.726877E-08 +6.542373E-08 +2.067609E-07 
 +1.686252E-07 +6.252521E-07 +1.316256E-06 +6.252521E-07 -7.540060E-06 -1.900441E-07 +1.316256E-06 -1.900441E-07 +7.371435E-06 
 -1.074408E-06 +3.875054E-07 +2.866469E-07 +3.875054E-07 -9.712411E-08 -3.477590E-07 +2.866469E-07 -3.477590E-07 +1.171532E-06 
 -5.087036E-05 +1.871597E-05 -2.165217E-06 +1.871597E-05 -6.391706E-06 -4.541505E-06 -2.165217E-06 -4.541505E-06 +5.726207E-05 
 -1.633359E-04 +2.365141E-04 +1.083167E-05 +2.365141E-04 -2.989151E-04 +1.265316E-04 +1.083167E-05 +1.265316E-04 +4.622510E-04 
 -3.456655E-04 -1.258112E-04 +3.113654E-05 -1.258112E-04 -4.579376E-05 +1.133399E-05 +3.113654E-05 +1.133399E-05 +3.914593E-04 
 -1.164121E-04 +8.151248E-05 +2.999604E-05 +8.151248E-05 -5.707598E-05 -2.100350E-05 +2.999604E-05 -2.100350E-05 +1.734880E-04 
 -6.736013E-07 +8.134976E-08 +2.269454E-07 +8.134976E-08 +1.398495E-08 +1.163919E-07 +2.269454E-07 +1.163919E-07 +6.596163E-07 
 -8.417829E-06 +5.567892E-06 +1.413942E-06 +5.567892E-06 -3.629489E-06 -1.794400E-06 +1.413942E-06 -1.794400E-06 +1.204732E-05 
 -1.196629E-04 -1.998264E-05 +1.256962E-05 -1.998264E-05 -2.366225E-06 +1.305537E-05 +1.256962E-05 +1.305537E-05 +1.220291E-04 
 -8.627789E-08 -2.820767E-07 -5.033198E-08 -2.820767E-07 -9.342965E-07 -3.736157E-07 -5.033198E-08 -3.736157E-07 +1.020574E-06 
 -3.603467E-08 -1.136442E-07 -2.173394E-07 -1.136442E-07 -5.945222E-07 -2.169393E-07 -2.173394E-07 -2.169393E-07 +6.305569E-07 
 -1.697523E-07 -1.745279E-07 -1.124497E-07 -1.745279E-07 -2.504840E-07 -1.831723E-07 -1.124497E-07 -1.831723E-07 +4.202364E-07 
 -8.148575E-09 -5.719701E-09 -2.522903E-09 -5.719701E-09 -1.494366E-08 -1.096120E-08 -2.522903E-09 -1.096120E-08 +2.309223E-08 
 -6.263833E-08 +2.589849E-08 -1.408407E-08 +2.589849E-08 -1.257368E-07 +1.048229E-08 -1.408407E-08 +1.048229E-08 +1.883751E-07 
 -1.413417E-06 -1.424258E-06 +9.900440E-07 -1.424258E-06 -8.603802E-07 -3.204775E-07 +9.900440E-07 -3.204775E-07 +2.273797E-06 
 -1.867843E-06 +8.362059E-07 -5.587517E-07 +8.362059E-07 -2.048560E-07 -3.826868E-07 -5.587517E-07 -3.826868E-07 +2.072699E-06 
 -7.197347E-05 +1.435159E-05 -1.321505E-05 +1.435159E-05 -2.875688E-06 +8.837086E-07 -1.321505E-05 +8.837086E-07 +7.484916E-05 
 +3.452664E-08 -5.504028E-07 +6.154210E-07 -5.504028E-07 -3.049311E-06 -1.616959E-06 +6.154210E-07 -1.616959E-06 +3.014784E-06 
 -8.280276E-06 +1.459982E-06 +1.028571E-06 +1.459982E-06 -2.577239E-07 -1.813090E-07 +1.028571E-06 -1.813090E-07 +8.538000E-06 
 -3.876231E-07 +2.485221E-06 -2.719578E-06 +2.485221E-06 -6.369120E-06 +1.585407E-06 -2.719578E-06 +1.585407E-06 +6.756743E-06 
 +1.027447E-07 -4.146946E-07 -6.850134E-07 -4.146946E-07 -1.551022E-06 -3.675538E-07 -6.850134E-07 -3.675538E-07 +1.448277E-06 
 -2.877702E-08 -3.655155E-10 -2.337831E-09 -3.655155E-10 -5.033680E-08 +2.827808E-09 -2.337831E-09 +2.827808E-09 +7.911382E-08 
 +4.727901E-09 -1.628399E-08 +6.421844E-10 -1.628399E-08 -1.451978E-08 +1.604773E-08 +6.421844E-10 +1.604773E-08 +9.791883E-09 
 -1.077625E-05 +2.430425E-06 -1.900013E-06 +2.430425E-06 -4.554479E-10 +2.896367E-06 -1.900013E-06 +2.896367E-06 +1.077670E-05 
 -6.715960E-09 +4.340537E-10 -9.273153E-10 +4.340537E-10 -1.553446E-08 -5.390218E-09 -9.273153E-10 -5.390218E-09 +2.225042E-08 
 -1.016365E-08 -1.599892E-09 -6.286862E-09 -1.599892E-09 -9.413535E-09 -8.129796E-10 -6.286862E-09 -8.129796E-10 +1.957718E-08 
 -4.117985E-08 -8.419153E-09 -3.363275E-09 -8.419153E-09 -2.503439E-08 -3.583484E-09 -3.363275E-09 -3.583484E-09 +6.621423E-08 
 -2.392967E-06 -4.128427E-06 +8.101474E-08 -4.128427E-06 -6.844762E-06 +1.755122E-06 +8.101474E-08 +1.755122E-06 +9.237730E-06 
 -2.772979E-05 -1.023921E-05 -2.211901E-06 -1.023921E-05 -2.608559E-06 -6.842246E-06 -2.211901E-06 -6.842246E-06 +3.033835E-05 
 -2.360151E-07 -4.234761E-07 +2.931929E-08 -4.234761E-07 -6.093269E-07 -3.323975E-07 +2.931929E-08 -3.323975E-07 +8.453420E-07 
 -6.893385E-08 +1.979705E-06 -2.322603E-06 +1.979705E-06 -6.459460E-06 +1.286897E-06 -2.322603E-06 +1.286897E-06 +6.528393E-06 
 -1.919609E-06 +7.112049E-07 -1.225731E-06 +7.112049E-07 -2.755337E-07 +2.150390E-07 -1.225731E-06 +2.150390E-07 +2.195142E-06 
 -1.098555E-04 +2.092190E-05 +8.662914E-06 +2.092190E-05 -4.332442E-07 +1.821379E-05 +8.662914E-06 +1.821379E-05 +1.102888E-04 
 -5.146296E-06 +1.108460E-06 +6.850688E-07 +1.108460E-06 +4.199108E-07 -1.941880E-06 +6.850688E-07 -1.941880E-06 +4.726385E-06 
 -8.320720E-09 -6.094109E-10 -9.218123E-10 -6.094109E-10 -7.352188E-09 -1.508523E-09 -9.218123E-10 -1.508523E-09 +1.567291E-08 
 -8.272999E-07 +3.523150E-07 +5.424349E-07 +3.523150E-07 -1.182061E-07 +2.986800E-08 +5.424349E-07 +2.986800E-08 +9.455060E-07 
 -1.627649E-04 +1.639181E-04 +9.329418E-06 +1.639181E-04 -1.601309E-04 +3.061833E-05 +9.329418E-06 +3.061833E-05 +3.228959E-04 
 -4.581195E-05 +2.585683E-05 -1.117165E-05 +2.585683E-05 -1.422820E-05 +1.005540E-06 -1.117165E-05 +1.005540E-06 +6.004014E-05 
 -6.599694E-07 -7.487273E-07 +3.023133E-07 -7.487273E-07 -7.969158E-07 +3.660884E-08 +3.023133E-07 +3.660884E-08 +1.456885E-06 
 -9.181925E-08 -1.497429E-07 +5.481379E-08 -1.497429E-07 -2.436591E-07 +1.092649E-07 +5.481379E-08 +1.092649E-07 +3.354783E-07 
 -1.210414E-05 -1.096709E-05 -7.108667E-06 -1.096709E-05 -9.602543E-06 -3.487094E-06 -7.108667E-06 -3.487094E-06 +2.170668E-05 
 -1.510271E-07 -2.758043E-09 -1.828224E-08 -2.758043E-09 -8.957631E-08 -1.126578E-09 -1.828224E-08 -1.126578E-09 +2.406034E-07 
 -2.320782E-05 +3.293781E-05 -1.280524E-05 +3.293781E-05 -3.548874E-05 -9.121410E-06 -1.280524E-05 -9.121410E-06 +5.869656E-05 
 -2.835267E-06 -2.133868E-06 +6.988383E-07 -2.133868E-06 -1.405631E-06 -4.217272E-07 +6.988383E-07 -4.217272E-07 +4.240898E-06 
 -2.430503E-06 +4.506932E-06 +1.701654E-06 +4.506932E-06 -8.002924E-06 -1.122189E-06 +1.701654E-06 -1.122189E-06 +1.043343E-05 
 +1.731538E-07 +1.166993E-06 -1.591047E-06 +1.166993E-06 -1.000034E-05 -1.652639E-06 -1.591047E-06 -1.652639E-06 +9.827184E-06 
 -3.754150E-05 -1.873372E-06 +8.246342E-07 -1.873372E-06 +5.053764E-07 -4.674061E-06 +8.246342E-07 -4.674061E-06 +3.703612E-05 
 -3.629539E-08 +7.261263E-08 +8.680161E-08 +7.261263E-08 -1.316371E-07 -6.945964E-08 +8.680161E-08 -6.945964E-08 +1.679325E-07 
 -1.285042E-05 -1.610333E-05 -2.891567E-06 -1.610333E-05 -1.783320E-05 +4.965498E-06 -2.891567E-06 +4.965498E-06 +3.068362E-05 
 -5.557723E-08 -1.022626E-09 +1.415500E-09 -1.022626E-09 -4.111458E-08 -2.141352E-09 +1.415500E-09 -2.141352E-09 +9.669181E-08 
 -2.102770E-05 +1.193998E-05 -1.969144E-06 +1.193998E-05 -6.500216E-06 +3.916111E-06 -1.969144E-06 +3.916111E-06 +2.752791E-05 
 -3.155754E-06 +4.302571E-06 -1.107942E-06 +4.302571E-06 -5.861839E-06 +1.164518E-06 -1.107942E-06 +1.164518E-06 +9.017594E-06 
 -1.472157E-07 -4.430102E-07 +3.576102E-07 -4.430102E-07 -1.172103E-06 +3.316549E-07 +3.576102E-07 +3.316549E-07 +1.319319E-06 
 -7.199871E-08 +1.867634E-08 +3.091493E-08 +1.867634E-08 -1.294161E-08 +4.018061E-09 +3.091493E-08 +4.018061E-09 +8.494032E-08 
 -8.267137E-05 -4.773005E-05 -1.091329E-05 -4.773005E-05 -2.755725E-05 -6.300883E-06 -1.091329E-05 -6.300883E-06 +1.102286E-04 
 -1.391819E-04 +2.410637E-04 +3.112132E-06 +2.410637E-04 -4.175371E-04 -5.390655E-06 +3.112132E-06 -5.390655E-06 +5.567190E-04 
 -3.625509E-05 -6.531829E-05 +3.014354E-05 -6.531829E-05 -1.042578E-04 +7.029213E-06 +3.014354E-05 +7.029213E-06 +1.405129E-04 
 -4.757883E-08 +2.574252E-08 +7.751403E-09 +2.574252E-08 -5.781881E-08 -8.115483E-09 +7.751403E-09 -8.115483E-09 +1.053976E-07 
 -3.892578E-08 -9.325658E-09 -1.153523E-08 -9.325658E-09 -1.803254E-08 -1.683733E-09 -1.153523E-08 -1.683733E-09 +5.695832E-08 
 -5.830080E-05 +2.501263E-05 -2.251124E-05 +2.501263E-05 -1.001450E-05 +1.709119E-05 -2.251124E-05 +1.709119E-05 +6.831529E-05 
 -3.816766E-07 +1.457641E-07 -2.140841E-07 +1.457641E-07 -4.348320E-08 +1.763844E-07 -2.140841E-07 +1.763844E-07 +4.251598E-07 
 -1.043386E-08 -1.009529E-08 +1.787351E-09 -1.009529E-08 -2.353367E-08 +5.469876E-09 +1.787351E-09 +5.469876E-09 +3.396753E-08 
 -3.876602E-08 +5.061971E-09 +2.282491E-08 +5.061971E-09 -3.043180E-08 -8.722302E-09 +2.282491E-08 -8.722302E-09 +6.919782E-08 
 -1.088021E-07 -4.237158E-07 +2.199449E-07 -4.237158E-07 -9.890955E-07 -1.541246E-07 +2.199449E-07 -1.541246E-07 +1.097898E-06 
 -1.441228E-06 -3.397527E-06 +5.150065E-07 -3.397527E-06 -5.293266E-06 -3.147390E-06 +5.150065E-07 -3.147390E-06 +6.734494E-06 
 -5.647734E-05 +9.781947E-05 +1.355405E-05 +9.781947E-05 -1.694295E-04 -2.347728E-05 +1.355405E-05 -2.347728E-05 +2.259068E-04 
 -3.548887E-08 -2.201998E-08 -5.385696E-09 -2.201998E-08 -1.539473E-07 -4.087489E-08 -5.385696E-09 -4.087489E-08 +1.894362E-07 
 -1.052506E-04 +9.208260E-06 +7.912416E-06 +9.208260E-06 -8.062996E-07 -6.923413E-07 +7.912416E-06 -6.923413E-07 +1.060569E-04 
 -6.263842E-07 -7.198056E-07 -1.633089E-07 -7.198056E-07 -9.629355E-07 -5.017954E-07 -1.633089E-07 -5.017954E-07 +1.589320E-06 
 -3.608306E-06 -1.143042E-05 +5.959419E-06 -1.143042E-05 -3.318919E-05 +6.965748E-06 +5.959419E-06 +6.965748E-06 +3.679750E-05 
 -2.068300E-07 +2.740394E-07 +1.771884E-07 +2.740394E-07 -2.052203E-07 +6.999351E-08 +1.771884E-07 +6.999351E-08 +4.120502E-07 
 -1.544598E-08 -9.215450E-11 +2.569829E-09 -9.215450E-11 -1.908588E-08 +7.085856E-09 +2.569829E-09 +7.085856E-09 +3.453185E-08 
 -1.012475E-08 -2.362679E-10 +9.850721E-09 -2.362679E-10 -4.318261E-08 -1.900549E-08 +9.850721E-09 -1.900549E-08 +5.330736E-08 
 -3.918711E-08 +1.026038E-08 +1.947774E-08 +1.026038E-08 -1.825995E-08 -9.094625E-09 +1.947774E-08 -9.094625E-09 +5.744707E-08 
 -6.315761E-06 -1.374462E-06 +8.245333E-08 -1.374462E-06 -2.836299E-07 -3.069027E-07 +8.245333E-08 -3.069027E-07 +6.599391E-06 
 -1.969646E-05 -1.555112E-05 +4.233145E-06 -1.555112E-05 -1.062586E-05 +1.052786E-05 +4.233145E-06 +1.052786E-05 +3.032232E-05 
 -3.036444E-07 +1.703946E-07 +2.755593E-08 +1.703946E-07 -7.548952E-08 -1.644348E-07 +2.755593E-08 -1.644348E-07 +3.791339E-07 
 -2.848351E-06 +3.573113E-06 -2.202839E-06 +3.573113E-06 -4.323096E-06 +1.475643E-06 -2.202839E-06 +1.475643E-06 +7.171447E-06 
 -6.161916E-09 +6.384322E-07 +9.104950E-07 +6.384322E-07 -3.124481E-06 -1.134478E-06 +9.104950E-07 -1.134478E-06 +3.130642E-06 
 -3.823017E-08 +1.387562E-08 +3.907342E-09 +1.387562E-08 -4.392584E-08 -4.348867E-09 +3.907342E-09 -4.348867E-09 +8.215601E-08 
 -8.092636E-08 +3.723130E-08 -2.997973E-09 +3.723130E-08 -3.031796E-08 -3.924991E-08 -2.997973E-09 -3.924991E-08 +1.112443E-07 
 -8.461212E-06 +3.208535E-05 -1.519867E-06 +3.208535E-05 -1.083204E-04 -3.379708E-05 -1.519867E-06 -3.379708E-05 +1.167816E-04 
 -7.727420E-07 -2.235626E-06 -1.612097E-07 -2.235626E-06 -4.814769E-06 +2.593513E-06 -1.612097E-07 +2.593513E-06 +5.587511E-06 
 -8.943950E-08 +1.756187E-08 -4.034717E-09 +1.756187E-08 -1.318482E-07 -2.023937E-08 -4.034717E-09 -2.023937E-08 +2.212877E-07 
 -7.344587E-07 +1.192230E-06 +1.840771E-07 +1.192230E-06 -1.949399E-06 -4.362570E-07 +1.840771E-07 -4.362570E-07 +2.683858E-06 
 -3.222566E-07 +2.808965E-07 +1.218558E-07 +2.808965E-07 -2.345522E-07 -1.672650E-07 +1.218558E-07 -1.672650E-07 +5.568089E-07 
 -3.802613E-06 +1.055729E-06 -1.491252E-06 +1.055729E-06 -2.843522E-07 -1.200990E-08 -1.491252E-06 -1.200990E-08 +4.086965E-06 
 -9.944097E-10 -3.276062E-08 +6.380511E-08 -3.276062E-08 -1.777365E-07 +5.041986E-08 +6.380511E-08 +5.041986E-08 +1.787309E-07 
 +4.725583E-08 -7.016989E-08 -2.345262E-07 -7.016989E-08 -1.193628E-06 +2.720052E-07 -2.345262E-07 +2.720052E-07 +1.146372E-06 
 -1.315666E-07 +1.673128E-08 +1.307886E-08 +1.673128E-08 -3.558131E-08 -1.111492E-08 +1.307886E-08 -1.111492E-08 +1.671479E-07 
 -7.356182E-05 -1.297072E-05 -2.597095E-06 -1.297072E-05 -2.289214E-06 -4.581067E-07 -2.597095E-06 -4.581067E-07 +7.585103E-05 
 -3.476129E-05 +8.093140E-07 -1.207611E-06 +8.093140E-07 +1.358189E-06 +6.828766E-06 -1.207611E-06 +6.828766E-06 +3.340310E-05 
 -3.028967E-06 -1.413377E-06 -9.873451E-07 -1.413377E-06 -5.033014E-07 +3.298601E-07 -9.873451E-07 +3.298601E-07 +3.532269E-06 
 -2.811337E-05 +1.383156E-05 -7.483124E-06 +1.383156E-05 -6.465487E-06 +1.523454E-07 -7.483124E-06 +1.523454E-07 +3.457886E-05 
 -7.367498E-08 -2.930106E-08 -2.408840E-08 -2.930106E-08 -5.886517E-08 -1.591760E-08 -2.408840E-08 -1.591760E-08 +1.325402E-07 
 -3.153148E-08 +9.280469E-09 +1.893913E-09 +9.280469E-09 -4.112053E-08 +1.142184E-08 +1.893913E-09 +1.142184E-08 +7.265201E-08 
 -2.646295E-07 -1.638308E-06 -6.361144E-07 -1.638308E-06 -8.576393E-06 +1.715923E-07 -6.361144E-07 +1.715923E-07 +8.841022E-06 
 -2.311228E-07 +9.115791E-07 +8.067537E-07 +9.115791E-07 -2.479403E-06 -6.702953E-07 +8.067537E-07 -6.702953E-07 +2.710526E-06 
 -5.368969E-07 -2.444775E-07 -2.343769E-07 -2.444775E-07 -7.330856E-08 +6.534079E-08 -2.343769E-07 +6.534079E-08 +6.102055E-07 
 -6.900225E-08 -1.527657E-08 -4.000630E-09 -1.527657E-08 -3.218386E-08 -6.344779E-09 -4.000630E-09 -6.344779E-09 +1.011861E-07 
 -1.349926E-06 +1.775284E-06 +4.521941E-07 +1.775284E-06 -1.815339E-06 +7.669206E-07 +4.521941E-07 +7.669206E-07 +3.165265E-06 
 -6.316837E-08 +4.147169E-09 +1.654302E-08 +4.147169E-09 -6.542704E-08 -2.267353E-08 +1.654302E-08 -2.267353E-08 +1.285954E-07 
 -5.303737E-07 +5.578961E-07 -6.149202E-07 +5.578961E-07 -5.233599E-07 +2.896557E-07 -6.149202E-07 +2.896557E-07 +1.053734E-06 
 -4.686287E-08 +5.211284E-08 -5.605262E-08 +5.211284E-08 -1.901007E-09 +1.450721E-08 -5.605262E-08 +1.450721E-08 +4.876388E-08 
 -2.251373E-04 -9.309631E-05 +5.947290E-05 -9.309631E-05 -2.903155E-05 -2.601964E-05 +5.947290E-05 -2.601964E-05 +2.541688E-04 
 -3.790510E-04 -2.302266E-04 +5.600203E-05 -2.302266E-04 -1.189227E-04 -6.900344E-05 +5.600203E-05 -6.900344E-05 +4.979736E-04 
 -2.335417E-07 -2.946474E-07 -3.791039E-07 -2.946474E-07 -1.897134E-07 -4.320197E-08 -3.791039E-07 -4.320197E-08 +4.232551E-07 
 -1.972753E-08 +1.305756E-08 +1.375711E-08 +1.305756E-08 -5.130751E-08 -1.676326E-08 +1.375711E-08 -1.676326E-08 +7.103505E-08 
 -6.018061E-06 -5.123922E-06 -5.217258E-07 -5.123922E-06 -4.226631E-06 +7.460000E-07 -5.217258E-07 +7.460000E-07 +1.024469E-05 
 -6.709875E-08 -1.836217E-08 -1.772195E-08 -1.836217E-08 -2.194066E-08 -7.399631E-09 -1.772195E-08 -7.399631E-09 +8.903940E-08 
 -5.343284E-06 +3.102429E-07 -1.101652E-07 +3.102429E-07 +5.540632E-08 -6.213699E-07 -1.101652E-07 -6.213699E-07 +5.287878E-06 
 -5.533181E-08 -2.700514E-09 -1.296176E-08 -2.700514E-09 -7.122420E-08 -7.026248E-10 -1.296176E-08 -7.026248E-10 +1.265560E-07 
 -1.280009E-07 -8.479101E-07 +4.543977E-07 -8.479101E-07 -2.845575E-06 -5.652370E-07 +4.543977E-07 -5.652370E-07 +2.973576E-06 
 -8.410670E-07 -2.841834E-07 -6.426993E-07 -2.841834E-07 -6.214042E-08 +9.429002E-08 -6.426993E-07 +9.429002E-08 +9.032074E-07 
 -1.191811E-07 -4.427908E-07 -7.994743E-08 -4.427908E-07 -1.657017E-06 -3.024406E-07 -7.994743E-08 -3.024406E-07 +1.776198E-06 
 -2.872712E-05 +1.297027E-05 -4.393207E-06 +1.297027E-05 -5.534223E-06 +5.353962E-06 -4.393207E-06 +5.353962E-06 +3.426134E-05 
 -5.881870E-06 +5.441300E-06 -1.723215E-06 +5.441300E-06 -5.014273E-06 +9.906360E-07 -1.723215E-06 +9.906360E-07 +1.089614E-05 
 -5.845742E-08 +3.844277E-08 +1.204739E-08 +3.844277E-08 -2.067404E-08 +1.857356E-08 +1.204739E-08 +1.857356E-08 +7.913145E-08 
 -7.180698E-08 -3.765783E-08 +4.936156E-09 -3.765783E-08 -7.811604E-08 +1.135174E-08 +4.936156E-09 +1.135174E-08 +1.499230E-07 
 -9.101481E-09 +2.948691E-09 +1.055424E-09 +2.948691E-09 -5.533185E-09 -1.628362E-09 +1.055424E-09 -1.628362E-09 +1.463467E-08 
 -8.243300E-08 +1.046624E-08 +4.783207E-08 +1.046624E-08 -2.231761E-08 -5.993034E-09 +4.783207E-08 -5.993034E-09 +1.047506E-07 
 -4.469458E-06 +1.801617E-06 -7.221053E-07 +1.801617E-06 -7.407662E-07 +5.876406E-07 -7.221053E-07 +5.876406E-07 +5.210225E-06 
 -1.005695E-04 -1.145130E-04 -3.915732E-05 -1.145130E-04 -1.259323E-04 -7.748489E-05 -3.915732E-05 -7.748489E-05 +2.265018E-04 
 -9.312815E-05 +5.863669E-05 -2.397526E-05 +5.863669E-05 -3.153410E-05 -1.151938E-05 -2.397526E-05 -1.151938E-05 +1.246623E-04 
 -2.808657E-05 -3.120476E-06 +1.020917E-05 -3.120476E-06 +6.314629E-07 +6.704542E-06 +1.020917E-05 +6.704542E-06 +2.745511E-05 
 -2.839010E-08 -8.635467E-09 +6.249293E-09 -8.635467E-09 -6.185013E-08 -2.285677E-09 +6.249293E-09 -2.285677E-09 +9.024022E-08 
 -1.336289E-06 +7.135319E-07 -2.959068E-07 +7.135319E-07 -3.802122E-07 +9.231321E-08 -2.959068E-07 +9.231321E-08 +1.716501E-06 
 -5.044948E-05 -4.233169E-05 +4.847147E-06 -4.233169E-05 -3.552099E-05 +4.067257E-06 +4.847147E-06 +4.067257E-06 +8.597047E-05 
 -1.905546E-07 +1.349552E-07 -6.703580E-08 +1.349552E-07 -1.193337E-07 +1.453072E-07 -6.703580E-08 +1.453072E-07 +3.098883E-07 
 -3.682504E-05 +6.489542E-06 -3.742073E-09 +6.489542E-06 -1.151251E-06 -1.758633E-09 -3.742073E-09 -1.758633E-09 +3.797629E-05 
 -2.368602E-06 -3.659205E-06 -2.539958E-06 -3.659205E-06 -3.455513E-06 +4.344695E-07 -2.539958E-06 +4.344695E-07 +5.824115E-06 
 -9.635498E-05 -4.471409E-05 +2.215678E-06 -4.471409E-05 -1.967606E-05 +1.222954E-05 +2.215678E-06 +1.222954E-05 +1.160310E-04 
 -3.037777E-05 +3.010376E-05 +2.190373E-06 +3.010376E-05 -2.892758E-05 -9.525471E-06 +2.190373E-06 -9.525471E-06 +5.930535E-05 
 -9.775005E-07 +1.571738E-06 +4.740856E-07 +1.571738E-06 -2.501200E-06 -4.155173E-07 +4.740856E-07 -4.155173E-07 +3.478701E-06 
 -1.035105E-08 -6.272296E-10 +5.102323E-09 -6.272296E-10 -9.552180E-09 -1.165373E-09 +5.102323E-09 -1.165373E-09 +1.990323E-08 
 -7.740313E-07 -8.468546E-07 -5.779426E-08 -8.468546E-07 -9.195420E-07 +4.843678E-08 -5.779426E-08 +4.843678E-08 +1.693573E-06 
 +5.772251E-07 +1.102545E-06 +6.683898E-06 +1.102545E-06 -7.702588E-05 +1.259562E-05 +6.683898E-06 +1.259562E-05 +7.644865E-05 
 +5.216642E-06 -3.920648E-07 -1.973909E-05 -3.920648E-07 -7.163770E-05 -2.181171E-05 -1.973909E-05 -2.181171E-05 +6.642105E-05 
 -7.483985E-05 +9.898527E-06 -1.841670E-05 +9.898527E-06 +1.191523E-06 +1.642895E-05 -1.841670E-05 +1.642895E-05 +7.364833E-05 
 -5.390132E-08 -7.837149E-09 -3.043661E-09 -7.837149E-09 -3.650194E-08 -4.242599E-09 -3.043661E-09 -4.242599E-09 +9.040325E-08 
 -7.871738E-08 -3.794244E-07 -1.791053E-08 -3.794244E-07 -1.744715E-06 +3.374354E-07 -1.791053E-08 +3.374354E-07 +1.823433E-06 
 -3.554620E-05 +7.622157E-05 +5.967786E-06 +7.622157E-05 -1.634606E-04 -1.279389E-05 +5.967786E-06 -1.279389E-05 +1.990068E-04 
 -1.724763E-06 +9.973234E-07 +1.718643E-07 +9.973234E-07 -4.003157E-07 -8.559720E-07 +1.718643E-07 -8.559720E-07 +2.125079E-06 
 -4.815587E-06 +5.881016E-06 +2.519381E-06 +5.881016E-06 -6.486634E-06 -9.371114E-08 +2.519381E-06 -9.371114E-08 +1.130222E-05 
 -1.118374E-07 +1.372671E-08 -8.387582E-09 +1.372671E-08 -1.161608E-07 -1.616650E-10 -8.387582E-09 -1.616650E-10 +2.279982E-07 
 -2.994611E-06 +1.273266E-06 -2.909507E-07 +1.273266E-06 -4.458180E-08 +1.363530E-06 -2.909507E-07 +1.363530E-06 +3.039193E-06 
 -1.262917E-05 -1.204789E-05 +2.258884E-06 -1.204789E-05 -1.009210E-05 +7.911594E-06 +2.258884E-06 +7.911594E-06 +2.272127E-05 
 -2.316867E-08 -8.125502E-09 -7.905988E-09 -8.125502E-09 -1.421176E-08 -1.823747E-09 -7.905988E-09 -1.823747E-09 +3.738043E-08 
 -4.688522E-07 +5.959939E-07 -2.422154E-07 +5.959939E-07 -7.607096E-07 +3.782590E-07 -2.422154E-07 +3.782590E-07 +1.229562E-06 
 -4.208698E-06 -2.386445E-05 -8.815687E-06 -2.386445E-05 -1.353426E-04 -4.999750E-05 -8.815687E-06 -4.999750E-05 +1.395513E-04 
 -8.859593E-08 +2.337122E-08 +1.032091E-08 +2.337122E-08 -7.174273E-08 -6.154238E-09 +1.032091E-08 -6.154238E-09 +1.603387E-07 
 -5.966551E-05 +2.394387E-05 -2.394750E-05 +2.394387E-05 -8.940102E-06 +2.334014E-06 -2.394750E-05 +2.334014E-06 +6.860561E-05 
 -5.406391E-07 -2.924636E-07 +4.032113E-07 -2.924636E-07 -1.522502E-07 +1.095330E-07 +4.032113E-07 +1.095330E-07 +6.928892E-07 
 -2.821893E-08 -1.332692E-08 +1.604643E-09 -1.332692E-08 -3.674693E-08 -1.233355E-08 +1.604643E-09 -1.233355E-08 +6.496586E-08 
 +1.045271E-07 +2.693123E-08 -3.975858E-07 +2.693123E-08 -1.450125E-06 -3.908276E-07 -3.975858E-07 -3.908276E-07 +1.345598E-06 
 -1.866276E-06 +2.510950E-06 -8.122149E-08 +2.510950E-06 -3.113400E-06 -1.058367E-06 -8.122149E-08 -1.058367E-06 +4.979676E-06 
 -5.581257E-06 -2.992622E-06 +1.437213E-06 -2.992622E-06 -1.448065E-06 -3.386166E-07 +1.437213E-06 -3.386166E-07 +7.029322E-06 
 -1.241847E-08 +5.048112E-09 -1.034416E-10 +5.048112E-09 -3.877625E-08 +1.735105E-08 -1.034416E-10 +1.735105E-08 +5.119471E-08 
 +1.150458E-06 +4.772173E-08 +6.490344E-06 +4.772173E-08 -3.764972E-05 +1.146002E-06 +6.490344E-06 +1.146002E-06 +3.649926E-05 
 -1.651806E-05 +1.810129E-05 -4.330780E-06 +1.810129E-05 -1.525085E-05 -7.653430E-06 -4.330780E-06 -7.653430E-06 +3.176892E-05 
 -4.941935E-06 -1.088183E-06 +7.156831E-07 -1.088183E-06 +2.251128E-07 -1.341254E-06 +7.156831E-07 -1.341254E-06 +4.716822E-06 
 -3.073725E-05 +3.345491E-05 +7.244186E-06 +3.345491E-05 -2.782556E-05 +1.490899E-05 +7.244186E-06 +1.490899E-05 +5.856282E-05 
 -5.241266E-07 -4.834197E-06 +3.724996E-06 -4.834197E-06 -3.025590E-05 +5.628287E-06 +3.724996E-06 +5.628287E-06 +3.078002E-05 
 -1.354864E-07 -6.878453E-07 +3.152493E-07 -6.878453E-07 -3.305746E-06 +5.412971E-07 +3.152493E-07 +5.412971E-07 +3.441232E-06 
 -5.450688E-08 +3.264289E-07 +2.625239E-07 +3.264289E-07 -6.675423E-07 +4.289995E-08 +2.625239E-07 +4.289995E-08 +7.220492E-07 
 -4.073873E-08 -1.230411E-09 +1.195397E-08 -1.230411E-09 -1.619609E-08 +6.342080E-10 +1.195397E-08 +6.342080E-10 +5.693482E-08 
 -7.313289E-08 +1.319700E-07 -1.061726E-07 +1.319700E-07 -1.479220E-07 -7.433761E-09 -1.061726E-07 -7.433761E-09 +2.210549E-07 
 -1.532475E-07 -2.710232E-07 -1.557632E-07 -2.710232E-07 -5.691233E-07 -1.950937E-07 -1.557632E-07 -1.950937E-07 +7.223708E-07 
 -6.749882E-07 -3.330834E-07 +4.489581E-07 -3.330834E-07 -1.443892E-07 -5.520211E-08 +4.489581E-07 -5.520211E-08 +8.193774E-07 
 -4.793354E-07 +7.887587E-07 -6.187274E-07 +7.887587E-07 -7.903653E-07 -2.341852E-08 -6.187274E-07 -2.341852E-08 +1.269701E-06 
 -1.079078E-04 +4.996718E-05 +3.623531E-06 +4.996718E-05 -2.193032E-05 -1.422088E-05 +3.623531E-06 -1.422088E-05 +1.298381E-04 
 -2.205905E-05 +1.423171E-05 +6.275367E-06 +1.423171E-05 -8.497030E-06 +7.330166E-07 +6.275367E-06 +7.330166E-07 +3.055608E-05 
 -1.153182E-07 -3.040997E-08 -8.358001E-08 -3.040997E-08 -1.916216E-09 +1.765207E-08 -8.358001E-08 +1.765207E-08 +1.172344E-07 
 -1.093902E-07 +8.618051E-11 +2.344665E-08 +8.618051E-11 +1.549269E-08 -3.746521E-08 +2.344665E-08 -3.746521E-08 +9.389751E-08 
 -1.341421E-05 +1.283808E-05 -4.591436E-06 +1.283808E-05 -1.189054E-05 +7.716333E-06 -4.591436E-06 +7.716333E-06 +2.530475E-05 
 -1.767647E-05 +1.764011E-05 -5.910563E-09 +1.764011E-05 -1.323226E-05 -1.165836E-05 -5.910563E-09 -1.165836E-05 +3.090873E-05 
 -2.258924E-05 -8.221580E-06 +1.092771E-06 -8.221580E-06 -2.993137E-06 +3.976744E-07 +1.092771E-06 +3.976744E-07 +2.558238E-05 
 -3.599581E-06 -1.837718E-06 +1.335609E-06 -1.837718E-06 -9.701884E-07 +9.616363E-07 +1.335609E-06 +9.616363E-07 +4.569769E-06 
 -4.442525E-08 -3.365653E-07 -1.886905E-07 -3.365653E-07 -6.695102E-07 +3.733929E-07 -1.886905E-07 +3.733929E-07 +7.139354E-07 
 +2.679132E-07 +2.101380E-07 +1.706928E-06 +2.101380E-07 -1.103350E-05 +2.228292E-06 +1.706928E-06 +2.228292E-06 +1.076559E-05 
 -2.256586E-06 -2.161652E-07 -2.909642E-07 -2.161652E-07 +4.253352E-08 -4.146785E-07 -2.909642E-07 -4.146785E-07 +2.214053E-06 
 -5.935486E-08 -9.394730E-09 -4.745965E-09 -9.394730E-09 -5.347903E-08 +1.847151E-09 -4.745965E-09 +1.847151E-09 +1.128339E-07 
 -3.874069E-07 +3.317562E-06 +3.552390E-06 +3.317562E-06 -8.911934E-06 -1.579473E-06 +3.552390E-06 -1.579473E-06 +9.299340E-06 
 -5.725976E-08 +5.789940E-09 -2.247220E-08 +5.789940E-09 -1.535511E-07 -5.211251E-08 -2.247220E-08 -5.211251E-08 +2.108109E-07 
 -2.522074E-08 -3.083978E-08 -7.853242E-08 -3.083978E-08 -2.683140E-07 +6.199185E-08 -7.853242E-08 +6.199185E-08 +2.935347E-07 
 -1.447284E-07 -3.783399E-08 +4.108039E-09 -3.783399E-08 -1.934004E-07 +1.873064E-08 +4.108039E-09 +1.873064E-08 +3.381288E-07 
 -6.068665E-07 +1.022714E-06 +4.410459E-07 +1.022714E-06 -1.585421E-06 -1.314343E-07 +4.410459E-07 -1.314343E-07 +2.192288E-06 
 -4.026386E-06 -2.763057E-06 +2.194853E-07 -2.763057E-06 -1.851101E-06 -3.819828E-07 +2.194853E-07 -3.819828E-07 +5.877487E-06 
 -2.329372E-08 -1.815532E-09 -2.399391E-09 -1.815532E-09 -3.541877E-08 -4.880453E-09 -2.399391E-09 -4.880453E-09 +5.871249E-08 
 -7.961580E-08 -1.104930E-08 +2.372911E-08 -1.104930E-08 -3.711579E-08 +7.596666E-09 +2.372911E-08 +7.596666E-09 +1.167316E-07 
 -8.884682E-06 -3.509432E-05 +5.754914E-06 -3.509432E-05 -1.231519E-04 -2.314742E-05 +5.754914E-06 -2.314742E-05 +1.320365E-04 
 -2.895646E-06 -3.094947E-06 -3.066605E-07 -3.094947E-06 -3.158076E-06 -1.294502E-06 -3.066605E-07 -1.294502E-06 +6.053722E-06 
 -2.395356E-04 -7.219221E-05 -8.841583E-05 -7.219221E-05 -1.937059E-05 -2.458043E-07 -8.841583E-05 -2.458043E-07 +2.589062E-04 
 -7.922115E-05 -1.382653E-05 -4.918348E-07 -1.382653E-05 +3.156654E-06 -2.073783E-05 -4.918348E-07 -2.073783E-05 +7.606449E-05 
 -2.579274E-06 -1.921963E-07 +1.875958E-07 -1.921963E-07 +6.031208E-08 +4.601714E-07 +1.875958E-07 +4.601714E-07 +2.518962E-06 
 -9.925922E-06 +1.072939E-06 -2.590938E-06 +1.072939E-06 +5.328540E-07 -2.277324E-06 -2.590938E-06 -2.277324E-06 +9.393068E-06 
 -1.337661E-04 -4.724065E-05 -1.551305E-05 -4.724065E-05 -1.537986E-05 -1.952866E-05 -1.551305E-05 -1.952866E-05 +1.491460E-04 
 -3.887169E-05 -2.875553E-05 -4.929102E-06 -2.875553E-05 -1.555820E-05 +1.427379E-05 -4.929102E-06 +1.427379E-05 +5.442989E-05 
 -2.050060E-05 +1.422128E-05 -5.594654E-06 +1.422128E-05 -9.599356E-06 +9.142973E-07 -5.594654E-06 +9.142973E-07 +3.009996E-05 
 -1.047941E-07 -1.077167E-07 +1.128435E-07 -1.077167E-07 -1.177873E-07 +6.718049E-08 +1.128435E-07 +6.718049E-08 +2.225814E-07 
 -6.686957E-08 +1.871783E-08 -1.420643E-08 +1.871783E-08 -8.627517E-08 -6.308202E-09 -1.420643E-08 -6.308202E-09 +1.531447E-07 
 -2.090649E-08 -5.666380E-09 -5.944242E-09 -5.666380E-09 -7.773414E-09 -8.250853E-10 -5.944242E-09 -8.250853E-10 +2.867990E-08 
 -1.302938E-06 -1.751162E-07 +8.497835E-07 -1.751162E-07 +3.222225E-08 -2.344027E-07 +8.497835E-07 -2.344027E-07 +1.270715E-06 
 -9.931492E-05 -4.026496E-10 +2.380179E-05 -4.026496E-10 -8.642003E-09 -1.302162E-09 +2.380179E-05 -1.302162E-09 +9.932356E-05 
 -5.523147E-08 -1.421771E-08 -2.566497E-09 -1.421771E-08 -1.682287E-07 +4.864847E-08 -2.566497E-09 +4.864847E-08 +2.234601E-07 
 -1.101516E-07 -5.097112E-10 -1.571547E-08 -5.097112E-10 -7.170525E-08 +8.526750E-09 -1.571547E-08 +8.526750E-09 +1.818569E-07 
 -1.129740E-08 -5.687615E-09 -1.893746E-09 -5.687615E-09 -3.329794E-08 -4.325486E-10 -1.893746E-09 -4.325486E-10 +4.459534E-08 
 -1.444267E-08 -3.302766E-09 -4.936851E-09 -3.302766E-09 -1.377736E-08 -7.316129E-09 -4.936851E-09 -7.316129E-09 +2.822003E-08 
 -9.875681E-08 -1.980175E-06 -1.028947E-06 -1.980175E-06 -6.572713E-06 +3.395554E-06 -1.028947E-06 +3.395554E-06 +6.671470E-06 
 -3.622119E-05 -2.539254E-06 +1.856303E-06 -2.539254E-06 +1.232762E-06 -6.916644E-06 +1.856303E-06 -6.916644E-06 +3.498843E-05 
 -2.339667E-08 -2.198006E-09 +9.063744E-09 -2.198006E-09 -1.108941E-08 +8.155999E-09 +9.063744E-09 +8.155999E-09 +3.448608E-08 
 -9.990739E-09 -1.138768E-08 -1.147534E-08 -1.138768E-08 -6.887375E-08 +9.343821E-09 -1.147534E-08 +9.343821E-09 +7.886448E-08 
 -3.491190E-05 +8.536685E-05 -7.068253E-05 +8.536685E-05 -1.660746E-04 +5.158911E-05 -7.068253E-05 +5.158911E-05 +2.009865E-04 
 -1.255965E-05 -1.204057E-05 +4.191766E-06 -1.204057E-05 -1.115924E-05 +7.126034E-06 +4.191766E-06 +7.126034E-06 +2.371889E-05 
 -2.555046E-08 -4.996158E-09 +1.277878E-08 -4.996158E-09 -1.612900E-08 +4.312221E-09 +1.277878E-08 +4.312221E-09 +4.167946E-08 
 +1.063991E-07 +3.330822E-07 -6.579901E-07 +3.330822E-07 -2.685881E-06 +2.406442E-07 -6.579901E-07 +2.406442E-07 +2.579482E-06 
 -6.595581E-09 +1.506775E-05 -1.506522E-05 +1.506775E-05 -1.177215E-04 +3.119052E-09 -1.506522E-05 +3.119052E-09 +1.177281E-04 
 -1.829280E-07 +8.209300E-09 +1.198977E-08 +8.209300E-09 -2.975699E-08 +1.160390E-08 +1.198977E-08 +1.160390E-08 +2.126850E-07 
 -2.095768E-08 -3.918267E-09 -6.381811E-09 -3.918267E-09 -7.701721E-09 +1.350964E-10 -6.381811E-09 +1.350964E-10 +2.865940E-08 
 -1.685322E-09 -3.448340E-08 -2.671199E-08 -3.448340E-08 -1.637834E-08 -1.145728E-08 -2.671199E-08 -1.145728E-08 +1.806367E-08 
 -2.767486E-08 -2.038473E-08 -1.473960E-08 -2.038473E-08 -5.833363E-08 -2.427489E-08 -1.473960E-08 -2.427489E-08 +8.600850E-08 
 -2.888242E-08 +2.221487E-08 +2.453163E-09 +2.221487E-08 -4.838704E-08 -4.098513E-09 +2.453163E-09 -4.098513E-09 +7.726946E-08 
 -5.096438E-08 +2.994889E-08 -3.455106E-09 +2.994889E-08 -5.200549E-08 +5.863389E-09 -3.455106E-09 +5.863389E-09 +1.029699E-07 
 -1.914692E-07 -1.027374E-06 -9.367104E-07 -1.027374E-06 -4.427975E-06 -1.428015E-06 -9.367104E-07 -1.428015E-06 +4.619445E-06 
 -1.804614E-08 +4.545010E-09 -4.997171E-09 +4.545010E-09 -7.633324E-09 +1.715225E-09 -4.997171E-09 +1.715225E-09 +2.567946E-08 
 +4.562837E-07 -6.921246E-07 -1.818794E-06 -6.921246E-07 -7.461012E-06 +2.254125E-06 -1.818794E-06 +2.254125E-06 +7.004728E-06 
 -2.856916E-08 +2.897802E-09 +5.637828E-09 +2.897802E-09 -6.014275E-08 -2.651304E-08 +5.637828E-09 -2.651304E-08 +8.871191E-08 
 -3.092403E-08 +2.576720E-10 +4.266450E-09 +2.576720E-10 -2.110452E-08 +2.493682E-09 +4.266450E-09 +2.493682E-09 +5.202855E-08 
 -1.441032E-08 -5.395088E-08 -9.101742E-08 -5.395088E-08 -5.748186E-07 -3.222160E-07 -9.101742E-08 -3.222160E-07 +5.892289E-07 
 -1.040153E-06 -1.479792E-06 -3.488113E-08 -1.479792E-06 -2.034557E-06 -5.184954E-07 -3.488113E-08 -5.184954E-07 +3.074709E-06 
 +2.630650E-07 +1.380252E-07 +8.079566E-07 +1.380252E-07 -2.164398E-06 -6.494870E-07 +8.079566E-07 -6.494870E-07 +1.901333E-06 
 -1.034730E-05 -8.806770E-08 +1.006115E-06 -8.806770E-08 +7.687932E-08 -8.975711E-07 +1.006115E-06 -8.975711E-07 +1.027042E-05 
 -1.622460E-06 -2.910391E-07 +6.094066E-07 -2.910391E-07 -4.391933E-08 -5.102092E-08 +6.094066E-07 -5.102092E-08 +1.666379E-06 
 -9.975954E-08 -1.075880E-07 -1.040895E-07 -1.075880E-07 -1.219794E-07 -6.560023E-08 -1.040895E-07 -6.560023E-08 +2.217390E-07 
 -2.544777E-08 -4.153973E-08 +1.727292E-08 -4.153973E-08 -1.259784E-07 -1.866140E-09 +1.727292E-08 -1.866140E-09 +1.514262E-07 
 -1.453202E-06 -2.770522E-06 -6.110440E-07 -2.770522E-06 -4.288355E-06 +1.297246E-06 -6.110440E-07 +1.297246E-06 +5.741558E-06 
 -2.083586E-07 +7.077248E-09 -1.507790E-08 +7.077248E-09 -4.632830E-07 +4.711314E-08 -1.507790E-08 +4.711314E-08 +6.716417E-07 
 +6.470788E-08 -6.999531E-07 -8.329508E-07 -6.999531E-07 -2.092675E-06 -1.506640E-07 -8.329508E-07 -1.506640E-07 +2.027967E-06 
 -6.618526E-08 -1.555291E-08 -2.098536E-08 -1.555291E-08 -3.900881E-08 -1.019762E-08 -2.098536E-08 -1.019762E-08 +1.051941E-07 
 -2.082703E-07 -7.367699E-08 -2.945511E-09 -7.367699E-08 +3.769846E-10 -7.912638E-08 -2.945511E-09 -7.912638E-08 +2.078933E-07 
 -8.250370E-07 +2.553555E-07 +3.291968E-07 +2.553555E-07 -7.886013E-08 -5.300896E-08 +3.291968E-07 -5.300896E-08 +9.038972E-07 
 -2.275520E-08 -2.545607E-09 -1.247649E-08 -2.545607E-09 -2.150212E-08 -5.774678E-09 -1.247649E-08 -5.774678E-09 +4.425732E-08 
 +7.194159E-07 +1.324045E-06 +4.292795E-06 +1.324045E-06 -2.517604E-05 +7.498107E-06 +4.292795E-06 +7.498107E-06 +2.445662E-05 
 -9.353005E-05 +1.335736E-04 +1.445752E-05 +1.335736E-04 -1.907640E-04 -2.064816E-05 +1.445752E-05 -2.064816E-05 +2.842940E-04 
 -8.050121E-07 +2.237572E-08 +1.614976E-07 +2.237572E-08 +1.696860E-08 +1.161851E-07 +1.614976E-07 +1.161851E-07 +7.880435E-07 
 -9.991940E-05 -2.419156E-05 -2.223667E-05 -2.419156E-05 -4.389493E-06 +7.340157E-06 -2.223667E-05 +7.340157E-06 +1.043089E-04 
 -8.764278E-05 -3.189929E-05 -4.388832E-05 -3.189929E-05 -1.161091E-05 -1.597440E-05 -4.388832E-05 -1.597440E-05 +9.925369E-05 
 -9.958088E-06 -1.366821E-06 +3.604624E-06 -1.366821E-06 -1.687957E-07 +1.024882E-06 +3.604624E-06 +1.024882E-06 +1.012688E-05 
 -3.423997E-05 +5.427642E-06 +3.370277E-06 +5.427642E-06 +2.021541E-07 -6.669229E-06 +3.370277E-06 -6.669229E-06 +3.403781E-05 
 -2.459679E-05 -4.709731E-05 -2.578632E-05 -4.709731E-05 -8.601585E-05 -2.532031E-05 -2.578632E-05 -2.532031E-05 +1.106127E-04 
 +1.917703E-08 +1.281423E-07 -1.606525E-07 +1.281423E-07 -4.716457E-07 -1.442699E-08 -1.606525E-07 -1.442699E-08 +4.524687E-07 
 -9.110957E-09 +2.110649E-09 -1.614824E-09 +2.110649E-09 -6.896705E-09 +4.923622E-09 -1.614824E-09 +4.923622E-09 +1.600766E-08 
 +5.942510E-08 -2.721071E-07 -4.263254E-07 -2.721071E-07 -1.613747E-06 -3.950321E-08 -4.263254E-07 -3.950321E-08 +1.554322E-06 
 -1.281572E-05 +5.456749E-10 -2.259598E-06 +5.456749E-10 -7.529401E-10 +7.800194E-10 -2.259598E-06 +7.800194E-10 +1.281648E-05 
 -8.811503E-06 -1.428256E-06 -1.329719E-06 -1.428256E-06 +3.131872E-07 +1.966163E-06 -1.329719E-06 +1.966163E-06 +8.498316E-06 
 -4.284095E-05 -3.594726E-05 +1.143629E-05 -3.594726E-05 -3.016385E-05 +9.595875E-06 +1.143629E-05 +9.595875E-06 +7.300480E-05 
 -1.270578E-07 -5.858410E-09 -4.151710E-08 -5.858410E-09 -5.222303E-08 -3.467785E-08 -4.151710E-08 -3.467785E-08 +1.792808E-07 
 -8.942325E-08 -1.447417E-08 -1.427420E-08 -1.447417E-08 -3.574815E-08 -2.803094E-09 -1.427420E-08 -2.803094E-09 +1.251714E-07 
 -8.876108E-09 -5.158451E-07 +8.918168E-07 -5.158451E-07 -2.225129E-06 +1.277033E-06 +8.918168E-07 +1.277033E-06 +2.234005E-06 
 -3.893316E-08 +2.694230E-09 -1.704844E-09 +2.694230E-09 -3.105966E-08 +2.100006E-09 -1.704844E-09 +2.100006E-09 +6.999281E-08 
 -9.847391E-07 +2.248972E-07 +1.707671E-07 +2.248972E-07 +5.067832E-08 -3.649523E-07 +1.707671E-07 -3.649523E-07 +9.340608E-07 
 -2.823235E-06 -2.573424E-07 -5.365871E-07 -2.573424E-07 +6.650060E-08 -5.563954E-07 -5.365871E-07 -5.563954E-07 +2.756734E-06 
 -4.224231E-08 -1.880921E-09 -1.131006E-08 -1.880921E-09 -9.931417E-09 -1.438494E-09 -1.131006E-08 -1.438494E-09 +5.217372E-08 
 -1.311965E-04 +1.598253E-04 -1.272993E-05 +1.598253E-04 -1.718574E-04 -6.792964E-05 -1.272993E-05 -6.792964E-05 +3.030539E-04 
 -8.177253E-05 +3.677288E-05 -1.138406E-05 +3.677288E-05 -1.042804E-05 +2.905835E-05 -1.138406E-05 +2.905835E-05 +9.220056E-05 
 -2.116467E-06 +7.152961E-07 +1.291104E-07 +7.152961E-07 -1.227919E-07 -5.639765E-07 +1.291104E-07 -5.639765E-07 +2.239259E-06 
 -6.895361E-07 -4.633939E-08 -4.298485E-07 -4.633939E-08 +2.101945E-08 +1.313211E-07 -4.298485E-07 +1.313211E-07 +6.685166E-07 
 -8.266488E-08 -3.488353E-08 -1.081344E-08 -3.488353E-08 -4.638036E-08 +2.609820E-09 -1.081344E-08 +2.609820E-09 +1.290452E-07 
 -1.297175E-06 +5.586091E-07 -2.032567E-08 +5.586091E-07 -2.409564E-07 -4.180360E-08 -2.032567E-08 -4.180360E-08 +1.538132E-06 
 -7.903754E-08 -6.479679E-09 -3.842751E-08 -6.479679E-09 -3.251496E-08 -9.747347E-09 -3.842751E-08 -9.747347E-09 +1.115525E-07 
 -9.540608E-06 -8.346751E-07 +1.040134E-06 -8.346751E-07 -7.342226E-08 +9.101490E-08 +1.040134E-06 +9.101490E-08 +9.614029E-06 
 -2.794159E-05 +7.703355E-06 -5.573579E-06 +7.703355E-06 -1.858715E-06 -1.385267E-06 -5.573579E-06 -1.385267E-06 +2.980030E-05 
 -1.789273E-07 -2.619729E-07 -1.523137E-07 -2.619729E-07 -5.543336E-07 -3.524113E-07 -1.523137E-07 -3.524113E-07 +7.332609E-07 
 -1.679700E-07 -1.587987E-07 -3.650113E-09 -1.587987E-07 -3.195036E-07 -2.014028E-07 -3.650113E-09 -2.014028E-07 +4.874736E-07 
 -5.607149E-06 +2.124650E-06 +4.482060E-07 +2.124650E-06 -5.876241E-07 +9.978471E-07 +4.482060E-07 +9.978471E-07 +6.194773E-06 
 -1.063319E-07 +5.346164E-07 +6.274041E-08 +5.346164E-07 -1.556051E-06 +1.136399E-06 +6.274041E-08 +1.136399E-06 +1.662383E-06 
 -3.012141E-08 -1.270264E-08 -8.122538E-10 -1.270264E-08 -2.474060E-08 +7.782595E-09 -8.122538E-10 +7.782595E-09 +5.486202E-08 
 -1.518022E-08 -1.135322E-09 +9.549662E-09 -1.135322E-09 -1.744261E-08 -1.783046E-09 +9.549662E-09 -1.783046E-09 +3.262284E-08 
 -6.860361E-08 -2.143521E-08 +1.081671E-08 -2.143521E-08 -1.112646E-08 -9.922341E-09 +1.081671E-08 -9.922341E-09 +7.973007E-08 
 -2.348014E-07 -3.370926E-08 -2.086897E-08 -3.370926E-08 -8.857113E-08 -6.011225E-09 -2.086897E-08 -6.011225E-09 +3.233726E-07 
 -1.103159E-05 -4.533262E-05 -3.439726E-05 -4.533262E-05 -9.969072E-05 -3.757145E-06 -3.439726E-05 -3.757145E-06 +1.107223E-04 
 -1.167800E-07 +3.968949E-08 -2.446378E-08 +3.968949E-08 -1.161626E-07 +5.412946E-08 -2.446378E-08 +5.412946E-08 +2.329426E-07 
 +1.026858E-08 -1.020871E-08 +8.922504E-09 -1.020871E-08 -1.819049E-08 +1.042056E-08 +8.922504E-09 +1.042056E-08 +7.921908E-09 
 -2.175980E-05 +1.698293E-05 +8.199097E-07 +1.698293E-05 -1.319120E-05 +9.738023E-07 +8.199097E-07 +9.738023E-07 +3.495100E-05 
 -1.928842E-08 +9.609105E-09 -5.011183E-09 +9.609105E-09 -1.164231E-08 +4.127190E-09 -5.011183E-09 +4.127190E-09 +3.093073E-08 
 -2.082890E-08 -9.805897E-09 +1.074328E-08 -9.805897E-09 -3.379454E-08 +5.252611E-09 +1.074328E-08 +5.252611E-09 +5.462345E-08 
 -2.133013E-05 +7.959714E-05 -1.118622E-05 +7.959714E-05 -2.970620E-04 +4.174537E-05 -1.118622E-05 +4.174537E-05 +3.183921E-04 
 -1.295667E-08 +2.658454E-09 -1.272814E-09 +2.658454E-09 -1.507401E-08 +7.538387E-10 -1.272814E-09 +7.538387E-10 +2.803069E-08 
 -9.342298E-08 +1.509993E-08 -6.076814E-09 +1.509993E-08 -7.654786E-08 +1.579636E-08 -6.076814E-09 +1.579636E-08 +1.699708E-07 
 +8.481873E-07 +3.433804E-07 -2.348826E-06 +3.433804E-07 -7.332273E-06 -9.416119E-07 -2.348826E-06 -9.416119E-07 +6.484086E-06 
 -5.813255E-08 +3.305393E-08 -3.085326E-08 +3.305393E-08 -2.794327E-08 +3.306155E-08 -3.085326E-08 +3.306155E-08 +8.607582E-08 
 -2.671745E-08 +2.599191E-09 +9.694069E-10 +2.599191E-09 -1.440197E-08 +4.370206E-09 +9.694069E-10 +4.370206E-09 +4.111942E-08 
 -8.107162E-05 +4.839324E-05 +9.005696E-06 +4.839324E-05 -2.012090E-05 -3.531986E-05 +9.005696E-06 -3.531986E-05 +1.011925E-04 
 +8.441218E-08 -1.416887E-07 +3.900508E-07 -1.416887E-07 -1.602299E-06 -8.073151E-07 +3.900508E-07 -8.073151E-07 +1.517887E-06 
 -1.522577E-08 -1.181188E-09 +4.527479E-10 -1.181188E-09 -1.273070E-08 -5.413094E-10 +4.527479E-10 -5.413094E-10 +2.795647E-08 
 -1.708555E-06 -5.483419E-08 +1.507314E-07 -5.483419E-08 +1.924665E-07 -5.469211E-07 +1.507314E-07 -5.469211E-07 +1.516088E-06 
 -1.321859E-06 -1.669480E-07 -1.404503E-07 -1.669480E-07 +1.178381E-07 +4.116444E-07 -1.404503E-07 +4.116444E-07 +1.204021E-06 
 -2.576434E-07 +1.301353E-06 +6.271046E-07 +1.301353E-06 -6.595715E-06 -2.419044E-06 +6.271046E-07 -2.419044E-06 +6.853358E-06 
 -9.901460E-07 +5.017825E-07 -5.992101E-07 +5.017825E-07 -2.652675E-07 +3.892472E-07 -5.992101E-07 +3.892472E-07 +1.255413E-06 
 -3.340186E-06 -4.357542E-06 -1.377043E-06 -4.357542E-06 -5.015388E-06 +6.498622E-07 -1.377043E-06 +6.498622E-07 +8.355574E-06 
 +7.205905E-07 +3.834233E-06 -6.065531E-06 +3.834233E-06 -3.677804E-05 -3.496745E-06 -6.065531E-06 -3.496745E-06 +3.605745E-05 
 -1.083340E-08 +5.392661E-09 +6.949301E-09 +5.392661E-09 -1.694790E-08 -4.850309E-09 +6.949301E-09 -4.850309E-09 +2.778131E-08 
 -1.570189E-08 -2.461095E-09 -1.621218E-09 -2.461095E-09 -2.549091E-08 -6.315552E-09 -1.621218E-09 -6.315552E-09 +4.119281E-08 
 -6.459934E-05 -1.730877E-05 +7.992363E-06 -1.730877E-05 -4.640285E-06 +2.141565E-06 +7.992363E-06 +2.141565E-06 +6.923962E-05 
 -4.708535E-08 +8.118587E-09 -1.419124E-08 +8.118587E-09 -2.417682E-08 +4.379790E-09 -1.419124E-08 +4.379790E-09 +7.126216E-08 
 -3.747498E-07 +2.036433E-07 +2.228481E-07 +2.036433E-07 -9.394557E-08 +5.048975E-08 +2.228481E-07 +5.048975E-08 +4.686954E-07 
 -3.684853E-07 -2.211730E-07 +2.682575E-08 -2.211730E-07 -3.782306E-08 -1.869286E-07 +2.682575E-08 -1.869286E-07 +4.063083E-07 
 -1.425694E-08 +6.251594E-10 +7.215220E-09 +6.251594E-10 -8.044851E-09 -8.418631E-10 +7.215220E-09 -8.418631E-10 +2.230179E-08 
 -2.685688E-07 -7.407481E-08 -1.516548E-07 -7.407481E-08 -1.182038E-08 +2.220995E-08 -1.516548E-07 +2.220995E-08 +2.803891E-07 
 -6.176946E-08 -1.407719E-08 +6.503511E-09 -1.407719E-08 -7.447035E-08 -9.156761E-09 +6.503511E-09 -9.156761E-09 +1.362398E-07 
 -1.027129E-08 +4.338931E-09 +2.523050E-09 +4.338931E-09 -1.942170E-08 -8.641417E-09 +2.523050E-09 -8.641417E-09 +2.969298E-08 
 +2.758640E-08 -7.886181E-09 +8.725306E-08 -7.886181E-09 -2.603284E-07 +4.407249E-08 +8.725306E-08 +4.407249E-08 +2.327420E-07 
 -1.047906E-08 -9.849067E-11 +5.256205E-13 -9.849067E-11 -2.106164E-08 +1.112640E-08 +5.256205E-13 +1.112640E-08 +3.154071E-08 
 -3.683406E-07 +1.432274E-06 -1.078509E-07 +1.432274E-06 -5.112076E-06 +2.081076E-06 -1.078509E-07 +2.081076E-06 +5.480417E-06 
 -6.655719E-07 -5.528881E-07 -3.434602E-07 -5.528881E-07 -2.623550E-07 +1.974951E-07 -3.434602E-07 +1.974951E-07 +9.279269E-07 
 -6.615109E-05 +1.141311E-05 +2.810013E-06 +1.141311E-05 -1.443085E-06 -6.495274E-06 +2.810013E-06 -6.495274E-06 +6.759418E-05 
 -1.481550E-05 -1.869736E-05 +1.031070E-05 -1.869736E-05 -1.794200E-05 -2.054462E-06 +1.031070E-05 -2.054462E-06 +3.275751E-05 
 -3.908472E-07 -1.612060E-07 -2.042946E-07 -1.612060E-07 -2.750459E-08 +6.047598E-08 -2.042946E-07 +6.047598E-08 +4.183518E-07 
 -3.130472E-06 +4.619081E-06 +2.923411E-06 +4.619081E-06 -4.205802E-06 +8.225183E-07 +2.923411E-06 +8.225183E-07 +7.336273E-06 
 -5.201020E-07 -4.115042E-07 -2.248624E-07 -4.115042E-07 -3.574733E-07 -4.184604E-07 -2.248624E-07 -4.184604E-07 +8.775753E-07 
 -2.577708E-07 -2.654450E-07 -1.339301E-07 -2.654450E-07 -2.278747E-07 -3.144540E-07 -1.339301E-07 -3.144540E-07 +4.856455E-07 
 -1.031789E-08 -7.612281E-09 -9.480985E-10 -7.612281E-09 -2.118468E-08 +2.974658E-09 -9.480985E-10 +2.974658E-09 +3.150257E-08 
 -6.628663E-09 -5.396328E-09 -9.527436E-10 -5.396328E-09 -1.775313E-08 -1.104641E-09 -9.527436E-10 -1.104641E-09 +2.438180E-08 
 -2.423585E-07 +7.834246E-08 -1.610753E-07 +7.834246E-08 -4.417862E-07 -5.098066E-08 -1.610753E-07 -5.098066E-08 +6.841448E-07 
 -1.420134E-04 -3.066205E-05 -4.047011E-05 -3.066205E-05 -1.460913E-06 -3.702921E-05 -4.047011E-05 -3.702921E-05 +1.434743E-04 
 -1.023813E-04 +8.884573E-05 +2.576364E-05 +8.884573E-05 -7.471535E-05 -1.398478E-06 +2.576364E-05 -1.398478E-06 +1.770967E-04 
 +4.068296E-07 -2.405557E-07 +1.551810E-06 -2.405557E-07 -6.222604E-06 -8.909938E-07 +1.551810E-06 -8.909938E-07 +5.815775E-06 
 -4.551046E-06 -1.368667E-06 +1.152351E-06 -1.368667E-06 -2.879707E-07 -4.522625E-07 +1.152351E-06 -4.522625E-07 +4.839017E-06 
 -2.750593E-07 -7.130702E-07 +3.667795E-07 -7.130702E-07 -1.032521E-06 -2.971001E-07 +3.667795E-07 -2.971001E-07 +1.307581E-06 
 -2.223380E-07 -4.264241E-08 +2.007920E-08 -4.264241E-08 -9.204383E-08 +5.870939E-09 +2.007920E-08 +5.870939E-09 +3.143818E-07 
 -4.629272E-05 +3.791483E-05 -2.556971E-05 +3.791483E-05 -2.701292E-05 +2.130449E-06 -2.556971E-05 +2.130449E-06 +7.330564E-05 
 -7.412634E-05 -4.902998E-05 -2.644613E-06 -4.902998E-05 -2.399722E-05 +2.708633E-05 -2.644613E-06 +2.708633E-05 +9.812356E-05 
 -1.577818E-04 +1.148666E-04 +4.109184E-05 +1.148666E-04 -8.078722E-05 -3.297799E-06 +4.109184E-05 -3.297799E-06 +2.385690E-04 
 -4.581019E-05 -4.567149E-05 +4.600343E-07 -4.567149E-05 -4.023703E-05 +2.189411E-05 +4.600343E-07 +2.189411E-05 +8.604721E-05 
 -7.449727E-08 +2.384747E-09 +6.091155E-09 +2.384747E-09 -1.929679E-07 +1.118721E-07 +6.091155E-09 +1.118721E-07 +2.674652E-07 
 -4.856600E-06 -2.088674E-06 +5.766933E-07 -2.088674E-06 -4.454405E-07 +1.825387E-06 +5.766933E-07 +1.825387E-06 +5.302040E-06 
 -6.249779E-07 -1.899097E-06 +1.600548E-06 -1.899097E-06 -4.229995E-06 +1.013307E-06 +1.600548E-06 +1.013307E-06 +4.854973E-06 
 -2.757595E-08 +7.159699E-10 -5.593489E-09 +7.159699E-10 -4.551655E-08 +6.236273E-09 -5.593489E-09 +6.236273E-09 +7.309251E-08 
 -6.347697E-07 +1.743690E-06 +4.620732E-07 +1.743690E-06 -4.790875E-06 -1.269647E-06 +4.620732E-07 -1.269647E-06 +5.425644E-06 
 -2.197592E-08 +3.174866E-10 -7.645705E-10 +3.174866E-10 -2.535402E-08 +4.037342E-09 -7.645705E-10 +4.037342E-09 +4.732994E-08 
 -3.133724E-06 -2.200277E-06 +1.037056E-06 -2.200277E-06 -1.376616E-06 +1.651191E-06 +1.037056E-06 +1.651191E-06 +4.510340E-06 
 -1.140610E-05 -1.775129E-05 -3.217369E-06 -1.775129E-05 -2.056515E-05 +1.029646E-05 -3.217369E-06 +1.029646E-05 +3.197125E-05 
 -6.400148E-06 -3.200343E-06 -2.248162E-06 -3.200343E-06 -4.622575E-07 +1.828957E-06 -2.248162E-06 +1.828957E-06 +6.862405E-06 
 -6.533532E-09 +4.363952E-11 -1.584040E-09 +4.363952E-11 -3.375564E-04 +4.201375E-05 -1.584040E-09 +4.201375E-05 +3.375630E-04 
 -8.115243E-08 -9.632742E-09 +1.454782E-08 -9.632742E-09 -6.036552E-08 +8.560640E-09 +1.454782E-08 +8.560640E-09 +1.415179E-07 
 -8.451651E-06 +1.490184E-06 +2.799182E-06 +1.490184E-06 -2.631379E-07 -4.933914E-07 +2.799182E-06 -4.933914E-07 +8.714789E-06 
 -1.316097E-07 +6.369805E-08 -4.747105E-08 +6.369805E-08 -2.240486E-07 +6.200646E-08 -4.747105E-08 +6.200646E-08 +3.556584E-07 
 -2.877291E-07 -2.192816E-07 +2.149965E-07 -2.192816E-07 -8.794832E-08 -4.753048E-08 +2.149965E-07 -4.753048E-08 +3.756774E-07 
 -2.231452E-07 +7.942268E-08 +2.168809E-08 +7.942268E-08 -1.268243E-07 -8.062511E-09 +2.168809E-08 -8.062511E-09 +3.499695E-07 
 -4.285509E-06 +4.902172E-06 -1.499525E-06 +4.902172E-06 -5.420015E-06 +3.107272E-06 -1.499525E-06 +3.107272E-06 +9.705524E-06 
 -2.602131E-05 -7.343436E-06 -9.735249E-06 -7.343436E-06 -2.070976E-06 -3.159052E-06 -9.735249E-06 -3.159052E-06 +2.809228E-05 
 +9.017718E-08 -3.842432E-07 +6.615218E-07 -3.842432E-07 -4.263932E-06 -1.459973E-06 +6.615218E-07 -1.459973E-06 +4.173755E-06 
 -6.895768E-07 -1.741644E-06 +1.421068E-06 -1.741644E-06 -2.806975E-06 +3.719447E-07 +1.421068E-06 +3.719447E-07 +3.496552E-06 
 -7.561761E-08 +1.600219E-08 -1.966149E-08 +1.600219E-08 -1.859648E-08 +4.050086E-09 -1.966149E-08 +4.050086E-09 +9.421409E-08 
 +1.092924E-07 +9.652156E-07 -9.956232E-07 +9.652156E-07 -3.056014E-06 -3.955078E-07 -9.956232E-07 -3.955078E-07 +2.946722E-06 
 -1.094138E-07 +1.445402E-08 -5.324380E-08 +1.445402E-08 -5.730156E-08 +1.290528E-08 -5.324380E-08 +1.290528E-08 +1.667154E-07 
 -1.944277E-07 +2.346756E-07 +1.476352E-07 +2.346756E-07 -2.745075E-07 -1.047007E-07 +1.476352E-07 -1.047007E-07 +4.689352E-07 
 -2.872144E-08 +1.228762E-08 -4.100233E-09 +1.228762E-08 -2.549719E-08 +1.279100E-08 -4.100233E-09 +1.279100E-08 +5.421863E-08 
 -4.570609E-08 +1.216586E-10 +1.705956E-08 +1.216586E-10 -3.616633E-08 +1.416966E-09 +1.705956E-08 +1.416966E-09 +8.187243E-08 
 -1.744349E-08 +5.582516E-09 +6.405222E-09 +5.582516E-09 -2.277113E-08 -5.795935E-09 +6.405222E-09 -5.795935E-09 +4.021462E-08 
 -3.167375E-07 +1.317081E-06 +7.153239E-07 +1.317081E-06 -4.764815E-06 -7.835883E-07 +7.153239E-07 -7.835883E-07 +5.081553E-06 
 -2.692386E-08 -9.857634E-09 -1.070313E-08 -9.857634E-09 -6.199549E-08 -2.112954E-09 -1.070313E-08 -2.112954E-09 +8.891934E-08 
 -8.659067E-08 -2.136241E-08 -4.279547E-08 -2.136241E-08 -3.520002E-08 -3.481953E-08 -4.279547E-08 -3.481953E-08 +1.217907E-07 
 -8.356597E-05 -5.728146E-05 -1.152776E-05 -5.728146E-05 -3.786369E-05 -2.103862E-05 -1.152776E-05 -2.103862E-05 +1.214296E-04 
 -2.679173E-08 -1.799585E-09 -1.723486E-08 -1.799585E-09 -2.807992E-08 -5.585800E-09 -1.723486E-08 -5.585800E-09 +5.487166E-08 
 -5.071237E-09 +1.889355E-10 -1.503154E-09 +1.889355E-10 -5.665778E-09 -2.254037E-09 -1.503154E-09 -2.254037E-09 +1.073701E-08 
 -6.276701E-06 +1.972399E-06 -1.006547E-06 +1.972399E-06 -2.979066E-07 +1.790756E-06 -1.006547E-06 +1.790756E-06 +6.574608E-06 
 +1.976491E-07 +3.620885E-08 +4.902730E-07 +3.620885E-08 -1.313653E-06 +3.411120E-07 +4.902730E-07 +3.411120E-07 +1.116004E-06 
 -4.535297E-08 +1.228565E-08 -3.623814E-08 +1.228565E-08 -1.159240E-07 -6.665267E-08 -3.623814E-08 -6.665267E-08 +1.612769E-07 
 -1.140696E-07 +5.520158E-08 -8.377307E-08 +5.520158E-08 -1.027105E-07 +2.745428E-08 -8.377307E-08 +2.745428E-08 +2.167801E-07 
 -6.331913E-08 -1.893016E-08 +4.729785E-08 -1.893016E-08 -1.207093E-07 +2.819296E-08 +4.729785E-08 +2.819296E-08 +1.840284E-07 
 -4.422605E-07 -7.607473E-07 -9.761777E-08 -7.607473E-07 -9.637931E-07 +5.692802E-07 -9.761777E-08 +5.692802E-07 +1.406054E-06 
 -1.679376E-05 -4.576355E-05 +6.999202E-07 -4.576355E-05 -9.502901E-05 +5.954216E-05 +6.999202E-07 +5.954216E-05 +1.118228E-04 
 -1.238996E-07 +9.693566E-09 +5.252622E-08 +9.693566E-09 -4.022226E-08 -2.681268E-08 +5.252622E-08 -2.681268E-08 +1.641219E-07 
 +5.724132E-08 -4.850964E-08 +2.265830E-07 -4.850964E-08 -7.410110E-07 -3.291354E-07 +2.265830E-07 -3.291354E-07 +6.837697E-07 
 -5.595851E-08 +1.679748E-08 +1.090823E-08 +1.679748E-08 -4.337365E-08 -1.889541E-08 +1.090823E-08 -1.889541E-08 +9.933215E-08 
 -1.435046E-08 +2.752291E-10 -3.141897E-09 +2.752291E-10 -4.680577E-08 +1.253940E-08 -3.141897E-09 +1.253940E-08 +6.115624E-08 
 -6.250079E-08 +3.395453E-07 -4.546137E-08 +3.395453E-07 -1.671009E-06 -3.283262E-07 -4.546137E-08 -3.283262E-07 +1.733510E-06 
 -4.687908E-08 +2.432348E-08 +1.333672E-08 +2.432348E-08 -7.163618E-08 -1.505263E-09 +1.333672E-08 -1.505263E-09 +1.185153E-07 
 -1.163985E-05 +3.527489E-05 -1.292055E-05 +3.527489E-05 -9.877890E-05 +7.261312E-06 -1.292055E-05 +7.261312E-06 +1.104187E-04 
 -4.018146E-07 +5.348621E-08 -1.922364E-07 +5.348621E-08 +2.615889E-08 +1.546152E-07 -1.922364E-07 +1.546152E-07 +3.756557E-07 
 -4.315890E-06 +4.400835E-06 +1.696488E-06 +4.400835E-06 -4.352962E-06 -2.881848E-06 +1.696488E-06 -2.881848E-06 +8.668852E-06 
 -2.709312E-08 +3.218894E-09 +8.170554E-09 +3.218894E-09 -4.983333E-08 +2.066959E-09 +8.170554E-09 +2.066959E-09 +7.692645E-08 
 -3.941487E-08 +1.978622E-07 +2.448069E-07 +1.978622E-07 -9.692448E-07 -5.419305E-07 +2.448069E-07 -5.419305E-07 +1.008660E-06 
 -4.593480E-06 -3.409468E-07 +6.929731E-07 -3.409468E-07 +9.635221E-09 +4.625431E-07 +6.929731E-07 +4.625431E-07 +4.583845E-06 
 -7.039318E-08 -2.378536E-08 -8.246133E-09 -2.378536E-08 -9.493060E-08 -5.309731E-09 -8.246133E-09 -5.309731E-09 +1.653238E-07 
 -1.404922E-05 +1.500903E-05 +1.165639E-05 +1.500903E-05 -9.544136E-06 +2.261873E-06 +1.165639E-05 +2.261873E-06 +2.359336E-05 
 -1.932104E-06 -4.364269E-07 +7.240212E-07 -4.364269E-07 +1.523085E-07 -5.727642E-07 +7.240212E-07 -5.727642E-07 +1.779796E-06 
 -2.907653E-08 +1.383666E-08 -1.428328E-08 +1.383666E-08 -7.002293E-08 +1.825386E-08 -1.428328E-08 +1.825386E-08 +9.909946E-08 
 -1.131830E-06 -2.724687E-06 -2.437341E-06 -2.724687E-06 -3.440281E-06 -3.282830E-07 -2.437341E-06 -3.282830E-07 +4.572111E-06 
 -1.762283E-06 +1.104132E-06 +2.263284E-07 +1.104132E-06 -3.539640E-07 +7.300879E-07 +2.263284E-07 +7.300879E-07 +2.116247E-06 
 -3.420380E-09 -1.917322E-07 +1.899556E-07 -1.917322E-07 -6.407241E-06 +1.471861E-09 +1.899556E-07 +1.471861E-09 +6.410662E-06 
 -1.396753E-06 +1.025682E-06 -3.333128E-07 +1.025682E-06 -7.541489E-07 +1.834014E-07 -3.333128E-07 +1.834014E-07 +2.150902E-06 
 -1.296911E-07 -6.928408E-08 -2.818276E-08 -6.928408E-08 -1.705201E-08 -7.706283E-08 -2.818276E-08 -7.706283E-08 +1.467431E-07 
 -1.526340E-07 +2.261304E-08 +1.920308E-08 +2.261304E-08 -1.003170E-07 -1.693700E-09 +1.920308E-08 -1.693700E-09 +2.529510E-07 
 +1.953115E-07 -4.491460E-07 +8.500010E-07 -4.491460E-07 -2.204609E-06 +3.695826E-07 +8.500010E-07 +3.695826E-07 +2.009298E-06 
 -1.361731E-08 +1.599341E-10 -3.552848E-09 +1.599341E-10 -1.328814E-08 -7.298750E-09 -3.552848E-09 -7.298750E-09 +2.690545E-08 
 +6.348998E-07 +5.850042E-06 -9.319269E-06 +5.850042E-06 -8.685602E-05 -1.644426E-06 -9.319269E-06 -1.644426E-06 +8.622112E-05 
 -2.426091E-04 +6.500517E-05 +3.297609E-05 +6.500517E-05 -1.742397E-05 -8.839604E-06 +3.297609E-05 -8.839604E-06 +2.600331E-04 
 -5.573310E-05 +4.139004E-06 +8.391014E-06 +4.139004E-06 +1.296511E-07 -5.616518E-06 +8.391014E-06 -5.616518E-06 +5.560344E-05 
 -2.831572E-08 -6.388495E-07 +4.280796E-07 -6.388495E-07 -1.178659E-06 -4.303257E-07 +4.280796E-07 -4.303257E-07 +1.206974E-06 
 -9.753599E-07 +1.887911E-07 +1.376464E-07 +1.887911E-07 +1.297817E-07 -4.144329E-07 +1.376464E-07 -4.144329E-07 +8.455782E-07 
 -1.828410E-07 -7.684054E-08 -1.624407E-09 -7.684054E-08 -1.141775E-07 -3.078076E-08 -1.624407E-09 -3.078076E-08 +2.970185E-07 
 -1.278498E-06 -1.458679E-05 +1.443455E-05 -1.458679E-05 -6.185260E-05 +1.087544E-05 +1.443455E-05 +1.087544E-05 +6.313109E-05 
 -8.471756E-08 +2.578597E-08 +3.673043E-08 +2.578597E-08 -3.801578E-08 +2.882429E-09 +3.673043E-08 +2.882429E-09 +1.227333E-07 
 -2.551507E-07 -1.763603E-06 +1.461938E-06 -1.763603E-06 -7.183675E-06 +1.188263E-06 +1.461938E-06 +1.188263E-06 +7.438825E-06 
 -8.822222E-05 +4.203193E-06 +3.250832E-07 +4.203193E-06 -1.022362E-07 +3.478315E-06 +3.250832E-07 +3.478315E-06 +8.832445E-05 
 -1.337810E-04 -6.163238E-05 +6.898822E-05 -6.163238E-05 -2.171979E-05 -4.031130E-06 +6.898822E-05 -4.031130E-06 +1.555008E-04 
 -4.160430E-05 -4.039305E-05 -2.397362E-05 -4.039305E-05 -3.453934E-05 -2.618853E-06 -2.397362E-05 -2.618853E-06 +7.614365E-05 
 -7.713772E-08 -2.553906E-08 -9.906480E-09 -2.553906E-08 -7.114765E-08 -4.363693E-09 -9.906480E-09 -4.363693E-09 +1.482854E-07 
 -5.431228E-08 -2.167121E-08 +4.114039E-09 -2.167121E-08 -1.632488E-07 +1.757416E-08 +4.114039E-09 +1.757416E-08 +2.175611E-07 
 -1.470236E-06 +1.704844E-06 -1.152226E-06 +1.704844E-06 -1.884891E-06 +6.789781E-07 -1.152226E-06 +6.789781E-07 +3.355127E-06 
 -1.422347E-08 +3.209466E-09 +2.748977E-11 +3.209466E-09 -1.258527E-08 +5.872289E-10 +2.748977E-11 +5.872289E-10 +2.680874E-08 
 -7.000602E-06 -2.464059E-06 -3.223146E-06 -2.464059E-06 -5.677534E-07 +5.166037E-07 -3.223146E-06 +5.166037E-07 +7.568355E-06 
 -3.468662E-07 +5.665712E-07 -2.639404E-07 +5.665712E-07 -9.413583E-07 +3.842488E-07 -2.639404E-07 +3.842488E-07 +1.288225E-06 
 -6.109474E-06 -7.212569E-07 +2.296475E-06 -7.212569E-07 -7.325910E-08 -1.092140E-07 +2.296475E-06 -1.092140E-07 +6.182733E-06 
 -2.051681E-08 -4.340924E-10 +2.558265E-09 -4.340924E-10 -3.984453E-08 +4.605996E-09 +2.558265E-09 +4.605996E-09 +6.036134E-08 
 -1.436918E-07 +9.524217E-07 -6.352428E-07 +9.524217E-07 -3.492158E-06 -9.777104E-08 -6.352428E-07 -9.777104E-08 +3.635850E-06 
 -1.367237E-05 +5.099799E-05 -1.597823E-05 +5.099799E-05 -1.903343E-04 +5.963866E-05 -1.597823E-05 +5.963866E-05 +2.040067E-04 
 -1.714788E-06 +8.016129E-07 +4.626139E-07 +8.016129E-07 -9.353019E-08 +5.261336E-07 +4.626139E-07 +5.261336E-07 +1.808318E-06 
 -8.928836E-08 +4.146947E-08 +8.493096E-09 +4.146947E-08 -8.485202E-08 -1.093459E-08 +8.493096E-09 -1.093459E-08 +1.741404E-07 
 +3.765668E-09 +3.322098E-08 +3.856897E-08 +3.322098E-08 -8.176860E-08 -1.361729E-08 +3.856897E-08 -1.361729E-08 +7.800293E-08 
 +7.759014E-08 -1.698987E-08 +4.296779E-07 -1.698987E-08 -2.378879E-06 -3.348890E-07 +4.296779E-07 -3.348890E-07 +2.301288E-06 
 -1.177794E-07 +1.001373E-07 -1.067969E-07 +1.001373E-07 -2.385980E-07 +1.090337E-07 -1.067969E-07 +1.090337E-07 +3.563774E-07 
 -3.384925E-06 +5.247906E-07 -2.425553E-07 +5.247906E-07 +5.989087E-08 -6.581833E-07 -2.425553E-07 -6.581833E-07 +3.325034E-06 
 +1.212749E-08 -2.724672E-08 +2.395789E-08 -2.724672E-08 -3.067507E-08 +1.625222E-08 +2.395789E-08 +1.625222E-08 +1.854757E-08 
 -6.640815E-08 +1.670284E-08 +4.491750E-08 +1.670284E-08 -2.457461E-08 -4.303006E-09 +4.491750E-08 -4.303006E-09 +9.098276E-08 
 +8.191064E-08 +1.230684E-07 +2.792587E-07 +1.230684E-07 -5.883779E-07 -1.587461E-07 +2.792587E-07 -1.587461E-07 +5.064672E-07 
 -3.646967E-06 -4.514174E-06 +6.152655E-07 -4.514174E-06 -4.936234E-06 -1.619849E-06 +6.152655E-07 -1.619849E-06 +8.583201E-06 
 -4.608093E-08 +1.277761E-08 +4.678046E-09 +1.277761E-08 -4.699096E-08 -5.634171E-09 +4.678046E-09 -5.634171E-09 +9.307190E-08 
 -2.557028E-05 +2.654425E-07 +6.802577E-06 +2.654425E-07 +3.091314E-06 +8.718000E-06 +6.802577E-06 +8.718000E-06 +2.247897E-05 
 -1.939676E-08 -6.871303E-06 +9.807911E-06 -6.871303E-06 -2.892421E-05 +1.051971E-05 +9.807911E-06 +1.051971E-05 +2.894361E-05 
 -2.384542E-08 +2.073141E-07 +2.195999E-07 +2.073141E-07 -5.498542E-07 -9.932209E-08 +2.195999E-07 -9.932209E-08 +5.736996E-07 
 -4.971063E-08 +1.603267E-06 -1.446668E-06 +1.603267E-06 -3.278922E-06 -2.713941E-07 -1.446668E-06 -2.713941E-07 +3.328633E-06 
 +5.508533E-08 -3.108056E-08 -3.381077E-08 -3.108056E-08 -8.917291E-08 +7.409382E-08 -3.381077E-08 +7.409382E-08 +3.408759E-08 
 -1.217408E-06 -1.213572E-05 -5.298045E-06 -1.213572E-05 -4.833673E-05 +2.018997E-05 -5.298045E-06 +2.018997E-05 +4.955414E-05 
 -3.425241E-08 +5.880494E-08 -6.222125E-08 +5.880494E-08 -1.995159E-07 +1.067121E-07 -6.222125E-08 +1.067121E-07 +2.337683E-07 
 -3.178507E-07 +1.687761E-07 +3.575718E-08 +1.687761E-07 -2.750936E-07 +4.365590E-08 +3.575718E-08 +4.365590E-08 +5.929443E-07 
 -7.722496E-05 -9.869764E-05 +2.736258E-05 -9.869764E-05 -1.261013E-04 +2.366980E-05 +2.736258E-05 +2.366980E-05 +2.033262E-04 
 -3.709334E-05 +1.305792E-05 -2.354519E-06 +1.305792E-05 -3.177928E-06 +8.410677E-06 -2.354519E-06 +8.410677E-06 +4.027127E-05 
 -1.125944E-07 -4.035082E-08 +3.456709E-08 -4.035082E-08 -1.075414E-07 +5.939429E-08 +3.456709E-08 +5.939429E-08 +2.201358E-07 
 -5.841219E-07 -1.195896E-07 +1.383331E-08 -1.195896E-07 -9.237046E-07 -6.525423E-08 +1.383331E-08 -6.525423E-08 +1.507826E-06 
 -6.157660E-06 -2.315100E-06 +3.972249E-07 -2.315100E-06 -6.324667E-07 -1.128433E-06 +3.972249E-07 -1.128433E-06 +6.790126E-06 
 -5.757270E-08 -1.828565E-07 -6.297191E-08 -1.828565E-07 -6.628123E-07 -2.495935E-07 -6.297191E-08 -2.495935E-07 +7.203850E-07 
 -1.091254E-05 -2.612906E-05 +6.638184E-06 -2.612906E-05 -5.118925E-05 -1.164234E-05 +6.638184E-06 -1.164234E-05 +6.210179E-05 
 -6.862608E-07 -2.824555E-06 -1.593144E-06 -2.824555E-06 -4.892790E-06 +1.355552E-06 -1.593144E-06 +1.355552E-06 +5.579052E-06 
 -2.109124E-06 +4.496072E-06 -2.109715E-06 +4.496072E-06 -8.789892E-06 +1.276985E-06 -2.109715E-06 +1.276985E-06 +1.089902E-05 
 -3.886627E-07 +2.703888E-08 -4.161916E-08 +2.703888E-08 -1.746092E-07 -1.791404E-09 -4.161916E-08 -1.791404E-09 +5.632719E-07 
 -4.573042E-08 +9.647724E-09 -2.550226E-08 +9.647724E-09 -6.953696E-08 +9.639575E-09 -2.550226E-08 +9.639575E-09 +1.152674E-07 
 -1.126532E-06 -7.662833E-07 +2.527620E-07 -7.662833E-07 -5.220007E-07 +1.451079E-07 +2.527620E-07 +1.451079E-07 +1.648533E-06 
 -1.530781E-08 +1.022034E-08 -4.200960E-09 +1.022034E-08 -2.082685E-08 +1.159655E-08 -4.200960E-09 +1.159655E-08 +3.613466E-08 
 -5.091211E-08 +6.928173E-08 -3.035834E-08 +6.928173E-08 -9.492370E-08 +8.373218E-08 -3.035834E-08 +8.373218E-08 +1.458358E-07 
 -3.593282E-08 -1.411883E-08 -5.193929E-09 -1.411883E-08 -5.063518E-08 +5.650538E-09 -5.193929E-09 +5.650538E-09 +8.656801E-08 
 -7.840452E-08 -9.924430E-09 -7.736552E-09 -9.924430E-09 -9.804937E-08 -1.344600E-08 -7.736552E-09 -1.344600E-08 +1.764539E-07 
 -4.446891E-06 +1.534997E-06 -1.127102E-06 +1.534997E-06 -3.228234E-07 +1.484854E-06 -1.127102E-06 +1.484854E-06 +4.769714E-06 
 -3.091100E-07 +7.214445E-07 -1.919897E-07 +7.214445E-07 -1.753455E-06 +7.180794E-07 -1.919897E-07 +7.180794E-07 +2.062565E-06 
 -9.574779E-06 -1.018926E-06 -1.029128E-06 -1.018926E-06 +1.773741E-07 +1.568139E-06 -1.029128E-06 +1.568139E-06 +9.397405E-06 
 -6.617883E-08 +1.823582E-08 -3.172277E-08 +1.823582E-08 -3.261831E-08 +9.513061E-09 -3.172277E-08 +9.513061E-09 +9.879714E-08 
 -4.055250E-06 +1.489689E-05 +1.436232E-05 +1.489689E-05 -2.337113E-05 -3.207278E-06 +1.436232E-05 -3.207278E-06 +2.742638E-05 
 -2.205093E-07 +6.121908E-07 -3.664674E-08 +6.121908E-07 -1.570734E-06 +6.615223E-07 -3.664674E-08 +6.615223E-07 +1.791243E-06 
 -1.309814E-07 -1.691720E-08 -7.995180E-09 -1.691720E-08 -6.883046E-08 -1.293973E-08 -7.995180E-09 -1.293973E-08 +1.998118E-07 
 -9.005827E-06 +2.604924E-06 +1.695252E-06 +2.604924E-06 -7.699664E-07 -2.891801E-07 +1.695252E-06 -2.891801E-07 +9.775793E-06 
 -2.238428E-07 +1.229702E-07 +1.529829E-07 +1.229702E-07 -7.817033E-08 -5.499807E-08 +1.529829E-07 -5.499807E-08 +3.020131E-07 
 -2.163844E-08 +5.429767E-09 +3.370294E-09 +5.429767E-09 -4.321875E-08 +2.515307E-09 +3.370294E-09 +2.515307E-09 +6.485720E-08 
 -7.561592E-08 +1.267086E-08 +8.851926E-09 +1.267086E-08 -2.820774E-08 +2.283454E-09 +8.851926E-09 +2.283454E-09 +1.038236E-07 
 -2.179111E-07 +9.196452E-07 -3.334418E-07 +9.196452E-07 -1.541257E-06 -9.297494E-07 -3.334418E-07 -9.297494E-07 +1.759169E-06 
 -2.787410E-08 -2.832275E-07 +1.649718E-07 -2.832275E-07 -5.695024E-07 -3.187729E-07 +1.649718E-07 -3.187729E-07 +5.973765E-07 
 -1.614855E-06 -4.025205E-07 +1.082536E-06 -4.025205E-07 -6.167280E-08 -1.329726E-07 +1.082536E-06 -1.329726E-07 +1.676528E-06 
 -8.289284E-08 -6.179504E-09 -8.436418E-09 -6.179504E-09 -3.314921E-08 +3.392635E-09 -8.436418E-09 +3.392635E-09 +1.160421E-07 
 -1.184550E-07 +3.252707E-09 -1.344403E-08 +3.252707E-09 -6.695807E-08 +1.188692E-08 -1.344403E-08 +1.188692E-08 +1.854131E-07 
 -5.181396E-05 +2.687285E-05 -1.395110E-05 +2.687285E-05 -1.141176E-05 -5.788634E-06 -1.395110E-05 -5.788634E-06 +6.322571E-05 
 -3.118936E-04 +1.167497E-04 +1.726927E-05 +1.167497E-04 -3.161381E-05 +5.813849E-05 +1.726927E-05 +5.813849E-05 +3.435074E-04 
 -1.222518E-07 -6.050352E-07 +3.097295E-07 -6.050352E-07 -1.168789E-06 -4.597298E-07 +3.097295E-07 -4.597298E-07 +1.291041E-06 
 -2.865781E-06 -6.261410E-07 -1.042695E-06 -6.261410E-07 -6.431572E-10 -8.940719E-07 -1.042695E-06 -8.940719E-07 +2.866424E-06 
 -1.646551E-07 +2.621727E-06 +1.996529E-06 +2.621727E-06 -8.390748E-06 +1.361993E-06 +1.996529E-06 +1.361993E-06 +8.555403E-06 
 -2.344189E-07 -3.914289E-08 +1.876643E-07 -3.914289E-08 -2.852171E-08 +4.133690E-08 +1.876643E-07 +4.133690E-08 +2.629406E-07 
 -6.426605E-08 +6.572537E-09 -2.826209E-09 +6.572537E-09 -4.107670E-08 +4.061598E-09 -2.826209E-09 +4.061598E-09 +1.053427E-07 
 -1.101337E-07 +2.287031E-07 -9.169744E-10 +2.287031E-07 -3.728482E-07 -2.767878E-07 -9.169744E-10 -2.767878E-07 +4.829819E-07 
 -4.733213E-05 +1.871476E-04 -3.136835E-05 +1.871476E-04 -6.575242E-04 -1.211256E-04 -3.136835E-05 -1.211256E-04 +7.048563E-04 
 -2.467215E-08 -2.570901E-08 +7.887385E-09 -2.570901E-08 -6.960429E-08 +2.149472E-09 +7.887385E-09 +2.149472E-09 +9.427644E-08 
 -6.999358E-09 +5.333313E-10 -3.133506E-10 +5.333313E-10 -4.787373E-09 -1.146626E-09 -3.133506E-10 -1.146626E-09 +1.178673E-08 
 -8.406421E-08 +2.031842E-08 +1.526857E-08 +2.031842E-08 -1.943496E-07 -5.642645E-08 +1.526857E-08 -5.642645E-08 +2.784138E-07 
 -2.216358E-08 -1.766455E-08 -1.890651E-09 -1.766455E-08 -3.603825E-08 -6.723987E-09 -1.890651E-09 -6.723987E-09 +5.820183E-08 
 -2.513604E-08 -9.950497E-10 -8.437894E-09 -9.950497E-10 -1.505239E-08 -5.028211E-09 -8.437894E-09 -5.028211E-09 +4.018843E-08 
 -6.172792E-08 -4.273016E-09 +1.129388E-08 -4.273016E-09 -6.242907E-08 -3.815428E-08 +1.129388E-08 -3.815428E-08 +1.241570E-07 
 -1.016567E-05 -2.615712E-05 +1.054901E-05 -2.615712E-05 -5.434271E-05 -4.257806E-06 +1.054901E-05 -4.257806E-06 +6.450838E-05 
 -1.659158E-06 +2.031016E-06 +2.822175E-07 +2.031016E-06 -2.064566E-06 +9.200087E-07 +2.822175E-07 +9.200087E-07 +3.723723E-06 
 -1.692451E-07 -9.578404E-07 -3.861290E-07 -9.578404E-07 -5.432543E-06 -2.189702E-06 -3.861290E-07 -2.189702E-06 +5.601788E-06 
 -4.274553E-08 -2.300832E-09 +3.483069E-09 -2.300832E-09 -4.400545E-08 +6.637094E-09 +3.483069E-09 +6.637094E-09 +8.675097E-08 
 -2.310831E-06 +5.627869E-07 -8.463996E-07 +5.627869E-07 -1.508547E-07 +2.637382E-07 -8.463996E-07 +2.637382E-07 +2.461685E-06 
 -4.180862E-08 -8.387092E-08 -7.115668E-08 -8.387092E-08 -2.590419E-07 -1.407331E-07 -7.115668E-08 -1.407331E-07 +3.008505E-07 
 -4.843079E-06 +4.016963E-06 +1.923588E-06 +4.016963E-06 -2.478041E-06 +1.041261E-06 +1.923588E-06 +1.041261E-06 +7.321119E-06 
 -4.746532E-07 +1.284169E-06 -2.260193E-08 +1.284169E-06 -3.075226E-06 +1.326547E-06 -2.260193E-08 +1.326547E-06 +3.549879E-06 
 +3.358105E-08 -7.022155E-08 -3.034397E-07 -7.022155E-08 -9.123256E-07 -5.435284E-07 -3.034397E-07 -5.435284E-07 +8.787446E-07 
 -8.642121E-06 +1.640100E-05 +1.382637E-07 +1.640100E-05 -2.923184E-05 +8.247564E-06 +1.382637E-07 +8.247564E-06 +3.787396E-05 
 -2.557636E-07 +5.627221E-07 -3.682609E-07 +5.627221E-07 -1.298458E-06 +4.164921E-07 -3.682609E-07 +4.164921E-07 +1.554222E-06 
 -9.854276E-05 -7.314681E-05 +3.883752E-05 -7.314681E-05 -5.240368E-05 +1.107513E-05 +3.883752E-05 +1.107513E-05 +1.509464E-04 
 -1.467673E-04 +4.881360E-05 -2.448636E-05 +4.881360E-05 -1.058164E-05 +3.841400E-05 -2.448636E-05 +3.841400E-05 +1.573489E-04 
 -1.622079E-04 +1.933089E-04 +2.838492E-05 +1.933089E-04 -2.303788E-04 -3.382742E-05 +2.838492E-05 -3.382742E-05 +3.925867E-04 
 -1.368812E-08 -3.926338E-08 +5.100113E-08 -3.926338E-08 -8.605203E-08 +4.534122E-08 +5.100113E-08 +4.534122E-08 +9.974015E-08 
 -2.547654E-08 +2.428210E-09 +1.303385E-08 +2.428210E-09 -4.157639E-08 -1.457308E-08 +1.303385E-08 -1.457308E-08 +6.705293E-08 
 -6.823433E-09 +8.518317E-06 -8.518135E-06 +8.518317E-06 -8.024793E-05 +3.305052E-09 -8.518135E-06 +3.305052E-09 +8.025476E-05 
 -1.920762E-08 +8.216934E-09 -7.493675E-09 +8.216934E-09 -3.964720E-08 +1.958982E-08 -7.493675E-09 +1.958982E-08 +5.885481E-08 
 -1.887257E-07 +1.168050E-06 -4.509993E-07 +1.168050E-06 -6.105684E-06 -1.213193E-07 -4.509993E-07 -1.213193E-07 +6.294410E-06 
 -1.365329E-05 -1.794349E-05 +7.233523E-06 -1.794349E-05 -2.423130E-05 +1.152991E-05 +7.233523E-06 +1.152991E-05 +3.788459E-05 
 -1.002758E-06 -1.151500E-06 +7.653269E-07 -1.151500E-06 -7.146550E-07 -3.136272E-07 +7.653269E-07 -3.136272E-07 +1.717413E-06 
 -2.076278E-06 +1.015706E-06 -1.755402E-07 +1.015706E-06 -3.012164E-07 -6.163046E-07 -1.755402E-07 -6.163046E-07 +2.377494E-06 
 -6.190949E-05 +6.190501E-05 -2.727867E-05 +6.190501E-05 -6.190877E-05 +2.727668E-05 -2.727867E-05 +2.727668E-05 +1.238183E-04 
 +2.731155E-07 +5.787286E-08 -3.156190E-06 +5.787286E-08 -3.517659E-05 -5.898082E-06 -3.156190E-06 -5.898082E-06 +3.490347E-05 
 -7.934610E-05 -2.075303E-05 -5.600364E-06 -2.075303E-05 -4.736890E-06 -9.115352E-06 -5.600364E-06 -9.115352E-06 +8.408299E-05 
 -1.155026E-07 -3.335889E-08 +2.647982E-08 -3.335889E-08 -1.299107E-07 -2.430496E-11 +2.647982E-08 -2.430496E-11 +2.454134E-07 
 -1.219021E-07 +1.075597E-08 +2.469101E-09 +1.075597E-08 -4.083864E-08 +2.018518E-08 +2.469101E-09 +2.018518E-08 +1.627408E-07 
 -2.057565E-08 -2.938174E-08 +1.788598E-08 -2.938174E-08 +1.577383E-08 +1.907461E-08 +1.788598E-08 +1.907461E-08 +4.801827E-09 
 -1.658747E-07 +1.550331E-06 +1.373859E-06 +1.550331E-06 -6.287129E-06 -7.340711E-07 +1.373859E-06 -7.340711E-07 +6.453004E-06 
 -1.010391E-07 +7.556639E-09 +3.900876E-08 +7.556639E-09 -1.860963E-08 -6.064541E-10 +3.900876E-08 -6.064541E-10 +1.196488E-07 
 -3.289838E-05 +4.321105E-05 -1.464827E-05 +4.321105E-05 -5.005803E-05 -5.283441E-06 -1.464827E-05 -5.283441E-06 +8.295642E-05 
 -9.009213E-08 -2.503641E-08 +2.942811E-08 -2.503641E-08 -7.436957E-08 +2.086449E-08 +2.942811E-08 +2.086449E-08 +1.644617E-07 
 -3.282385E-06 +3.542489E-07 -8.567990E-07 +3.542489E-07 +1.762330E-07 -7.534765E-07 -8.567990E-07 -7.534765E-07 +3.106152E-06 
 -5.043808E-06 +6.558791E-06 +1.992030E-06 +6.558791E-06 -8.449497E-06 -1.509055E-06 +1.992030E-06 -1.509055E-06 +1.349331E-05 
 -5.306548E-08 +1.036744E-08 +2.179856E-09 +1.036744E-08 -5.364065E-08 +3.479695E-10 +2.179856E-09 +3.479695E-10 +1.067061E-07 
 -3.822217E-06 -1.391143E-06 +6.240030E-07 -1.391143E-06 -5.064259E-07 +2.270830E-07 +6.240030E-07 +2.270830E-07 +4.328643E-06 
 -1.757100E-08 -7.455100E-09 -2.884207E-09 -7.455100E-09 -6.524460E-08 -2.908881E-08 -2.884207E-09 -2.908881E-08 +8.281560E-08 
 -1.019845E-07 +1.014275E-08 +3.138885E-08 +1.014275E-08 -4.008274E-08 -1.639648E-08 +3.138885E-08 -1.639648E-08 +1.420672E-07 
 -1.416711E-05 -1.365646E-05 +5.092804E-06 -1.365646E-05 -1.002338E-05 -4.163686E-06 +5.092804E-06 -4.163686E-06 +2.419049E-05 
 -8.484121E-08 +4.184464E-09 +3.341593E-09 +4.184464E-09 -8.030290E-08 -7.265464E-09 +3.341593E-09 -7.265464E-09 +1.651441E-07 
 -1.038496E-08 +6.719293E-10 -1.366054E-09 +6.719293E-10 -1.657652E-08 -8.858871E-09 -1.366054E-09 -8.858871E-09 +2.696148E-08 
 -3.702967E-08 -1.358500E-08 -3.625820E-10 -1.358500E-08 -4.904374E-08 +6.868536E-09 -3.625820E-10 +6.868536E-09 +8.607341E-08 
 -1.280142E-06 -1.543403E-06 -7.202972E-07 -1.543403E-06 -1.547133E-06 +1.688462E-07 -7.202972E-07 +1.688462E-07 +2.827275E-06 
 +1.237229E-07 -1.663608E-06 +1.520517E-06 -1.663608E-06 -7.711325E-06 -2.185071E-06 +1.520517E-06 -2.185071E-06 +7.587601E-06 
 -8.282142E-08 +1.366463E-08 +9.600051E-09 +1.366463E-08 -2.296667E-08 -1.085702E-09 +9.600051E-09 -1.085702E-09 +1.057881E-07 
 -5.676149E-07 -1.558615E-06 -4.484134E-07 -1.558615E-06 -2.173326E-06 +1.362187E-06 -4.484134E-07 +1.362187E-06 +2.740941E-06 
 -9.212311E-10 -6.622806E-07 +6.617609E-07 -6.622806E-07 -3.159034E-06 +4.163838E-10 +6.617609E-07 +4.163838E-10 +3.159955E-06 
 -1.032748E-06 +9.218913E-07 -4.240310E-07 +9.218913E-07 -8.263740E-07 +5.250653E-07 -4.240310E-07 +5.250653E-07 +1.859122E-06 
 -1.434266E-05 +1.477765E-05 +3.527738E-06 +1.477765E-05 -1.477018E-05 +7.298481E-08 +3.527738E-06 +7.298481E-08 +2.911283E-05 
 -3.257005E-07 +2.088766E-07 +2.232282E-07 +2.088766E-07 -9.987441E-08 +3.233838E-08 +2.232282E-07 +3.233838E-08 +4.255749E-07 
 -1.832401E-06 -2.303113E-06 +1.273033E-06 -2.303113E-06 -2.218620E-06 -2.537317E-07 +1.273033E-06 -2.537317E-07 +4.051021E-06 
 -2.761357E-08 +2.642193E-09 +4.469941E-09 +2.642193E-09 -1.174271E-08 +3.781226E-09 +4.469941E-09 +3.781226E-09 +3.935628E-08 
 -2.527883E-07 -5.858086E-08 -1.387101E-07 -5.858086E-08 -2.371708E-08 -7.419722E-08 -1.387101E-07 -7.419722E-08 +2.765053E-07 
 -4.387600E-08 +7.072566E-08 +2.812839E-08 +7.072566E-08 -1.659283E-07 -1.048633E-07 +2.812839E-08 -1.048633E-07 +2.098043E-07 
 -4.013067E-08 +2.026336E-09 -1.137175E-08 +2.026336E-09 -4.560958E-08 +1.519350E-08 -1.137175E-08 +1.519350E-08 +8.574025E-08 
 -1.852138E-08 -3.088506E-09 -5.863150E-09 -3.088506E-09 -8.098655E-09 -2.806502E-09 -5.863150E-09 -2.806502E-09 +2.662003E-08 
 -3.263903E-05 -3.534886E-05 -1.096267E-05 -3.534886E-05 -3.396716E-05 +5.627251E-06 -1.096267E-05 +5.627251E-06 +6.660619E-05 
 -1.250181E-07 +6.748293E-09 -5.781184E-08 +6.748293E-09 +1.656192E-08 -3.791209E-08 -5.781184E-08 -3.791209E-08 +1.084562E-07 
 -3.625560E-08 -1.090376E-08 -7.308572E-09 -1.090376E-08 -7.168061E-08 -2.530898E-09 -7.308572E-09 -2.530898E-09 +1.079362E-07 
 -1.084345E-07 -7.579697E-07 -6.212015E-07 -7.579697E-07 -1.555065E-06 +8.776075E-08 -6.212015E-07 +8.776075E-08 +1.663500E-06 
 -2.848193E-06 +3.101836E-06 +1.336081E-06 +3.101836E-06 -3.363823E-06 -1.854470E-06 +1.336081E-06 -1.854470E-06 +6.212015E-06 
 -1.121609E-04 +7.853523E-05 +2.887991E-05 +7.853523E-05 -5.499222E-05 -2.022202E-05 +2.887991E-05 -2.022202E-05 +1.671531E-04 
 -2.405287E-05 +5.911291E-06 -2.915375E-06 +5.911291E-06 -6.283088E-07 +5.279218E-06 -2.915375E-06 +5.279218E-06 +2.468118E-05 
 -8.427380E-07 -1.706384E-07 +1.954554E-07 -1.706384E-07 -1.834936E-08 +2.633557E-07 +1.954554E-07 +2.633557E-07 +8.610874E-07 
 -2.723301E-07 -2.678006E-07 +2.332132E-07 -2.678006E-07 -3.007934E-07 +2.111990E-07 +2.332132E-07 +2.111990E-07 +5.731234E-07 
 -9.152517E-07 -2.483599E-06 +1.373307E-06 -2.483599E-06 -5.812935E-06 +8.597712E-07 +1.373307E-06 +8.597712E-07 +6.728187E-06 
 -6.521293E-06 -1.723465E-06 -2.615865E-07 -1.723465E-06 -3.994597E-07 -6.964881E-07 -2.615865E-07 -6.964881E-07 +6.920753E-06 
 -3.359455E-08 +8.638149E-08 +5.807258E-08 +8.638149E-08 -1.571965E-07 +8.635212E-09 +5.807258E-08 +8.635212E-09 +1.907910E-07 
 -1.900509E-08 -1.031076E-08 +1.305828E-09 -1.031076E-08 -4.408369E-08 +3.933674E-09 +1.305828E-09 +3.933674E-09 +6.308878E-08 
 -2.228459E-08 -9.355808E-10 -3.189984E-09 -9.355808E-10 -1.932280E-08 -1.484281E-09 -3.189984E-09 -1.484281E-09 +4.160739E-08 
 -9.312005E-09 -3.494292E-09 +1.683598E-09 -3.494292E-09 -1.524905E-08 +1.429734E-09 +1.683598E-09 +1.429734E-09 +2.456105E-08 
 -1.317079E-08 +1.289954E-08 -1.732855E-09 +1.289954E-08 -6.776817E-08 +7.677973E-09 -1.732855E-09 +7.677973E-09 +8.093895E-08 
 -4.925721E-08 +1.037067E-08 +2.272254E-08 +1.037067E-08 -2.027079E-07 -5.107362E-08 +2.272254E-08 -5.107362E-08 +2.519652E-07 
 -5.353287E-08 -2.095613E-08 -3.876274E-09 -2.095613E-08 -6.002902E-08 -7.039938E-09 -3.876274E-09 -7.039938E-09 +1.135619E-07 
 +9.957724E-08 +4.717199E-07 -7.289239E-07 +4.717199E-07 -1.951523E-06 +3.536179E-07 -7.289239E-07 +3.536179E-07 +1.851946E-06 
 -4.380821E-08 +7.357832E-09 -1.613197E-08 +7.357832E-09 -3.081242E-08 +4.911377E-09 -1.613197E-08 +4.911377E-09 +7.462063E-08 
 -3.525332E-07 +9.514875E-07 +7.461772E-07 +9.514875E-07 -1.076353E-06 +1.073575E-07 +7.461772E-07 +1.073575E-07 +1.428886E-06 
 -1.108922E-06 +1.103698E-06 +1.286053E-06 +1.103698E-06 -9.817243E-07 -5.343119E-07 +1.286053E-06 -5.343119E-07 +2.090646E-06 
 -9.981186E-05 +3.803262E-05 +1.834055E-05 +3.803262E-05 -1.349569E-05 +3.864924E-06 +1.834055E-05 +3.864924E-06 +1.133075E-04 
 -1.873665E-05 -1.566098E-05 -1.163244E-05 -1.566098E-05 -7.396101E-06 +4.170460E-06 -1.163244E-05 +4.170460E-06 +2.613276E-05 
 -1.822908E-07 -2.265001E-06 -1.957880E-07 -2.265001E-06 -2.821475E-05 -5.008793E-06 -1.957880E-07 -5.008793E-06 +2.839705E-05 
 -2.136360E-08 -1.413889E-08 +2.927398E-08 -1.413889E-08 -6.123268E-08 +2.416081E-09 +2.927398E-08 +2.416081E-09 +8.259628E-08 
 -1.108197E-07 +7.589935E-09 +1.863524E-08 +7.589935E-09 -7.636770E-08 +5.101680E-09 +1.863524E-08 +5.101680E-09 +1.871874E-07 
 +4.004707E-08 -2.744280E-08 -1.399189E-07 -2.744280E-08 -3.899715E-07 -2.419240E-08 -1.399189E-07 -2.419240E-08 +3.499244E-07 
 -5.624629E-08 +2.376144E-08 +7.449744E-09 +2.376144E-08 -2.969640E-08 -3.076490E-09 +7.449744E-09 -3.076490E-09 +8.594269E-08 
 -7.752259E-07 -1.585039E-11 +1.797466E-07 -1.585039E-11 +9.255941E-08 +2.605734E-07 +1.797466E-07 +2.605734E-07 +6.826665E-07 
 -2.213825E-05 -1.518316E-05 -4.551925E-06 -1.518316E-05 -1.044801E-05 -3.489257E-06 -4.551925E-06 -3.489257E-06 +3.258626E-05 
 -6.822280E-07 +1.833979E-07 -2.792583E-07 +1.833979E-07 -4.407192E-08 +3.584937E-09 -2.792583E-07 +3.584937E-09 +7.262999E-07 
 -1.939907E-08 +1.394089E-09 -9.749103E-09 +1.394089E-09 -1.342052E-08 -3.498914E-09 -9.749103E-09 -3.498914E-09 +3.281960E-08 
 -1.149596E-07 +1.276789E-08 +3.291643E-08 +1.276789E-08 -1.513352E-07 -4.838257E-08 +3.291643E-08 -4.838257E-08 +2.662948E-07 
 -5.050433E-06 +3.905358E-06 -1.719474E-06 +3.905358E-06 -2.639638E-06 -4.495225E-07 -1.719474E-06 -4.495225E-07 +7.690071E-06 
 -4.466534E-06 +5.951817E-07 +7.755365E-07 +5.951817E-07 -7.048785E-08 -3.125092E-07 +7.755365E-07 -3.125092E-07 +4.537022E-06 
 +9.853422E-08 -1.059102E-06 -1.142545E-06 -1.059102E-06 -7.673235E-06 +2.195092E-06 -1.142545E-06 +2.195092E-06 +7.574701E-06 
 -9.617537E-05 +9.230234E-06 +8.820226E-06 +9.230234E-06 +6.002262E-06 +2.420940E-05 +8.820226E-06 +2.420940E-05 +9.017311E-05 
 -5.040255E-06 -1.324588E-06 -9.814373E-07 -1.324588E-06 -1.993542E-07 +6.593036E-07 -9.814373E-07 +6.593036E-07 +5.239609E-06 
 -1.377829E-08 +2.780043E-09 -5.177404E-09 +2.780043E-09 -1.048176E-08 +2.229141E-09 -5.177404E-09 +2.229141E-09 +2.426005E-08 
 -1.644550E-06 -9.601299E-06 +3.165465E-06 -9.601299E-06 -4.036245E-05 -9.033543E-06 +3.165465E-06 -9.033543E-06 +4.200701E-05 
 -3.997634E-08 +1.806835E-08 -4.136712E-09 +1.806835E-08 -1.294357E-07 +7.197981E-08 -4.136712E-09 +7.197981E-08 +1.694120E-07 
 -6.252206E-05 -2.477925E-05 -5.657714E-06 -2.477925E-05 -7.789067E-06 +9.788692E-06 -5.657714E-06 +9.788692E-06 +7.031112E-05 
 -6.819250E-07 -7.872286E-07 +4.734421E-07 -7.872286E-07 -5.851613E-07 -1.872429E-07 +4.734421E-07 -1.872429E-07 +1.267086E-06 
 -2.694574E-05 +4.349184E-06 +7.406562E-06 +4.349184E-06 +1.284057E-06 +6.242780E-06 +7.406562E-06 +6.242780E-06 +2.566168E-05 
 -1.097455E-05 -2.471994E-05 +1.703223E-06 -2.471994E-05 -4.839087E-05 +2.513551E-05 +1.703223E-06 +2.513551E-05 +5.936542E-05 
 -2.465416E-08 +1.096105E-08 +4.040941E-09 +1.096105E-08 -7.160490E-08 +1.624999E-08 +4.040941E-09 +1.624999E-08 +9.625907E-08 
 -7.049616E-09 +3.169869E-09 +2.231048E-09 +3.169869E-09 -1.669554E-08 -7.630359E-09 +2.231048E-09 -7.630359E-09 +2.374516E-08 
 -1.733196E-06 +6.162822E-07 -5.995163E-07 +6.162822E-07 -1.713613E-07 +5.583381E-07 -5.995163E-07 +5.583381E-07 +1.904557E-06 
 -9.157871E-05 +6.846365E-05 -2.387806E-05 +6.846365E-05 -3.498525E-05 +6.426208E-05 -2.387806E-05 +6.426208E-05 +1.265640E-04 
 -6.164915E-08 -3.756039E-09 +6.172370E-09 -3.756039E-09 -2.217187E-08 +3.349432E-09 +6.172370E-09 +3.349432E-09 +8.382102E-08 
 -4.471945E-09 -1.085254E-09 -1.223275E-10 -1.085254E-09 -4.636372E-09 -2.100706E-09 -1.223275E-10 -2.100706E-09 +9.108317E-09 
 -8.600146E-08 -1.564535E-09 +5.772903E-09 -1.564535E-09 -1.213248E-07 -1.645636E-08 +5.772903E-09 -1.645636E-08 +2.073263E-07 
 -1.728932E-04 -7.863805E-05 +2.048343E-05 -7.863805E-05 -3.383346E-05 +2.949974E-05 +2.048343E-05 +2.949974E-05 +2.067266E-04 
 -2.356828E-06 +4.732659E-06 +1.632130E-06 +4.732659E-06 -8.233296E-06 +5.929799E-07 +1.632130E-06 +5.929799E-07 +1.059012E-05 
 -1.236353E-06 +1.315694E-06 -5.735685E-07 +1.315694E-06 -1.240457E-06 -6.059781E-08 -5.735685E-07 -6.059781E-08 +2.476810E-06 
 -7.055118E-05 +4.019750E-05 +1.458927E-05 +4.019750E-05 -2.290436E-05 -7.688546E-06 +1.458927E-05 -7.688546E-06 +9.345555E-05 
 -1.058953E-04 +2.838312E-06 +3.244040E-05 +2.838312E-06 +8.031014E-07 +9.193393E-06 +3.244040E-05 +9.193393E-06 +1.050922E-04 
 -1.721330E-07 +9.427225E-08 +1.110126E-07 +9.427225E-08 -1.061299E-07 -3.817375E-08 +1.110126E-07 -3.817375E-08 +2.782629E-07 
 +1.020078E-08 +1.850883E-07 -2.305275E-07 +1.850883E-07 -4.965917E-07 +6.361882E-08 -2.305275E-07 +6.361882E-08 +4.863909E-07 
 -9.266441E-07 +1.999533E-07 -3.640075E-07 +1.999533E-07 +4.775315E-08 -2.610834E-07 -3.640075E-07 -2.610834E-07 +8.788909E-07 
 -3.273566E-08 +1.188341E-08 -3.692477E-09 +1.188341E-08 -5.308918E-08 +1.864540E-08 -3.692477E-09 +1.864540E-08 +8.582485E-08 
 -8.752301E-07 -8.551318E-07 +5.738112E-07 -8.551318E-07 -8.583061E-07 +8.019355E-07 +5.738112E-07 +8.019355E-07 +1.733536E-06 
 +1.596661E-06 +3.781561E-06 -6.531684E-06 +3.781561E-06 -2.356793E-05 -3.046296E-06 -6.531684E-06 -3.046296E-06 +2.197127E-05 
 -6.281354E-08 +1.549345E-08 +1.635329E-08 +1.549345E-08 -8.471858E-08 -2.441508E-08 +1.635329E-08 -2.441508E-08 +1.475321E-07 
 -7.381757E-08 +2.220414E-08 -1.496243E-08 +2.220414E-08 -2.512077E-08 +3.230798E-08 -1.496243E-08 +3.230798E-08 +9.893834E-08 
 -1.742828E-08 +6.441188E-09 +1.937140E-09 +6.441188E-09 -3.796168E-08 -3.657666E-09 +1.937140E-09 -3.657666E-09 +5.538995E-08 
 -9.764496E-08 +5.509769E-08 +4.564708E-08 +5.509769E-08 -1.187709E-07 -5.615441E-08 +4.564708E-08 -5.615441E-08 +2.164159E-07 
 -7.637881E-09 +2.267374E-06 +2.703550E-06 +2.267374E-06 -1.002450E-04 -1.767405E-05 +2.703550E-06 -1.767405E-05 +1.002526E-04 
 -7.467660E-06 -5.693566E-06 +2.027581E-06 -5.693566E-06 -4.297683E-06 +8.110230E-07 +2.027581E-06 +8.110230E-07 +1.176534E-05 
 -2.914914E-08 -8.961610E-09 +1.834901E-08 -8.961610E-09 -2.309917E-08 -8.595772E-10 +1.834901E-08 -8.595772E-10 +5.224831E-08 
 +1.206800E-07 -1.092192E-06 -9.008164E-07 -1.092192E-06 -3.257713E-06 +1.400853E-06 -9.008164E-07 +1.400853E-06 +3.137033E-06 
 -4.075106E-07 -6.666343E-07 -2.043464E-07 -6.666343E-07 -8.276562E-07 +2.793117E-07 -2.043464E-07 +2.793117E-07 +1.235167E-06 
 -2.843151E-05 -1.172598E-05 -4.690536E-06 -1.172598E-05 -2.493256E-06 +6.692426E-06 -4.690536E-06 +6.692426E-06 +3.092476E-05 
 +2.147458E-07 -1.127890E-06 -1.115714E-06 -1.127890E-06 -3.695591E-06 +1.166380E-06 -1.115714E-06 +1.166380E-06 +3.480846E-06 
 -1.255444E-08 -2.021454E-07 +2.856024E-07 -2.021454E-07 -4.917917E-06 +1.784153E-06 +2.856024E-07 +1.784153E-06 +4.930471E-06 
 -7.814912E-08 -4.600617E-08 +3.736090E-08 -4.600617E-08 -1.496235E-07 +1.134053E-07 +3.736090E-08 +1.134053E-07 +2.277726E-07 
 -6.717333E-05 -3.324525E-06 +1.441581E-05 -3.324525E-06 +1.960559E-06 +1.279569E-05 +1.441581E-05 +1.279569E-05 +6.521277E-05 
 -2.108673E-06 +9.993131E-07 +4.616675E-07 +9.993131E-07 +1.742197E-08 +8.238364E-07 +4.616675E-07 +8.238364E-07 +2.091251E-06 
 -8.136688E-08 +6.713252E-09 -2.522901E-08 +6.713252E-09 -3.714275E-08 -3.465917E-09 -2.522901E-08 -3.465917E-09 +1.185096E-07 
 -5.673529E-06 +5.905041E-06 -6.532894E-07 +5.905041E-06 -6.027067E-06 -5.457766E-07 -6.532894E-07 -5.457766E-07 +1.170060E-05 
 -5.528523E-08 -6.920457E-08 +2.134558E-08 -6.920457E-08 -2.029430E-07 -1.081914E-07 +2.134558E-08 -1.081914E-07 +2.582282E-07 
 -5.900198E-05 +8.426241E-05 +7.776498E-06 +8.426241E-05 -1.203399E-04 -1.110547E-05 +7.776498E-06 -1.110547E-05 +1.793418E-04 
 -6.085199E-07 +3.539877E-07 -8.309113E-08 +3.539877E-07 -4.082924E-08 +3.834287E-07 -8.309113E-08 +3.834287E-07 +6.493491E-07 
 -8.163629E-08 +2.313319E-08 -1.144155E-08 +2.313319E-08 -4.338644E-08 -2.997654E-09 -1.144155E-08 -2.997654E-09 +1.250227E-07 
 -3.758158E-07 +4.918968E-07 -3.932552E-07 +4.918968E-07 -3.242129E-07 -8.344139E-08 -3.932552E-07 -8.344139E-08 +7.000287E-07 
 -2.820075E-08 +3.779531E-09 -3.327283E-09 +3.779531E-09 -3.472700E-08 -6.349697E-09 -3.327283E-09 -6.349697E-09 +6.292775E-08 
 -1.530855E-08 +3.732692E-09 +3.521012E-09 +3.732692E-09 -1.280756E-08 -2.126868E-09 +3.521012E-09 -2.126868E-09 +2.811611E-08 
 -2.983348E-06 +2.619251E-07 +1.133663E-06 +2.619251E-07 -1.416174E-09 +1.825931E-07 +1.133663E-06 +1.825931E-07 +2.984764E-06 
 -9.837173E-05 +6.888007E-05 +2.163270E-05 +6.888007E-05 -4.823121E-05 -1.514732E-05 +2.163270E-05 -1.514732E-05 +1.466029E-04 
 -5.535587E-08 -9.495305E-08 -9.016624E-08 -9.495305E-08 -1.942898E-07 -1.085312E-07 -9.016624E-08 -1.085312E-07 +2.496456E-07 
 -1.075962E-06 +6.641134E-07 +6.965484E-07 +6.641134E-07 -1.516730E-07 +2.662769E-07 +6.965484E-07 +2.662769E-07 +1.227635E-06 
 -1.110361E-05 +3.528750E-06 -2.723034E-07 +3.528750E-06 -9.002641E-07 -1.546870E-06 -2.723034E-07 -1.546870E-06 +1.200387E-05 
 -4.073611E-08 +5.104833E-09 -2.507849E-08 +5.104833E-09 -5.098464E-08 -1.227074E-08 -2.507849E-08 -1.227074E-08 +9.172076E-08 
 -3.382447E-07 -3.327046E-06 -5.119291E-07 -3.327046E-06 -3.216739E-05 +4.370211E-08 -5.119291E-07 +4.370211E-08 +3.250563E-05 
 -1.808542E-08 -4.375058E-09 -3.184417E-09 -4.375058E-09 -1.669605E-08 -1.639610E-09 -3.184417E-09 -1.639610E-09 +3.478147E-08 
 -1.782900E-07 -1.598609E-07 +1.058581E-07 -1.598609E-07 -1.497753E-07 +1.598352E-07 +1.058581E-07 +1.598352E-07 +3.280653E-07 
 -1.433554E-07 +3.231009E-08 +1.740279E-08 +3.231009E-08 -1.187010E-07 +8.634584E-09 +1.740279E-08 +8.634584E-09 +2.620563E-07 
 -8.134764E-08 +3.547517E-08 +3.406807E-08 +3.547517E-08 -2.691364E-08 -5.009727E-08 +3.406807E-08 -5.009727E-08 +1.082613E-07 
 -6.886834E-07 -4.917228E-07 +7.892056E-08 -4.917228E-07 -2.314505E-07 -3.298218E-07 +7.892056E-08 -3.298218E-07 +9.201339E-07 
 -4.394632E-07 -1.543149E-07 +1.380835E-07 -1.543149E-07 +8.469049E-09 -1.342929E-07 +1.380835E-07 -1.342929E-07 +4.309941E-07 
 -4.070457E-08 +8.088366E-09 +5.815044E-09 +8.088366E-09 -2.454414E-08 +3.653833E-09 +5.815044E-09 +3.653833E-09 +6.524871E-08 
 -5.430350E-08 +1.772882E-09 -1.998950E-08 +1.772882E-09 -3.485022E-08 +4.917032E-09 -1.998950E-08 +4.917032E-09 +8.915371E-08 
 -9.719762E-05 +8.952375E-05 -6.973671E-05 +8.952375E-05 -7.949956E-05 +3.833896E-05 -6.973671E-05 +3.833896E-05 +1.766972E-04 
 -1.209222E-07 -1.116576E-08 +3.072087E-08 -1.116576E-08 -4.180764E-08 +1.368205E-08 +3.072087E-08 +1.368205E-08 +1.627298E-07 
 -1.255098E-09 +4.410893E-08 -4.586617E-08 +4.410893E-08 -1.078191E-07 +1.825265E-09 -4.586617E-08 +1.825265E-09 +1.090742E-07 
 -1.719855E-08 +2.782163E-09 +1.944318E-09 +2.782163E-09 -2.861960E-08 +5.891183E-09 +1.944318E-09 +5.891183E-09 +4.581815E-08 
 -7.580802E-09 +7.148261E-09 +7.621084E-10 +7.148261E-09 -1.627691E-08 -1.264318E-08 +7.621084E-10 -1.264318E-08 +2.385771E-08 
 -1.489387E-08 +7.798414E-10 +1.201786E-09 +7.798414E-10 -1.090430E-08 -6.208380E-10 +1.201786E-09 -6.208380E-10 +2.579818E-08 
 +7.540798E-09 +8.920256E-09 -9.139933E-08 +8.920256E-09 -3.805721E-07 +2.209292E-07 -9.139933E-08 +2.209292E-07 +3.730314E-07 
 -4.023872E-08 -1.133848E-09 +1.580974E-09 -1.133848E-09 -3.016711E-08 +1.722282E-09 +1.580974E-09 +1.722282E-09 +7.040584E-08 
 -6.945260E-08 -3.533593E-08 -2.279922E-08 -3.533593E-08 -1.108546E-07 -3.124614E-08 -2.279922E-08 -3.124614E-08 +1.803072E-07 
 -6.624277E-07 -6.443498E-06 -3.307715E-06 -6.443498E-06 -3.041896E-05 +7.035481E-06 -3.307715E-06 +7.035481E-06 +3.108139E-05 
 -1.013041E-04 +1.002418E-05 -6.584989E-06 +1.002418E-05 +2.052611E-06 -1.695049E-05 -6.584989E-06 -1.695049E-05 +9.925148E-05 
 -2.019427E-04 +1.385570E-04 -2.660360E-05 +1.385570E-04 -9.168600E-05 +4.998360E-05 -2.660360E-05 +4.998360E-05 +2.936287E-04 
 -8.238952E-09 +7.029235E-10 -4.344087E-09 +7.029235E-10 -9.547936E-09 +4.039060E-09 -4.344087E-09 +4.039060E-09 +1.778689E-08 
 -9.137188E-05 -7.314173E-06 -7.727432E-06 -7.314173E-06 +1.105010E-07 -8.683796E-06 -7.727432E-06 -8.683796E-06 +9.126138E-05 
 -5.362986E-06 +2.573305E-06 -1.885876E-06 +2.573305E-06 -1.217315E-06 +1.487440E-06 -1.885876E-06 +1.487440E-06 +6.580301E-06 
 -1.592660E-08 +5.362271E-09 -3.956243E-09 +5.362271E-09 -6.766552E-09 +2.859542E-09 -3.956243E-09 +2.859542E-09 +2.269315E-08 
 -1.740326E-07 +1.994305E-07 +5.913830E-09 +1.994305E-07 -2.002869E-07 +1.565449E-07 +5.913830E-09 +1.565449E-07 +3.743195E-07 
 -1.857874E-05 -2.192095E-05 -2.365616E-06 -2.192095E-05 -2.527436E-05 +2.369273E-06 -2.365616E-06 +2.369273E-06 +4.385310E-05 
 -3.546915E-08 -3.444482E-09 -2.521734E-09 -3.444482E-09 -9.098248E-09 -2.081293E-09 -2.521734E-09 -2.081293E-09 +4.456740E-08 
 -2.800631E-07 -2.545803E-07 -1.557126E-07 -2.545803E-07 -2.311084E-07 -1.062646E-07 -1.557126E-07 -1.062646E-07 +5.111715E-07 
 -4.079990E-07 +3.720812E-07 -2.058356E-07 +3.720812E-07 -2.817889E-07 +4.555258E-07 -2.058356E-07 +4.555258E-07 +6.897878E-07 
 -2.305374E-07 -1.118758E-06 -9.839457E-07 -1.118758E-06 -3.493542E-06 -7.953118E-07 -9.839457E-07 -7.953118E-07 +3.724080E-06 
 -2.827908E-07 +5.449781E-07 +3.865704E-07 +5.449781E-07 -1.108320E-06 -6.898238E-07 +3.865704E-07 -6.898238E-07 +1.391111E-06 
 +1.603170E-07 +7.861055E-09 -3.815218E-07 +7.861055E-09 -1.011206E-06 -2.039199E-07 -3.815218E-07 -2.039199E-07 +8.508892E-07 
 -3.256462E-08 +6.946344E-08 -2.579243E-08 +6.946344E-08 -1.545652E-07 +6.206617E-08 -2.579243E-08 +6.206617E-08 +1.871298E-07 
 -2.061095E-07 +1.745841E-08 +1.368032E-07 +1.745841E-08 -1.037143E-08 -8.506489E-08 +1.368032E-07 -8.506489E-08 +2.164809E-07 
 -5.513167E-06 +1.180566E-06 +7.786682E-07 +1.180566E-06 +1.348369E-07 +1.317812E-06 +7.786682E-07 +1.317812E-06 +5.378331E-06 
 -5.497931E-07 -2.609844E-07 +3.154449E-07 -2.609844E-07 -1.686148E-07 +1.908444E-07 +3.154449E-07 +1.908444E-07 +7.184079E-07 
 +8.452191E-07 +2.383335E-07 +2.433148E-06 +2.383335E-07 -7.696251E-06 -3.994876E-07 +2.433148E-06 -3.994876E-07 +6.851031E-06 
 -4.771798E-08 -1.175643E-09 -8.708809E-09 -1.175643E-09 -5.259272E-08 -1.974544E-08 -8.708809E-09 -1.974544E-08 +1.003107E-07 
 -1.201750E-04 +5.603756E-05 -6.075525E-05 +5.603756E-05 -2.613346E-05 +2.833228E-05 -6.075525E-05 +2.833228E-05 +1.463085E-04 
 -2.461824E-07 -1.252159E-07 -1.943460E-08 -1.252159E-07 -1.548453E-07 -1.408532E-08 -1.943460E-08 -1.408532E-08 +4.010277E-07 
 -8.056929E-09 +2.547452E-09 +3.108110E-09 +2.547452E-09 -1.026289E-08 +2.246290E-09 +3.108110E-09 +2.246290E-09 +1.831982E-08 
 +1.716359E-06 -8.570191E-06 +8.959099E-06 -8.570191E-06 -3.032071E-05 -8.702505E-06 +8.959099E-06 -8.702505E-06 +2.860435E-05 
 -9.134574E-06 +1.402180E-05 -3.211825E-06 +1.402180E-05 -1.880411E-05 -3.992628E-06 -3.211825E-06 -3.992628E-06 +2.793868E-05 
 -3.474096E-08 -2.675806E-09 -9.636097E-09 -2.675806E-09 -1.050515E-08 -3.035327E-10 -9.636097E-09 -3.035327E-10 +4.524611E-08 
 -7.561463E-05 +4.365546E-05 +2.749122E-05 +4.365546E-05 -2.520569E-05 -1.587225E-05 +2.749122E-05 -1.587225E-05 +1.008203E-04 
 +1.621966E-09 +1.597906E-09 -4.246125E-08 +1.597906E-09 -2.331959E-07 -1.365584E-07 -4.246125E-08 -1.365584E-07 +2.315740E-07 
 -2.506903E-08 +1.392604E-08 +6.059261E-11 +1.392604E-08 -3.029228E-08 -4.745806E-09 +6.059261E-11 -4.745806E-09 +5.536131E-08 
 -1.622716E-06 +2.417549E-06 +6.792614E-08 +2.417549E-06 -3.214839E-06 +1.273607E-06 +6.792614E-08 +1.273607E-06 +4.837555E-06 
 -3.678609E-04 +2.070705E-04 +5.257083E-05 +2.070705E-04 -1.115993E-04 -7.877997E-05 +5.257083E-05 -7.877997E-05 +4.794602E-04 
 -1.164428E-04 +2.277817E-10 +1.744730E-05 +2.277817E-10 -4.724173E-09 -8.536783E-10 +1.744730E-05 -8.536783E-10 +1.164475E-04 
 +2.336577E-08 +4.060842E-08 -1.845832E-07 +4.060842E-08 -5.783847E-07 +3.399863E-07 -1.845832E-07 +3.399863E-07 +5.550190E-07 
 -2.847179E-08 +1.993791E-09 -4.190113E-09 +1.993791E-09 -2.421623E-08 +1.158750E-09 -4.190113E-09 +1.158750E-09 +5.268802E-08 
 -1.862659E-06 -1.536777E-06 +4.427212E-07 -1.536777E-06 -1.268062E-06 +3.311386E-07 +4.427212E-07 +3.311386E-07 +3.130721E-06 
 -9.121734E-09 -3.480171E-08 +4.358310E-08 -3.480171E-08 -1.690119E-07 +8.968200E-08 +4.358310E-08 +8.968200E-08 +1.781336E-07 
 -2.867564E-06 -8.554608E-08 -8.899145E-07 -8.554608E-08 +3.135277E-07 +9.793766E-07 -8.899145E-07 +9.793766E-07 +2.554036E-06 
 -1.351838E-07 +2.751647E-07 -1.100049E-07 +2.751647E-07 -6.070621E-07 -3.108337E-07 -1.100049E-07 -3.108337E-07 +7.422459E-07 
 -7.644929E-08 -4.821636E-08 -7.494054E-09 -4.821636E-08 -7.629045E-08 -5.589246E-09 -7.494054E-09 -5.589246E-09 +1.527397E-07 
 -9.741949E-08 +1.108293E-08 -1.557714E-08 +1.108293E-08 -1.015193E-07 +9.332561E-09 -1.557714E-08 +9.332561E-09 +1.989388E-07 
 -1.732307E-04 +1.000143E-04 +2.392199E-05 +1.000143E-04 -5.774450E-05 -1.381071E-05 +2.392199E-05 -1.381071E-05 +2.309752E-04 
 -3.206177E-05 +6.754493E-06 +4.047845E-06 +6.754493E-06 +9.132941E-07 +7.753561E-06 +4.047845E-06 +7.753561E-06 +3.114848E-05 
 -2.924659E-08 -6.931801E-10 +3.114242E-10 -6.931801E-10 -5.836117E-08 +4.681870E-09 +3.114242E-10 +4.681870E-09 +8.760777E-08 
 -6.656655E-07 +3.783009E-07 -2.726486E-07 +3.783009E-07 -2.287162E-07 +1.639928E-07 -2.726486E-07 +1.639928E-07 +8.943817E-07 
 -4.338167E-08 +1.145084E-08 +1.207589E-08 +1.145084E-08 -7.653875E-08 +1.531323E-08 +1.207589E-08 +1.531323E-08 +1.199204E-07 
 -2.666032E-08 -1.965348E-09 -5.961375E-09 -1.965348E-09 -1.918924E-08 +1.564958E-09 -5.961375E-09 +1.564958E-09 +4.584956E-08 
 -1.800310E-06 +3.949207E-06 -9.329180E-07 +3.949207E-06 -8.123745E-06 -3.388168E-07 -9.329180E-07 -3.388168E-07 +9.924055E-06 
 -3.298152E-07 +1.332971E-07 +1.475759E-07 +1.332971E-07 -4.466535E-08 +9.477622E-08 +1.475759E-07 +9.477622E-08 +3.744806E-07 
 -5.734714E-09 +1.490126E-09 -7.410331E-10 +1.490126E-09 -7.284918E-09 +9.399265E-10 -7.410331E-10 +9.399265E-10 +1.301963E-08 
 -6.356505E-08 -1.939953E-08 +7.658794E-09 -1.939953E-08 -2.046198E-08 +1.984347E-08 +7.658794E-09 +1.984347E-08 +8.402702E-08 
 -9.637295E-06 +6.433312E-07 +3.295573E-06 +6.433312E-07 +5.890623E-08 -1.330071E-06 +3.295573E-06 -1.330071E-06 +9.578389E-06 
 -3.576130E-06 -1.278699E-06 +1.643993E-07 -1.278699E-06 -4.175732E-07 -3.501391E-07 +1.643993E-07 -3.501391E-07 +3.993703E-06 
 -5.873897E-08 +4.558225E-08 -1.686844E-08 +4.558225E-08 -1.326941E-07 +3.694126E-08 -1.686844E-08 +3.694126E-08 +1.914331E-07 
 -2.178641E-07 +2.081705E-07 -1.875198E-09 +2.081705E-07 -1.306013E-07 -1.666561E-07 -1.875198E-09 -1.666561E-07 +3.484654E-07 
 -6.147859E-06 +1.352848E-05 -1.670192E-06 +1.352848E-05 -2.827898E-05 -3.543933E-06 -1.670192E-06 -3.543933E-06 +3.442684E-05 
 -2.409283E-08 +4.788829E-09 +5.408147E-09 +4.788829E-09 -2.700834E-08 -2.887275E-10 +5.408147E-09 -2.887275E-10 +5.110116E-08 
 -1.488360E-08 -4.285994E-09 +3.670457E-09 -4.285994E-09 -1.539245E-08 +2.991965E-09 +3.670457E-09 +2.991965E-09 +3.027604E-08 
 -7.436765E-06 -1.296548E-05 -6.031257E-07 -1.296548E-05 -2.035599E-05 +6.899410E-06 -6.031257E-07 +6.899410E-06 +2.779276E-05 
 -2.511252E-07 -8.530444E-09 -1.041914E-08 -8.530444E-09 -1.258438E-08 +4.796284E-08 -1.041914E-08 +4.796284E-08 +2.637096E-07 
 +8.641315E-08 -2.584491E-07 +3.478904E-07 -2.584491E-07 -1.167365E-06 -4.260074E-07 +3.478904E-07 -4.260074E-07 +1.080952E-06 
 -4.891517E-08 +9.149590E-09 -8.955108E-10 +9.149590E-09 -3.956964E-08 +6.217063E-09 -8.955108E-10 +6.217063E-09 +8.848481E-08 
 -2.579824E-06 -1.014281E-05 -1.542991E-06 -1.014281E-05 -3.545705E-05 +7.094865E-06 -1.542991E-06 +7.094865E-06 +3.803688E-05 
 -5.858153E-06 -3.434299E-06 -2.381483E-06 -3.434299E-06 -1.307611E-06 +1.004969E-06 -2.381483E-06 +1.004969E-06 +7.165764E-06 
 -2.762461E-04 +1.594904E-04 +4.681795E-06 +1.594904E-04 -9.208240E-05 -2.703821E-06 +4.681795E-06 -2.703821E-06 +3.683285E-04 
 -5.276684E-08 -3.033146E-07 +3.817131E-07 -3.033146E-07 -6.950479E-07 +2.206662E-07 +3.817131E-07 +2.206662E-07 +7.478147E-07 
 -1.331993E-08 +1.402591E-09 +7.254437E-09 +1.402591E-09 -9.422109E-09 -3.132299E-10 +7.254437E-09 -3.132299E-10 +2.274204E-08 
 -1.139806E-07 +8.554134E-08 -8.718656E-08 +8.554134E-08 -1.872157E-08 -1.725886E-08 -8.718656E-08 -1.725886E-08 +1.327021E-07 
 -3.790082E-09 +1.784071E-07 -2.376561E-07 +1.784071E-07 -6.273427E-07 +1.669855E-07 -2.376561E-07 +1.669855E-07 +6.311328E-07 
 -1.282949E-07 +2.675710E-08 +7.160219E-08 +2.675710E-08 -3.824633E-09 -4.580395E-08 +7.160219E-08 -4.580395E-08 +1.321196E-07 
 -1.697275E-07 +4.188047E-08 +2.040536E-08 +4.188047E-08 -2.659180E-09 -5.703866E-08 +2.040536E-08 -5.703866E-08 +1.723867E-07 
 -1.101442E-04 +2.992195E-05 -1.816285E-06 +2.992195E-05 -7.146376E-06 -1.034825E-05 -1.816285E-06 -1.034825E-05 +1.172906E-04 
 -2.271554E-07 +8.833070E-08 +3.322315E-08 +8.833070E-08 +1.384695E-08 -1.162515E-07 +3.322315E-08 -1.162515E-07 +2.133084E-07 
 -6.667343E-06 -2.488100E-05 -9.025242E-06 -2.488100E-05 -9.285710E-05 -3.368131E-05 -9.025242E-06 -3.368131E-05 +9.952445E-05 
 -5.198244E-08 -2.769815E-08 +3.182572E-08 -2.769815E-08 -1.735845E-07 +8.409785E-08 +3.182572E-08 +8.409785E-08 +2.255669E-07 
 -2.575345E-08 +8.462612E-10 -1.997040E-09 +8.462612E-10 -1.132768E-08 -2.710817E-09 -1.997040E-09 -2.710817E-09 +3.708113E-08 
 +4.027949E-07 +8.327425E-08 +1.483568E-06 +8.327425E-08 -5.275526E-06 +2.019778E-06 +1.483568E-06 +2.019778E-06 +4.872732E-06 
 -5.208238E-08 +1.074214E-07 -4.853079E-08 +1.074214E-07 -1.876758E-07 -4.917196E-08 -4.853079E-08 -4.917196E-08 +2.397582E-07 
 -2.563257E-08 -6.382335E-10 +4.483214E-09 -6.382335E-10 -3.989025E-08 -3.371935E-09 +4.483214E-09 -3.371935E-09 +6.552282E-08 
 -2.360099E-08 +1.207320E-09 -7.090195E-10 +1.207320E-09 -3.830980E-08 +1.330115E-08 -7.090195E-10 +1.330115E-08 +6.191079E-08 
 -1.906715E-06 +7.942141E-07 +4.058676E-07 +7.942141E-07 -1.871297E-07 -7.408730E-07 +4.058676E-07 -7.408730E-07 +2.093844E-06 
 -6.064773E-05 +4.246571E-05 -4.973395E-06 +4.246571E-05 -2.973531E-05 +3.482292E-06 -4.973395E-06 +3.482292E-06 +9.038304E-05 
 -1.751748E-07 -2.985976E-09 +1.494747E-08 -2.985976E-09 -9.510898E-08 +7.564921E-09 +1.494747E-08 +7.564921E-09 +2.702837E-07 
 -7.650634E-09 -1.389529E-09 -4.130142E-09 -1.389529E-09 -6.998110E-09 -1.593538E-09 -4.130142E-09 -1.593538E-09 +1.464874E-08 
 -8.947310E-08 -2.789530E-07 -2.410873E-07 -2.789530E-07 -4.175907E-07 -2.649498E-08 -2.410873E-07 -2.649498E-08 +5.070639E-07 
 -6.527726E-08 +4.446764E-10 +1.055943E-08 +4.446764E-10 -4.139969E-08 -1.731541E-10 +1.055943E-08 -1.731541E-10 +1.066770E-07 
 -1.685875E-07 +3.406655E-06 -1.503839E-06 +3.406655E-06 -2.791385E-05 -1.098318E-05 -1.503839E-06 -1.098318E-05 +2.808244E-05 
 -2.945441E-08 +6.974400E-09 -7.643430E-09 +6.974400E-09 -3.768869E-08 -1.698774E-08 -7.643430E-09 -1.698774E-08 +6.714310E-08 
 -1.597407E-08 +6.472276E-09 +8.531800E-09 +6.472276E-09 -1.835968E-08 -6.071173E-09 +8.531800E-09 -6.071173E-09 +3.433375E-08 
 -4.772513E-08 -2.178356E-08 -3.019112E-08 -2.178356E-08 -8.374091E-08 -3.978064E-08 -3.019112E-08 -3.978064E-08 +1.314661E-07 
 -3.588769E-05 +5.894434E-05 +4.420210E-06 +5.894434E-05 -8.794984E-05 +2.613313E-05 +4.420210E-06 +2.613313E-05 +1.238375E-04 
 -6.507802E-06 +1.695127E-06 +3.066097E-06 +1.695127E-06 +5.089803E-07 +1.887220E-06 +3.066097E-06 +1.887220E-06 +5.998822E-06 
 -5.563757E-06 +6.687630E-06 +2.574244E-06 +6.687630E-06 -7.756097E-06 -1.064373E-06 +2.574244E-06 -1.064373E-06 +1.331985E-05 
 -9.171553E-08 +9.256219E-09 -5.311811E-09 +9.256219E-09 -9.856980E-08 +2.273904E-08 -5.311811E-09 +2.273904E-08 +1.902853E-07 
 -5.315410E-08 -7.482645E-08 +4.622274E-08 -7.482645E-08 -1.532570E-07 +1.007804E-08 +4.622274E-08 +1.007804E-08 +2.064111E-07 
 -6.243152E-08 +5.582388E-09 +1.719399E-08 +5.582388E-09 -2.139784E-08 -6.158157E-10 +1.719399E-08 -6.158157E-10 +8.382936E-08 
 -5.577483E-05 +1.494404E-05 -1.417228E-05 +1.494404E-05 -4.008669E-06 +3.799971E-06 -1.417228E-05 +3.799971E-06 +5.978350E-05 
 -4.419582E-07 -2.100486E-08 +1.254942E-07 -2.100486E-08 +7.099869E-08 -1.693882E-07 +1.254942E-07 -1.693882E-07 +3.709595E-07 
 -1.975084E-06 -3.183671E-07 +9.301538E-07 -3.183671E-07 +2.299733E-08 -4.715406E-07 +9.301538E-07 -4.715406E-07 +1.952086E-06 
 -3.999749E-05 -2.798645E-05 +1.595964E-05 -2.798645E-05 -1.397114E-05 -7.412345E-06 +1.595964E-05 -7.412345E-06 +5.396863E-05 
 -1.069037E-06 -1.238797E-06 +1.116770E-06 -1.238797E-06 -8.496596E-07 -6.267069E-08 +1.116770E-06 -6.267069E-08 +1.918697E-06 
 -4.504830E-07 -1.041599E-06 -2.197253E-07 -1.041599E-06 -1.603744E-06 +8.277895E-07 -2.197253E-07 +8.277895E-07 +2.054227E-06 
 -3.001736E-06 +4.069771E-06 +1.800302E-06 +4.069771E-06 -4.849584E-06 +6.700668E-09 +1.800302E-06 +6.700668E-09 +7.851319E-06 
 -4.727793E-07 -4.011416E-07 -1.803684E-07 -4.011416E-07 -3.718775E-07 -2.329924E-07 -1.803684E-07 -2.329924E-07 +8.446568E-07 
 -5.254173E-05 +7.497081E-05 -3.766911E-07 +7.497081E-05 -1.033668E-04 +2.431078E-05 -3.766911E-07 +2.431078E-05 +1.559085E-04 
 -1.105564E-08 +2.273072E-08 -2.581982E-09 +2.273072E-08 -5.152727E-08 +3.714146E-08 -2.581982E-09 +3.714146E-08 +6.258291E-08 
 -5.870946E-08 +1.843897E-07 -1.305176E-08 +1.843897E-07 -4.580937E-07 -3.498819E-07 -1.305176E-08 -3.498819E-07 +5.168031E-07 
 -2.374611E-05 -1.896454E-05 +3.334338E-06 -1.896454E-05 -1.252593E-05 -7.152853E-06 +3.334338E-06 -7.152853E-06 +3.627204E-05 
 -1.109051E-06 +7.522319E-08 -2.031554E-07 +7.522319E-08 +1.178963E-07 -3.532839E-07 -2.031554E-07 -3.532839E-07 +9.911553E-07 
 -2.912624E-05 -1.894927E-05 -5.031536E-06 -1.894927E-05 -1.218198E-05 -5.845275E-06 -5.031536E-06 -5.845275E-06 +4.130822E-05 
 -7.544211E-07 -1.001163E-06 -1.654914E-07 -1.001163E-06 -1.062828E-06 -1.039269E-06 -1.654914E-07 -1.039269E-06 +1.817249E-06 
 -1.809370E-06 +1.254965E-06 +3.919029E-07 +1.254965E-06 -2.847664E-07 +8.602885E-07 +3.919029E-07 +8.602885E-07 +2.094137E-06 
 -4.477096E-08 -3.065348E-08 -2.947234E-08 -3.065348E-08 -2.050445E-08 +4.579974E-09 -2.947234E-08 +4.579974E-09 +6.527542E-08 
 -4.248811E-05 +2.974986E-05 +1.796040E-05 +2.974986E-05 -2.083195E-05 -1.257577E-05 +1.796040E-05 -1.257577E-05 +6.332005E-05 
 -2.060603E-06 +2.865176E-06 +9.016516E-07 +2.865176E-06 -3.996378E-06 -2.081129E-06 +9.016516E-07 -2.081129E-06 +6.056981E-06 
 -1.133049E-08 +9.019545E-09 -3.566607E-09 +9.019545E-09 -2.273412E-08 +1.154362E-08 -3.566607E-09 +1.154362E-08 +3.406461E-08 
 -2.872284E-08 +1.035315E-08 -9.762460E-10 +1.035315E-08 -5.922012E-08 +5.827702E-09 -9.762460E-10 +5.827702E-09 +8.794296E-08 
 -1.615969E-08 +5.940596E-08 -4.044284E-08 +5.940596E-08 -1.162870E-07 -1.362288E-08 -4.044284E-08 -1.362288E-08 +1.324467E-07 
 -6.066931E-08 -6.894644E-07 +5.814892E-08 -6.894644E-07 -7.880865E-06 +6.640868E-07 +5.814892E-08 +6.640868E-07 +7.941535E-06 
 -6.584672E-07 -7.215503E-07 +3.593162E-07 -7.215503E-07 -4.958525E-07 -2.401852E-07 +3.593162E-07 -2.401852E-07 +1.154320E-06 
 -6.696862E-08 -1.225295E-08 +3.940787E-08 -1.225295E-08 -8.007915E-08 -7.780276E-09 +3.940787E-08 -7.780276E-09 +1.470478E-07 
 -2.858664E-07 -1.238722E-08 +7.666601E-08 -1.238722E-08 +6.718869E-09 +8.138575E-08 +7.666601E-08 +8.138575E-08 +2.791476E-07 
 -9.749381E-06 -1.161844E-05 +4.709148E-06 -1.161844E-05 -1.384663E-05 +5.612296E-06 +4.709148E-06 +5.612296E-06 +2.359601E-05 
 -2.952269E-06 +5.823912E-07 +9.697961E-07 +5.823912E-07 +1.108416E-07 +6.693800E-07 +9.697961E-07 +6.693800E-07 +2.841428E-06 
 -3.551128E-06 +3.202148E-06 -4.104520E-07 +3.202148E-06 -2.743414E-06 -5.862754E-07 -4.104520E-07 -5.862754E-07 +6.294542E-06 
 -5.748767E-06 -2.334044E-06 +1.009164E-06 -2.334044E-06 -9.380445E-07 +6.740922E-07 +1.009164E-06 +6.740922E-07 +6.686812E-06 
 -3.426630E-05 -4.151025E-05 +1.923640E-05 -4.151025E-05 -3.844303E-05 -8.251488E-06 +1.923640E-05 -8.251488E-06 +7.270933E-05 
 -8.447606E-06 -1.362558E-05 -4.058430E-06 -1.362558E-05 -1.962173E-05 +1.889834E-06 -4.058430E-06 +1.889834E-06 +2.806933E-05 
 -1.157971E-06 +2.803946E-06 -2.622322E-06 +2.803946E-06 -4.917256E-06 +1.579795E-06 -2.622322E-06 +1.579795E-06 +6.075227E-06 
 -1.764525E-07 +1.296299E-06 -7.084459E-07 +1.296299E-06 -6.690235E-06 -6.175125E-08 -7.084459E-07 -6.175125E-08 +6.866687E-06 
 -1.082244E-08 -5.340351E-09 +5.738057E-09 -5.340351E-09 -3.911606E-08 +1.710355E-08 +5.738057E-09 +1.710355E-08 +4.993849E-08 
 -8.034855E-06 -2.706217E-06 +1.931652E-06 -2.706217E-06 -7.799373E-07 -4.649751E-07 +1.931652E-06 -4.649751E-07 +8.814793E-06 
 -2.671585E-06 +4.243830E-07 -2.595614E-07 +4.243830E-07 +1.675675E-08 +5.201448E-07 -2.595614E-07 +5.201448E-07 +2.654828E-06 
 -2.151207E-08 -2.662436E-07 +1.161112E-07 -2.662436E-07 -1.309053E-06 -5.567779E-07 +1.161112E-07 -5.567779E-07 +1.330565E-06 
 -5.781876E-08 -1.450962E-07 +1.108720E-08 -1.450962E-07 -3.341392E-07 +2.520980E-07 +1.108720E-08 +2.520980E-07 +3.919580E-07 
 -5.519271E-08 -8.126534E-09 -1.644327E-08 -8.126534E-09 -7.085229E-08 -2.266879E-08 -1.644327E-08 -2.266879E-08 +1.260450E-07 
 -4.738633E-08 -7.065996E-08 -7.165912E-08 -7.065996E-08 -1.764211E-07 -8.923669E-08 -7.165912E-08 -8.923669E-08 +2.238074E-07 
 -6.783208E-05 +4.844823E-06 +1.188574E-05 +4.844823E-06 -3.476185E-07 -1.951848E-06 +1.188574E-05 -1.951848E-06 +6.817970E-05 
 -4.704552E-08 -1.257490E-09 -5.110578E-09 -1.257490E-09 -8.681233E-08 -3.129865E-08 -5.110578E-09 -3.129865E-08 +1.338578E-07 
 -1.236758E-07 -1.394535E-07 -4.204108E-08 -1.394535E-07 -1.485164E-07 -1.029195E-07 -4.204108E-08 -1.029195E-07 +2.721922E-07 
 -1.009925E-07 -1.364437E-08 +3.790036E-08 -1.364437E-08 -8.581247E-08 +1.134212E-08 +3.790036E-08 +1.134212E-08 +1.868050E-07 
 -1.561221E-05 -1.611410E-05 +5.882076E-06 -1.611410E-05 -1.623944E-05 +2.394916E-06 +5.882076E-06 +2.394916E-06 +3.185166E-05 
 -5.458926E-05 -3.431565E-05 +1.377586E-05 -3.431565E-05 -1.841793E-05 -6.900832E-06 +1.377586E-05 -6.900832E-06 +7.300719E-05 
 -2.723981E-05 -1.029740E-05 -4.087109E-06 -1.029740E-05 -3.689507E-06 -4.129126E-06 -4.087109E-06 -4.129126E-06 +3.092932E-05 
 -4.323330E-08 +7.059770E-09 -1.267986E-08 +7.059770E-09 -1.634609E-08 +2.225207E-09 -1.267986E-08 +2.225207E-09 +5.957939E-08 
 -6.677849E-07 +3.809645E-07 +2.282987E-07 +3.809645E-07 -2.275851E-07 -2.241556E-07 +2.282987E-07 -2.241556E-07 +8.953700E-07 
 -5.795509E-07 +2.480856E-06 +9.489711E-07 +2.480856E-06 -9.325388E-06 -1.952782E-07 +9.489711E-07 -1.952782E-07 +9.904939E-06 
 -5.119591E-07 -4.021643E-07 +2.097286E-07 -4.021643E-07 -3.124681E-07 +2.231895E-07 +2.097286E-07 +2.231895E-07 +8.244272E-07 
 -6.374746E-08 -8.491356E-10 +2.504694E-08 -8.491356E-10 -2.418417E-08 +8.157909E-09 +2.504694E-08 +8.157909E-09 +8.793163E-08 
 -1.580622E-06 -1.760540E-09 -6.441851E-09 -1.760540E-09 +1.689873E-07 +5.037938E-07 -6.441851E-09 +5.037938E-07 +1.411634E-06 
 -8.821049E-05 +1.555302E-05 -4.199953E-05 +1.555302E-05 -2.745727E-06 +7.404264E-06 -4.199953E-05 +7.404264E-06 +9.095622E-05 
 -4.269395E-06 +1.255567E-06 +6.187785E-07 +1.255567E-06 -2.248588E-07 +6.509965E-07 +6.187785E-07 +6.509965E-07 +4.494253E-06 
 -7.748513E-08 -7.299008E-09 +8.262488E-09 -7.299008E-09 -3.799849E-08 +9.101824E-10 +8.262488E-09 +9.101824E-10 +1.154836E-07 
 -3.406815E-06 +3.581125E-06 -1.928478E-06 +3.581125E-06 -3.283355E-06 +8.921343E-08 -1.928478E-06 +8.921343E-08 +6.690170E-06 
 +3.369109E-08 -1.991518E-08 -5.002948E-08 -1.991518E-08 -7.688528E-08 -3.206251E-08 -5.002948E-08 -3.206251E-08 +4.319419E-08 
 -1.220181E-08 -1.999225E-05 +2.382173E-05 -1.999225E-05 -9.603454E-05 +1.693101E-05 +2.382173E-05 +1.693101E-05 +9.604674E-05 
 -7.981350E-07 -1.442160E-07 +4.014910E-08 -1.442160E-07 -2.010229E-08 -6.535932E-08 +4.014910E-08 -6.535932E-08 +8.182373E-07 
 -2.001015E-07 +9.031520E-08 +2.015165E-08 +9.031520E-08 -1.110428E-07 -2.459053E-09 +2.015165E-08 -2.459053E-09 +3.111443E-07 
 -8.843916E-05 +3.218817E-05 -5.741328E-06 +3.218817E-05 -1.171836E-05 +2.089455E-06 -5.741328E-06 +2.089455E-06 +1.001575E-04 
 -2.481932E-05 +6.478614E-06 -4.832240E-06 +6.478614E-06 -9.647816E-07 -3.211996E-06 -4.832240E-06 -3.211996E-06 +2.578410E-05 
 -2.521227E-04 +1.765374E-04 -1.775660E-05 +1.765374E-04 -1.236145E-04 +1.243460E-05 -1.775660E-05 +1.243460E-05 +3.757372E-04 
 -6.703868E-06 +9.785869E-07 +6.611912E-07 +9.785869E-07 +1.712803E-07 -1.544411E-06 +6.611912E-07 -1.544411E-06 +6.532588E-06 
 -3.450622E-08 -6.599195E-09 +4.015707E-10 -6.599195E-09 -4.453129E-08 +4.370993E-09 +4.015707E-10 +4.370993E-09 +7.903751E-08 
 -4.373665E-07 -1.062240E-07 -1.855070E-07 -1.062240E-07 +3.192093E-08 +1.282381E-07 -1.855070E-07 +1.282381E-07 +4.054456E-07 
 -1.149340E-06 +1.657064E-06 -3.705384E-07 +1.657064E-06 -2.393851E-06 +5.020426E-07 -3.705384E-07 +5.020426E-07 +3.543191E-06 
 -4.998062E-09 +3.100804E-10 +2.368632E-09 +3.100804E-10 -5.687215E-09 -1.717180E-09 +2.368632E-09 -1.717180E-09 +1.068528E-08 
 -3.096775E-08 -1.646225E-08 +7.186382E-09 -1.646225E-08 -7.426370E-08 +5.221521E-09 +7.186382E-09 +5.221521E-09 +1.052315E-07 
 -3.750708E-07 -6.714096E-08 -1.011745E-07 -6.714096E-08 +1.835699E-08 +1.061049E-07 -1.011745E-07 +1.061049E-07 +3.567138E-07 
 -3.615752E-06 +1.015238E-05 -3.222723E-06 +1.015238E-05 -2.543742E-05 -8.629047E-07 -3.222723E-06 -8.629047E-07 +2.905317E-05 
 -1.210610E-07 -1.635567E-07 +3.228390E-08 -1.635567E-07 -1.096242E-07 -1.208825E-07 +3.228390E-08 -1.208825E-07 +2.306852E-07 
 -1.606297E-08 +1.188195E-10 +3.800360E-10 +1.188195E-10 -1.022248E-08 -1.857137E-10 +3.800360E-10 -1.857137E-10 +2.628544E-08 
 -1.304944E-07 +8.093743E-07 -4.489696E-07 +8.093743E-07 -1.602083E-06 -5.888313E-07 -4.489696E-07 -5.888313E-07 +1.732578E-06 
 -1.177589E-05 +2.039455E-05 -9.964828E-06 +2.039455E-05 -3.532547E-05 +1.725931E-05 -9.964828E-06 +1.725931E-05 +4.710136E-05 
 -3.014121E-08 -3.420613E-07 -7.350825E-08 -3.420613E-07 -3.909915E-06 -8.392921E-07 -7.350825E-08 -8.392921E-07 +3.940056E-06 
 -2.179232E-08 -1.035881E-08 +9.572006E-11 -1.035881E-08 -4.027110E-08 -2.025644E-08 +9.572006E-11 -2.025644E-08 +6.206342E-08 
 -1.424633E-05 +1.757781E-05 -1.482932E-06 +1.757781E-05 -1.638796E-05 -1.098429E-05 -1.482932E-06 -1.098429E-05 +3.063429E-05 
 -1.079578E-06 -2.718494E-06 +1.785118E-06 -2.718494E-06 -5.302256E-06 +6.851906E-07 +1.785118E-06 +6.851906E-07 +6.381835E-06 
 -9.187976E-05 -5.365438E-05 +3.000604E-06 -5.365438E-05 -2.643376E-05 -2.234899E-05 +3.000604E-06 -2.234899E-05 +1.183135E-04 
 -1.290525E-06 +1.721253E-06 -3.690693E-07 +1.721253E-06 -1.232126E-06 -1.198192E-06 -3.690693E-07 -1.198192E-06 +2.522651E-06 
 -9.789858E-08 +4.174757E-07 +2.925580E-07 +4.174757E-07 -1.627992E-06 -5.853499E-07 +2.925580E-07 -5.853499E-07 +1.725890E-06 
 -3.209411E-06 -3.206836E-07 -1.066258E-07 -3.206836E-07 +3.317867E-07 +1.027764E-06 -1.066258E-07 +1.027764E-06 +2.877625E-06 
 -1.878374E-08 +1.113351E-08 -2.357965E-08 +1.113351E-08 -1.195681E-07 -4.053762E-08 -2.357965E-08 -4.053762E-08 +1.383518E-07 
 -2.807868E-06 -3.130363E-07 -1.020171E-06 -3.130363E-07 -3.597325E-08 -1.856304E-07 -1.020171E-06 -1.856304E-07 +2.843841E-06 
 -1.518372E-06 -3.828709E-07 -3.132125E-07 -3.828709E-07 +8.841982E-08 +4.601438E-07 -3.132125E-07 +4.601438E-07 +1.429952E-06 
 -9.376488E-07 +1.724571E-06 -2.580538E-07 +1.724571E-06 -3.087837E-06 -1.200202E-07 -2.580538E-07 -1.200202E-07 +4.025486E-06 
 -7.113399E-08 +5.615466E-08 +3.110410E-09 +5.615466E-08 -2.483215E-08 -4.836515E-08 +3.110410E-09 -4.836515E-08 +9.596614E-08 
 -5.381263E-05 +1.153991E-04 +1.534022E-05 +1.153991E-04 -2.474755E-04 -3.289818E-05 +1.534022E-05 -3.289818E-05 +3.012881E-04 
 -3.980842E-08 +3.208941E-10 -2.430454E-09 +3.208941E-10 -4.759285E-08 -6.954501E-09 -2.430454E-09 -6.954501E-09 +8.740127E-08 
 -3.218609E-05 -3.218555E-05 -6.857853E-06 -3.218555E-05 -3.218625E-05 -6.858511E-06 -6.857853E-06 -6.858511E-06 +6.437235E-05 
 -5.194916E-08 +1.055393E-07 +6.067082E-08 +1.055393E-07 -2.170863E-07 +2.168543E-08 +6.067082E-08 +2.168543E-08 +2.690355E-07 
 -3.860878E-07 +4.090885E-07 +5.595533E-08 +4.090885E-07 -2.580961E-07 -4.130876E-07 +5.595533E-08 -4.130876E-07 +6.441839E-07 
 +5.866646E-08 -9.575718E-07 +1.134835E-06 -9.575718E-07 -1.279854E-05 -2.480684E-06 +1.134835E-06 -2.480684E-06 +1.273987E-05 
 -2.289615E-08 +5.762088E-10 -6.151271E-10 +5.762088E-10 -2.897550E-08 -4.621558E-09 -6.151271E-10 -4.621558E-09 +5.187164E-08 
 -1.514643E-06 -1.905761E-06 +7.456401E-07 -1.905761E-06 -2.321909E-06 +3.670379E-07 +7.456401E-07 +3.670379E-07 +3.836552E-06 
 -2.943619E-07 +2.306592E-08 +3.644639E-08 +2.306592E-08 -1.933056E-07 -2.710104E-08 +3.644639E-08 -2.710104E-08 +4.876675E-07 
 -3.194498E-07 +1.133190E-05 +7.692580E-06 +1.133190E-05 -1.083325E-04 +2.111505E-05 +7.692580E-06 +2.111505E-05 +1.086520E-04 
 -2.438616E-08 -5.023999E-10 +6.342109E-09 -5.023999E-10 -1.506279E-08 +8.766645E-09 +6.342109E-09 +8.766645E-09 +3.944895E-08 
 -1.094789E-07 -5.675736E-07 -5.305935E-07 -5.675736E-07 -1.806273E-06 -4.734295E-07 -5.305935E-07 -4.734295E-07 +1.915752E-06 
 -2.674965E-07 +9.689662E-07 +4.389305E-07 +9.689662E-07 -2.558049E-06 +2.537714E-07 +4.389305E-07 +2.537714E-07 +2.825546E-06 
 -1.655763E-07 +3.023035E-08 +9.054087E-08 +3.023035E-08 -1.278354E-08 -3.649071E-08 +9.054087E-08 -3.649071E-08 +1.783598E-07 
 -2.118546E-07 -5.700655E-09 +1.685260E-08 -5.700655E-09 -5.566807E-08 -8.891300E-09 +1.685260E-08 -8.891300E-09 +2.675227E-07 
 -1.615678E-05 +1.883073E-05 +7.880368E-06 +1.883073E-05 -2.083915E-05 -2.444476E-06 +7.880368E-06 -2.444476E-06 +3.699593E-05 
 -2.474895E-07 +9.417916E-08 +1.736394E-07 +9.417916E-08 -3.158132E-08 -7.624276E-09 +1.736394E-07 -7.624276E-09 +2.790708E-07 
 -8.594073E-08 +7.048727E-08 -1.849309E-08 +7.048727E-08 -9.987603E-08 +5.215719E-08 -1.849309E-08 +5.215719E-08 +1.858168E-07 
 +2.297887E-09 +2.276080E-08 +4.291126E-08 +2.276080E-08 -1.431072E-07 +2.663626E-08 +4.291126E-08 +2.663626E-08 +1.408093E-07 
 -2.346757E-06 +1.469786E-07 +8.988636E-07 +1.469786E-07 +1.928158E-08 +2.277742E-07 +8.988636E-07 +2.277742E-07 +2.327476E-06 
 -1.593126E-07 +4.529557E-07 +3.116238E-07 +4.529557E-07 -5.757165E-07 +1.026310E-07 +3.116238E-07 +1.026310E-07 +7.350291E-07 
 -6.047462E-07 +1.518430E-07 -1.761032E-07 +1.518430E-07 -2.434062E-07 -2.868025E-07 -1.761032E-07 -2.868025E-07 +8.481524E-07 
 -2.597351E-05 +3.802391E-05 +3.293124E-06 +3.802391E-05 -4.875191E-05 +1.822306E-05 +3.293124E-06 +1.822306E-05 +7.472542E-05 
 -4.082083E-07 -2.916684E-07 -3.380252E-07 -2.916684E-07 -2.202556E-07 +8.834352E-09 -3.380252E-07 +8.834352E-09 +6.284639E-07 
 -1.454902E-07 +1.374378E-07 +1.204951E-07 +1.374378E-07 -7.191318E-08 +2.520608E-08 +1.204951E-07 +2.520608E-08 +2.174034E-07 
 -6.441723E-05 +5.184438E-05 +2.064573E-05 +5.184438E-05 -3.088691E-05 +1.666438E-05 +2.064573E-05 +1.666438E-05 +9.530414E-05 
 -4.707274E-06 -3.986543E-06 +3.283625E-07 -3.986543E-06 -3.273625E-06 -6.351526E-07 +3.283625E-07 -6.351526E-07 +7.980899E-06 
 -4.625208E-08 -9.411622E-09 -4.822272E-09 -9.411622E-09 -7.821604E-08 -1.316081E-08 -4.822272E-09 -1.316081E-08 +1.244681E-07 
 -5.512172E-05 +2.570326E-05 -4.207223E-06 +2.570326E-05 -1.198661E-05 +1.961198E-06 -4.207223E-06 +1.961198E-06 +6.710833E-05 
 -2.031697E-04 -1.739084E-04 -9.687573E-05 -1.739084E-04 -1.105414E-04 +3.463932E-05 -9.687573E-05 +3.463932E-05 +3.137111E-04 
 -2.781309E-05 -3.461522E-06 -7.988368E-06 -3.461522E-06 +4.600270E-07 -6.280303E-06 -7.988368E-06 -6.280303E-06 +2.735306E-05 
 -3.086634E-08 +3.794203E-09 -1.435626E-08 +3.794203E-09 -1.109188E-08 +9.064821E-10 -1.435626E-08 +9.064821E-10 +4.195822E-08 
 -5.253756E-07 +2.976112E-06 -1.517936E-06 +2.976112E-06 -1.687885E-05 +8.608517E-06 -1.517936E-06 +8.608517E-06 +1.740423E-05 
 -1.847830E-06 -7.414092E-08 +3.171718E-07 -7.414092E-08 -6.402257E-10 +1.021183E-07 +3.171718E-07 +1.021183E-07 +1.848470E-06 
 -3.554146E-08 -1.358084E-08 +5.320959E-10 -1.358084E-08 -5.141240E-08 +5.339609E-09 +5.320959E-10 +5.339609E-09 +8.695386E-08 
 -2.292431E-05 -7.585317E-06 +1.300892E-05 -7.585317E-06 -2.896806E-07 -3.992870E-06 +1.300892E-05 -3.992870E-06 +2.321399E-05 
 -2.246521E-06 +1.684887E-06 +4.010032E-07 +1.684887E-06 -6.212135E-07 -1.686768E-06 +4.010032E-07 -1.686768E-06 +2.867735E-06 
 -5.087112E-06 -1.230042E-05 +1.563609E-06 -1.230042E-05 -2.922661E-05 -5.676678E-07 +1.563609E-06 -5.676678E-07 +3.431373E-05 
 -3.948199E-08 +2.561675E-09 +2.155817E-09 +2.561675E-09 -2.026929E-08 -4.773572E-09 +2.155817E-09 -4.773572E-09 +5.975128E-08 
 -3.142507E-07 +4.296381E-07 -1.067849E-07 +4.296381E-07 -5.003983E-07 -1.274587E-07 -1.067849E-07 -1.274587E-07 +8.146490E-07 
 -1.767455E-05 -6.594638E-05 -2.476257E-05 -6.594638E-05 -2.461174E-04 -9.240778E-05 -2.476257E-05 -9.240778E-05 +2.637920E-04 
 +2.658881E-06 -3.517175E-06 -1.298729E-05 -3.517175E-06 -6.330533E-05 +3.480445E-06 -1.298729E-05 +3.480445E-06 +6.064645E-05 
 -4.414558E-08 -7.305187E-07 +2.322037E-07 -7.305187E-07 -1.101329E-05 -2.059072E-08 +2.322037E-07 -2.059072E-08 +1.105744E-05 
 -2.211012E-06 -2.002984E-06 -3.495170E-07 -2.002984E-06 -1.099580E-06 +1.260748E-06 -3.495170E-07 +1.260748E-06 +3.310592E-06 
 -2.365775E-07 -1.892383E-07 -5.934806E-08 -1.892383E-07 -1.512386E-07 -3.553914E-08 -5.934806E-08 -3.553914E-08 +3.878160E-07 
 -6.867758E-09 -5.302907E-07 +6.759419E-07 -5.302907E-07 -1.812843E-06 +4.429023E-07 +6.759419E-07 +4.429023E-07 +1.819711E-06 
 -3.512905E-08 +1.810440E-08 +6.080015E-09 +1.810440E-08 -5.811398E-08 -1.870139E-08 +6.080015E-09 -1.870139E-08 +9.324303E-08 
 -5.177804E-07 +8.213806E-07 -5.316351E-07 +8.213806E-07 -1.000327E-06 +1.116682E-08 -5.316351E-07 +1.116682E-08 +1.518108E-06 
 -1.200591E-05 +2.999487E-05 -1.021708E-05 +2.999487E-05 -6.080202E-05 -8.447543E-06 -1.021708E-05 -8.447543E-06 +7.280793E-05 
 -2.469540E-06 +4.266756E-06 -1.533027E-06 +4.266756E-06 -4.842877E-06 -1.927214E-06 -1.533027E-06 -1.927214E-06 +7.312417E-06 
 -1.994388E-08 -9.047166E-09 -8.329042E-09 -9.047166E-09 -1.977309E-08 -7.884700E-09 -8.329042E-09 -7.884700E-09 +3.971697E-08 
 -3.082122E-08 -8.993370E-10 -1.528681E-08 -8.993370E-10 -7.619475E-09 +3.037771E-09 -1.528681E-08 +3.037771E-09 +3.844069E-08 
 +2.852162E-08 -5.447746E-08 -8.087067E-08 -5.447746E-08 -1.958813E-07 -9.737393E-08 -8.087067E-08 -9.737393E-08 +1.673597E-07 
 -9.040006E-07 -1.049433E-07 +2.282840E-07 -1.049433E-07 +9.333700E-08 -2.910118E-07 +2.282840E-07 -2.910118E-07 +8.106636E-07 
 -2.328790E-05 -5.557705E-06 -5.336718E-06 -5.557705E-06 +4.218992E-07 +5.257763E-06 -5.336718E-06 +5.257763E-06 +2.286600E-05 
 -8.523843E-06 -4.832518E-05 +1.640674E-05 -4.832518E-05 -2.740684E-04 +9.304743E-05 +1.640674E-05 +9.304743E-05 +2.825923E-04 
 -1.853809E-06 +1.339119E-06 +2.729924E-07 +1.339119E-06 -9.750308E-07 -4.327302E-07 +2.729924E-07 -4.327302E-07 +2.828840E-06 
 -9.111349E-05 +6.397191E-05 +9.975771E-08 +6.397191E-05 -4.492239E-05 +1.464722E-07 +9.975771E-08 +1.464722E-07 +1.360359E-04 
 -1.199974E-04 -8.197710E-05 -1.913537E-05 -8.197710E-05 -5.398916E-05 -3.197819E-05 -1.913537E-05 -3.197819E-05 +1.739866E-04 
 -2.581528E-06 +4.683238E-07 +5.957227E-07 +4.683238E-07 +9.373443E-08 -8.221967E-07 +5.957227E-07 -8.221967E-07 +2.487794E-06 
 -6.744877E-07 -7.809640E-07 -7.322391E-07 -7.809640E-07 -4.360855E-07 +1.016507E-07 -7.322391E-07 +1.016507E-07 +1.110573E-06 
 -4.600183E-05 -4.113219E-05 -1.102205E-05 -4.113219E-05 -3.249235E-05 +8.811533E-06 -1.102205E-05 +8.811533E-06 +7.849418E-05 
 -2.094096E-06 +3.623060E-06 +5.966879E-07 +3.623060E-06 -4.203279E-06 +2.647191E-06 +5.966879E-07 +2.647191E-06 +6.297375E-06 
 +6.197538E-08 +1.318118E-09 +3.408142E-07 +1.318118E-09 -1.379730E-06 +6.148827E-09 +3.408142E-07 +6.148827E-09 +1.317755E-06 
 -1.901269E-06 +1.596173E-06 -9.501909E-07 +1.596173E-06 -1.107653E-06 -1.053574E-07 -9.501909E-07 -1.053574E-07 +3.008922E-06 
 -2.914088E-06 +6.297317E-08 +1.145809E-06 +6.297317E-08 +1.098943E-07 -6.328777E-07 +1.145809E-06 -6.328777E-07 +2.804194E-06 
 -3.669015E-08 -7.161009E-09 +1.062328E-08 -7.161009E-09 -6.659548E-08 -4.926492E-09 +1.062328E-08 -4.926492E-09 +1.032856E-07 
 -4.132916E-06 -8.614387E-08 -1.438434E-06 -8.614387E-08 -6.529329E-09 +4.109540E-07 -1.438434E-06 +4.109540E-07 +4.139446E-06 
 -2.210428E-06 -2.152274E-06 +7.661996E-08 -2.152274E-06 -1.223091E-06 +1.819979E-06 +7.661996E-08 +1.819979E-06 +3.433519E-06 
 -7.759968E-06 -1.686537E-06 +5.367809E-07 -1.686537E-06 +9.973056E-08 +2.027860E-06 +5.367809E-07 +2.027860E-06 +7.660237E-06 
 -2.066368E-08 +7.044928E-09 -1.319021E-08 +7.044928E-09 -4.658345E-08 +2.615324E-08 -1.319021E-08 +2.615324E-08 +6.724713E-08 
 +1.469666E-09 -3.065783E-09 +6.790583E-10 -3.065783E-09 -6.518295E-09 +4.835468E-09 +6.790583E-10 +4.835468E-09 +5.048630E-09 
 -4.854650E-09 -1.356150E-06 +1.356908E-06 -1.356150E-06 -9.768138E-05 +2.375648E-09 +1.356908E-06 +2.375648E-09 +9.768624E-05 
 -7.548215E-08 -3.147308E-07 -9.615145E-08 -3.147308E-07 -1.487058E-06 -8.852114E-07 -9.615145E-08 -8.852114E-07 +1.562540E-06 
 -6.126704E-08 -2.845763E-09 -7.507421E-09 -2.845763E-09 -5.958391E-08 +8.050215E-09 -7.507421E-09 +8.050215E-09 +1.208510E-07 
 -8.999914E-08 -4.952128E-09 +7.776997E-09 -4.952128E-09 -2.341113E-08 -6.523997E-09 +7.776997E-09 -6.523997E-09 +1.134103E-07 
 -5.130627E-05 -7.867070E-05 -3.539776E-05 -7.867070E-05 -1.161699E-04 -2.501032E-05 -3.539776E-05 -2.501032E-05 +1.674762E-04 
 -2.118657E-07 -1.266599E-08 -2.119192E-08 -1.266599E-08 -8.154308E-08 +1.912172E-08 -2.119192E-08 +1.912172E-08 +2.934088E-07 
 -3.326928E-08 -1.650206E-10 +2.713001E-09 -1.650206E-10 -3.197822E-08 -7.781620E-10 +2.713001E-09 -7.781620E-10 +6.524751E-08 
 -4.110238E-07 +5.180710E-07 -2.218854E-08 +5.180710E-07 -6.544025E-07 -1.946150E-08 -2.218854E-08 -1.946150E-08 +1.065426E-06 
 -8.937796E-06 +3.355449E-05 -1.762487E-05 +3.355449E-05 -9.074164E-05 -2.873723E-06 -1.762487E-05 -2.873723E-06 +9.967943E-05 
 -2.889948E-07 +6.867142E-07 -6.400612E-07 +6.867142E-07 -8.991790E-07 +1.081725E-07 -6.400612E-07 +1.081725E-07 +1.188174E-06 
 -2.283641E-06 +2.671391E-06 +1.180326E-07 +2.671391E-06 -2.875829E-06 -1.274342E-06 +1.180326E-07 -1.274342E-06 +5.159469E-06 
 -2.773696E-08 -3.780343E-10 +9.049942E-09 -3.780343E-10 -1.317743E-08 +1.998826E-10 +9.049942E-09 +1.998826E-10 +4.091439E-08 
 +5.491207E-09 -8.078769E-10 +1.117887E-08 -8.078769E-10 -9.921075E-08 -5.688461E-08 +1.117887E-08 -5.688461E-08 +9.371954E-08 
 -4.537142E-08 +2.674974E-09 -1.464643E-08 +2.674974E-09 -2.430524E-08 +3.373592E-10 -1.464643E-08 +3.373592E-10 +6.967666E-08 
 -1.688799E-06 +1.265185E-06 +1.584849E-07 +1.265185E-06 -8.144932E-07 -7.026961E-07 +1.584849E-07 -7.026961E-07 +2.503293E-06 
 -2.318135E-04 +1.050193E-04 +1.100660E-04 +1.050193E-04 -3.636390E-05 +1.021584E-05 +1.100660E-04 +1.021584E-05 +2.681774E-04 
 -9.456358E-06 +2.527943E-05 -5.022190E-06 +2.527943E-05 -5.723689E-05 -1.350967E-05 -5.022190E-06 -1.350967E-05 +6.669325E-05 
 -7.021853E-08 +1.146666E-08 -7.423031E-09 +1.146666E-08 -1.141635E-07 +1.273987E-08 -7.423031E-09 +1.273987E-08 +1.843820E-07 
 -9.229562E-08 +2.762721E-08 +2.763188E-08 +2.762721E-08 -8.711392E-08 -3.159157E-08 +2.763188E-08 -3.159157E-08 +1.794095E-07 
 -2.519990E-05 -1.704140E-05 -1.697579E-05 -1.704140E-05 -8.936887E-06 -5.650736E-07 -1.697579E-05 -5.650736E-07 +3.413679E-05 
 -3.363476E-05 +8.379065E-06 -6.979163E-06 +8.379065E-06 -1.788809E-06 +5.076239E-06 -6.979163E-06 +5.076239E-06 +3.542357E-05 
 -1.810081E-07 +8.416650E-06 +6.468616E-06 +8.416650E-06 -8.483540E-05 +1.132756E-05 +6.468616E-06 +1.132756E-05 +8.501641E-05 
 -2.808823E-06 +3.652252E-06 +2.557937E-07 +3.652252E-06 -4.241718E-06 +1.580385E-06 +2.557937E-07 +1.580385E-06 +7.050541E-06 
 -8.708864E-10 -1.638109E-06 +1.952162E-06 -1.638109E-06 -1.100154E-05 +1.939530E-06 +1.952162E-06 +1.939530E-06 +1.100241E-05 
 +1.474496E-06 +6.944312E-06 +8.232064E-06 +6.944312E-06 -2.851685E-05 +4.757264E-06 +8.232064E-06 +4.757264E-06 +2.704236E-05 
 -2.840595E-08 +3.942217E-09 +2.360137E-09 +3.942217E-09 -3.745027E-08 -2.527098E-09 +2.360137E-09 -2.527098E-09 +6.585622E-08 
 -6.233396E-08 +1.516499E-08 -5.117613E-09 +1.516499E-08 -5.896070E-08 -1.053611E-08 -5.117613E-09 -1.053611E-08 +1.212947E-07 
 -4.560641E-08 -1.629313E-08 -4.045353E-09 -1.629313E-08 -2.848494E-08 -3.040254E-09 -4.045353E-09 -3.040254E-09 +7.409135E-08 
 -2.089448E-06 -2.014367E-06 -1.247081E-06 -2.014367E-06 -1.172329E-06 +5.594291E-07 -1.247081E-06 +5.594291E-07 +3.261777E-06 
 -1.716996E-05 -1.715718E-05 -4.284810E-06 -1.715718E-05 -1.715781E-05 -4.274159E-06 -4.284810E-06 -4.274159E-06 +3.432777E-05 
 -7.058878E-07 -5.767342E-07 -2.583852E-07 -5.767342E-07 -3.537183E-07 +1.634360E-07 -2.583852E-07 +1.634360E-07 +1.059606E-06 
 -3.949398E-06 -1.434625E-06 +1.527328E-06 -1.434625E-06 -5.270239E-07 +5.543282E-07 +1.527328E-06 +5.543282E-07 +4.476422E-06 
 -1.227021E-06 +9.615861E-07 +1.619243E-07 +9.615861E-07 -5.857927E-07 -7.113615E-07 +1.619243E-07 -7.113615E-07 +1.812814E-06 
 -5.969428E-07 -7.469725E-08 -2.938793E-07 -7.469725E-08 +3.777729E-08 +1.531632E-07 -2.938793E-07 +1.531632E-07 +5.591655E-07 
 +9.757027E-07 +2.183319E-05 -1.647135E-05 +2.183319E-05 -1.246608E-04 -6.171072E-05 -1.647135E-05 -6.171072E-05 +1.236851E-04 
 +1.326468E-08 +1.056979E-07 +1.583563E-07 +1.056979E-07 -4.971805E-07 -9.553126E-08 +1.583563E-07 -9.553126E-08 +4.839158E-07 
 -1.272827E-08 -3.359327E-09 -4.286283E-09 -3.359327E-09 -1.337030E-08 -3.903520E-09 -4.286283E-09 -3.903520E-09 +2.609857E-08 
 -9.682028E-09 -4.332251E-09 +3.390946E-09 -4.332251E-09 -1.641721E-08 +2.928817E-09 +3.390946E-09 +2.928817E-09 +2.609923E-08 
 -6.007232E-05 +5.170257E-05 -1.136960E-05 +5.170257E-05 -4.313142E-05 -2.242500E-06 -1.136960E-05 -2.242500E-06 +1.032037E-04 
 -1.083092E-07 -4.976623E-07 +7.739393E-08 -4.976623E-07 -1.642441E-06 -7.381857E-07 +7.739393E-08 -7.381857E-07 +1.750750E-06 
 -6.111935E-08 -1.122904E-07 +2.854349E-08 -1.122904E-07 -2.068788E-07 +3.787070E-08 +2.854349E-08 +3.787070E-08 +2.679981E-07 
 -4.332396E-05 +3.227038E-07 -2.082644E-09 +3.227038E-07 -4.931150E-09 +3.225644E-07 -2.082644E-09 +3.225644E-07 +4.332890E-05 
 -7.871621E-09 -3.774727E-09 -4.503018E-09 -3.774727E-09 -1.007924E-08 -4.073011E-09 -4.503018E-09 -4.073011E-09 +1.795086E-08 
 -9.899985E-08 +2.230070E-08 +1.070624E-08 +2.230070E-08 -2.213729E-08 -4.440209E-09 +1.070624E-08 -4.440209E-09 +1.211371E-07 
 -4.905424E-06 -3.297413E-05 +1.039083E-05 -3.297413E-05 -1.718619E-04 -3.007799E-05 +1.039083E-05 -3.007799E-05 +1.767673E-04 
 -1.391022E-05 -3.821556E-05 -5.048787E-06 -3.821556E-05 -1.049967E-04 -1.387246E-05 -5.048787E-06 -1.387246E-05 +1.189069E-04 
 -1.510305E-08 -8.808489E-07 +5.412272E-07 -8.808489E-07 -2.878945E-06 -1.370632E-06 +5.412272E-07 -1.370632E-06 +2.894048E-06 
 -4.272036E-08 +1.120024E-07 -9.095110E-09 +1.120024E-07 -2.565251E-07 +1.958106E-07 -9.095110E-09 +1.958106E-07 +2.992454E-07 
 -3.572204E-08 +3.228781E-09 -8.577953E-09 +3.228781E-09 -7.988396E-08 +4.842359E-09 -8.577953E-09 +4.842359E-09 +1.156060E-07 
 -3.636173E-06 +2.431934E-06 -2.460298E-06 +2.431934E-06 -1.239726E-06 +4.302100E-08 -2.460298E-06 +4.302100E-08 +4.875899E-06 
 -1.153665E-08 +3.714192E-08 -6.325742E-08 +3.714192E-08 -4.473682E-07 +2.500011E-07 -6.325742E-08 +2.500011E-07 +4.589049E-07 
 -1.663767E-08 -1.631429E-07 +2.014657E-07 -1.631429E-07 -3.430321E-07 +7.156894E-08 +2.014657E-07 +7.156894E-08 +3.596698E-07 
 -6.084809E-06 -5.255266E-06 +4.508407E-06 -5.255266E-06 -3.896740E-06 +9.532623E-07 +4.508407E-06 +9.532623E-07 +9.981549E-06 
 -5.120063E-06 -5.671884E-07 -9.172463E-07 -5.671884E-07 -6.332552E-08 +1.971788E-08 -9.172463E-07 +1.971788E-08 +5.183389E-06 
 -3.449318E-07 +4.912887E-07 +2.849061E-07 +4.912887E-07 -6.882355E-07 -2.490495E-07 +2.849061E-07 -2.490495E-07 +1.033167E-06 
 -1.274735E-07 +7.694798E-08 -9.986920E-08 +7.694798E-08 -9.251906E-08 +4.381680E-08 -9.986920E-08 +4.381680E-08 +2.199926E-07 
 +1.453578E-08 -3.917506E-08 +5.520527E-08 -3.917506E-08 -1.724787E-07 -3.878275E-08 +5.520527E-08 -3.878275E-08 +1.579429E-07 
 -3.695251E-08 -6.783560E-09 +6.182997E-09 -6.783560E-09 -2.451575E-08 +1.267334E-08 +6.182997E-09 +1.267334E-08 +6.146825E-08 
 +5.386438E-08 +2.053055E-07 -6.487929E-07 +2.053055E-07 -7.487922E-06 -2.344972E-06 -6.487929E-07 -2.344972E-06 +7.434058E-06 
 -1.195108E-07 +3.315910E-08 +1.536119E-08 +3.315910E-08 -8.324394E-08 -4.603431E-09 +1.536119E-08 -4.603431E-09 +2.027547E-07 
 -2.768739E-06 +1.010694E-05 +5.002104E-06 +1.010694E-05 -2.699197E-05 +1.559360E-06 +5.002104E-06 +1.559360E-06 +2.976071E-05 
 -1.419376E-07 +9.637373E-07 -6.475123E-07 +9.637373E-07 -3.584286E-06 -5.629221E-08 -6.475123E-07 -5.629221E-08 +3.726223E-06 
 -6.044494E-07 -3.275582E-07 -2.059247E-07 -3.275582E-07 -1.635642E-07 -2.401669E-07 -2.059247E-07 -2.401669E-07 +7.680136E-07 
 -1.903490E-07 -1.763911E-06 -1.603057E-06 -1.763911E-06 -5.077286E-06 -2.888918E-07 -1.603057E-06 -2.888918E-07 +5.267635E-06 
 -2.503921E-06 -1.127726E-07 +7.334624E-07 -1.127726E-07 +9.160937E-08 +5.824650E-07 +7.334624E-07 +5.824650E-07 +2.412311E-06 
 -2.114557E-06 -2.331487E-06 +8.740247E-07 -2.331487E-06 -2.277728E-06 -2.201151E-07 +8.740247E-07 -2.201151E-07 +4.392285E-06 
 -1.966135E-06 +9.470012E-07 +8.939900E-07 +9.470012E-07 -3.728336E-07 +6.406346E-08 +8.939900E-07 +6.406346E-08 +2.338968E-06 
 -3.087412E-07 +1.681798E-06 -5.539896E-08 +1.681798E-06 -9.230872E-06 -8.538771E-09 -5.539896E-08 -8.538771E-09 +9.539613E-06 
 -2.098823E-07 -1.104263E-08 -1.054570E-07 -1.104263E-08 -4.093636E-08 +9.764282E-09 -1.054570E-07 +9.764282E-09 +2.508186E-07 
 -2.887268E-06 -3.421171E-06 +1.429859E-06 -3.421171E-06 -3.113472E-06 -8.340941E-07 +1.429859E-06 -8.340941E-07 +6.000739E-06 
 -1.035690E-07 +5.767114E-09 +7.703464E-09 +5.767114E-09 -1.980022E-08 +6.248660E-09 +7.703464E-09 +6.248660E-09 +1.233692E-07 
 -9.710599E-09 -1.231271E-09 +1.376995E-09 -1.231271E-09 -2.723118E-08 +2.754733E-09 +1.376995E-09 +2.754733E-09 +3.694177E-08 
 -2.734713E-07 +8.927372E-08 -5.759665E-08 +8.927372E-08 -8.669938E-08 -2.821677E-08 -5.759665E-08 -2.821677E-08 +3.601706E-07 
 -2.328503E-05 +3.484315E-05 +5.313191E-06 +3.484315E-05 -4.561754E-05 +1.356475E-05 +5.313191E-06 +1.356475E-05 +6.890258E-05 
 -2.357633E-06 +2.143667E-06 -1.274426E-06 +2.143667E-06 -1.948222E-06 +9.123443E-07 -1.274426E-06 +9.123443E-07 +4.305855E-06 
 -4.905783E-06 +2.457870E-06 -1.155274E-06 +2.457870E-06 -1.204418E-06 +1.529021E-07 -1.155274E-06 +1.529021E-07 +6.110201E-06 
 -1.219695E-06 -1.200112E-06 -4.987619E-07 -1.200112E-06 -1.157849E-06 -7.496484E-07 -4.987619E-07 -7.496484E-07 +2.377544E-06 
 -1.547046E-08 +3.614295E-09 -3.640733E-09 +3.614295E-09 -3.015443E-08 -4.899450E-09 -3.640733E-09 -4.899450E-09 +4.562489E-08 
 -4.913548E-06 +1.098685E-05 +7.137592E-08 +1.098685E-05 -2.333061E-05 +5.790248E-06 +7.137592E-08 +5.790248E-06 +2.824415E-05 
 -1.495828E-04 -4.058311E-11 -4.769930E-05 -4.058311E-11 -3.568578E-09 -1.551858E-09 -4.769930E-05 -1.551858E-09 +1.495864E-04 
 -1.096983E-07 +8.739108E-07 -5.282227E-07 +8.739108E-07 -5.772482E-06 +9.945988E-07 -5.282227E-07 +9.945988E-07 +5.882180E-06 
 -1.233696E-08 -6.124414E-09 -5.049393E-08 -6.124414E-09 -1.446653E-07 +5.821196E-08 -5.049393E-08 +5.821196E-08 +1.570023E-07 
 -2.158924E-07 +2.068937E-07 +1.898058E-07 +2.068937E-07 -4.061388E-07 -2.154857E-07 +1.898058E-07 -2.154857E-07 +6.220312E-07 
 -3.644666E-08 +4.143074E-07 -9.336274E-08 +4.143074E-07 -4.735695E-06 +1.066668E-06 -9.336274E-08 +1.066668E-06 +4.772142E-06 
 -4.828344E-08 -6.048250E-09 +5.151243E-09 -6.048250E-09 -4.329968E-08 -2.306664E-09 +5.151243E-09 -2.306664E-09 +9.158312E-08 
 -5.661345E-08 -1.569014E-06 -4.901135E-07 -1.569014E-06 -2.937412E-05 +1.079020E-05 -4.901135E-07 +1.079020E-05 +2.943073E-05 
 -1.296915E-06 -1.153870E-06 -2.813185E-07 -1.153870E-06 -6.544872E-07 +6.161046E-07 -2.813185E-07 +6.161046E-07 +1.951403E-06 
 -7.173650E-07 -2.156346E-06 +7.357887E-07 -2.156346E-06 -6.003282E-06 +3.040338E-07 +7.357887E-07 +3.040338E-07 +6.720647E-06 
 -3.311694E-07 -7.998332E-07 +6.608053E-07 -7.998332E-07 -1.317819E-06 +1.630306E-07 +6.608053E-07 +1.630306E-07 +1.648988E-06 
 -3.481851E-07 +8.908741E-07 -3.551720E-07 +8.908741E-07 -1.000430E-06 -5.756602E-07 -3.551720E-07 -5.756602E-07 +1.348615E-06 
 -3.135121E-08 -3.180489E-08 -1.474129E-08 -3.180489E-08 -2.823627E-08 -3.737918E-08 -1.474129E-08 -3.737918E-08 +5.958748E-08 
 -3.104072E-07 +1.008563E-07 -7.523182E-08 +1.008563E-07 -1.500974E-07 +6.730621E-08 -7.523182E-08 +6.730621E-08 +4.605046E-07 
 -6.643363E-08 -8.588793E-08 +3.283106E-08 -8.588793E-08 -1.639192E-07 -2.294869E-09 +3.283106E-08 -2.294869E-09 +2.303529E-07 
 -1.803697E-08 +5.781527E-09 +6.200574E-09 +5.781527E-09 -1.620678E-08 -3.783934E-09 +6.200574E-09 -3.783934E-09 +3.424375E-08 
 +1.379578E-07 +2.661615E-07 -5.204697E-07 +2.661615E-07 -1.049533E-06 +2.750654E-07 -5.204697E-07 +2.750654E-07 +9.115753E-07 
 -1.803461E-05 +1.238904E-05 +4.720020E-06 +1.238904E-05 -4.394306E-06 +6.645231E-06 +4.720020E-06 +6.645231E-06 +2.242892E-05 
 -1.360932E-04 -4.953259E-05 +4.722541E-05 -4.953259E-05 -1.803173E-05 +1.718741E-05 +4.722541E-05 +1.718741E-05 +1.541249E-04 
 -2.787569E-06 +2.455112E-06 +5.787522E-07 +2.455112E-06 -2.158407E-06 -6.667918E-07 +5.787522E-07 -6.667918E-07 +4.945976E-06 
 -7.858329E-05 +1.361028E-04 -2.296412E-05 +1.361028E-04 -2.357409E-04 +3.977976E-05 -2.296412E-05 +3.977976E-05 +3.143242E-04 
 -9.062025E-06 +2.833102E-05 -1.347874E-05 +2.833102E-05 -8.140070E-05 +1.390184E-05 -1.347874E-05 +1.390184E-05 +9.046272E-05 
 -8.432801E-09 -2.473434E-09 +2.759796E-09 -2.473434E-09 -8.242425E-09 +4.539187E-09 +2.759796E-09 +4.539187E-09 +1.667523E-08 
 +2.799962E-07 -1.363687E-06 -1.631291E-06 -1.363687E-06 -5.612732E-06 +8.002445E-07 -1.631291E-06 +8.002445E-07 +5.332736E-06 
 -1.372225E-08 -6.910455E-09 +5.899538E-09 -6.910455E-09 -1.838422E-08 +7.994411E-09 +5.899538E-09 +7.994411E-09 +3.210647E-08 
 -6.694915E-09 +2.110407E-09 -2.526057E-09 +2.110407E-09 -5.412058E-09 +9.271150E-10 -2.526057E-09 +9.271150E-10 +1.210697E-08 
 -4.026873E-08 -3.322701E-08 +1.866636E-08 -3.322701E-08 -3.159160E-08 +3.444704E-08 +1.866636E-08 +3.444704E-08 +7.186033E-08 
 -1.610532E-07 +7.177824E-07 +9.305193E-08 +7.177824E-07 -1.767406E-06 +1.398101E-06 +9.305193E-08 +1.398101E-06 +1.928459E-06 
 -8.435339E-07 -7.692017E-07 +6.788158E-07 -7.692017E-07 -4.006807E-07 -1.243878E-07 +6.788158E-07 -1.243878E-07 +1.244215E-06 
 -6.261629E-05 +4.384370E-05 +9.100058E-06 +4.384370E-05 -3.070088E-05 -6.372077E-06 +9.100058E-06 -6.372077E-06 +9.331718E-05 
 -3.365179E-07 -2.330409E-06 -8.188645E-07 -2.330409E-06 -7.072130E-06 +3.583425E-06 -8.188645E-07 +3.583425E-06 +7.408648E-06 
 -7.212706E-07 -8.602762E-07 +2.037316E-07 -8.602762E-07 -8.514675E-07 -2.911056E-07 +2.037316E-07 -2.911056E-07 +1.572738E-06 
 -5.753168E-07 -2.173163E-06 -7.530188E-07 -2.173163E-06 -5.035907E-06 +1.734898E-06 -7.530188E-07 +1.734898E-06 +5.611224E-06 
 -4.052566E-05 +2.224785E-05 +1.137534E-05 +2.224785E-05 -1.164971E-05 -1.183786E-05 +1.137534E-05 -1.183786E-05 +5.217537E-05 
 -4.599956E-07 +5.439742E-07 -4.700358E-07 +5.439742E-07 -3.568454E-07 -6.512897E-08 -4.700358E-07 -6.512897E-08 +8.168411E-07 
 -7.350041E-08 -7.406431E-08 -7.965541E-08 -7.406431E-08 -7.530027E-08 -4.183493E-08 -7.965541E-08 -4.183493E-08 +1.488007E-07 
 -5.744917E-06 -2.458649E-06 +9.717496E-07 -2.458649E-06 -1.030595E-06 +8.209856E-07 +9.717496E-07 +8.209856E-07 +6.775512E-06 
 +1.786715E-07 -6.365204E-06 +8.406809E-06 -6.365204E-06 -8.438541E-05 +1.158363E-05 +8.406809E-06 +1.158363E-05 +8.420673E-05 
 -5.887415E-08 +5.826334E-07 +5.599387E-07 +5.826334E-07 -2.446202E-06 -3.916540E-07 +5.599387E-07 -3.916540E-07 +2.505076E-06 
 -6.510584E-07 +7.335045E-07 -1.926083E-07 +7.335045E-07 -7.860252E-07 +4.982322E-07 -1.926083E-07 +4.982322E-07 +1.437084E-06 
 -1.126820E-06 -7.982102E-06 -4.797388E-06 -7.982102E-06 -3.622283E-05 +4.163922E-07 -4.797388E-06 +4.163922E-07 +3.734965E-05 
 -6.116490E-06 -2.042500E-06 +9.722301E-07 -2.042500E-06 -3.120323E-07 +1.888099E-06 +9.722301E-07 +1.888099E-06 +6.428522E-06 
 -6.117394E-08 +2.630010E-08 +2.312067E-08 +2.630010E-08 -8.467946E-08 -2.289583E-08 +2.312067E-08 -2.289583E-08 +1.458534E-07 
 -1.199228E-06 +1.311796E-06 -8.849661E-07 +1.311796E-06 -1.090216E-06 -4.976719E-08 -8.849661E-07 -4.976719E-08 +2.289444E-06 
 -8.251369E-08 -3.605943E-08 -9.244173E-09 -3.605943E-08 -8.342531E-08 -7.148746E-09 -9.244173E-09 -7.148746E-09 +1.659390E-07 
 -5.013410E-07 -1.585283E-06 +2.992455E-07 -1.585283E-06 -2.917676E-06 -1.841847E-06 +2.992455E-07 -1.841847E-06 +3.419017E-06 
 -2.240296E-06 +1.848694E-07 +6.882267E-07 +1.848694E-07 +4.258221E-08 -4.722057E-07 +6.882267E-07 -4.722057E-07 +2.197714E-06 
 -6.251510E-05 +6.518009E-05 -2.154858E-05 +6.518009E-05 -6.588232E-05 +5.664225E-06 -2.154858E-05 +5.664225E-06 +1.283974E-04 
 -2.122804E-07 +4.687848E-08 +1.358435E-07 +4.687848E-08 -4.588938E-08 -1.581824E-08 +1.358435E-07 -1.581824E-08 +2.581698E-07 
 -4.181062E-09 -1.022267E-08 -2.984708E-08 -1.022267E-08 -1.229160E-07 +2.496571E-08 -2.984708E-08 +2.496571E-08 +1.270971E-07 
 -1.100365E-05 +1.153710E-06 +1.805305E-06 +1.153710E-06 -6.953783E-08 -9.896499E-07 +1.805305E-06 -9.896499E-07 +1.107319E-05 
 -5.243171E-08 +2.900318E-08 -1.864830E-08 +2.900318E-08 -5.250312E-08 +1.362791E-08 -1.864830E-08 +1.362791E-08 +1.049348E-07 
 -5.090694E-05 -3.008905E-05 +3.446739E-06 -3.008905E-05 -1.505693E-05 -1.142797E-05 +3.446739E-06 -1.142797E-05 +6.596387E-05 
 -7.050543E-06 +2.766812E-06 +1.404084E-06 +2.766812E-06 -1.082771E-06 -3.312526E-07 +1.404084E-06 -3.312526E-07 +8.133314E-06 
 -8.020337E-06 +4.735129E-06 -3.991636E-06 +4.735129E-06 -2.393120E-06 +9.807050E-08 -3.991636E-06 +9.807050E-08 +1.041346E-05 
 -6.704083E-05 +7.424652E-06 +1.775471E-05 +7.424652E-06 -2.680863E-07 +4.357123E-06 +1.775471E-05 +4.357123E-06 +6.730892E-05 
 -1.651426E-06 +3.047644E-06 -1.509170E-07 +3.047644E-06 -5.358609E-06 +2.564243E-06 -1.509170E-07 +2.564243E-06 +7.010035E-06 
 -2.116616E-04 +5.671438E-05 -6.167520E-05 +5.671438E-05 -1.519794E-05 +1.652579E-05 -6.167520E-05 +1.652579E-05 +2.268595E-04 
 -1.173863E-04 +7.560221E-05 +1.123820E-05 +7.560221E-05 -3.951156E-05 +3.090076E-05 +1.123820E-05 +3.090076E-05 +1.568978E-04 
 -8.613155E-05 -2.307838E-05 +4.864424E-06 -2.307838E-05 -6.185676E-06 +1.303974E-06 +4.864424E-06 +1.303974E-06 +9.231723E-05 
 -2.688379E-05 +1.033420E-05 +5.917080E-06 +1.033420E-05 -3.701261E-06 +6.911657E-07 +5.917080E-06 +6.911657E-07 +3.058505E-05 
 -4.186097E-07 +2.977015E-07 -1.668718E-08 +2.977015E-07 -1.527522E-07 -1.741770E-07 -1.668718E-08 -1.741770E-07 +5.713620E-07 
 -3.545330E-07 +1.298262E-07 -1.978205E-07 +1.298262E-07 -5.598799E-08 +1.197486E-07 -1.978205E-07 +1.197486E-07 +4.105210E-07 
 -6.182820E-06 +6.149633E-06 +1.560102E-06 +6.149633E-06 -6.119980E-06 -1.506699E-06 +1.560102E-06 -1.506699E-06 +1.230280E-05 
 -3.829156E-06 +1.642452E-06 +1.644799E-06 +1.642452E-06 -8.633634E-08 +1.013821E-06 +1.644799E-06 +1.013821E-06 +3.915492E-06 
 -8.284172E-07 -1.118194E-06 -1.030600E-06 -1.118194E-06 -1.553317E-06 -9.395455E-07 -1.030600E-06 -9.395455E-07 +2.381734E-06 
 -7.657002E-05 -3.570415E-05 -1.250807E-05 -3.570415E-05 -1.665128E-05 -5.832959E-06 -1.250807E-05 -5.832959E-06 +9.322131E-05 
 -1.458158E-04 -5.829860E-05 +3.262308E-05 -5.829860E-05 -9.218426E-06 +6.095065E-05 +3.262308E-05 +6.095065E-05 +1.550342E-04 
 -3.976882E-07 +8.347363E-07 -5.461013E-07 +8.347363E-07 -8.766930E-07 -1.896395E-07 -5.461013E-07 -1.896395E-07 +1.274381E-06 
 -5.765759E-06 -1.992269E-05 -3.854489E-06 -1.992269E-05 -6.601602E-05 +1.406337E-06 -3.854489E-06 +1.406337E-06 +7.178178E-05 
 +6.237547E-09 +9.496674E-08 +1.799186E-07 +9.496674E-08 -4.896580E-07 -2.144892E-07 +1.799186E-07 -2.144892E-07 +4.834204E-07 
 -6.114325E-09 +2.465343E-09 -2.437436E-09 +2.465343E-09 -1.460599E-08 +6.538230E-09 -2.437436E-09 +6.538230E-09 +2.072031E-08 
 -9.460477E-07 +2.932132E-07 -1.171482E-07 +2.932132E-07 +2.010159E-08 -3.050767E-07 -1.171482E-07 -3.050767E-07 +9.259462E-07 
 -1.959564E-07 +1.219986E-07 +1.228848E-07 +1.219986E-07 -1.857130E-07 -8.906698E-08 +1.228848E-07 -8.906698E-08 +3.816695E-07 
 -1.655808E-05 +3.258308E-05 +1.113071E-05 +3.258308E-05 -5.442397E-05 +5.736734E-06 +1.113071E-05 +5.736734E-06 +7.098205E-05 
 -6.683238E-06 -3.118134E-06 -3.004910E-06 -3.118134E-06 -1.218153E-06 +1.725986E-07 -3.004910E-06 +1.725986E-07 +7.901391E-06 
 -2.309960E-07 +8.508570E-07 -2.742557E-08 +8.508570E-07 -2.279897E-06 +1.644547E-06 -2.742557E-08 +1.644547E-06 +2.510893E-06 
 -7.180162E-08 -3.029662E-09 -6.293418E-09 -3.029662E-09 -2.787419E-08 +3.682805E-09 -6.293418E-09 +3.682805E-09 +9.967582E-08 
 -3.975919E-06 +5.002644E-06 -1.070807E-06 +5.002644E-06 -5.599282E-06 -1.277383E-06 -1.070807E-06 -1.277383E-06 +9.575202E-06 
 -2.724278E-08 +4.709398E-09 -4.782202E-09 +4.709398E-09 -4.185435E-08 +1.428477E-08 -4.782202E-09 +1.428477E-08 +6.909713E-08 
 -1.340778E-08 -1.030404E-09 +6.317206E-09 -1.030404E-09 -5.236219E-09 +1.015528E-09 +6.317206E-09 +1.015528E-09 +1.864400E-08 
 -1.379663E-06 +9.992975E-07 +7.686898E-07 +9.992975E-07 -6.429927E-07 -7.812517E-08 +7.686898E-07 -7.812517E-08 +2.022655E-06 
 -2.457168E-06 +3.115569E-06 +6.881909E-07 +3.115569E-06 -3.508893E-06 -2.550574E-06 +6.881909E-07 -2.550574E-06 +5.966061E-06 
 -2.770785E-05 +1.762577E-05 +3.034309E-06 +1.762577E-05 -9.164442E-06 -1.067032E-05 +3.034309E-06 -1.067032E-05 +3.687229E-05 
 -1.290831E-07 +2.589264E-08 +1.324156E-08 +2.589264E-08 -8.738506E-08 -1.137042E-10 +1.324156E-08 -1.137042E-10 +2.164682E-07 
 -2.139767E-05 -4.588572E-05 +4.048031E-06 -4.588572E-05 -9.840300E-05 +8.682858E-06 +4.048031E-06 +8.682858E-06 +1.198007E-04 
 -1.602967E-07 +2.922364E-07 -2.161515E-07 +2.922364E-07 -2.881436E-07 -3.736467E-08 -2.161515E-07 -3.736467E-08 +4.484403E-07 
 -1.126569E-06 -1.413876E-08 -3.000984E-07 -1.413876E-08 +1.223681E-07 +3.803479E-07 -3.000984E-07 +3.803479E-07 +1.004201E-06 
 -4.624107E-07 -3.195738E-07 +2.596511E-07 -3.195738E-07 -1.309197E-07 -9.799560E-08 +2.596511E-07 -9.799560E-08 +5.933304E-07 
 -4.124832E-08 -2.865553E-08 -6.663019E-09 -2.865553E-08 -1.351528E-07 +6.357301E-08 -6.663019E-09 +6.357301E-08 +1.764011E-07 
 -1.585703E-08 -4.532283E-09 -1.631451E-09 -4.532283E-09 -1.197981E-08 -1.162070E-09 -1.631451E-09 -1.162070E-09 +2.783684E-08 
 -1.859536E-08 +1.211001E-09 +9.678629E-09 +1.211001E-09 -1.190811E-08 +1.335595E-09 +9.678629E-09 +1.335595E-09 +3.050347E-08 
 -8.329733E-07 +4.170105E-06 -2.799920E-06 +4.170105E-06 -7.776572E-06 -1.359482E-06 -2.799920E-06 -1.359482E-06 +8.609545E-06 
 -1.470539E-06 -2.962461E-07 +1.446599E-07 -2.962461E-07 +3.407700E-08 -3.601025E-07 +1.446599E-07 -3.601025E-07 +1.436462E-06 
 -4.761181E-06 +1.621116E-06 +1.665335E-06 +1.621116E-06 -2.480882E-07 -1.872566E-06 +1.665335E-06 -1.872566E-06 +5.009269E-06 
 -4.134342E-06 -4.499950E-07 +1.085779E-06 -4.499950E-07 +2.182844E-07 +1.180637E-06 +1.085779E-06 +1.180637E-06 +3.916058E-06 
 -4.018012E-08 +1.620616E-08 -1.293926E-08 +1.620616E-08 -4.371644E-08 +1.277990E-08 -1.293926E-08 +1.277990E-08 +8.389655E-08 
 -7.389081E-06 -3.008338E-05 -1.901233E-05 -3.008338E-05 -8.504236E-05 -4.613848E-06 -1.901233E-05 -4.613848E-06 +9.243144E-05 
 -1.509730E-07 +2.185093E-07 +1.673456E-07 +2.185093E-07 -5.559225E-07 -4.355512E-07 +1.673456E-07 -4.355512E-07 +7.068955E-07 
 -7.246145E-06 -3.097573E-06 -1.509492E-06 -3.097573E-06 -1.313499E-06 -3.340121E-07 -1.509492E-06 -3.340121E-07 +8.559644E-06 
 -1.399314E-06 -4.328923E-07 -6.259015E-07 -4.328923E-07 -1.013976E-07 +5.268839E-08 -6.259015E-07 +5.268839E-08 +1.500712E-06 
 -1.195983E-09 -6.410252E-08 -9.171155E-08 -6.410252E-08 -1.642871E-06 -5.973362E-07 -9.171155E-08 -5.973362E-07 +1.644067E-06 
 -7.382407E-09 -1.752383E-10 -4.674996E-09 -1.752383E-10 -8.543551E-09 -1.841938E-10 -4.674996E-09 -1.841938E-10 +1.592596E-08 
 -4.504833E-08 +1.175508E-08 +1.454267E-08 +1.175508E-08 -2.889159E-08 -4.665763E-09 +1.454267E-08 -4.665763E-09 +7.393993E-08 
 -8.761174E-07 -1.941150E-06 +3.814847E-07 -1.941150E-06 -3.122187E-06 -1.567343E-06 +3.814847E-07 -1.567343E-06 +3.998305E-06 
 -6.833019E-05 +9.507888E-11 -1.581565E-05 +9.507888E-11 -1.239827E-09 +3.618711E-10 -1.581565E-05 +3.618711E-10 +6.833143E-05 
 -1.073045E-07 -6.351527E-08 +2.487793E-10 -6.351527E-08 -1.032603E-07 +2.183942E-08 +2.487793E-10 +2.183942E-08 +2.105648E-07 
 -7.298800E-05 +9.023301E-05 -4.562736E-05 +9.023301E-05 -8.494673E-05 -1.412270E-05 -4.562736E-05 -1.412270E-05 +1.579347E-04 
 -1.504400E-05 -5.611199E-05 +2.356276E-05 -5.611199E-05 -2.094205E-04 +8.793340E-05 +2.356276E-05 +8.793340E-05 +2.244645E-04 
 -3.485197E-07 +9.951939E-07 -4.146573E-07 +9.951939E-07 -2.669942E-06 +3.933879E-07 -4.146573E-07 +3.933879E-07 +3.018461E-06 
 -5.101984E-08 -8.939447E-09 -1.403623E-08 -8.939447E-09 -3.401635E-08 -9.635112E-09 -1.403623E-08 -9.635112E-09 +8.503618E-08 
 -2.103373E-07 +1.951464E-07 -1.137384E-07 +1.951464E-07 -1.135953E-07 -6.140004E-08 -1.137384E-07 -6.140004E-08 +3.239327E-07 
 -2.442271E-08 -4.486291E-08 -7.650022E-08 -4.486291E-08 -4.315908E-07 -2.338459E-07 -7.650022E-08 -2.338459E-07 +4.560135E-07 
 -3.129980E-06 -5.595259E-07 -5.818374E-07 -5.595259E-07 -7.856993E-08 +1.904357E-07 -5.818374E-07 +1.904357E-07 +3.208550E-06 
 -1.337522E-07 +2.782405E-08 -1.236699E-09 +2.782405E-08 -9.230565E-08 -1.956270E-08 -1.236699E-09 -1.956270E-08 +2.260579E-07 
 -1.645851E-04 -5.636697E-08 +6.372817E-07 -5.636697E-08 +1.241768E-06 -1.428522E-05 +6.372817E-07 -1.428522E-05 +1.633433E-04 
 -8.598929E-05 +4.059024E-11 +3.448200E-05 +4.059024E-11 -9.817208E-10 -3.745512E-10 +3.448200E-05 -3.745512E-10 +8.599027E-05 
 -1.861025E-05 -3.011243E-05 -1.180830E-05 -3.011243E-05 -4.249857E-05 +1.861850E-06 -1.180830E-05 +1.861850E-06 +6.110882E-05 
 -1.047826E-06 -2.246798E-06 -1.114240E-06 -2.246798E-06 -4.818414E-06 -2.389477E-06 -1.114240E-06 -2.389477E-06 +5.866240E-06 
 -6.306747E-09 +2.131496E-08 +1.482637E-08 +2.131496E-08 +2.870824E-09 -1.241059E-08 +1.482637E-08 -1.241059E-08 +3.435923E-09 
 +4.393123E-08 +2.198711E-07 +4.366962E-07 +2.198711E-07 -1.345174E-06 -5.097455E-07 +4.366962E-07 -5.097455E-07 +1.301243E-06 
 -5.132872E-10 +2.411007E-08 -4.075511E-08 +2.411007E-08 -2.144498E-07 -1.319921E-07 -4.075511E-08 -1.319921E-07 +2.149630E-07 
 -1.859758E-07 -1.760834E-07 -1.353293E-07 -1.760834E-07 -1.980460E-07 -1.515631E-07 -1.353293E-07 -1.515631E-07 +3.840219E-07 
 +5.244472E-09 -2.422551E-08 -1.335161E-07 -2.422551E-08 -3.500806E-07 -1.182343E-07 -1.335161E-07 -1.182343E-07 +3.448361E-07 
 -7.100350E-06 +3.970992E-07 +1.478816E-06 +3.970992E-07 +4.674882E-07 +1.770380E-06 +1.478816E-06 +1.770380E-06 +6.632862E-06 
 -3.546398E-08 +1.747480E-08 +1.601611E-08 +1.747480E-08 -1.697392E-08 -1.164880E-08 +1.601611E-08 -1.164880E-08 +5.243789E-08 
 -2.467029E-06 -9.993521E-06 +2.345503E-06 -9.993521E-06 -3.587716E-05 -4.203804E-06 +2.345503E-06 -4.203804E-06 +3.834419E-05 
 -2.529898E-07 +1.056844E-07 +2.419031E-08 +1.056844E-07 -2.009034E-07 -2.909732E-08 +2.419031E-08 -2.909732E-08 +4.538933E-07 
 -8.065697E-07 +8.305285E-07 +6.034402E-07 +8.305285E-07 -5.164632E-07 +1.592238E-07 +6.034402E-07 +1.592238E-07 +1.323033E-06 
 -3.251365E-06 -2.503308E-06 -1.008314E-06 -2.503308E-06 -1.638876E-06 -2.030193E-06 -1.008314E-06 -2.030193E-06 +4.890241E-06 
 -3.658735E-05 +4.360133E-05 +2.627261E-06 +4.360133E-05 -5.196337E-05 -3.129827E-06 +2.627261E-06 -3.129827E-06 +8.855072E-05 
 -1.446708E-07 -9.091011E-08 +3.452664E-08 -9.091011E-08 -1.756427E-07 -7.517932E-08 +3.452664E-08 -7.517932E-08 +3.203135E-07 
 -2.611478E-08 +1.222816E-09 +1.118269E-08 +1.222816E-09 -2.447879E-08 +9.406598E-09 +1.118269E-08 +9.406598E-09 +5.059357E-08 
 +8.784710E-07 -3.491578E-07 -2.661053E-06 -3.491578E-07 -8.629088E-06 -4.799275E-07 -2.661053E-06 -4.799275E-07 +7.750617E-06 
 -2.376834E-05 +9.801417E-06 -6.482850E-06 +9.801417E-06 -3.399571E-06 -1.649092E-06 -6.482850E-06 -1.649092E-06 +2.716791E-05 
 -7.434399E-08 -3.909480E-08 -5.068843E-09 -3.909480E-08 -7.841746E-08 -1.191795E-08 -5.068843E-09 -1.191795E-08 +1.527615E-07 
 -1.431277E-06 +3.414994E-07 -2.431312E-07 +3.414994E-07 -7.644856E-08 +1.508499E-07 -2.431312E-07 +1.508499E-07 +1.507725E-06 
 -6.406317E-07 +2.404951E-07 -3.693148E-07 +2.404951E-07 -1.271093E-07 +1.844519E-07 -3.693148E-07 +1.844519E-07 +7.677409E-07 
 -4.940820E-06 -2.287179E-06 -2.147405E-06 -2.287179E-06 -1.033727E-06 -4.147867E-07 -2.147405E-06 -4.147867E-07 +5.974547E-06 
 -4.163000E-08 -1.492441E-08 +6.234038E-09 -1.492441E-08 -1.031869E-08 +9.540968E-09 +6.234038E-09 +9.540968E-09 +5.194869E-08 
 -3.841911E-08 -1.899869E-09 +2.457840E-09 -1.899869E-09 -3.142242E-08 -9.122317E-10 +2.457840E-09 -9.122317E-10 +6.984153E-08 
 -2.092722E-05 +1.660833E-05 -9.099420E-06 +1.660833E-05 -1.150597E-05 -6.048157E-07 -9.099420E-06 -6.048157E-07 +3.243320E-05 
 -7.787086E-06 -2.147645E-05 -3.258900E-07 -2.147645E-05 -5.511945E-05 +1.519447E-05 -3.258900E-07 +1.519447E-05 +6.290653E-05 
 -3.393808E-08 -2.512867E-07 +6.600678E-08 -2.512867E-07 -2.617105E-06 +9.556647E-07 +6.600678E-08 +9.556647E-07 +2.651043E-06 
 -9.877767E-08 +1.506983E-07 -1.556421E-08 +1.506983E-07 -1.287667E-07 +1.853023E-07 -1.556421E-08 +1.853023E-07 +2.275443E-07 
 -9.055183E-08 -4.427590E-08 +8.737448E-09 -4.427590E-08 -4.721627E-08 +1.040302E-09 +8.737448E-09 +1.040302E-09 +1.377681E-07 
 -4.116974E-07 +7.258661E-08 +8.543883E-08 +7.258661E-08 -1.284930E-08 -1.508370E-08 +8.543883E-08 -1.508370E-08 +4.245467E-07 
 -5.644224E-08 -2.131014E-08 +1.446725E-09 -2.131014E-08 -8.907104E-08 +6.563175E-10 +1.446725E-09 +6.563175E-10 +1.455133E-07 
 -1.333774E-06 -1.411567E-06 +7.083949E-08 -1.411567E-06 -1.314187E-06 -6.189448E-07 +7.083949E-08 -6.189448E-07 +2.647961E-06 
 -4.238953E-09 -1.324209E-08 +7.325130E-09 -1.324209E-08 -1.551095E-07 +8.741460E-08 +7.325130E-09 +8.741460E-08 +1.593485E-07 
 -3.667331E-08 +3.276679E-08 -6.751987E-09 +3.276679E-08 -7.072532E-08 -1.027821E-08 -6.751987E-09 -1.027821E-08 +1.073986E-07 
 -1.054822E-06 -1.229103E-06 -1.701204E-08 -1.229103E-06 -8.617444E-07 -1.087552E-06 -1.701204E-08 -1.087552E-06 +1.916566E-06 
 -4.140643E-08 +1.306717E-08 +4.055493E-09 +1.306717E-08 -6.441411E-08 -2.195669E-08 +4.055493E-09 -2.195669E-08 +1.058205E-07 
 -1.209588E-07 +1.555536E-08 -1.723198E-08 +1.555536E-08 -8.936317E-08 +1.064804E-08 -1.723198E-08 +1.064804E-08 +2.103220E-07 
 -6.495281E-06 +1.013283E-06 -1.482354E-06 +1.013283E-06 -1.049514E-07 +8.468418E-07 -1.482354E-06 +8.468418E-07 +6.600232E-06 
 -1.873235E-08 +2.233891E-09 +9.581539E-09 +2.233891E-09 -1.236312E-08 -3.754598E-09 +9.581539E-09 -3.754598E-09 +3.109547E-08 
 -1.935611E-08 +1.157976E-08 +1.128219E-08 +1.157976E-08 -5.520455E-08 -2.377549E-08 +1.128219E-08 -2.377549E-08 +7.456066E-08 
 -4.902947E-06 +2.686376E-06 -2.474563E-06 +2.686376E-06 -1.364364E-06 +4.364581E-07 -2.474563E-06 +4.364581E-07 +6.267312E-06 
 -1.199018E-05 +1.350350E-05 -3.789757E-06 +1.350350E-05 -1.516907E-05 +3.071019E-06 -3.789757E-06 +3.071019E-06 +2.715925E-05 
 -4.096237E-09 +4.473121E-10 -2.382415E-09 +4.473121E-10 -4.053623E-09 +6.857718E-10 -2.382415E-09 +6.857718E-10 +8.149860E-09 
 -2.058542E-07 -3.900980E-07 -1.423375E-07 -3.900980E-07 -7.271531E-07 -5.384933E-07 -1.423375E-07 -5.384933E-07 +9.330073E-07 
 -6.248185E-06 -2.367403E-06 -9.399027E-07 -2.367403E-06 -8.572493E-07 -9.396670E-07 -9.399027E-07 -9.396670E-07 +7.105434E-06 
 -9.592424E-06 -3.595293E-06 -3.709310E-07 -3.595293E-06 -1.267592E-06 +7.952703E-07 -3.709310E-07 +7.952703E-07 +1.086002E-05 
 -4.058157E-05 -5.207961E-05 -1.356843E-05 -5.207961E-05 -5.901443E-05 +1.114238E-05 -1.356843E-05 +1.114238E-05 +9.959599E-05 
 -5.421529E-06 -2.624154E-07 -1.247608E-06 -2.624154E-07 +2.472119E-07 +1.133600E-06 -1.247608E-06 +1.133600E-06 +5.174317E-06 
 -2.011140E-08 -2.453262E-09 +5.796957E-09 -2.453262E-09 -2.285547E-08 +1.076368E-08 +5.796957E-09 +1.076368E-08 +4.296687E-08 
 -3.768961E-08 +2.390350E-07 +3.315617E-07 +2.390350E-07 -8.204403E-07 -4.646006E-07 +3.315617E-07 -4.646006E-07 +8.581299E-07 
 -3.047761E-06 -2.097148E-06 +3.759354E-08 -2.097148E-06 -1.155953E-06 -1.081899E-06 +3.759354E-08 -1.081899E-06 +4.203714E-06 
 -5.035250E-07 +2.132985E-07 +1.498979E-07 +2.132985E-07 -1.532138E-08 -2.773909E-07 +1.498979E-07 -2.773909E-07 +5.188464E-07 
 -1.156164E-07 -1.653129E-06 -1.199721E-06 -1.653129E-06 -5.165828E-06 +9.751722E-07 -1.199721E-06 +9.751722E-07 +5.281445E-06 
 -1.000808E-04 -5.643843E-05 -6.578156E-06 -5.643843E-05 -2.656801E-05 -2.957908E-05 -6.578156E-06 -2.957908E-05 +1.266489E-04 
 -1.692348E-06 +5.762897E-07 -7.403496E-07 +5.762897E-07 -1.721382E-07 +1.196530E-08 -7.403496E-07 +1.196530E-08 +1.864486E-06 
 -1.868974E-06 +9.784062E-10 +1.295637E-07 +9.784062E-10 +1.325986E-07 +4.819238E-07 +1.295637E-07 +4.819238E-07 +1.736376E-06 
 -5.157489E-08 +1.662983E-08 +2.511262E-08 +1.662983E-08 -6.769699E-08 -3.245253E-08 +2.511262E-08 -3.245253E-08 +1.192719E-07 
 -3.446978E-07 +1.280929E-06 +2.419860E-07 +1.280929E-06 -2.976617E-06 +1.639128E-06 +2.419860E-07 +1.639128E-06 +3.321315E-06 
 -2.720531E-05 -1.630137E-05 -2.941509E-06 -1.630137E-05 -8.294807E-06 +5.523294E-06 -2.941509E-06 +5.523294E-06 +3.550012E-05 
 -5.022837E-08 -1.848830E-08 +2.493573E-08 -1.848830E-08 +1.502722E-08 +3.036260E-08 +2.493573E-08 +3.036260E-08 +3.520115E-08 
 -2.538150E-07 -2.098951E-08 -3.832570E-09 -2.098951E-08 -2.126951E-07 +2.565965E-08 -3.832570E-09 +2.565965E-08 +4.665100E-07 
 +2.611514E-07 -4.030720E-07 +1.732900E-06 -4.030720E-07 -7.548228E-06 +2.236651E-06 +1.732900E-06 +2.236651E-06 +7.287077E-06 
 -3.756616E-08 -5.900655E-09 -6.369190E-09 -5.900655E-09 -3.164784E-08 -6.204370E-09 -6.369190E-09 -6.204370E-09 +6.921400E-08 
 -1.740962E-07 -4.410872E-08 -1.341308E-08 -4.410872E-08 -9.549047E-08 +6.086070E-09 -1.341308E-08 +6.086070E-09 +2.695867E-07 
 -1.002619E-05 -8.579555E-09 +4.914297E-08 -8.579555E-09 +2.977192E-07 -1.713004E-06 +4.914297E-08 -1.713004E-06 +9.728472E-06 
 -4.275344E-08 +3.569243E-09 -1.812058E-08 +3.569243E-09 -3.228206E-08 -6.431395E-09 -1.812058E-08 -6.431395E-09 +7.503550E-08 
 -7.593748E-08 +1.054270E-07 -4.368823E-08 +1.054270E-07 -2.702260E-07 +1.677473E-07 -4.368823E-08 +1.677473E-07 +3.461634E-07 
 -1.098263E-06 -6.212286E-06 +2.122411E-07 -6.212286E-06 -2.839658E-05 -1.358984E-05 +2.122411E-07 -1.358984E-05 +2.949484E-05 
 -7.533020E-08 +4.258492E-08 -7.724609E-09 +4.258492E-08 -2.285455E-08 +3.564341E-08 -7.724609E-09 +3.564341E-08 +9.818475E-08 
 -1.064312E-07 +9.851548E-09 -4.174067E-08 +9.851548E-09 -7.524628E-08 +3.627257E-08 -4.174067E-08 +3.627257E-08 +1.816775E-07 
 -6.583572E-06 +2.886485E-05 -1.277141E-05 +2.886485E-05 -1.104721E-04 +8.110375E-06 -1.277141E-05 +8.110375E-06 +1.170557E-04 
 -4.471797E-07 +5.921843E-07 -5.905774E-07 +5.921843E-07 -7.392917E-07 +4.395775E-07 -5.905774E-07 +4.395775E-07 +1.186471E-06 
 -2.111461E-06 +5.172174E-07 -5.308341E-07 +5.172174E-07 -1.090992E-07 +3.424848E-07 -5.308341E-07 +3.424848E-07 +2.220560E-06 
 -5.749472E-07 +1.805860E-06 +4.533237E-07 +1.805860E-06 -4.309748E-06 +1.267867E-06 +4.533237E-07 +1.267867E-06 +4.884695E-06 
 -4.524055E-06 +2.498720E-06 +4.924925E-08 +2.498720E-06 -1.013822E-06 -1.457283E-06 +4.924925E-08 -1.457283E-06 +5.537877E-06 
 +1.345542E-08 +7.177508E-09 +1.623139E-08 +7.177508E-09 -9.696111E-08 +5.677713E-08 +1.623139E-08 +5.677713E-08 +8.350569E-08 
 -5.565821E-08 +5.589686E-08 -2.131466E-08 +5.589686E-08 -9.410886E-08 +6.624822E-08 -2.131466E-08 +6.624822E-08 +1.497671E-07 
 -2.159510E-05 -8.147772E-05 +2.949379E-06 -8.147772E-05 -2.740618E-04 -8.886297E-05 +2.949379E-06 -8.886297E-05 +2.956569E-04 
 -3.717634E-06 -1.720579E-06 +9.501318E-07 -1.720579E-06 -1.838890E-07 -1.155251E-06 +9.501318E-07 -1.155251E-06 +3.901524E-06 
 -3.415783E-06 +3.731262E-06 +6.642808E-07 +3.731262E-06 -4.047494E-06 -1.196617E-06 +6.642808E-07 -1.196617E-06 +7.463277E-06 
 -2.071581E-04 +2.071580E-04 +4.890806E-05 +2.071580E-04 -2.071589E-04 -4.890851E-05 +4.890806E-05 -4.890851E-05 +4.143170E-04 
 -2.454680E-09 +2.783638E-07 -3.317697E-07 +2.783638E-07 -5.925966E-06 +1.044127E-06 -3.317697E-07 +1.044127E-06 +5.928421E-06 
 +1.110581E-07 +1.208091E-07 -5.004505E-07 +1.208091E-07 -1.583539E-06 +5.781375E-07 -5.004505E-07 +5.781375E-07 +1.472481E-06 
 -4.124861E-07 -5.449868E-07 +1.449147E-07 -5.449868E-07 -6.813115E-07 +4.160530E-07 +1.449147E-07 +4.160530E-07 +1.093798E-06 
 -2.221072E-07 -4.004261E-06 -1.475277E-06 -4.004261E-06 -3.112182E-05 +1.458945E-05 -1.475277E-06 +1.458945E-05 +3.134393E-05 
 -3.408178E-06 +7.929220E-07 -7.677675E-07 +7.929220E-07 -1.263738E-07 -2.877729E-07 -7.677675E-07 -2.877729E-07 +3.534552E-06 
 -4.624126E-09 +9.374918E-11 -3.278562E-10 +9.374918E-11 -2.398360E-04 -5.354253E-05 -3.278562E-10 -5.354253E-05 +2.398406E-04 
 -6.481295E-07 +2.726147E-07 +3.451407E-07 +2.726147E-07 +2.083623E-08 +1.928007E-07 +3.451407E-07 +1.928007E-07 +6.272933E-07 
 -7.622392E-07 +2.230772E-06 +5.899595E-07 +2.230772E-06 -6.048558E-06 +1.576039E-07 +5.899595E-07 +1.576039E-07 +6.810797E-06 
 -2.124578E-08 +3.821115E-09 +1.473067E-09 +3.821115E-09 -4.214813E-08 -1.374690E-08 +1.473067E-09 -1.374690E-08 +6.339391E-08 
 -2.521010E-08 +2.134860E-09 +1.343704E-08 +2.134860E-09 -2.551317E-08 -7.665347E-09 +1.343704E-08 -7.665347E-09 +5.072327E-08 
 -6.936890E-07 +9.593007E-08 +1.389338E-07 +9.593007E-08 +1.173816E-08 +1.621851E-07 +1.389338E-07 +1.621851E-07 +6.819508E-07 
 +5.224958E-09 -1.818982E-07 -1.858587E-07 -1.818982E-07 -4.648912E-07 +2.195152E-08 -1.858587E-07 +2.195152E-08 +4.596662E-07 
 -5.291013E-08 -1.610176E-07 -5.108956E-08 -1.610176E-07 -2.216703E-07 +1.645241E-07 -5.108956E-08 +1.645241E-07 +2.745804E-07 
 -1.887408E-07 +4.153403E-07 +3.391578E-07 +4.153403E-07 -5.063839E-07 -1.669460E-08 +3.391578E-07 -1.669460E-08 +6.951246E-07 
 -6.675199E-08 +3.783432E-08 +2.176080E-09 +3.783432E-08 -4.556744E-08 -7.727296E-09 +2.176080E-09 -7.727296E-09 +1.123194E-07 
 -5.051745E-05 +3.582655E-05 +4.260399E-06 +3.582655E-05 -2.455008E-05 +5.032700E-06 +4.260399E-06 +5.032700E-06 +7.506753E-05 
 -1.427991E-05 +5.653629E-05 -9.848670E-06 +5.653629E-05 -1.990774E-04 -3.531047E-05 -9.848670E-06 -3.531047E-05 +2.133573E-04 
 -1.120256E-05 -1.666654E-05 +7.968248E-06 -1.666654E-05 -1.864541E-05 -2.930632E-06 +7.968248E-06 -2.930632E-06 +2.984797E-05 
 -7.489469E-05 -3.961444E-05 +1.492682E-05 -3.961444E-05 -1.376424E-05 -1.778270E-05 +1.492682E-05 -1.778270E-05 +8.865894E-05 
 -7.616016E-05 -3.037686E-05 +2.854184E-05 -3.037686E-05 -1.126894E-05 +2.250747E-06 +2.854184E-05 +2.250747E-06 +8.742909E-05 
 -1.692266E-06 +2.321891E-06 +7.366044E-07 +2.321891E-06 -2.421610E-06 +8.328672E-07 +7.366044E-07 +8.328672E-07 +4.113876E-06 
 -3.578505E-08 -9.142060E-09 +9.951396E-09 -9.142060E-09 -1.843852E-08 +5.606328E-09 +9.951396E-09 +5.606328E-09 +5.422358E-08 
 -2.593134E-07 +1.725261E-07 -1.871752E-07 +1.725261E-07 -6.230643E-08 -3.927989E-08 -1.871752E-07 -3.927989E-08 +3.216198E-07 
 -3.651756E-08 +4.876547E-09 +1.135759E-08 +4.876547E-09 -2.106189E-08 +2.704520E-09 +1.135759E-08 +2.704520E-09 +5.757946E-08 
 -3.149440E-06 -2.117608E-05 +1.362531E-05 -2.117608E-05 -6.393647E-05 -7.869860E-06 +1.362531E-05 -7.869860E-06 +6.708592E-05 
 -2.280826E-06 -5.364456E-06 +3.347145E-06 -5.364456E-06 -6.997516E-06 -1.076972E-06 +3.347145E-06 -1.076972E-06 +9.278341E-06 
 -1.863890E-07 +2.205490E-09 +9.452000E-08 +2.205490E-09 -2.624478E-08 +6.218355E-10 +9.452000E-08 +6.218355E-10 +2.126337E-07 
 -1.261085E-06 +1.688501E-06 +8.044271E-07 +1.688501E-06 -2.067083E-06 -2.129641E-07 +8.044271E-07 -2.129641E-07 +3.328168E-06 
 -7.898523E-07 -4.711454E-07 -5.704981E-07 -4.711454E-07 -2.876909E-07 -2.426714E-07 -5.704981E-07 -2.426714E-07 +1.077543E-06 
 -9.909941E-07 +6.613671E-06 -2.162526E-06 +6.613671E-06 -2.608706E-05 -1.005842E-05 -2.162526E-06 -1.005842E-05 +2.707805E-05 
 -2.316258E-08 +1.338509E-09 -1.753822E-09 +1.338509E-09 -3.424908E-08 +1.502600E-08 -1.753822E-09 +1.502600E-08 +5.741165E-08 
 -5.077150E-08 -2.686228E-08 +3.912234E-09 -2.686228E-08 -3.293011E-08 +2.931915E-09 +3.912234E-09 +2.931915E-09 +8.370161E-08 
 -2.210895E-05 +1.403727E-05 -6.171875E-06 +1.403727E-05 -8.328882E-06 -5.882653E-07 -6.171875E-06 -5.882653E-07 +3.043784E-05 
 -1.949769E-06 +1.728518E-06 +1.126405E-06 +1.728518E-06 -1.146093E-06 +2.194086E-07 +1.126405E-06 +2.194086E-07 +3.095861E-06 
 -7.761579E-07 +2.793540E-07 -4.741715E-07 +2.793540E-07 -6.521053E-08 -7.473403E-08 -4.741715E-07 -7.473403E-08 +8.413685E-07 
 -3.898178E-05 +6.751604E-05 -1.318639E-05 +6.751604E-05 -1.169423E-04 +2.283976E-05 -1.318639E-05 +2.283976E-05 +1.559241E-04 
 -9.479982E-09 +1.336142E-09 +2.656406E-09 +1.336142E-09 -6.943929E-09 +2.994399E-10 +2.656406E-09 +2.994399E-10 +1.642391E-08 
 -3.313869E-07 +1.273090E-07 -1.816387E-07 +1.273090E-07 -4.654146E-08 +1.535498E-07 -1.816387E-07 +1.535498E-07 +3.779284E-07 
 -5.598362E-05 -8.351155E-05 -2.334996E-05 -8.351155E-05 -1.202557E-04 -6.468451E-06 -2.334996E-05 -6.468451E-06 +1.762393E-04 
 -2.125503E-08 -5.266089E-09 +1.140750E-09 -5.266089E-09 -4.090793E-08 +4.227082E-09 +1.140750E-09 +4.227082E-09 +6.216297E-08 
 -3.352293E-09 +8.006978E-11 -7.803567E-10 +8.006978E-11 -9.112296E-09 +3.427264E-09 -7.803567E-10 +3.427264E-09 +1.246459E-08 
 -4.705424E-08 +2.482764E-08 +4.935014E-09 +2.482764E-08 -4.382616E-08 -3.416308E-09 +4.935014E-09 -3.416308E-09 +9.088041E-08 
 -1.945635E-05 +1.510507E-05 +2.335376E-06 +1.510507E-05 -1.096017E-05 -6.678782E-06 +2.335376E-06 -6.678782E-06 +3.041652E-05 
 -1.765678E-07 -4.562581E-08 -3.474618E-08 -4.562581E-08 -1.088169E-08 +4.100649E-08 -3.474618E-08 +4.100649E-08 +1.874495E-07 
 -7.489091E-10 -2.664657E-08 -1.355668E-08 -2.664657E-08 -5.364166E-08 -3.769762E-08 -1.355668E-08 -3.769762E-08 +5.439057E-08 
 -8.648112E-09 -7.400924E-10 -3.748896E-09 -7.400924E-10 -1.268332E-08 -5.002107E-09 -3.748896E-09 -5.002107E-09 +2.133143E-08 
 -2.292753E-08 -1.677376E-08 +1.161234E-08 -1.677376E-08 -6.912853E-08 +1.689595E-08 +1.161234E-08 +1.689595E-08 +9.205606E-08 
 -1.293571E-07 +2.109628E-08 -5.082893E-08 +2.109628E-08 -8.889394E-09 +5.049524E-08 -5.082893E-08 +5.049524E-08 +1.382465E-07 
 -2.282104E-08 -3.374765E-10 +4.437671E-09 -3.374765E-10 -3.121465E-08 +1.500681E-08 +4.437671E-09 +1.500681E-08 +5.403569E-08 
 -5.457178E-08 -1.749835E-08 +2.055431E-09 -1.749835E-08 -1.338836E-07 -1.489421E-08 +2.055431E-09 -1.489421E-08 +1.884554E-07 
 -3.082961E-08 +8.596245E-09 +5.179290E-09 +8.596245E-09 -6.588115E-08 -1.999905E-08 +5.179290E-09 -1.999905E-08 +9.671076E-08 
 -1.484609E-08 -1.216781E-06 +1.736638E-06 -1.216781E-06 -6.210500E-06 +2.253543E-06 +1.736638E-06 +2.253543E-06 +6.225347E-06 
 -3.089797E-08 -4.499890E-08 +3.263154E-08 -4.499890E-08 -1.514754E-07 +7.754229E-09 +3.263154E-08 +7.754229E-09 +1.823734E-07 
 -1.058552E-07 +2.656325E-08 -4.678420E-09 +2.656325E-08 -4.397245E-08 +1.497331E-08 -4.678420E-09 +1.497331E-08 +1.498277E-07 
 -2.855084E-05 +1.228042E-05 +4.055425E-06 +1.228042E-05 -3.445489E-06 -9.483599E-06 +4.055425E-06 -9.483599E-06 +3.199633E-05 
 -3.524282E-08 +1.738466E-09 +5.220904E-09 +1.738466E-09 -1.873455E-08 -2.218082E-09 +5.220904E-09 -2.218082E-09 +5.397737E-08 
 -1.714211E-07 +1.092355E-07 -3.895035E-08 +1.092355E-07 -5.047654E-08 -5.578810E-08 -3.895035E-08 -5.578810E-08 +2.218976E-07 
 -3.754538E-06 -1.474933E-06 -1.509455E-06 -1.474933E-06 -2.438281E-07 +6.735123E-07 -1.509455E-06 +6.735123E-07 +3.998366E-06 
 -5.604516E-08 -2.430977E-08 +3.741740E-09 -2.430977E-08 -3.224788E-08 +5.053225E-09 +3.741740E-09 +5.053225E-09 +8.829304E-08 
 -2.130248E-08 +2.603372E-09 -1.106299E-08 +2.603372E-09 -1.395792E-08 +8.416237E-10 -1.106299E-08 +8.416237E-10 +3.526040E-08 
 -5.720594E-09 -1.962133E-09 -2.236471E-09 -1.962133E-09 -1.808464E-08 -7.720443E-09 -2.236471E-09 -7.720443E-09 +2.380524E-08 
 -7.385348E-07 -1.451895E-07 +2.872628E-07 -1.451895E-07 -2.594905E-08 -3.396368E-10 +2.872628E-07 -3.396368E-10 +7.644839E-07 
 +1.136598E-07 -8.922532E-07 -9.677195E-07 -8.922532E-07 -2.927864E-06 +2.959598E-07 -9.677195E-07 +2.959598E-07 +2.814204E-06 
 -3.663617E-06 -3.291215E-06 +7.261314E-08 -3.291215E-06 -1.970255E-06 +2.440236E-06 +7.261314E-08 +2.440236E-06 +5.633873E-06 
 -1.052722E-04 -4.704291E-05 -4.650136E-05 -4.704291E-05 -1.603522E-05 +5.827347E-06 -4.650136E-05 +5.827347E-06 +1.213075E-04 
 +1.955655E-08 -4.512919E-08 +1.186587E-07 -4.512919E-08 -6.960042E-07 -2.558509E-07 +1.186587E-07 -2.558509E-07 +6.764477E-07 
 -2.562152E-08 -1.755146E-09 -6.226211E-09 -1.755146E-09 -3.874464E-08 +2.354922E-09 -6.226211E-09 +2.354922E-09 +6.436616E-08 
 -7.373949E-08 +1.669907E-07 +1.706949E-07 +1.669907E-07 -2.687354E-07 -3.580675E-08 +1.706949E-07 -3.580675E-08 +3.424749E-07 
 -3.412012E-05 -3.070884E-05 -9.083345E-06 -3.070884E-05 -2.444598E-05 +5.833599E-06 -9.083345E-06 +5.833599E-06 +5.856610E-05 
 -5.239856E-08 -1.387864E-09 -7.141291E-09 -1.387864E-09 -5.835364E-08 -3.296178E-08 -7.141291E-09 -3.296178E-08 +1.107522E-07 
 -1.728203E-06 -1.890893E-06 -1.063740E-06 -1.890893E-06 -2.061490E-06 -9.024803E-07 -1.063740E-06 -9.024803E-07 +3.789693E-06 
 -1.165582E-05 -2.955197E-06 -1.955468E-06 -2.955197E-06 -6.812767E-07 -1.434344E-06 -1.955468E-06 -1.434344E-06 +1.233710E-05 
 -3.073183E-08 -1.669866E-08 -2.256785E-09 -1.669866E-08 -4.131692E-08 -5.257732E-09 -2.256785E-09 -5.257732E-09 +7.204874E-08 
 -3.934510E-06 +2.271141E-06 +1.491053E-06 +2.271141E-06 -1.312049E-06 -8.609244E-07 +1.491053E-06 -8.609244E-07 +5.246558E-06 
 -5.772149E-08 +1.851545E-08 -2.489378E-09 +1.851545E-08 -5.997953E-08 -9.488949E-09 -2.489378E-09 -9.488949E-09 +1.177010E-07 
 -1.881550E-08 +1.536698E-08 -4.967988E-09 +1.536698E-08 -6.415248E-08 +3.714895E-09 -4.967988E-09 +3.714895E-09 +8.296798E-08 
 -6.162775E-07 +1.959222E-06 -1.721890E-06 +1.959222E-06 -2.951802E-06 +2.173264E-07 -1.721890E-06 +2.173264E-07 +3.568080E-06 
 -4.266698E-08 -1.325500E-08 -1.337220E-08 -1.325500E-08 -2.314632E-08 +4.827735E-09 -1.337220E-08 +4.827735E-09 +6.581330E-08 
 -7.931352E-06 +1.136170E-06 +1.662610E-06 +1.136170E-06 -4.011006E-08 +7.743917E-07 +1.662610E-06 +7.743917E-07 +7.971462E-06 
 -2.859629E-08 -1.725014E-07 +3.350092E-08 -1.725014E-07 -1.321184E-06 +7.711712E-07 +3.350092E-08 +7.711712E-07 +1.349780E-06 
 -1.501160E-08 +3.483808E-09 -2.171023E-09 +3.483808E-09 -1.806533E-08 -8.110194E-09 -2.171023E-09 -8.110194E-09 +3.307693E-08 
 -1.312218E-07 -4.625181E-08 +1.041873E-07 -4.625181E-08 -3.015926E-07 -6.081810E-08 +1.041873E-07 -6.081810E-08 +4.328143E-07 
 -1.616343E-04 +2.164707E-05 -7.696863E-05 +2.164707E-05 -1.387897E-06 +2.801718E-05 -7.696863E-05 +2.801718E-05 +1.630222E-04 
 -3.970056E-07 +6.868747E-07 -4.352031E-07 +6.868747E-07 -1.148097E-06 +4.130504E-07 -4.352031E-07 +4.130504E-07 +1.545102E-06 
 -1.529779E-06 -1.665059E-06 +1.109244E-06 -1.665059E-06 -1.378425E-06 -7.955708E-08 +1.109244E-06 -7.955708E-08 +2.908204E-06 
 -2.262194E-05 +1.974110E-05 +2.034079E-06 +1.974110E-05 -1.687360E-05 +2.029680E-06 +2.034079E-06 +2.029680E-06 +3.949554E-05 
 +8.299698E-08 +1.336293E-06 -1.372940E-06 +1.336293E-06 -6.114803E-06 -6.403757E-07 -1.372940E-06 -6.403757E-07 +6.031807E-06 
 -2.836972E-05 +4.050904E-05 +7.584668E-06 +4.050904E-05 -5.785785E-05 -1.083594E-05 +7.584668E-06 -1.083594E-05 +8.622756E-05 
 -4.630446E-05 +4.831893E-05 -1.631012E-05 +4.831893E-05 -4.888338E-05 +4.536403E-06 -1.631012E-05 +4.536403E-06 +9.518785E-05 
 -3.606672E-07 +1.236726E-07 +1.341212E-07 +1.236726E-07 -1.473953E-07 -1.663229E-07 +1.341212E-07 -1.663229E-07 +5.080625E-07 
 -3.142479E-08 +1.142976E-08 -5.862669E-10 +1.142976E-08 -7.554984E-08 +2.276953E-08 -5.862669E-10 +2.276953E-08 +1.069746E-07 
 -2.986793E-06 +1.124053E-07 +6.944842E-07 +1.124053E-07 +1.539110E-07 +6.624999E-07 +6.944842E-07 +6.624999E-07 +2.832882E-06 
 -9.003136E-08 +1.041672E-08 -7.767811E-09 +1.041672E-08 -9.431886E-08 +1.768548E-08 -7.767811E-09 +1.768548E-08 +1.843502E-07 
 -3.392262E-06 +3.418783E-06 +2.272774E-07 +3.418783E-06 -3.127347E-06 -1.678308E-06 +2.272774E-07 -1.678308E-06 +6.519609E-06 
 -3.640276E-08 -2.959859E-07 +2.605085E-08 -2.959859E-07 -2.517247E-06 -4.519739E-07 +2.605085E-08 -4.519739E-07 +2.553649E-06 
 -8.751795E-05 +4.080931E-05 +1.700223E-05 +4.080931E-05 -1.903188E-05 -7.928526E-06 +1.700223E-05 -7.928526E-06 +1.065498E-04 
 -1.413282E-05 -1.454095E-05 +4.409315E-06 -1.454095E-05 -1.344371E-05 +1.119107E-05 +4.409315E-06 +1.119107E-05 +2.757653E-05 
 -7.206958E-06 +5.682441E-06 +5.787128E-07 +5.682441E-06 -3.732853E-06 -3.322986E-06 +5.787128E-07 -3.322986E-06 +1.093981E-05 
 -3.995886E-08 -8.060077E-09 -4.439419E-10 -8.060077E-09 -5.727171E-08 +5.536180E-09 -4.439419E-10 +5.536180E-09 +9.723056E-08 
 -3.641866E-08 +1.312752E-08 -5.846599E-09 +1.312752E-08 -2.147833E-08 -4.018698E-10 -5.846599E-09 -4.018698E-10 +5.789699E-08 
 -2.431849E-06 +9.062133E-06 +4.641987E-06 +9.062133E-06 -2.465973E-05 +8.171733E-07 +4.641987E-06 +8.171733E-07 +2.709158E-05 
 +7.175554E-08 +6.071255E-07 +7.899415E-07 +6.071255E-07 -1.929702E-06 -2.311388E-07 +7.899415E-07 -2.311388E-07 +1.857946E-06 
 +1.096233E-07 +2.751283E-08 +2.660561E-07 +2.751283E-08 -7.100912E-07 -7.269141E-08 +2.660561E-07 -7.269141E-08 +6.004678E-07 
 -6.923397E-08 +9.520750E-09 +6.579675E-09 +9.520750E-09 -3.541305E-08 -3.804847E-09 +6.579675E-09 -3.804847E-09 +1.046470E-07 
 -1.199484E-08 +7.196351E-08 -1.924768E-07 +7.196351E-08 -6.945735E-07 +3.841969E-07 -1.924768E-07 +3.841969E-07 +7.065684E-07 
 -1.680397E-08 +1.893404E-09 +6.097606E-09 +1.893404E-09 -1.158225E-08 -3.077896E-09 +6.097606E-09 -3.077896E-09 +2.838622E-08 
 -1.496993E-08 +4.689165E-10 -5.764406E-11 +4.689165E-10 -2.660048E-08 -2.061834E-09 -5.764406E-11 -2.061834E-09 +4.157041E-08 
 -9.512633E-06 -3.605551E-06 +2.669159E-06 -3.605551E-06 -1.126877E-06 +2.977227E-06 +2.669159E-06 +2.977227E-06 +1.063951E-05 
 -4.159581E-05 +3.818966E-05 +1.718490E-05 +3.818966E-05 -2.232672E-05 +1.431742E-05 +1.718490E-05 +1.431742E-05 +6.392253E-05 
 -1.999868E-08 -1.173993E-09 -3.418157E-09 -1.173993E-09 -1.809916E-08 +1.693357E-09 -3.418157E-09 +1.693357E-09 +3.809784E-08 
 -1.411123E-08 -1.139739E-08 -2.454002E-09 -1.139739E-08 -3.099703E-08 -9.430281E-09 -2.454002E-09 -9.430281E-09 +4.510827E-08 
 -2.016975E-06 -2.213327E-07 +1.133985E-06 -2.213327E-07 -2.735711E-08 +3.785799E-07 +1.133985E-06 +3.785799E-07 +2.044332E-06 
 -4.644537E-07 -1.226978E-07 +6.861053E-08 -1.226978E-07 +3.059204E-08 -1.554225E-07 +6.861053E-08 -1.554225E-07 +4.338617E-07 
 -1.407472E-06 +3.622534E-06 +3.068193E-06 +3.622534E-06 -7.484896E-06 -2.525940E-06 +3.068193E-06 -2.525940E-06 +8.892368E-06 
 -2.567079E-06 +2.570291E-06 +7.580553E-08 +2.570291E-06 -1.559927E-06 +2.015111E-06 +7.580553E-08 +2.015111E-06 +4.127006E-06 
 -1.109467E-04 +1.322184E-04 -3.177444E-05 +1.322184E-04 -1.575743E-04 +3.786787E-05 -3.177444E-05 +3.786787E-05 +2.685211E-04 
 -6.760457E-09 +1.344505E-08 +2.839226E-09 +1.344505E-08 -6.910751E-08 +4.114944E-08 +2.839226E-09 +4.114944E-08 +7.586797E-08 
 -4.885275E-05 -2.277967E-05 -1.898227E-05 -2.277967E-05 -1.062398E-05 -8.851159E-06 -1.898227E-05 -8.851159E-06 +5.947674E-05 
 +5.334272E-07 -7.058476E-07 -6.785116E-06 -7.058476E-07 -8.604629E-05 +1.572919E-05 -6.785116E-06 +1.572919E-05 +8.551286E-05 
 -1.056008E-08 -2.952786E-06 -3.471023E-06 -2.952786E-06 -3.357840E-05 -5.394226E-06 -3.471023E-06 -5.394226E-06 +3.358896E-05 
 -9.625474E-06 -4.174588E-06 +1.714008E-06 -4.174588E-06 -1.808921E-06 +1.085052E-06 +1.714008E-06 +1.085052E-06 +1.143440E-05 
 -2.572163E-05 +3.065351E-05 +1.294261E-07 +3.065351E-05 -3.653171E-05 -1.540819E-07 +1.294261E-07 -1.540819E-07 +6.225334E-05 
 -3.526045E-05 -3.670909E-05 +5.881393E-06 -3.670909E-05 -3.389606E-05 -1.134677E-05 +5.881393E-06 -1.134677E-05 +6.915651E-05 
 +1.220570E-08 -1.931663E-08 +3.822751E-08 -1.931663E-08 -9.536252E-08 +2.170645E-08 +3.822751E-08 +2.170645E-08 +8.315682E-08 
 -2.394140E-06 -4.410724E-06 +3.923389E-06 -4.410724E-06 -4.598957E-06 +3.440522E-07 +3.923389E-06 +3.440522E-07 +6.993097E-06 
 -3.715461E-05 -5.159546E-05 +1.241658E-05 -5.159546E-05 -7.161898E-05 +1.471615E-05 +1.241658E-05 +1.471615E-05 +1.087736E-04 
 -4.111787E-08 +2.268631E-07 -1.416286E-07 +2.268631E-07 -8.996055E-07 -5.053012E-07 -1.416286E-07 -5.053012E-07 +9.407234E-07 
 -1.827089E-07 +2.874725E-07 +2.192063E-07 +2.874725E-07 -2.866356E-07 +1.463379E-08 +2.192063E-07 +1.463379E-08 +4.693446E-07 
 -5.394088E-08 -1.402581E-08 +4.669917E-09 -1.402581E-08 -6.578604E-08 -9.200923E-09 +4.669917E-09 -9.200923E-09 +1.197269E-07 
 -1.464201E-06 -8.220246E-07 -5.455094E-07 -8.220246E-07 -4.507230E-07 -4.752644E-07 -5.455094E-07 -4.752644E-07 +1.914924E-06 
 -3.641257E-06 -9.487957E-06 +4.070819E-06 -9.487957E-06 -1.990586E-05 -1.080494E-06 +4.070819E-06 -1.080494E-06 +2.354712E-05 
 -8.518898E-08 +6.419214E-09 -3.580882E-08 +6.419214E-09 -1.873693E-08 +7.869681E-10 -3.580882E-08 +7.869681E-10 +1.039259E-07 
 -6.977904E-09 -5.433075E-07 +6.180921E-07 -5.433075E-07 -6.063319E-06 +9.756013E-07 +6.180921E-07 +9.756013E-07 +6.070297E-06 
 -5.772555E-07 +2.543694E-07 +3.892735E-07 +2.543694E-07 -1.311946E-07 -9.699379E-08 +3.892735E-07 -9.699379E-08 +7.084500E-07 
 -4.353145E-05 +5.993687E-05 +2.939077E-05 +5.993687E-05 -7.232715E-05 -3.257944E-06 +2.939077E-05 -3.257944E-06 +1.158586E-04 
 -1.117219E-04 -4.071594E-05 +5.917304E-07 -4.071594E-05 -1.375791E-05 -1.146386E-05 +5.917304E-07 -1.146386E-05 +1.254798E-04 
 -4.269856E-06 -6.524996E-06 -2.467892E-07 -6.524996E-06 -9.492973E-06 -2.960960E-06 -2.467892E-07 -2.960960E-06 +1.376283E-05 
 -1.481737E-05 +2.864102E-05 -1.713908E-05 +2.864102E-05 -4.558410E-05 +5.094919E-06 -1.713908E-05 +5.094919E-06 +6.040147E-05 
 -2.446036E-06 -5.057431E-08 +6.961274E-07 -5.057431E-08 +1.272229E-07 +6.080164E-07 +6.961274E-07 +6.080164E-07 +2.318814E-06 
 -2.300855E-06 -1.303308E-05 -3.520922E-06 -1.303308E-05 -7.391693E-05 -1.997102E-05 -3.520922E-06 -1.997102E-05 +7.621779E-05 
 -2.074243E-05 -1.268446E-05 +5.577670E-06 -1.268446E-05 -3.838624E-06 -6.706647E-06 +5.577670E-06 -6.706647E-06 +2.458105E-05 
 -1.899360E-07 +6.987729E-08 -1.833558E-08 +6.987729E-08 -1.305560E-07 +1.074951E-08 -1.833558E-08 +1.074951E-08 +3.204920E-07 
 -1.973792E-05 +1.635318E-06 -9.238850E-06 +1.635318E-06 +5.537087E-07 -3.360058E-06 -9.238850E-06 -3.360058E-06 +1.918422E-05 
 -1.855523E-08 -7.566646E-08 +3.565792E-09 -7.566646E-08 -4.246972E-07 +2.534574E-07 +3.565792E-09 +2.534574E-07 +4.432524E-07 
 -1.819639E-07 -1.352882E-08 +9.778244E-08 -1.352882E-08 -2.853625E-08 -3.214744E-08 +9.778244E-08 -3.214744E-08 +2.105001E-07 
 -3.707021E-07 -1.766814E-06 -1.295950E-06 -1.766814E-06 -5.022608E-06 -3.474289E-07 -1.295950E-06 -3.474289E-07 +5.393309E-06 
 -1.063683E-07 -3.438978E-10 -3.138961E-08 -3.438978E-10 -4.800972E-08 +3.819990E-09 -3.138961E-08 +3.819990E-09 +1.543780E-07 
 -1.311567E-06 +1.397450E-05 -1.299208E-05 +1.397450E-05 -9.255542E-05 +2.639697E-05 -1.299208E-05 +2.639697E-05 +9.386699E-05 
 -1.473800E-07 +1.800738E-07 +3.875717E-08 +1.800738E-07 -6.418634E-08 -1.736031E-07 +3.875717E-08 -1.736031E-07 +2.115663E-07 
 -1.900433E-07 -5.523390E-08 -8.536846E-08 -5.523390E-08 +1.120807E-08 +5.971855E-08 -8.536846E-08 +5.971855E-08 +1.788352E-07 
 -9.548711E-06 +1.832278E-06 +2.539911E-08 +1.832278E-06 -3.504470E-07 +1.469517E-07 +2.539911E-08 +1.469517E-07 +9.899159E-06 
 -5.018433E-05 +1.344641E-05 -3.889396E-07 +1.344641E-05 -3.604902E-06 +1.031621E-07 -3.889396E-07 +1.031621E-07 +5.378923E-05 
 -1.392991E-04 +1.989379E-04 +7.078873E-06 +1.989379E-04 -2.841136E-04 -1.011011E-05 +7.078873E-06 -1.011011E-05 +4.234127E-04 
 -2.736903E-06 +2.793939E-06 +1.052210E-06 +2.793939E-06 -1.754883E-06 +1.245373E-06 +1.052210E-06 +1.245373E-06 +4.491786E-06 
 -6.743031E-08 -1.311387E-08 +2.905382E-08 -1.311387E-08 -2.107884E-08 +1.330353E-08 +2.905382E-08 +1.330353E-08 +8.850914E-08 
 -2.272624E-06 -2.490265E-06 +5.626636E-08 -2.490265E-06 -2.374431E-06 +1.347886E-06 +5.626636E-08 +1.347886E-06 +4.647055E-06 
 -1.213776E-08 -5.811431E-09 +4.348435E-09 -5.811431E-09 -1.878948E-08 +8.331523E-09 +4.348435E-09 +8.331523E-09 +3.092724E-08 
 -1.882765E-08 +4.899661E-09 +5.487929E-09 +4.899661E-09 -2.068938E-08 -6.396524E-09 +5.487929E-09 -6.396524E-09 +3.951703E-08 
 -2.340911E-08 -1.289654E-09 -1.078410E-08 -1.289654E-09 -1.532364E-08 -2.369149E-09 -1.078410E-08 -2.369149E-09 +3.873275E-08 
 +1.708854E-07 -9.438319E-06 -1.140794E-05 -9.438319E-06 -1.190410E-04 -1.111009E-05 -1.140794E-05 -1.111009E-05 +1.188701E-04 
 -3.921712E-06 -1.956834E-06 +2.056578E-06 -1.956834E-06 -8.221186E-07 +6.872948E-08 +2.056578E-06 +6.872948E-08 +4.743830E-06 
 +3.656643E-08 -9.646353E-08 +2.415493E-07 -9.646353E-08 -8.559313E-07 +2.250060E-07 +2.415493E-07 +2.250060E-07 +8.193649E-07 
 -2.692283E-06 +1.835103E-05 -1.992983E-05 +1.835103E-05 -4.667527E-05 +1.150053E-05 -1.992983E-05 +1.150053E-05 +4.936755E-05 
 -6.023415E-09 +4.648807E-09 +6.173155E-09 +4.648807E-09 -2.230892E-07 -7.886868E-08 +6.173155E-09 -7.886868E-08 +2.291127E-07 
 -4.944883E-06 +5.965439E-06 -1.309738E-06 +5.965439E-06 -7.196340E-06 +1.695610E-06 -1.309738E-06 +1.695610E-06 +1.214122E-05 
 -1.551520E-07 -4.749884E-08 -7.731700E-08 -4.749884E-08 -1.013679E-07 -6.274681E-08 -7.731700E-08 -6.274681E-08 +2.565199E-07 
 -6.967669E-07 +5.050419E-07 -3.490622E-07 +5.050419E-07 -1.147845E-07 -2.460939E-07 -3.490622E-07 -2.460939E-07 +8.115514E-07 
 -4.380169E-05 +4.212958E-06 +5.673279E-06 +4.212958E-06 +8.809954E-07 -8.054765E-06 +5.673279E-06 -8.054765E-06 +4.292070E-05 
 -2.239945E-06 +1.603667E-06 -3.257339E-07 +1.603667E-06 -1.105505E-06 +6.153906E-07 -3.257339E-07 +6.153906E-07 +3.345450E-06 
 -1.215728E-08 -5.269494E-10 -9.502109E-10 -5.269494E-10 -1.360755E-08 -6.539862E-09 -9.502109E-10 -6.539862E-09 +2.576483E-08 
 -1.348848E-07 +3.763688E-08 +7.057366E-08 +3.763688E-08 -1.995169E-08 -3.881971E-08 +7.057366E-08 -3.881971E-08 +1.548365E-07 
 +4.721444E-06 +3.559772E-06 -1.781759E-05 +3.559772E-06 -7.138014E-05 -1.327761E-05 -1.781759E-05 -1.327761E-05 +6.665869E-05 
 -3.233732E-07 +2.171200E-07 -6.334643E-08 +2.171200E-07 -1.459514E-07 +5.350324E-08 -6.334643E-08 +5.350324E-08 +4.693246E-07 
 -6.943364E-06 -1.021445E-06 +3.047206E-06 -1.021445E-06 +1.712228E-07 -1.175952E-06 +3.047206E-06 -1.175952E-06 +6.772142E-06 
 -2.916495E-05 -1.140795E-05 -2.799091E-06 -1.140795E-05 -1.941017E-06 +7.828889E-06 -2.799091E-06 +7.828889E-06 +3.110596E-05 
 -1.602752E-06 +1.066734E-06 +6.230391E-07 +1.066734E-06 -2.240508E-07 +5.928250E-07 +6.230391E-07 +5.928250E-07 +1.826803E-06 
 -5.298487E-05 -2.380181E-05 +2.409525E-05 -2.380181E-05 -8.171742E-06 -2.695158E-06 +2.409525E-05 -2.695158E-06 +6.115661E-05 
 -1.213515E-09 -2.160593E-07 +2.004355E-07 -2.160593E-07 -6.516740E-07 -1.119519E-07 +2.004355E-07 -1.119519E-07 +6.528875E-07 
 -2.578025E-06 +1.793158E-05 +6.622760E-06 +1.793158E-05 -9.568824E-05 +1.193209E-05 +6.622760E-06 +1.193209E-05 +9.826627E-05 
 -2.520469E-06 -2.827690E-07 +9.503470E-07 -2.827690E-07 +6.681600E-08 +6.375058E-07 +9.503470E-07 +6.375058E-07 +2.453653E-06 
 -2.271407E-07 +2.637970E-07 -4.813745E-08 +2.637970E-07 -2.313520E-07 +2.476450E-07 -4.813745E-08 +2.476450E-07 +4.584927E-07 
 -1.255580E-06 +1.363288E-06 +4.512964E-07 +1.363288E-06 -1.414138E-06 -9.649706E-07 +4.512964E-07 -9.649706E-07 +2.669718E-06 
 +4.468738E-08 -2.601299E-09 +2.268919E-07 -2.601299E-09 -8.930636E-07 +2.464363E-07 +2.268919E-07 +2.464363E-07 +8.483763E-07 
 -4.949127E-07 +1.389142E-06 -8.250741E-08 +1.389142E-06 -3.544967E-06 +1.496706E-06 -8.250741E-08 +1.496706E-06 +4.039880E-06 
 -2.755280E-07 -2.526189E-07 -2.710029E-07 -2.526189E-07 -2.262200E-07 -1.392544E-07 -2.710029E-07 -1.392544E-07 +5.017480E-07 
 -8.046188E-09 -4.606102E-09 -2.942863E-09 -4.606102E-09 -1.482580E-08 -6.074615E-09 -2.942863E-09 -6.074615E-09 +2.287199E-08 
 -1.319340E-07 -2.606480E-09 +1.708211E-08 -2.606480E-09 -8.137962E-08 -1.566598E-09 +1.708211E-08 -1.566598E-09 +2.133136E-07 
 +2.071067E-07 +1.484344E-07 -6.514510E-07 +1.484344E-07 -1.789987E-06 +4.400879E-07 -6.514510E-07 +4.400879E-07 +1.582880E-06 
 -2.796346E-08 -1.766558E-08 -7.210605E-09 -1.766558E-08 -2.548651E-08 -8.491288E-09 -7.210605E-09 -8.491288E-09 +5.344997E-08 
 -1.611715E-07 +2.786252E-08 +5.733316E-08 +2.786252E-08 -2.472887E-08 +3.907895E-08 +5.733316E-08 +3.907895E-08 +1.859004E-07 
 -4.406047E-08 +5.359487E-09 -4.036351E-09 +5.359487E-09 -1.651287E-08 +4.295941E-10 -4.036351E-09 +4.295941E-10 +6.057333E-08 
 -9.795565E-06 -3.425403E-06 -2.947958E-07 -3.425403E-06 -9.037862E-07 +1.672444E-06 -2.947958E-07 +1.672444E-06 +1.069935E-05 
 -1.263831E-08 -1.467368E-09 -2.282293E-09 -1.467368E-09 -1.997933E-08 -6.632205E-09 -2.282293E-09 -6.632205E-09 +3.261764E-08 
 -3.477678E-07 -8.343138E-08 -1.916508E-07 -8.343138E-08 -3.831506E-08 -7.520683E-08 -1.916508E-07 -7.520683E-08 +3.860828E-07 
 -4.705520E-07 -3.107927E-06 -2.834794E-06 -3.107927E-06 -9.742462E-06 -1.559223E-06 -2.834794E-06 -1.559223E-06 +1.021301E-05 
 -5.006562E-07 -1.441040E-07 +1.504126E-07 -1.441040E-07 +2.592783E-08 -1.448109E-07 +1.504126E-07 -1.448109E-07 +4.747284E-07 
 -2.259738E-06 +3.455639E-06 +3.833540E-07 +3.455639E-06 -3.128639E-06 +2.848236E-06 +3.833540E-07 +2.848236E-06 +5.388377E-06 
 -3.663918E-08 -1.053103E-08 +1.068095E-08 -1.053103E-08 -1.502185E-08 +2.321847E-09 +1.068095E-08 +2.321847E-09 +5.166102E-08 
 -2.835807E-08 -2.599793E-09 +4.823576E-09 -2.599793E-09 -7.085870E-08 -2.220585E-08 +4.823576E-09 -2.220585E-08 +9.921676E-08 
 -7.344864E-06 +3.221293E-06 +1.067948E-06 +3.221293E-06 -1.202260E-06 -1.832830E-06 +1.067948E-06 -1.832830E-06 +8.547123E-06 
 -4.401598E-07 +9.538844E-07 -4.046477E-07 +9.538844E-07 -2.102355E-06 +8.273834E-07 -4.046477E-07 +8.273834E-07 +2.542514E-06 
 -4.897422E-08 -1.753468E-09 -1.703282E-08 -1.753468E-09 -2.836761E-08 -6.326823E-10 -1.703282E-08 -6.326823E-10 +7.734183E-08 
 -6.308797E-08 -1.205921E-07 -8.703948E-08 -1.205921E-07 -2.409987E-07 -1.490589E-07 -8.703948E-08 -1.490589E-07 +3.040866E-07 
 -5.901108E-08 +1.575392E-09 +2.418776E-08 +1.575392E-09 -3.387620E-08 +3.088527E-08 +2.418776E-08 +3.088527E-08 +9.288728E-08 
 -6.679422E-05 +2.275273E-05 -5.363511E-06 +2.275273E-05 -2.159719E-06 +2.156552E-05 -5.363511E-06 +2.156552E-05 +6.895394E-05 
 +1.809915E-06 +1.493063E-06 -1.056842E-05 +1.493063E-06 -6.192493E-05 -8.460770E-06 -1.056842E-05 -8.460770E-06 +6.011501E-05 
 +5.803343E-07 -4.365247E-06 -5.492191E-06 -4.365247E-06 -3.523014E-05 +7.255091E-06 -5.492191E-06 +7.255091E-06 +3.464980E-05 
 -5.178100E-08 -2.402344E-09 -5.653600E-09 -2.402344E-09 -2.306956E-08 -1.650573E-10 -5.653600E-09 -1.650573E-10 +7.485056E-08 
 -2.415793E-08 +1.715021E-08 -1.215152E-09 +1.715021E-08 -2.878588E-08 +3.148895E-09 -1.215152E-09 +3.148895E-09 +5.294382E-08 
 +2.172005E-06 -1.529117E-05 +2.268330E-05 -1.529117E-05 -7.102701E-05 +1.346678E-05 +2.268330E-05 +1.346678E-05 +6.885501E-05 
 -9.858132E-07 +1.988913E-06 -3.470039E-07 +1.988913E-06 -1.711495E-06 -1.849070E-06 -3.470039E-07 -1.849070E-06 +2.697308E-06 
 -1.815188E-04 +1.388882E-04 +5.825477E-05 +1.388882E-04 -9.087123E-05 -1.115609E-04 +5.825477E-05 -1.115609E-04 +2.723900E-04 
 +1.003595E-07 +1.499567E-07 +3.615743E-07 +1.499567E-07 -1.053811E-06 -9.070203E-08 +3.615743E-07 -9.070203E-08 +9.534518E-07 
 -2.964478E-08 -9.264321E-09 +1.536356E-08 -9.264321E-09 -2.301904E-08 +1.026594E-08 +1.536356E-08 +1.026594E-08 +5.266382E-08 
 -4.530938E-06 +1.147376E-05 -5.229404E-06 +1.147376E-05 -2.261331E-05 -1.398584E-06 -5.229404E-06 -1.398584E-06 +2.714425E-05 
 -5.319678E-06 +1.938229E-06 -1.039392E-06 +1.938229E-06 +5.644416E-07 +2.894474E-06 -1.039392E-06 +2.894474E-06 +4.755236E-06 
 -3.731544E-06 +2.661139E-06 -1.992630E-07 +2.661139E-06 -1.171581E-06 +2.112890E-06 -1.992630E-07 +2.112890E-06 +4.903126E-06 
 -5.746543E-08 -6.174253E-08 -2.935991E-08 -6.174253E-08 -1.891078E-07 -1.101459E-07 -2.935991E-08 -1.101459E-07 +2.465733E-07 
 -2.364873E-05 +4.855583E-05 -2.168956E-05 +4.855583E-05 -8.400797E-05 -3.550605E-07 -2.168956E-05 -3.550605E-07 +1.076567E-04 
 -2.378370E-06 -1.523778E-06 +3.040622E-07 -1.523778E-06 -4.360434E-07 +1.448024E-06 +3.040622E-07 +1.448024E-06 +2.814414E-06 
 -4.841424E-08 +6.516767E-10 -8.535886E-09 +6.516767E-10 -6.749325E-08 -5.061247E-09 -8.535886E-09 -5.061247E-09 +1.159075E-07 
 -5.061743E-06 +8.790463E-07 -6.556007E-08 +8.790463E-07 -1.375660E-09 +9.129915E-07 -6.556007E-08 +9.129915E-07 +5.063118E-06 
 -1.075222E-05 -8.196970E-07 -2.397475E-10 -8.196970E-07 -5.357660E-10 -8.196686E-07 -2.397475E-10 -8.196686E-07 +1.075276E-05 
 -4.100184E-08 +8.036737E-09 +1.363043E-08 +8.036737E-09 -2.743049E-08 -4.921764E-09 +1.363043E-08 -4.921764E-09 +6.843234E-08 
 -2.193940E-07 -1.323263E-06 -9.335963E-07 -1.323263E-06 -3.420716E-06 +2.771728E-07 -9.335963E-07 +2.771728E-07 +3.640110E-06 
 -1.148992E-06 +2.135466E-06 +1.889448E-06 +2.135466E-06 -3.075019E-06 -9.470427E-07 +1.889448E-06 -9.470427E-07 +4.224011E-06 
 -4.650144E-06 -3.134078E-06 +7.094251E-08 -3.134078E-06 -2.113890E-06 -9.882432E-08 +7.094251E-08 -9.882432E-08 +6.764034E-06 
 +9.215132E-08 +1.569158E-07 +4.552972E-07 +1.569158E-07 -1.385564E-06 +5.724736E-07 +4.552972E-07 +5.724736E-07 +1.293413E-06 
 -3.930472E-05 -4.288065E-06 +1.032812E-05 -4.288065E-06 +2.039087E-06 +1.119522E-05 +1.032812E-05 +1.119522E-05 +3.726564E-05 
 -3.015520E-06 +2.977498E-06 -5.360146E-08 +2.977498E-06 -1.709968E-06 +2.467969E-06 -5.360146E-08 +2.467969E-06 +4.725488E-06 
 -2.998851E-07 +7.700085E-09 -2.019556E-07 +7.700085E-09 -3.878165E-08 -3.873723E-08 -2.019556E-07 -3.873723E-08 +3.386668E-07 
 -8.360347E-05 +2.107894E-05 -1.473918E-05 +2.107894E-05 -7.547762E-09 +2.511848E-05 -1.473918E-05 +2.511848E-05 +8.361102E-05 
 -8.417750E-07 +1.196624E-06 -3.449129E-08 +1.196624E-06 -1.346379E-06 -8.825997E-07 -3.449129E-08 -8.825997E-07 +2.188154E-06 
 -2.569103E-08 +1.158436E-08 -7.737895E-09 +1.158436E-08 -3.097685E-08 +1.227647E-08 -7.737895E-09 +1.227647E-08 +5.666788E-08 
 -7.838793E-06 -1.064843E-06 -3.136474E-06 -1.064843E-06 -1.785794E-08 +6.855784E-07 -3.136474E-06 +6.855784E-07 +7.856651E-06 
 -6.927492E-06 -2.709620E-06 +1.532356E-06 -2.709620E-06 -1.020964E-06 +3.005860E-08 +1.532356E-06 +3.005860E-08 +7.948455E-06 
 -2.050891E-07 +1.085965E-07 +3.247171E-08 +1.085965E-07 -1.741214E-08 -1.193966E-07 +3.247171E-08 -1.193966E-07 +2.225012E-07 
 -1.140496E-08 +1.474440E-08 -8.111278E-09 +1.474440E-08 -2.743437E-08 +1.792847E-08 -8.111278E-09 +1.792847E-08 +3.883934E-08 
 -2.538632E-07 -6.383456E-08 -1.894664E-08 -6.383456E-08 -6.646145E-08 -1.757152E-09 -1.894664E-08 -1.757152E-09 +3.203247E-07 
 -2.469847E-05 +4.521033E-05 +7.014091E-06 +4.521033E-05 -7.075343E-05 +2.146214E-05 +7.014091E-06 +2.146214E-05 +9.545191E-05 
 -3.199562E-07 +2.091219E-06 +1.526904E-06 +2.091219E-06 -9.093351E-06 -1.209303E-06 +1.526904E-06 -1.209303E-06 +9.413307E-06 
 -6.392551E-06 -1.685917E-05 +2.723764E-06 -1.685917E-05 -4.128917E-05 +1.967534E-05 +2.723764E-06 +1.967534E-05 +4.768173E-05 
 -4.541020E-08 +1.084013E-08 -1.614306E-08 +1.084013E-08 -2.313625E-08 +1.355342E-09 -1.614306E-08 +1.355342E-09 +6.854646E-08 
 -3.350511E-07 -3.613201E-06 -1.700808E-06 -3.613201E-06 -3.029449E-05 +3.009576E-07 -1.700808E-06 +3.009576E-07 +3.062954E-05 
 -1.010939E-07 +5.665936E-08 -1.231952E-08 +5.665936E-08 -1.079640E-07 +1.324974E-08 -1.231952E-08 +1.324974E-08 +2.090580E-07 
 -3.148560E-09 -5.457771E-10 -6.352003E-10 -5.457771E-10 -3.508895E-09 +5.740158E-10 -6.352003E-10 +5.740158E-10 +6.657455E-09 
 -1.622767E-08 +1.055380E-08 +1.049085E-09 +1.055380E-08 -6.315232E-08 +5.106338E-09 +1.049085E-09 +5.106338E-09 +7.937999E-08 
 -3.101368E-07 -4.710552E-07 -3.376677E-07 -4.710552E-07 -4.468071E-07 +4.058781E-08 -3.376677E-07 +4.058781E-08 +7.569440E-07 
 -7.704526E-08 -1.885974E-08 +2.941485E-08 -1.885974E-08 -6.362693E-08 +1.438886E-08 +2.941485E-08 +1.438886E-08 +1.406722E-07 
 -1.899488E-05 +1.280505E-05 +6.152980E-06 +1.280505E-05 -8.143591E-06 -8.015470E-06 +6.152980E-06 -8.015470E-06 +2.713847E-05 
 -6.726905E-07 -7.639866E-06 +2.354772E-06 -7.639866E-06 -8.733181E-05 +2.694096E-05 +2.354772E-06 +2.694096E-05 +8.800450E-05 
 -4.793790E-08 +2.088655E-08 +1.205611E-08 +2.088655E-08 -5.925871E-08 -1.898919E-08 +1.205611E-08 -1.898919E-08 +1.071966E-07 
 -2.158049E-08 +1.254251E-08 -1.965664E-09 +1.254251E-08 -6.084143E-08 +1.760702E-08 -1.965664E-09 +1.760702E-08 +8.242192E-08 
 -2.356332E-06 +3.725119E-06 +3.075773E-07 +3.725119E-06 -5.838032E-06 +1.772126E-07 +3.075773E-07 +1.772126E-07 +8.194364E-06 
 -6.083422E-05 +1.304512E-04 -1.253458E-05 +1.304512E-04 -2.797577E-04 +2.688137E-05 -1.253458E-05 +2.688137E-05 +3.405919E-04 
 -1.352820E-06 -8.037592E-07 -1.109713E-06 -8.037592E-07 -4.458716E-07 -2.487918E-07 -1.109713E-06 -2.487918E-07 +1.798691E-06 
 +5.152309E-07 -1.588630E-06 +4.487541E-06 -1.588630E-06 -1.744088E-05 +8.289893E-06 +4.487541E-06 +8.289893E-06 +1.692565E-05 
 -1.910374E-08 +5.112571E-09 +2.549424E-09 +5.112571E-09 -9.084414E-09 +1.026025E-09 +2.549424E-09 +1.026025E-09 +2.818815E-08 
 -6.596870E-09 +3.858289E-09 +2.086553E-09 +3.858289E-09 -1.220536E-08 -5.948206E-09 +2.086553E-09 -5.948206E-09 +1.880223E-08 
 -4.006310E-06 -1.011502E-06 +3.309985E-07 -1.011502E-06 -1.246855E-07 +8.394787E-07 +3.309985E-07 +8.394787E-07 +4.130995E-06 
 -6.165321E-06 -2.148201E-05 +8.871591E-06 -2.148201E-05 -5.527939E-05 -7.279193E-06 +8.871591E-06 -7.279193E-06 +6.144471E-05 
 -4.357118E-08 -9.127729E-09 +5.846120E-09 -9.127729E-09 -5.243231E-08 -2.161767E-09 +5.846120E-09 -2.161767E-09 +9.600349E-08 
 -1.574480E-07 -2.787265E-08 -5.211481E-08 -2.787265E-08 +8.323969E-10 +3.485297E-08 -5.211481E-08 +3.485297E-08 +1.566156E-07 
 +5.262133E-08 +1.011057E-08 +3.686683E-08 +1.011057E-08 -4.716314E-08 -3.691258E-08 +3.686683E-08 -3.691258E-08 -5.458193E-09 
 -4.990082E-05 +9.790523E-05 +3.284501E-05 +9.790523E-05 -1.632164E-04 +1.818785E-05 +3.284501E-05 +1.818785E-05 +2.131172E-04 
 -3.464540E-05 +3.358374E-05 +8.546828E-06 +3.358374E-05 -3.151756E-05 -1.672924E-05 +8.546828E-06 -1.672924E-05 +6.616295E-05 
 -9.053349E-08 -3.371296E-08 -5.886335E-08 -3.371296E-08 -6.271168E-08 -2.000110E-08 -5.886335E-08 -2.000110E-08 +1.532452E-07 
 +6.264817E-09 -2.366989E-08 -3.510665E-08 -2.366989E-08 -1.153027E-07 +2.607085E-08 -3.510665E-08 +2.607085E-08 +1.090378E-07 
 -2.649487E-08 -1.858354E-08 +1.714636E-08 -1.858354E-08 -2.533607E-08 +8.475061E-09 +1.714636E-08 +8.475061E-09 +5.183094E-08 
 -2.454422E-08 -6.035865E-09 +7.187102E-09 -6.035865E-09 -1.975546E-08 +7.168529E-09 +7.187102E-09 +7.168529E-09 +4.429968E-08 
 -1.447468E-06 -8.040367E-07 +3.460746E-07 -8.040367E-07 -4.381167E-07 +4.108226E-08 +3.460746E-07 +4.108226E-08 +1.885584E-06 
 -5.803956E-08 +4.505561E-07 -3.148387E-08 +4.505561E-07 -3.279908E-06 +1.227106E-06 -3.148387E-08 +1.227106E-06 +3.337947E-06 
 -1.005574E-07 +5.487611E-08 +1.576574E-08 +5.487611E-08 -2.034157E-07 -6.443487E-08 +1.576574E-08 -6.443487E-08 +3.039731E-07 
 -1.454169E-05 +1.277076E-05 -4.992943E-06 +1.277076E-05 -1.086491E-05 +1.289165E-06 -4.992943E-06 +1.289165E-06 +2.540660E-05 
 -1.142393E-07 -2.182846E-07 -6.704567E-08 -2.182846E-07 -4.263154E-07 -3.150922E-07 -6.704567E-08 -3.150922E-07 +5.405548E-07 
 +1.023102E-06 -6.173964E-06 -7.829271E-06 -6.173964E-06 -3.138715E-05 +2.362319E-06 -7.829271E-06 +2.362319E-06 +3.036405E-05 
 -5.645079E-05 +9.953452E-06 +2.671783E-05 +9.953452E-06 -1.756559E-06 -4.710973E-06 +2.671783E-05 -4.710973E-06 +5.820734E-05 
 -4.079509E-05 -4.966260E-05 +1.844617E-05 -4.966260E-05 -5.865657E-05 +8.490328E-06 +1.844617E-05 +8.490328E-06 +9.945165E-05 
 -1.397592E-07 +5.444371E-07 -3.392291E-07 +5.444371E-07 -9.943711E-07 -2.177069E-07 -3.392291E-07 -2.177069E-07 +1.134130E-06 
 -7.304869E-07 -1.390184E-06 +5.840093E-07 -1.390184E-06 -1.597492E-06 -6.082772E-07 +5.840093E-07 -6.082772E-07 +2.327979E-06 
 -1.201571E-10 -4.964099E-12 +4.002789E-11 -4.964099E-12 -3.703117E-06 +7.578199E-07 +4.002789E-11 +7.578199E-07 +3.703238E-06 
 -5.213371E-08 +1.235843E-08 +1.276171E-08 +1.235843E-08 -4.205710E-07 -2.558051E-07 +1.276171E-08 -2.558051E-07 +4.727047E-07 
 -1.455636E-06 +4.956082E-07 +4.656257E-07 +4.956082E-07 -2.245522E-07 -6.197491E-07 +4.656257E-07 -6.197491E-07 +1.680188E-06 
 -1.000380E-05 -1.213679E-05 +8.104191E-07 -1.213679E-05 -1.300461E-05 -5.340309E-06 +8.104191E-07 -5.340309E-06 +2.300841E-05 
 -7.416838E-08 -2.224638E-09 +2.752793E-09 -2.224638E-09 -1.182048E-07 +1.463948E-08 +2.752793E-09 +1.463948E-08 +1.923732E-07 
 -2.162671E-08 +5.157759E-09 +6.380365E-09 +5.157759E-09 -2.458905E-08 -8.363212E-09 +6.380365E-09 -8.363212E-09 +4.621577E-08 
 -2.931886E-06 +1.915522E-05 -1.423980E-05 +1.915522E-05 -5.555005E-05 -1.243526E-06 -1.423980E-05 -1.243526E-06 +5.848194E-05 
 -3.397060E-06 -1.330629E-06 +1.456237E-06 -1.330629E-06 +1.554094E-07 -1.075026E-06 +1.456237E-06 -1.075026E-06 +3.241651E-06 
 -1.921385E-07 -1.115290E-07 +2.953524E-09 -1.115290E-07 -1.492859E-07 +2.708248E-08 +2.953524E-09 +2.708248E-08 +3.414244E-07 
 -2.701475E-06 -1.171530E-06 -3.959449E-07 -1.171530E-06 -4.339967E-07 -6.584149E-07 -3.959449E-07 -6.584149E-07 +3.135472E-06 
 -3.549684E-08 +7.920675E-09 -4.804258E-09 +7.920675E-09 -4.498915E-08 +1.300003E-08 -4.804258E-09 +1.300003E-08 +8.048598E-08 
 -4.050374E-08 -5.951095E-07 +3.210083E-07 -5.951095E-07 -9.274265E-06 +1.616270E-06 +3.210083E-07 +1.616270E-06 +9.314768E-06 
 -1.199378E-07 +3.453923E-08 -3.944433E-08 +3.453923E-08 -1.056570E-07 +2.588648E-08 -3.944433E-08 +2.588648E-08 +2.255947E-07 
 -2.361927E-08 -3.067134E-09 +2.421899E-09 -3.067134E-09 -1.428109E-08 -1.012199E-09 +2.421899E-09 -1.012199E-09 +3.790036E-08 
 -8.403435E-07 +1.230479E-06 +5.258173E-08 +1.230479E-06 -7.678323E-07 +1.215240E-06 +5.258173E-08 +1.215240E-06 +1.608176E-06 
 -1.940277E-05 -3.360589E-05 +8.606048E-06 -3.360589E-05 -5.820770E-05 +1.490674E-05 +8.606048E-06 +1.490674E-05 +7.761047E-05 
 -4.459047E-08 -6.314902E-09 -1.343668E-08 -6.314902E-09 -3.981460E-08 -1.137584E-08 -1.343668E-08 -1.137584E-08 +8.440507E-08 
 -3.554933E-08 -5.659301E-09 +1.989952E-09 -5.659301E-09 -2.306454E-08 +3.808187E-09 +1.989952E-09 +3.808187E-09 +5.861387E-08 
 -5.860613E-05 +2.108504E-05 +3.714733E-09 +2.108504E-05 -9.193006E-09 -2.107893E-05 +3.714733E-09 -2.107893E-05 +5.861532E-05 
 -1.642621E-04 -7.659565E-05 +4.647592E-07 -7.659565E-05 -3.571949E-05 +2.163707E-07 +4.647592E-07 +2.163707E-07 +1.999816E-04 
 +1.181284E-08 -3.667801E-08 -1.184290E-07 -3.667801E-08 -3.811497E-07 +1.590043E-07 -1.184290E-07 +1.590043E-07 +3.693369E-07 
 -8.420889E-05 -1.626577E-04 +9.610119E-05 -1.626577E-04 -2.991346E-04 +9.939397E-05 +9.610119E-05 +9.939397E-05 +3.833435E-04 
 -1.889084E-05 +1.659953E-05 -6.562017E-06 +1.659953E-05 -1.412852E-05 +1.736362E-06 -6.562017E-06 +1.736362E-06 +3.301936E-05 
 -3.884101E-08 +5.963780E-09 +5.501771E-09 +5.963780E-09 -2.361475E-08 -2.799387E-11 +5.501771E-09 -2.799387E-11 +6.245575E-08 
 -3.076384E-07 -1.317737E-06 +9.077461E-08 -1.317737E-06 -5.303691E-06 +2.052205E-06 +9.077461E-08 +2.052205E-06 +5.611329E-06 
 -4.803906E-07 +1.881555E-06 +5.773921E-07 +1.881555E-06 -2.986820E-06 +2.048661E-06 +5.773921E-07 +2.048661E-06 +3.467211E-06 
 -1.532128E-06 +1.321704E-06 +7.678127E-07 +1.321704E-06 -1.172837E-06 -5.947511E-07 +7.678127E-07 -5.947511E-07 +2.704965E-06 
 -1.947657E-06 +1.184943E-06 -5.045420E-07 +1.184943E-06 -7.063541E-07 +9.425418E-08 -5.045420E-07 +9.425418E-08 +2.654012E-06 
 -2.551127E-08 +6.189251E-09 -2.024048E-09 +6.189251E-09 -2.330985E-08 -5.589626E-09 -2.024048E-09 -5.589626E-09 +4.882112E-08 
 -2.438027E-06 +1.285150E-06 +1.063791E-06 +1.285150E-06 -6.779260E-07 -4.175102E-07 +1.063791E-06 -4.175102E-07 +3.115953E-06 
 -3.926655E-05 -7.221424E-05 +2.408514E-05 -7.221424E-05 -1.272884E-04 +1.258342E-05 +2.408514E-05 +1.258342E-05 +1.665549E-04 
 -1.047924E-04 -4.749763E-05 +6.984470E-06 -4.749763E-05 -1.692699E-05 +2.692391E-05 +6.984470E-06 +2.692391E-05 +1.217194E-04 
 -5.631010E-06 -1.157466E-06 -4.539457E-07 -1.157466E-06 +4.553982E-07 +1.817770E-06 -4.539457E-07 +1.817770E-06 +5.175612E-06 
 -7.405316E-06 -3.019799E-06 -2.787489E-06 -3.019799E-06 -1.224462E-06 -1.511144E-06 -2.787489E-06 -1.511144E-06 +8.629779E-06 
 -5.998176E-09 +1.940846E-08 +2.992710E-08 +1.940846E-08 -1.208236E-07 +5.473421E-08 +2.992710E-08 +5.473421E-08 +1.268218E-07 
 -3.795564E-10 -1.164464E-08 +3.639285E-08 -1.164464E-08 -1.088480E-07 +1.243308E-08 +3.639285E-08 +1.243308E-08 +1.092275E-07 
 -1.421074E-06 +2.716644E-06 +1.462116E-06 +2.716644E-06 -4.953820E-06 -1.417483E-06 +1.462116E-06 -1.417483E-06 +6.374894E-06 
 -4.219928E-08 -2.183246E-08 +4.705241E-09 -2.183246E-08 -5.920526E-08 -6.192552E-09 +4.705241E-09 -6.192552E-09 +1.014045E-07 
 -5.673294E-08 -9.849074E-09 +3.213070E-08 -9.849074E-09 -4.791731E-08 +9.977240E-09 +3.213070E-08 +9.977240E-09 +1.046503E-07 
 -1.416661E-08 -1.028653E-07 -1.172110E-07 -1.028653E-07 -2.311837E-07 -3.776731E-08 -1.172110E-07 -3.776731E-08 +2.453503E-07 
 -1.420292E-08 +5.800412E-08 -8.303616E-08 +5.800412E-08 -1.963230E-07 +6.925759E-08 -8.303616E-08 +6.925759E-08 +2.105260E-07 
 -4.631878E-05 +4.776939E-05 +1.174208E-05 +4.776939E-05 -4.778413E-05 -1.013127E-07 +1.174208E-05 -1.013127E-07 +9.410292E-05 
 -1.631193E-06 +1.634741E-06 +2.825610E-07 +1.634741E-06 -1.489856E-06 +4.036832E-07 +2.825610E-07 +4.036832E-07 +3.121050E-06 
 -6.012203E-08 -8.030664E-09 +8.011972E-09 -8.030664E-09 -6.648435E-08 +8.358973E-09 +8.011972E-09 +8.358973E-09 +1.266064E-07 
 -4.162380E-07 -1.793518E-06 +2.048813E-07 -1.793518E-06 -7.199963E-06 -1.395322E-06 +2.048813E-07 -1.395322E-06 +7.616200E-06 
 -9.838501E-08 -6.871043E-07 -5.918527E-07 -6.871043E-07 -1.460058E-06 +3.341378E-08 -5.918527E-07 +3.341378E-08 +1.558443E-06 
 -2.660496E-05 -1.703521E-05 -3.396606E-06 -1.703521E-05 -9.867869E-06 +4.042748E-06 -3.396606E-06 +4.042748E-06 +3.647283E-05 
 -2.150477E-05 +3.907489E-05 +1.073367E-05 +3.907489E-05 -6.822068E-05 -2.923436E-06 +1.073367E-05 -2.923436E-06 +8.972544E-05 
 -8.084530E-05 +4.669807E-06 -1.356116E-05 +4.669807E-06 +2.252455E-06 +1.508917E-05 -1.356116E-05 +1.508917E-05 +7.859284E-05 
 -2.360449E-05 +4.483165E-06 -1.808028E-06 +4.483165E-06 -1.090869E-07 -3.916487E-06 -1.808028E-06 -3.916487E-06 +2.371357E-05 
 -1.143973E-04 +4.033112E-05 -2.490344E-06 +4.033112E-05 -1.343498E-05 -9.352164E-06 -2.490344E-06 -9.352164E-06 +1.278323E-04 
 -1.158900E-05 +3.432043E-05 +8.658593E-06 +3.432043E-05 -7.441128E-05 +2.457195E-05 +8.658593E-06 +2.457195E-05 +8.600028E-05 
 -1.003306E-06 +1.983225E-06 +3.569588E-07 +1.983225E-06 -2.200337E-06 +1.699423E-06 +3.569588E-07 +1.699423E-06 +3.203644E-06 
 -1.000361E-07 +2.749201E-08 -3.244052E-10 +2.749201E-08 -6.020931E-08 +1.541386E-08 -3.244052E-10 +1.541386E-08 +1.602455E-07 
 -2.214750E-07 +7.050367E-07 +3.880306E-08 +7.050367E-07 -2.021321E-06 -8.800026E-07 +3.880306E-08 -8.800026E-07 +2.242796E-06 
 -5.648412E-08 -5.351671E-09 +4.495017E-09 -5.351671E-09 -1.021687E-07 +3.778756E-08 +4.495017E-09 +3.778756E-08 +1.586529E-07 
 -3.756747E-07 +6.827253E-09 +2.107965E-07 +6.827253E-09 -9.593276E-09 -4.743694E-08 +2.107965E-07 -4.743694E-08 +3.852680E-07 
 -3.889559E-07 +1.670340E-06 -2.274990E-07 +1.670340E-06 -6.472368E-06 -1.267947E-06 -2.274990E-07 -1.267947E-06 +6.861324E-06 
 -3.114293E-08 -1.320917E-08 -5.200984E-09 -1.320917E-08 -5.133699E-08 -2.629548E-08 -5.200984E-09 -2.629548E-08 +8.247992E-08 
 -1.266330E-05 +1.040369E-07 +4.681838E-06 +1.040369E-07 +6.964518E-08 +1.027733E-06 +4.681838E-06 +1.027733E-06 +1.259365E-05 
 -1.840180E-05 +2.091993E-05 +4.608447E-06 +2.091993E-05 -2.028049E-05 +6.584409E-06 +4.608447E-06 +6.584409E-06 +3.868229E-05 
 -2.035686E-06 -1.095445E-05 -9.939149E-06 -1.095445E-05 -4.773554E-05 -2.027091E-05 -9.939149E-06 -2.027091E-05 +4.977122E-05 
 -2.158049E-08 +3.845348E-10 -2.762153E-09 +3.845348E-10 -9.518729E-09 +1.082466E-09 -2.762153E-09 +1.082466E-09 +3.109922E-08 
 -6.363596E-07 -2.347690E-07 -4.579082E-07 -2.347690E-07 -6.425096E-08 -3.518406E-09 -4.579082E-07 -3.518406E-09 +7.006105E-07 
 -4.219014E-06 -3.080364E-06 -1.545388E-06 -3.080364E-06 -2.154465E-06 -1.957776E-06 -1.545388E-06 -1.957776E-06 +6.373479E-06 
 -3.084620E-05 -1.570009E-06 +6.729846E-07 -1.570009E-06 +4.023392E-07 -3.808983E-06 +6.729846E-07 -3.808983E-06 +3.044386E-05 
 -5.653988E-05 -5.322495E-05 +2.516532E-05 -5.322495E-05 -4.420158E-05 -2.057682E-06 +2.516532E-05 -2.057682E-06 +1.007415E-04 
 -8.202880E-06 -1.161079E-06 +1.579730E-06 -1.161079E-06 +8.996821E-08 +1.723926E-06 +1.579730E-06 +1.723926E-06 +8.112911E-06 
 -3.365891E-08 -4.623523E-09 -1.479561E-09 -4.623523E-09 -3.004641E-08 +8.140324E-10 -1.479561E-09 +8.140324E-10 +6.370532E-08 
 -1.841200E-06 -1.324268E-06 -9.029761E-08 -1.324268E-06 -4.998963E-07 +9.678449E-07 -9.029761E-08 +9.678449E-07 +2.341096E-06 
 -3.884087E-06 -1.865826E-05 +6.300785E-06 -1.865826E-05 -5.732372E-05 -1.811691E-05 +6.300785E-06 -1.811691E-05 +6.120781E-05 
 -1.161211E-07 -9.324668E-10 +9.880528E-09 -9.324668E-10 -5.194449E-08 -7.574677E-09 +9.880528E-09 -7.574677E-09 +1.680656E-07 
 -7.222987E-08 +1.828394E-08 +9.477250E-09 +1.828394E-08 -3.237528E-08 +1.343018E-09 +9.477250E-09 +1.343018E-09 +1.046051E-07 
 +3.599486E-09 +4.122433E-08 +4.513278E-08 +4.122433E-08 -1.118279E-07 +2.975496E-09 +4.513278E-08 +2.975496E-09 +1.082284E-07 
 -1.279913E-07 +2.534117E-08 +1.713892E-08 +2.534117E-08 -6.029921E-08 +8.210335E-09 +1.713892E-08 +8.210335E-09 +1.882905E-07 
 -1.233816E-07 +3.496600E-08 -6.007586E-08 +3.496600E-08 -1.384707E-08 +5.396894E-08 -6.007586E-08 +5.396894E-08 +1.372287E-07 
 -6.093468E-06 +5.170992E-07 +2.103805E-06 +5.170992E-07 -2.680158E-08 -7.614177E-07 +2.103805E-06 -7.614177E-07 +6.120269E-06 
 -2.056152E-08 -6.228629E-06 -5.229958E-06 -6.228629E-06 -3.054609E-05 +5.377509E-06 -5.229958E-06 +5.377509E-06 +3.056665E-05 
 -1.944474E-07 +1.101967E-06 +5.429770E-08 +1.101967E-06 -6.249726E-06 -3.079568E-07 +5.429770E-08 -3.079568E-07 +6.444173E-06 
 -1.792147E-08 -1.072367E-09 +9.353534E-09 -1.072367E-09 -1.174858E-08 -2.657055E-09 +9.353534E-09 -2.657055E-09 +2.967005E-08 
 -7.516849E-08 +2.734006E-08 +4.437259E-09 +2.734006E-08 -4.657453E-08 -3.367772E-10 +4.437259E-09 -3.367772E-10 +1.217430E-07 
 +4.344663E-07 -1.481824E-06 +2.025252E-06 -1.481824E-06 -8.380359E-06 -2.487440E-06 +2.025252E-06 -2.487440E-06 +7.945892E-06 
 -3.139440E-05 -3.741387E-05 +1.519422E-05 -3.741387E-05 -4.458871E-05 +1.810800E-05 +1.519422E-05 +1.810800E-05 +7.598312E-05 
 -9.280047E-07 +2.096323E-07 -1.330232E-07 +2.096323E-07 +1.715933E-08 +2.850573E-07 -1.330232E-07 +2.850573E-07 +9.108454E-07 
 -4.186571E-06 -4.403175E-06 -5.896298E-07 -4.403175E-06 -3.526536E-06 +2.325433E-06 -5.896298E-07 +2.325433E-06 +7.713107E-06 
 -5.474188E-08 -8.206818E-09 -7.496027E-09 -8.206818E-09 -4.472745E-08 -2.724112E-09 -7.496027E-09 -2.724112E-09 +9.946933E-08 
 -3.156082E-08 +5.107453E-09 -4.510682E-09 +5.107453E-09 -4.717676E-08 +1.176126E-08 -4.510682E-09 +1.176126E-08 +7.873758E-08 
 -7.168546E-09 -2.255493E-09 +4.086468E-09 -2.255493E-09 -9.784963E-09 -1.396758E-09 +4.086468E-09 -1.396758E-09 +1.695351E-08 
 -2.231906E-06 +7.224943E-08 +8.105509E-07 +7.224943E-08 -2.630224E-09 -1.033037E-07 +8.105509E-07 -1.033037E-07 +2.234537E-06 
 -3.119323E-06 -3.117637E-06 -1.475283E-08 -3.117637E-06 -2.345666E-06 +2.046168E-06 -1.475283E-08 +2.046168E-06 +5.464989E-06 
 +6.200424E-09 +6.209860E-07 -7.164587E-07 +6.209860E-07 -7.642557E-06 +5.396294E-07 -7.164587E-07 +5.396294E-07 +7.636356E-06 
 -3.044687E-06 -2.241739E-06 +6.022401E-07 -2.241739E-06 -1.647346E-06 +5.819211E-07 +6.022401E-07 +5.819211E-07 +4.692033E-06 
 -3.109313E-06 +2.111984E-06 -9.806504E-07 +2.111984E-06 -1.361001E-06 +5.513272E-08 -9.806504E-07 +5.513272E-08 +4.470314E-06 
 -3.485774E-06 -6.148160E-07 -6.232673E-07 -6.148160E-07 -1.108165E-07 -1.094613E-07 -6.232673E-07 -1.094613E-07 +3.596591E-06 
 -3.546296E-08 -1.165013E-08 -4.695903E-09 -1.165013E-08 -6.766422E-08 -2.163332E-08 -4.695903E-09 -2.163332E-08 +1.031272E-07 
 -1.075661E-06 +2.811033E-07 +2.767893E-07 +2.811033E-07 +7.937762E-08 -4.821035E-07 +2.767893E-07 -4.821035E-07 +9.962833E-07 
 -5.948914E-07 +2.216685E-06 -4.049713E-07 +2.216685E-06 -8.273771E-06 +1.512561E-06 -4.049713E-07 +1.512561E-06 +8.868662E-06 
 -1.851301E-07 -2.607466E-07 -2.928432E-08 -2.607466E-07 -2.077245E-07 +2.302564E-07 -2.928432E-08 +2.302564E-07 +3.928546E-07 
 -1.196016E-07 +1.381490E-09 -1.143677E-08 +1.381490E-09 -5.616127E-08 +1.966754E-09 -1.143677E-08 +1.966754E-09 +1.757628E-07 
 -1.344855E-07 +8.570687E-08 +3.300236E-08 +8.570687E-08 -6.606865E-08 -7.680980E-08 +3.300236E-08 -7.680980E-08 +2.005541E-07 
 -5.709161E-07 -4.612694E-08 +2.053841E-08 -4.612694E-08 +3.496110E-08 +1.802623E-07 +2.053841E-08 +1.802623E-07 +5.359550E-07 
 -1.998143E-06 -2.392140E-06 -1.510161E-06 -2.392140E-06 -2.802776E-06 -1.059811E-06 -1.510161E-06 -1.059811E-06 +4.800920E-06 
 -3.153789E-08 -5.099565E-09 -5.672649E-09 -5.099565E-09 -4.256339E-08 -4.338976E-09 -5.672649E-09 -4.338976E-09 +7.410128E-08 
 -4.699214E-07 -2.143133E-07 +2.027531E-07 -2.143133E-07 -9.617759E-08 +4.088243E-08 +2.027531E-07 +4.088243E-08 +5.660990E-07 
 +3.093892E-06 -8.372064E-06 +1.713298E-05 -8.372064E-06 -6.074238E-05 +8.532347E-06 +1.713298E-05 +8.532347E-06 +5.764849E-05 
 -1.852360E-07 -3.955843E-08 -6.182505E-09 -3.955843E-08 +1.318784E-08 +6.356935E-08 -6.182505E-09 +6.356935E-08 +1.720481E-07 
 -6.855593E-06 +1.587486E-06 +1.172494E-06 +1.587486E-06 -3.475842E-07 -6.650175E-07 +1.172494E-06 -6.650175E-07 +7.203178E-06 
 -4.620616E-09 -6.165569E-08 +6.298771E-08 -6.165569E-08 -4.256790E-07 -2.674716E-07 +6.298771E-08 -2.674716E-07 +4.302996E-07 
 -5.387487E-08 -2.829016E-08 -7.784331E-09 -2.829016E-08 -1.019709E-07 -8.387788E-09 -7.784331E-09 -8.387788E-09 +1.558458E-07 
 +2.629299E-07 +2.429807E-07 +1.212709E-06 +2.429807E-07 -5.794631E-06 +7.748877E-07 +1.212709E-06 +7.748877E-07 +5.531701E-06 
 -1.647405E-06 +1.060059E-06 +9.959539E-07 +1.060059E-06 -4.574962E-07 +1.527193E-07 +9.959539E-07 +1.527193E-07 +2.104902E-06 
 -9.452507E-08 -5.617580E-09 +4.561757E-09 -5.617580E-09 -8.399619E-08 -1.324391E-08 +4.561757E-09 -1.324391E-08 +1.785213E-07 
 -1.799771E-06 +3.356567E-06 +4.538346E-07 +3.356567E-06 -6.125290E-06 +2.111051E-07 +4.538346E-07 +2.111051E-07 +7.925061E-06 
 -4.261420E-06 +2.428691E-06 -5.419866E-07 +2.428691E-06 -1.335103E-06 +9.302011E-07 -5.419866E-07 +9.302011E-07 +5.596522E-06 
 +2.396597E-08 +8.536529E-08 -1.905231E-07 +8.536529E-08 -4.536555E-07 +1.544193E-07 -1.905231E-07 +1.544193E-07 +4.296895E-07 
 +5.771041E-09 -2.631522E-07 -3.253995E-07 -2.631522E-07 -8.200375E-07 -6.872083E-08 -3.253995E-07 -6.872083E-08 +8.142665E-07 
 -7.559485E-07 -3.102070E-07 +3.943994E-07 -3.102070E-07 +4.546953E-08 -2.379087E-07 +3.943994E-07 -2.379087E-07 +7.104790E-07 
 -8.650958E-07 -7.939037E-07 +1.598077E-07 -7.939037E-07 -4.565775E-07 -4.711144E-07 +1.598077E-07 -4.711144E-07 +1.321673E-06 
 -1.015284E-08 +1.449491E-09 +1.449313E-10 +1.449491E-09 -2.013351E-08 -9.890402E-09 +1.449313E-10 -9.890402E-09 +3.028636E-08 
 -4.485243E-08 -3.735369E-09 +1.545886E-08 -3.735369E-09 -2.556535E-08 +3.541096E-09 +1.545886E-08 +3.541096E-09 +7.041778E-08 
 -2.068573E-06 -1.414883E-07 -3.593720E-07 -1.414883E-07 -1.535714E-08 -6.476977E-08 -3.593720E-07 -6.476977E-08 +2.083931E-06 
 -4.380074E-07 +2.160794E-07 +2.360165E-07 +2.160794E-07 -9.393585E-08 -2.432889E-07 +2.360165E-07 -2.432889E-07 +5.319432E-07 
 -7.100931E-06 -8.795934E-07 -1.252072E-06 -8.795934E-07 -4.353237E-10 -1.048212E-06 -1.252072E-06 -1.048212E-06 +7.101366E-06 
 -4.613847E-05 -5.839149E-05 -2.505342E-05 -5.839149E-05 -7.147640E-05 -1.385383E-05 -2.505342E-05 -1.385383E-05 +1.176149E-04 
 -3.200828E-06 -1.137695E-07 +1.065545E-06 -1.137695E-07 +4.006513E-07 -1.103218E-06 +1.065545E-06 -1.103218E-06 +2.800177E-06 
 -1.993966E-05 -3.065560E-05 +1.096538E-05 -3.065560E-05 -3.979700E-05 -5.111843E-06 +1.096538E-05 -5.111843E-06 +5.973666E-05 
 -1.149853E-06 -5.834056E-07 +6.975153E-07 -5.834056E-07 -3.311965E-07 +4.359186E-07 +6.975153E-07 +4.359186E-07 +1.481049E-06 
 -7.816830E-09 +3.527261E-08 -6.057414E-08 +3.527261E-08 -6.577719E-07 +3.731223E-07 -6.057414E-08 +3.731223E-07 +6.655887E-07 
 +2.554590E-08 -2.436527E-07 +3.115302E-07 -2.436527E-07 -7.704720E-07 +8.489881E-08 +3.115302E-07 +8.489881E-08 +7.449261E-07 
 -5.826740E-08 +4.374730E-09 +1.158946E-08 +4.374730E-09 -5.263021E-08 -2.210723E-08 +1.158946E-08 -2.210723E-08 +1.108976E-07 
 -3.537747E-08 -1.610577E-08 +4.311608E-09 -1.610577E-08 -2.374318E-08 +2.721558E-09 +4.311608E-09 +2.721558E-09 +5.912065E-08 
 -2.673245E-08 -4.824805E-09 -5.867356E-09 -4.824805E-09 -6.194935E-08 +1.235443E-08 -5.867356E-09 +1.235443E-08 +8.868180E-08 
 -7.469892E-07 -6.286247E-08 -2.334323E-07 -6.286247E-08 +2.953418E-08 +1.845098E-07 -2.334323E-07 +1.845098E-07 +7.174551E-07 
 -2.331545E-08 +4.611238E-09 +1.299537E-08 +4.611238E-09 -2.232218E-08 -1.568124E-09 +1.299537E-08 -1.568124E-09 +4.563764E-08 
 -3.427781E-08 +6.176051E-09 -2.374587E-09 +6.176051E-09 -3.977302E-08 +2.990748E-09 -2.374587E-09 +2.990748E-09 +7.405082E-08 
 -3.539185E-06 +2.230038E-07 -1.063883E-06 +2.230038E-07 +1.242732E-07 +8.051529E-07 -1.063883E-06 +8.051529E-07 +3.414911E-06 
 -9.158845E-08 -5.029668E-09 +1.727195E-08 -5.029668E-09 -7.806298E-08 -2.273051E-09 +1.727195E-08 -2.273051E-09 +1.696514E-07 
 -1.159265E-04 -2.389752E-12 +8.834196E-07 -2.389752E-12 -8.619174E-10 +3.451071E-10 +8.834196E-07 +3.451071E-10 +1.159274E-04 
 -4.497779E-08 -3.002253E-08 +4.543615E-09 -3.002253E-08 -8.459301E-08 +7.844804E-09 +4.543615E-09 +7.844804E-09 +1.295708E-07 
 -3.693633E-08 -1.983621E-09 +3.319560E-09 -1.983621E-09 -3.285764E-08 -1.737027E-09 +3.319560E-09 -1.737027E-09 +6.979397E-08 
 -1.266804E-07 +8.783687E-10 +9.930332E-09 +8.783687E-10 -3.841842E-08 +5.797777E-09 +9.930332E-09 +5.797777E-09 +1.650988E-07 
 -1.151689E-07 -9.524516E-08 -9.805842E-08 -9.524516E-08 -1.169965E-07 -3.901130E-08 -9.805842E-08 -3.901130E-08 +2.321654E-07 
 +1.373355E-08 -2.214461E-06 -2.443853E-06 -2.214461E-06 -5.340105E-06 -4.636270E-07 -2.443853E-06 -4.636270E-07 +5.326371E-06 
 -1.257407E-07 -9.800641E-07 +8.243332E-07 -9.800641E-07 -6.191942E-06 +2.233573E-06 +8.243332E-07 +2.233573E-06 +6.317683E-06 
 -7.014061E-09 -3.227117E-09 +1.255364E-10 -3.227117E-09 -2.112095E-08 -5.827178E-09 +1.255364E-10 -5.827178E-09 +2.813501E-08 
 -5.897801E-08 +1.854410E-08 -5.702026E-09 +1.854410E-08 -2.532070E-08 +5.031263E-09 -5.702026E-09 +5.031263E-09 +8.429871E-08 
 -1.574544E-06 -3.218166E-06 +9.466943E-07 -3.218166E-06 -4.674529E-06 -1.696550E-06 +9.466943E-07 -1.696550E-06 +6.249073E-06 
 -1.026124E-07 -4.591511E-08 -6.881928E-09 -4.591511E-08 -7.559739E-08 -1.057888E-08 -6.881928E-09 -1.057888E-08 +1.782098E-07 
 -1.104797E-08 -4.581588E-08 +4.136870E-08 -4.581588E-08 -9.382726E-08 +4.038030E-09 +4.136870E-08 +4.038030E-09 +1.048752E-07 
 -2.606841E-08 +3.060595E-09 -9.644773E-09 +3.060595E-09 -2.063014E-08 +3.265317E-09 -9.644773E-09 +3.265317E-09 +4.669855E-08 
 -2.587740E-08 +2.038149E-08 -1.265939E-08 +2.038149E-08 -7.435538E-08 +1.772536E-08 -1.265939E-08 +1.772536E-08 +1.002328E-07 
 -3.158209E-08 +3.265141E-08 +1.953627E-08 +3.265141E-08 -3.571072E-08 -3.383611E-08 +1.953627E-08 -3.383611E-08 +6.729280E-08 
 -8.333339E-07 -1.124944E-06 +1.081053E-06 -1.124944E-06 -1.464049E-06 +8.737968E-07 +1.081053E-06 +8.737968E-07 +2.297383E-06 
 -9.674607E-06 -3.078167E-06 +4.301141E-06 -3.078167E-06 -7.839349E-07 -2.417382E-07 +4.301141E-06 -2.417382E-07 +1.045854E-05 
 -1.305732E-07 -1.205842E-08 -1.254780E-08 -1.205842E-08 -6.594880E-08 +1.048026E-08 -1.254780E-08 +1.048026E-08 +1.965220E-07 
 +1.894508E-08 +3.843568E-08 +1.417182E-07 +3.843568E-08 -3.826159E-07 -1.428126E-07 +1.417182E-07 -1.428126E-07 +3.636708E-07 
 -1.123553E-06 +2.742833E-06 -1.406042E-06 +2.742833E-06 -6.635104E-06 +2.488491E-06 -1.406042E-06 +2.488491E-06 +7.758656E-06 
 -3.635631E-05 -9.988283E-05 +4.892505E-06 -9.988283E-05 -2.744272E-04 +1.344371E-05 +4.892505E-06 +1.344371E-05 +3.107836E-04 
 -2.548979E-06 +5.134580E-08 -9.408475E-07 +5.134580E-08 +8.940670E-09 -1.633780E-07 -9.408475E-07 -1.633780E-07 +2.540038E-06 
 -1.136756E-08 -6.916843E-09 -2.471557E-09 -6.916843E-09 -1.661614E-08 -6.510461E-09 -2.471557E-09 -6.510461E-09 +2.798371E-08 
 -8.500693E-05 -8.092936E-05 +3.288031E-05 -8.092936E-05 -7.442964E-05 +5.259836E-05 +3.288031E-05 +5.259836E-05 +1.594366E-04 
 -1.253648E-06 +3.618558E-07 +7.003205E-07 +3.618558E-07 -1.115566E-07 -3.734828E-07 +7.003205E-07 -3.734828E-07 +1.365205E-06 
 -1.666203E-08 +5.764163E-09 +8.948004E-09 +5.764163E-09 -2.345449E-08 -9.055516E-09 +8.948004E-09 -9.055516E-09 +4.011652E-08 
 -4.039552E-06 +1.068618E-07 -1.463866E-06 +1.068618E-07 -1.352439E-08 +1.512368E-07 -1.463866E-06 +1.512368E-07 +4.053076E-06 
 -1.337647E-07 -1.179693E-07 +1.751336E-07 -1.179693E-07 -4.564129E-07 +1.261089E-07 +1.751336E-07 +1.261089E-07 +5.901776E-07 
 -1.759985E-08 -2.191513E-07 +2.628471E-07 -2.191513E-07 -5.910790E-07 +9.538550E-08 +2.628471E-07 +9.538550E-08 +6.086788E-07 
 +1.067596E-08 -5.080767E-09 -1.928124E-07 -5.080767E-09 -9.158278E-07 -5.346579E-07 -1.928124E-07 -5.346579E-07 +9.051518E-07 
 -4.111968E-08 -2.341373E-09 -1.538739E-08 -2.341373E-09 -2.686220E-08 -2.648939E-09 -1.538739E-08 -2.648939E-09 +6.798188E-08 
 -5.058543E-06 -2.611467E-07 -1.479626E-06 -2.611467E-07 +1.442153E-07 +8.626164E-07 -1.479626E-06 +8.626164E-07 +4.914328E-06 
 -3.057528E-07 -7.015876E-08 +1.656626E-07 -7.015876E-08 -4.250812E-08 +3.667218E-08 +1.656626E-07 +3.667218E-08 +3.482609E-07 
 -2.552609E-05 +3.295819E-11 +1.152978E-05 +3.295819E-11 -6.361983E-10 -1.166499E-10 +1.152978E-05 -1.166499E-10 +2.552672E-05 
 -1.124751E-04 -8.554271E-05 +1.424922E-05 -8.554271E-05 -6.130810E-05 +3.659196E-05 +1.424922E-05 +3.659196E-05 +1.737832E-04 
 -3.482364E-05 -3.317495E-05 +3.261821E-06 -3.317495E-05 -2.939288E-05 +1.507779E-05 +3.261821E-06 +1.507779E-05 +6.421652E-05 
 -9.670980E-09 -1.618407E-09 +2.275629E-09 -1.618407E-09 -1.170301E-08 +7.326021E-09 +2.275629E-09 +7.326021E-09 +2.137399E-08 
 -5.387027E-08 +1.201321E-08 -1.594215E-09 +1.201321E-08 -1.120721E-07 +8.430276E-09 -1.594215E-09 +8.430276E-09 +1.659423E-07 
 -7.828790E-08 +1.153092E-09 -2.495478E-08 +1.153092E-09 -3.772618E-08 +3.584133E-09 -2.495478E-08 +3.584133E-09 +1.160141E-07 
 -1.151584E-05 -2.344585E-06 -1.940437E-06 -2.344585E-06 -3.226399E-07 -1.769154E-06 -1.940437E-06 -1.769154E-06 +1.183848E-05 
 -1.525987E-07 -4.427450E-08 -6.386753E-08 -4.427450E-08 +6.416820E-08 -7.482202E-08 -6.386753E-08 -7.482202E-08 +8.843050E-08 
 -4.539380E-08 -5.729794E-08 +1.323380E-08 -5.729794E-08 -1.673189E-07 +4.400435E-08 +1.323380E-08 +4.400435E-08 +2.127127E-07 
 -8.033721E-08 -2.779030E-07 +2.782317E-07 -2.779030E-07 -7.710293E-07 +1.429641E-07 +2.782317E-07 +1.429641E-07 +8.513665E-07 
 -9.407509E-06 +8.230338E-07 -2.639884E-06 +8.230338E-07 -7.215931E-08 +2.309897E-07 -2.639884E-06 +2.309897E-07 +9.479668E-06 
 -2.087590E-08 -2.699495E-10 -1.122777E-08 -2.699495E-10 -1.270249E-08 -1.983767E-10 -1.122777E-08 -1.983767E-10 +3.357839E-08 
 -1.008206E-07 +1.110901E-08 +7.441503E-09 +1.110901E-08 -1.077327E-07 -5.109764E-09 +7.441503E-09 -5.109764E-09 +2.085534E-07 
 -9.097088E-09 +5.141444E-06 +5.138686E-06 +5.141444E-06 -2.897934E-05 +2.112878E-07 +5.138686E-06 +2.112878E-07 +2.898844E-05 
 -2.445663E-07 -9.945470E-07 +1.633523E-07 -9.945470E-07 -3.687977E-06 -7.279260E-07 +1.633523E-07 -7.279260E-07 +3.932544E-06 
 -3.035139E-08 +1.768377E-08 -1.473122E-09 +1.768377E-08 -6.062904E-08 -7.466378E-09 -1.473122E-09 -7.466378E-09 +9.098043E-08 
 +5.222123E-08 -9.218991E-08 -1.815956E-07 -9.218991E-08 -5.927994E-07 +1.090686E-07 -1.815956E-07 +1.090686E-07 +5.405782E-07 
 +1.117114E-07 +3.588668E-07 +1.012348E-06 +3.588668E-07 -6.608344E-06 -1.237619E-06 +1.012348E-06 -1.237619E-06 +6.496633E-06 
 -1.349714E-08 -4.933067E-08 -9.707872E-09 -4.933067E-08 -3.228423E-07 +1.924698E-07 -9.707872E-09 +1.924698E-07 +3.363395E-07 
 -1.998593E-07 -3.773919E-07 +5.792473E-08 -3.773919E-07 -3.248374E-07 -3.567640E-07 +5.792473E-08 -3.567640E-07 +5.246967E-07 
 -4.324947E-06 -5.723928E-08 +1.535674E-06 -5.723928E-08 +8.575640E-09 +3.539609E-07 +1.535674E-06 +3.539609E-07 +4.316371E-06 
 -1.369761E-06 +3.554502E-06 +1.508392E-06 +3.554502E-06 -7.446507E-06 +4.355284E-07 +1.508392E-06 +4.355284E-07 +8.816268E-06 
 -8.378354E-08 -7.517978E-08 -5.051098E-08 -7.517978E-08 -9.119635E-08 -6.549383E-08 -5.051098E-08 -6.549383E-08 +1.749799E-07 
 -3.651909E-06 -1.139959E-05 +1.288713E-06 -1.139959E-05 -3.509272E-05 -4.700557E-07 +1.288713E-06 -4.700557E-07 +3.874463E-05 
 -4.451100E-08 +6.238430E-09 -9.204880E-10 +6.238430E-09 -6.328656E-08 -5.313861E-09 -9.204880E-10 -5.313861E-09 +1.077976E-07 
 -8.146919E-09 +1.086038E-09 -1.271452E-09 +1.086038E-09 -9.509795E-09 +4.223229E-09 -1.271452E-09 +4.223229E-09 +1.765671E-08 
 -1.254389E-06 -8.885939E-07 -5.605830E-07 -8.885939E-07 -7.070983E-07 -3.791506E-07 -5.605830E-07 -3.791506E-07 +1.961487E-06 
 -6.309262E-05 +9.383866E-06 +2.182819E-05 +9.383866E-06 +7.330003E-07 +9.096185E-06 +2.182819E-05 +9.096185E-06 +6.235962E-05 
 -9.489284E-05 +1.058454E-05 -2.598945E-05 +1.058454E-05 -3.974400E-07 -6.090839E-06 -2.598945E-05 -6.090839E-06 +9.529028E-05 
 +1.842287E-07 -1.365708E-07 -6.064018E-07 -1.365708E-07 -1.678904E-06 -4.090231E-07 -6.064018E-07 -4.090231E-07 +1.494676E-06 
 -2.078383E-07 -1.389403E-08 -4.598417E-08 -1.389403E-08 +1.240118E-08 -7.191178E-08 -4.598417E-08 -7.191178E-08 +1.954372E-07 
 -7.031381E-05 -1.239813E-05 -2.521555E-05 -1.239813E-05 -2.186574E-06 -4.446135E-06 -2.521555E-05 -4.446135E-06 +7.250038E-05 
 -8.670932E-08 -4.535620E-08 -2.615827E-08 -4.535620E-08 -7.282243E-08 -2.224201E-08 -2.615827E-08 -2.224201E-08 +1.595318E-07 
 -8.180002E-06 +1.579890E-05 -1.650394E-06 +1.579890E-05 -2.605158E-05 -9.260815E-06 -1.650394E-06 -9.260815E-06 +3.423158E-05 
 +1.334710E-08 -4.895659E-09 -2.467404E-08 -4.895659E-09 -6.489152E-08 +2.914089E-08 -2.467404E-08 +2.914089E-08 +5.154442E-08 
 -9.724162E-09 -3.574241E-10 +3.849363E-09 -3.574241E-10 -1.052189E-08 +1.582308E-09 +3.849363E-09 +1.582308E-09 +2.024605E-08 
 -9.852045E-07 +3.359160E-06 -1.583842E-06 +3.359160E-06 -1.141247E-05 +4.243239E-06 -1.583842E-06 +4.243239E-06 +1.239768E-05 
 -7.625346E-06 -4.131523E-06 +1.324212E-06 -4.131523E-06 -1.839842E-06 +2.690143E-06 +1.324212E-06 +2.690143E-06 +9.465189E-06 
 -2.003378E-07 -2.334660E-08 -2.122457E-08 -2.334660E-08 -1.333276E-07 -2.108908E-08 -2.122457E-08 -2.108908E-08 +3.336654E-07 
 -3.294306E-08 -9.312100E-09 -9.611822E-09 -9.312100E-09 -3.937883E-08 -1.207856E-08 -9.611822E-09 -1.207856E-08 +7.232189E-08 
 -3.038805E-06 +2.994485E-06 +3.116379E-08 +2.994485E-06 -2.953411E-06 +3.005994E-08 +3.116379E-08 +3.005994E-08 +5.992215E-06 
 -3.316535E-08 -1.952686E-08 +3.077376E-08 -1.952686E-08 -6.648163E-08 +2.069424E-08 +3.077376E-08 +2.069424E-08 +9.964697E-08 
 -5.654299E-08 +1.717769E-08 -2.406890E-09 +1.717769E-08 -4.960275E-08 +1.522088E-08 -2.406890E-09 +1.522088E-08 +1.061457E-07 
 -1.908978E-08 -3.981744E-09 +6.480471E-11 -3.981744E-09 -1.847596E-08 +4.217415E-09 +6.480471E-11 +4.217415E-09 +3.756574E-08 
 -6.578711E-06 +1.277110E-06 +1.159595E-06 +1.277110E-06 -9.769049E-10 +1.071233E-06 +1.159595E-06 +1.071233E-06 +6.579688E-06 
 -1.025243E-07 +8.704262E-07 -5.144381E-07 +8.704262E-07 -6.998322E-06 +1.172968E-06 -5.144381E-07 +1.172968E-06 +7.100846E-06 
 -9.704045E-07 +6.450799E-07 -5.102221E-08 +6.450799E-07 -2.210321E-07 +5.510564E-07 -5.102221E-08 +5.510564E-07 +1.191437E-06 
 -6.410962E-08 -2.270623E-09 -1.278011E-08 -2.270623E-09 -1.041092E-07 +1.684493E-08 -1.278011E-08 +1.684493E-08 +1.682188E-07 
 -2.397377E-06 +1.776695E-06 +3.156660E-07 +1.776695E-06 -9.673365E-07 +8.727660E-07 +3.156660E-07 +8.727660E-07 +3.364714E-06 
 -1.155188E-06 +6.614245E-07 -6.862419E-07 +6.614245E-07 -2.982843E-07 +3.639280E-09 -6.862419E-07 +3.639280E-09 +1.453472E-06 
 -2.255519E-06 -1.559031E-06 -8.574268E-07 -1.559031E-06 -1.049674E-06 -9.192459E-07 -8.574268E-07 -9.192459E-07 +3.305194E-06 
 -1.409846E-06 -1.262677E-06 +3.424932E-07 -1.262677E-06 -1.010267E-06 +8.612895E-07 +3.424932E-07 +8.612895E-07 +2.420113E-06 
 -3.946790E-08 +3.522533E-09 +1.298784E-08 +3.522533E-09 -3.354384E-08 -1.509062E-08 +1.298784E-08 -1.509062E-08 +7.301173E-08 
 -4.013642E-06 -1.288987E-06 -1.553618E-06 -1.288987E-06 +1.394122E-07 +1.118097E-06 -1.553618E-06 +1.118097E-06 +3.874230E-06 
 -7.014648E-08 -3.583502E-09 +2.351902E-08 -3.583502E-09 -5.951342E-08 -9.914610E-09 +2.351902E-08 -9.914610E-09 +1.296599E-07 
 -9.824773E-07 -7.069985E-07 +1.193277E-07 -7.069985E-07 -3.849811E-07 -3.284008E-07 +1.193277E-07 -3.284008E-07 +1.367458E-06 
 -4.039118E-08 +2.241711E-08 -1.548416E-08 +2.241711E-08 -8.141543E-08 +2.071907E-08 -1.548416E-08 +2.071907E-08 +1.218066E-07 
 -1.055185E-08 +2.123399E-09 +2.998898E-09 +2.123399E-09 -1.250608E-08 -3.594615E-09 +2.998898E-09 -3.594615E-09 +2.305793E-08 
 -2.450792E-08 +1.364466E-08 +3.581499E-09 +1.364466E-08 -6.468211E-08 -1.800094E-08 +3.581499E-09 -1.800094E-08 +8.919002E-08 
 -5.291431E-06 +5.350948E-06 -5.888943E-07 +5.350948E-06 -5.277771E-06 +1.926118E-06 -5.888943E-07 +1.926118E-06 +1.056920E-05 
 -2.902596E-07 -9.016291E-07 -5.697762E-07 -9.016291E-07 -2.003744E-06 -8.994938E-08 -5.697762E-07 -8.994938E-08 +2.294003E-06 
 -2.029146E-08 -3.124366E-09 -4.700831E-10 -3.124366E-09 -3.137596E-08 -1.795133E-08 -4.700831E-10 -1.795133E-08 +5.166742E-08 
 -4.613069E-08 +6.549318E-08 +5.229253E-08 +6.549318E-08 -8.196118E-08 -3.954975E-09 +5.229253E-08 -3.954975E-09 +1.280919E-07 
 -5.207947E-05 +3.583216E-05 +2.906403E-06 +3.583216E-05 -2.126437E-05 -1.781251E-05 +2.906403E-06 -1.781251E-05 +7.334384E-05 
 +5.045871E-07 -6.756873E-07 -1.755348E-06 -6.756873E-07 -5.051678E-06 -5.613867E-07 -1.755348E-06 -5.613867E-07 +4.547091E-06 
 -6.420707E-08 +1.723813E-08 -3.251427E-09 +1.723813E-08 -7.806737E-08 +8.477465E-09 -3.251427E-09 +8.477465E-09 +1.422744E-07 
 -2.839800E-06 -3.103695E-06 -1.570475E-06 -3.103695E-06 -2.235011E-06 +9.065142E-07 -1.570475E-06 +9.065142E-07 +5.074812E-06 
 -2.674957E-05 -8.293745E-05 -3.702403E-05 -8.293745E-05 -2.366665E-04 -3.435887E-05 -3.702403E-05 -3.435887E-05 +2.634161E-04 
 +2.113255E-07 -8.849539E-07 +1.100752E-06 -8.849539E-07 -4.875433E-06 -1.704193E-06 +1.100752E-06 -1.704193E-06 +4.664107E-06 
 -1.468748E-08 -1.489505E-09 -6.041550E-09 -1.489505E-09 -5.856708E-09 -1.779402E-09 -6.041550E-09 -1.779402E-09 +2.054419E-08 
 -9.225599E-08 -1.895540E-07 -1.949008E-07 -1.895540E-07 -2.629507E-07 -8.527935E-08 -1.949008E-07 -8.527935E-08 +3.552068E-07 
 -3.087819E-06 -3.422169E-06 +2.706476E-06 -3.422169E-06 -3.654517E-06 +1.872805E-06 +2.706476E-06 +1.872805E-06 +6.742336E-06 
 +2.340447E-07 -1.984097E-06 +1.784754E-06 -1.984097E-06 -9.600831E-06 -4.591056E-06 +1.784754E-06 -4.591056E-06 +9.366786E-06 
 +5.111396E-07 -2.905197E-08 +1.107557E-06 -2.905197E-08 -2.552166E-06 +8.782130E-07 +1.107557E-06 +8.782130E-07 +2.041026E-06 
 -1.796191E-07 +4.461869E-07 +3.967022E-07 +4.461869E-07 -8.555336E-07 -2.823685E-07 +3.967022E-07 -2.823685E-07 +1.035153E-06 
 -1.132428E-06 +4.874176E-07 -4.191021E-07 +4.874176E-07 -2.078997E-07 +2.681873E-07 -4.191021E-07 +2.681873E-07 +1.340327E-06 
 -2.259787E-06 +1.155823E-06 +1.016015E-06 +1.155823E-06 -3.565090E-07 +3.550409E-07 +1.016015E-06 +3.550409E-07 +2.616296E-06 
 -6.887518E-07 -2.145988E-06 +3.068142E-09 -2.145988E-06 -6.526121E-06 +1.312048E-06 +3.068142E-09 +1.312048E-06 +7.214873E-06 
 +3.376299E-08 +2.312279E-07 -2.691715E-07 +2.312279E-07 -7.982249E-07 -5.044463E-08 -2.691715E-07 -5.044463E-08 +7.644619E-07 
 -1.171565E-07 -3.156243E-08 -7.128895E-08 -3.156243E-08 -2.374352E-08 +5.090159E-09 -7.128895E-08 +5.090159E-09 +1.409000E-07 
 -1.174912E-08 -4.632268E-09 -6.222925E-09 -4.632268E-09 -2.194612E-08 -3.608784E-09 -6.222925E-09 -3.608784E-09 +3.369523E-08 
 -7.951687E-08 +2.254218E-07 -9.277121E-08 +2.254218E-07 -3.549961E-07 -1.604809E-07 -9.277121E-08 -1.604809E-07 +4.345129E-07 
 -2.108403E-06 +2.122526E-06 -1.071243E-06 +2.122526E-06 -2.148442E-06 +1.112869E-06 -1.071243E-06 +1.112869E-06 +4.256845E-06 
 +1.210450E-07 +1.672381E-07 +2.864068E-07 +1.672381E-07 -7.829358E-07 +3.348011E-07 +2.864068E-07 +3.348011E-07 +6.618908E-07 
 -1.707184E-06 -1.017311E-06 +8.274770E-07 -1.017311E-06 -5.919318E-07 +2.732589E-07 +8.274770E-07 +2.732589E-07 +2.299116E-06 
 -1.448054E-08 +2.703224E-09 -3.611971E-09 +2.703224E-09 -2.167702E-08 +1.044823E-08 -3.611971E-09 +1.044823E-08 +3.615757E-08 
 -6.108808E-06 -1.493384E-05 -1.117813E-05 -1.493384E-05 -3.035788E-05 -8.328964E-06 -1.117813E-05 -8.328964E-06 +3.646669E-05 
 -1.906765E-06 -1.424734E-08 -4.844609E-07 -1.424734E-08 +2.061810E-07 +6.419148E-07 -4.844609E-07 +6.419148E-07 +1.700584E-06 
 -3.051511E-08 -3.092467E-09 -4.450828E-09 -3.092467E-09 -4.972764E-08 -9.434784E-09 -4.450828E-09 -9.434784E-09 +8.024275E-08 
 -2.917145E-07 -1.259691E-06 +1.561540E-07 -1.259691E-06 -4.972084E-06 -9.687885E-07 +1.561540E-07 -9.687885E-07 +5.263799E-06 
 -3.739233E-08 +6.802716E-10 +1.590483E-08 +6.802716E-10 -1.674437E-08 +2.871321E-09 +1.590483E-08 +2.871321E-09 +5.413670E-08 
 -1.458761E-07 +1.581747E-07 -4.325555E-09 +1.581747E-07 -1.736083E-07 +1.187203E-07 -4.325555E-09 +1.187203E-07 +3.194843E-07 
 -4.461992E-05 +3.105175E-05 +2.616935E-05 +3.105175E-05 -1.847606E-05 -2.308497E-06 +2.616935E-05 -2.308497E-06 +6.309598E-05 
 +1.710289E-07 +7.672253E-07 -8.559016E-07 +7.672253E-07 -2.855895E-06 -7.111182E-07 -8.559016E-07 -7.111182E-07 +2.684866E-06 
 -5.330432E-08 +1.874308E-09 -2.663812E-08 +1.874308E-09 -9.622602E-09 +6.387674E-09 -2.663812E-08 +6.387674E-09 +6.292692E-08 
 -3.040707E-05 +4.603948E-06 +5.554245E-06 +4.603948E-06 -6.792230E-07 -6.263488E-08 +5.554245E-06 -6.263488E-08 +3.108630E-05 
 -1.023075E-04 +2.843428E-05 -1.127537E-05 +2.843428E-05 -6.997414E-06 -6.877806E-06 -1.127537E-05 -6.877806E-06 +1.093049E-04 
 -3.484631E-05 -3.785811E-05 +8.741948E-06 -3.785811E-05 -2.959313E-05 +3.724927E-05 +8.741948E-06 +3.724927E-05 +6.443945E-05 
 -2.575221E-10 -8.478848E-12 -1.937153E-11 -8.478848E-12 -6.407137E-06 +5.028755E-07 -1.937153E-11 +5.028755E-07 +6.407394E-06 
 -3.803689E-05 +5.539410E-05 -2.422906E-05 +5.539410E-05 -6.093100E-05 -1.230937E-05 -2.422906E-05 -1.230937E-05 +9.896789E-05 
 -1.327345E-07 +4.758424E-08 -7.895652E-08 +4.758424E-08 -3.241621E-08 +5.099281E-08 -7.895652E-08 +5.099281E-08 +1.651507E-07 
 -3.769041E-08 -7.875351E-09 -2.434177E-08 -7.875351E-09 -2.100637E-09 +4.496168E-09 -2.434177E-08 +4.496168E-09 +3.979104E-08 
 -1.273440E-08 +1.636068E-09 +3.091727E-09 +1.636068E-09 -1.377246E-08 -4.593317E-09 +3.091727E-09 -4.593317E-09 +2.650686E-08 
 -2.176377E-07 -2.130829E-08 -1.160106E-07 -2.130829E-08 -1.781286E-08 -1.804481E-08 -1.160106E-07 -1.804481E-08 +2.354506E-07 
 -2.660182E-06 -2.868456E-06 -2.216394E-06 -2.868456E-06 -2.777338E-06 -8.608413E-07 -2.216394E-06 -8.608413E-07 +5.437520E-06 
 -3.988935E-09 -2.047198E-07 -1.616432E-07 -2.047198E-07 -4.315513E-07 +1.001740E-07 -1.616432E-07 +1.001740E-07 +4.355402E-07 
 -1.499373E-06 +2.590136E-06 +1.106769E-07 +2.590136E-06 -3.296659E-06 -2.580031E-06 +1.106769E-07 -2.580031E-06 +4.796032E-06 
 -2.322877E-06 +8.771203E-06 +4.114744E-06 +8.771203E-06 -2.342570E-05 +2.376787E-06 +4.114744E-06 +2.376787E-06 +2.574858E-05 
 -1.178727E-05 -1.686248E-06 +2.167471E-06 -1.686248E-06 -2.305758E-07 -9.214114E-08 +2.167471E-06 -9.214114E-08 +1.201785E-05 
 -3.683305E-05 -4.257532E-05 +9.677916E-06 -4.257532E-05 -4.760740E-05 +2.302327E-05 +9.677916E-06 +2.302327E-05 +8.444046E-05 
 -7.479610E-06 -2.939111E-06 -1.846906E-06 -2.939111E-06 -4.280316E-07 -3.195500E-06 -1.846906E-06 -3.195500E-06 +7.907642E-06 
 -2.578801E-05 -1.696092E-05 -1.034899E-06 -1.696092E-05 -1.099430E-05 +1.795798E-06 -1.034899E-06 +1.795798E-06 +3.678231E-05 
 -7.947148E-07 -7.799405E-07 -2.734429E-07 -7.799405E-07 -7.500497E-07 -4.968943E-07 -2.734429E-07 -4.968943E-07 +1.544765E-06 
 -3.529224E-07 -5.224193E-07 -1.878483E-07 -5.224193E-07 -4.870257E-07 +2.449628E-07 -1.878483E-07 +2.449628E-07 +8.399481E-07 
 -3.861178E-06 +4.831409E-06 +5.674016E-07 +4.831409E-06 -4.584872E-06 +2.827469E-06 +5.674016E-07 +2.827469E-06 +8.446051E-06 
 -3.196456E-06 +1.472893E-06 +7.948423E-07 +1.472893E-06 -5.231129E-07 -1.201634E-06 +7.948423E-07 -1.201634E-06 +3.719569E-06 
 -4.749506E-07 +6.598337E-06 -6.791469E-06 +6.598337E-06 -2.012893E-05 +2.542007E-06 -6.791469E-06 +2.542007E-06 +2.060388E-05 
 -2.357726E-05 +1.419361E-05 -5.763289E-06 +1.419361E-05 -8.207921E-06 +1.175034E-07 -5.763289E-06 +1.175034E-07 +3.178518E-05 
 -3.936976E-08 +1.637427E-08 -1.188012E-08 +1.637427E-08 -3.719271E-08 -1.750713E-09 -1.188012E-08 -1.750713E-09 +7.656247E-08 
 -8.513732E-06 +1.665806E-05 -2.714393E-06 +1.665806E-05 -2.481557E-05 -1.102115E-05 -2.714393E-06 -1.102115E-05 +3.332930E-05 
 -6.606911E-06 +1.587326E-05 +1.552889E-06 +1.587326E-05 -3.771865E-05 +7.261734E-07 +1.552889E-06 +7.261734E-07 +4.432556E-05 
 -2.324784E-05 +4.768074E-05 -3.110870E-05 +4.768074E-05 -6.884248E-05 +1.484404E-06 -3.110870E-05 +1.484404E-06 +9.209033E-05 
 -2.234743E-08 +3.971558E-09 -3.531940E-09 +3.971558E-09 -2.746412E-08 +9.937330E-09 -3.531940E-09 +9.937330E-09 +4.981155E-08 
 -4.597654E-06 +2.603542E-05 -9.165184E-06 +2.603542E-05 -1.476605E-04 +5.198171E-05 -9.165184E-06 +5.198171E-05 +1.522581E-04 
 +1.368410E-08 -8.958413E-08 +4.162332E-08 -8.958413E-08 -1.549393E-07 -1.095842E-07 +4.162332E-08 -1.095842E-07 +1.412552E-07 
 -7.563572E-07 -4.196278E-07 +3.424068E-07 -4.196278E-07 -7.191758E-08 -2.232659E-07 +3.424068E-07 -2.232659E-07 +8.282748E-07 
 -2.268611E-08 -7.587347E-09 +3.984852E-09 -7.587347E-09 -9.374948E-08 -2.303597E-08 +3.984852E-09 -2.303597E-08 +1.164356E-07 
 -2.977734E-10 -1.335376E-11 -1.865815E-10 -1.335376E-11 -9.750563E-06 +9.790157E-07 -1.865815E-10 +9.790157E-07 +9.750860E-06 
 -6.467550E-06 +1.782843E-06 -1.064296E-06 +1.782843E-06 -4.281665E-07 +9.654516E-07 -1.064296E-06 +9.654516E-07 +6.895716E-06 
 -1.321984E-08 -2.904596E-08 +2.442068E-08 -2.904596E-08 -1.257196E-07 -2.077454E-08 +2.442068E-08 -2.077454E-08 +1.389394E-07 
 -2.915669E-05 -9.145101E-06 -4.820108E-06 -9.145101E-06 -5.887026E-07 +6.922348E-06 -4.820108E-06 +6.922348E-06 +2.974539E-05 
 -1.962684E-06 -3.757384E-06 +1.073357E-06 -3.757384E-06 -7.161131E-06 +1.232232E-06 +1.073357E-06 +1.232232E-06 +9.123815E-06 
 -6.919875E-07 +2.284717E-07 -4.509279E-07 +2.284717E-07 -7.495392E-08 +4.311712E-08 -4.509279E-07 +4.311712E-08 +7.669414E-07 
 -3.004465E-07 +1.008271E-07 -9.241010E-08 +1.008271E-07 -6.371305E-08 +9.927065E-08 -9.241010E-08 +9.927065E-08 +3.641595E-07 
 +4.125011E-08 -1.756721E-07 -4.389950E-07 -1.756721E-07 -2.042127E-06 -7.647958E-07 -4.389950E-07 -7.647958E-07 +2.000877E-06 
 -5.707149E-07 -4.756671E-08 +3.362494E-07 -4.756671E-08 -3.859337E-09 -3.183726E-08 +3.362494E-07 -3.183726E-08 +5.745742E-07 
 -2.734644E-06 +1.097968E-05 +3.266486E-06 +1.097968E-05 -3.972547E-05 +1.190404E-06 +3.266486E-06 +1.190404E-06 +4.246011E-05 
 -1.001396E-05 -3.196499E-06 +1.985772E-06 -3.196499E-06 -9.955789E-07 +8.621353E-08 +1.985772E-06 +8.621353E-08 +1.100954E-05 
 -4.855297E-07 -3.542582E-07 +4.179906E-07 -3.542582E-07 -2.658858E-07 +1.595120E-07 +4.179906E-07 +1.595120E-07 +7.514155E-07 
 -5.866050E-09 +1.047542E-07 +1.066285E-07 +1.047542E-07 -6.353282E-07 +3.363483E-07 +1.066285E-07 +3.363483E-07 +6.411942E-07 
 -9.618441E-07 -2.305578E-06 -7.641761E-07 -2.305578E-06 -4.627995E-06 +5.358301E-07 -7.641761E-07 +5.358301E-07 +5.589839E-06 
 -6.686177E-08 -4.595648E-07 +1.323898E-07 -4.595648E-07 -2.017174E-06 -7.716503E-07 +1.323898E-07 -7.716503E-07 +2.084036E-06 
 -2.502686E-08 +7.771278E-09 +1.265140E-08 +7.771278E-09 -2.205045E-08 -9.920871E-09 +1.265140E-08 -9.920871E-09 +4.707730E-08 
 -1.075408E-04 -1.535829E-04 -5.221869E-05 -1.535829E-04 -2.193407E-04 -7.457728E-05 -5.221869E-05 -7.457728E-05 +3.268816E-04 
 -8.683579E-07 +1.814086E-06 -4.369161E-07 +1.814086E-06 -3.695224E-06 +1.662084E-06 -4.369161E-07 +1.662084E-06 +4.563582E-06 
 -1.083116E-05 +1.308341E-05 +7.939133E-06 +1.308341E-05 -1.284045E-05 -2.345054E-07 +7.939133E-06 -2.345054E-07 +2.367161E-05 
 -3.922356E-06 -4.366391E-06 -1.355878E-06 -4.366391E-06 -4.829194E-06 -8.185373E-07 -1.355878E-06 -8.185373E-07 +8.751550E-06 
 -3.873349E-08 +4.643113E-09 -1.081342E-08 +4.643113E-09 -2.429415E-08 +1.860743E-10 -1.081342E-08 +1.860743E-10 +6.302763E-08 
 -1.019173E-05 -1.345184E-05 +1.001418E-06 -1.345184E-05 -1.759259E-05 -8.412180E-07 +1.001418E-06 -8.412180E-07 +2.778432E-05 
 -2.939453E-06 -9.596781E-07 -9.307149E-07 -9.596781E-07 -2.646763E-07 -7.512086E-07 -9.307149E-07 -7.512086E-07 +3.204129E-06 
 -1.468474E-07 -1.190654E-08 +4.504089E-08 -1.190654E-08 -1.536542E-08 +3.907043E-08 +4.504089E-08 +3.907043E-08 +1.622128E-07 
 -2.322006E-07 +1.626433E-07 -1.750127E-07 +1.626433E-07 -1.081103E-07 +2.495946E-07 -1.750127E-07 +2.495946E-07 +3.403109E-07 
 -6.282286E-08 +9.230224E-09 -2.330185E-08 +9.230224E-09 -5.635422E-08 +1.538388E-08 -2.330185E-08 +1.538388E-08 +1.191771E-07 
 -1.427066E-07 +2.069960E-08 -1.326030E-08 +2.069960E-08 -2.282970E-07 +2.695437E-08 -1.326030E-08 +2.695437E-08 +3.710036E-07 
 -1.714036E-08 -3.276632E-09 -8.513509E-10 -3.276632E-09 -2.239012E-08 -1.606661E-09 -8.513509E-10 -1.606661E-09 +3.953048E-08 
 -5.134182E-07 -5.845356E-06 +7.557819E-08 -5.845356E-06 -6.681610E-05 +8.661574E-07 +7.557819E-08 +8.661574E-07 +6.732952E-05 
 +5.979973E-08 -1.121688E-08 -3.475225E-07 -1.121688E-08 -1.860790E-06 +6.029018E-07 -3.475225E-07 +6.029018E-07 +1.800990E-06 
 -3.162630E-08 -3.245810E-09 +1.007392E-08 -3.245810E-09 -4.746373E-08 +1.857385E-09 +1.007392E-08 +1.857385E-09 +7.909003E-08 
 -4.123572E-06 -6.093396E-07 -6.479639E-07 -6.093396E-07 +3.464242E-08 -8.423259E-07 -6.479639E-07 -8.423259E-07 +4.088929E-06 
 -1.661415E-07 +1.857271E-08 -5.795114E-08 +1.857271E-08 -9.713648E-08 +6.515546E-09 -5.795114E-08 +6.515546E-09 +2.632779E-07 
 -1.117938E-07 -2.499258E-09 +2.321961E-08 -2.499258E-09 +4.291048E-09 +2.275968E-08 +2.321961E-08 +2.275968E-08 +1.075027E-07 
 -3.942851E-08 -3.160329E-09 +1.982832E-09 -3.160329E-09 -7.228302E-08 +5.739115E-09 +1.982832E-09 +5.739115E-09 +1.117115E-07 
 -2.777800E-06 +3.149663E-06 +1.506645E-06 +3.149663E-06 -3.160789E-06 -2.891401E-08 +1.506645E-06 -2.891401E-08 +5.938589E-06 
 -6.331185E-05 +2.468638E-05 +1.765450E-05 +2.468638E-05 -8.962286E-06 +2.993435E-07 +1.765450E-05 +2.993435E-07 +7.227413E-05 
 -1.869666E-07 +1.261426E-06 +7.139625E-09 +1.261426E-06 -9.439242E-06 -3.488896E-06 +7.139625E-09 -3.488896E-06 +9.626208E-06 
 -1.404788E-06 -1.224790E-06 +8.064720E-07 -1.224790E-06 -1.055340E-06 +4.537764E-07 +8.064720E-07 +4.537764E-07 +2.460128E-06 
 -1.021099E-08 +5.272285E-09 +6.569318E-09 +5.272285E-09 -1.274532E-08 -4.608233E-09 +6.569318E-09 -4.608233E-09 +2.295631E-08 
 -5.887520E-09 +6.757598E-08 +3.410072E-09 +6.757598E-08 -1.078911E-06 +3.947014E-07 +3.410072E-09 +3.947014E-07 +1.084798E-06 
 -3.281872E-05 +5.684319E-05 +1.813327E-05 +5.684319E-05 -9.845562E-05 -3.140790E-05 +1.813327E-05 -3.140790E-05 +1.312743E-04 
 -2.238681E-06 +1.912229E-07 -8.103759E-07 +1.912229E-07 -1.208188E-08 -1.321327E-07 -8.103759E-07 -1.321327E-07 +2.250763E-06 
 -6.389947E-09 +5.307378E-07 -7.562858E-07 +5.307378E-07 -3.474674E-06 +1.261614E-06 -7.562858E-07 +1.261614E-06 +3.481064E-06 
 -5.615683E-05 +9.902014E-06 -2.577283E-05 +9.902014E-06 -1.746457E-06 +4.544748E-06 -2.577283E-05 +4.544748E-06 +5.790329E-05 
 -4.029427E-08 -1.311505E-08 -7.989717E-09 -1.311505E-08 -3.452367E-08 -1.450334E-08 -7.989717E-09 -1.450334E-08 +7.481793E-08 
 -6.343030E-06 +2.122667E-06 +1.007870E-06 +2.122667E-06 -3.239257E-07 -1.963626E-06 +1.007870E-06 -1.963626E-06 +6.666955E-06 
 -4.367075E-05 -1.876265E-06 +6.606079E-06 -1.876265E-06 +6.727606E-07 +6.118975E-06 +6.606079E-06 +6.118975E-06 +4.299798E-05 
 +5.409680E-07 -7.389686E-07 +1.504238E-06 -7.389686E-07 -4.696149E-06 -2.027427E-06 +1.504238E-06 -2.027427E-06 +4.155181E-06 
 -2.225825E-08 -5.278124E-09 -1.569676E-09 -5.278124E-09 -1.283744E-08 -2.301618E-09 -1.569676E-09 -2.301618E-09 +3.509569E-08 
 -9.908565E-07 +2.206535E-06 -2.151255E-07 +2.206535E-06 -4.051824E-06 -1.638348E-06 -2.151255E-07 -1.638348E-06 +5.042680E-06 
 -5.336365E-05 +4.477697E-05 -9.189192E-06 +4.477697E-05 -3.757271E-05 +7.710790E-06 -9.189192E-06 +7.710790E-06 +9.093636E-05 
 -1.503946E-06 -1.282633E-06 -3.013331E-07 -1.282633E-06 -9.436705E-07 -9.013942E-07 -3.013331E-07 -9.013942E-07 +2.447617E-06 
 -4.152165E-08 +3.203574E-09 -4.420220E-09 +3.203574E-09 -3.509340E-08 +2.020014E-08 -4.420220E-09 +2.020014E-08 +7.661505E-08 
 -1.546983E-07 -1.853878E-06 +1.871847E-06 -1.853878E-06 -5.615271E-06 +6.475294E-07 +1.871847E-06 +6.475294E-07 +5.769969E-06 
 -2.087658E-07 -1.681406E-08 +2.686355E-08 -1.681406E-08 -1.243043E-07 +1.899305E-08 +2.686355E-08 +1.899305E-08 +3.330701E-07 
 -7.625703E-08 +1.759245E-06 -1.236494E-06 +1.759245E-06 -5.718928E-06 -2.054520E-06 -1.236494E-06 -2.054520E-06 +5.795185E-06 
 -1.511940E-07 -1.881497E-07 -1.424446E-07 -1.881497E-07 +2.364653E-09 -1.403555E-07 -1.424446E-07 -1.403555E-07 +1.488293E-07 
 -9.004689E-05 +1.587767E-05 +1.119929E-05 +1.587767E-05 -2.799862E-06 -1.974750E-06 +1.119929E-05 -1.974750E-06 +9.284676E-05 
 -6.264276E-05 +6.264204E-05 +5.080243E-06 +6.264204E-05 -6.264293E-05 -5.080721E-06 +5.080243E-06 -5.080721E-06 +1.252857E-04 
 -2.959054E-07 +2.747604E-06 -1.233290E-06 +2.747604E-06 -2.900008E-05 +1.056580E-05 -1.233290E-06 +1.056580E-05 +2.929598E-05 
 -2.509775E-08 +1.487466E-09 +3.221717E-09 +1.487466E-09 -2.570147E-08 +5.793284E-10 +3.221717E-09 +5.793284E-10 +5.079922E-08 
 +2.257287E-07 +3.002109E-07 -9.534114E-07 +3.002109E-07 -3.754785E-06 +1.024992E-07 -9.534114E-07 +1.024992E-07 +3.529056E-06 
 -1.890775E-06 -2.796914E-07 -7.669255E-07 -2.796914E-07 +2.137333E-07 +6.021357E-07 -7.669255E-07 +6.021357E-07 +1.677042E-06 
 -6.489288E-08 -9.708953E-09 +6.733224E-09 -9.708953E-09 -7.004508E-08 +8.655700E-09 +6.733224E-09 +8.655700E-09 +1.349379E-07 
 -3.008024E-06 +8.147689E-06 +4.424339E-07 +8.147689E-06 -2.053583E-05 -7.235614E-06 +4.424339E-07 -7.235614E-06 +2.354385E-05 
 -5.503928E-08 -7.805308E-09 -1.430922E-08 -7.805308E-09 -1.216946E-08 -2.935276E-09 -1.430922E-08 -2.935276E-09 +6.720874E-08 
 -3.687923E-08 -3.295178E-09 -6.402327E-09 -3.295178E-09 -3.169583E-08 +2.372470E-09 -6.402327E-09 +2.372470E-09 +6.857506E-08 
 -4.847476E-08 -4.343465E-10 -1.742988E-08 -4.343465E-10 -5.128494E-08 +1.202317E-08 -1.742988E-08 +1.202317E-08 +9.975970E-08 
 +2.826311E-09 +1.375045E-06 -1.326169E-06 +1.375045E-06 -3.618985E-06 -1.644318E-07 -1.326169E-06 -1.644318E-07 +3.616159E-06 
 -1.240589E-06 -1.706448E-07 +3.285640E-07 -1.706448E-07 +2.144918E-07 +5.634030E-07 +3.285640E-07 +5.634030E-07 +1.026097E-06 
 -3.370834E-07 +2.228892E-07 +3.986999E-07 +2.228892E-07 -1.485149E-07 -5.708213E-08 +3.986999E-07 -5.708213E-08 +4.855984E-07 
 -1.230251E-08 -2.999430E-08 -1.899859E-08 -2.999430E-08 +4.486936E-10 -1.999041E-08 -1.899859E-08 -1.999041E-08 +1.185382E-08 
 -1.617288E-06 +3.621994E-06 -8.190290E-07 +3.621994E-06 -5.328927E-06 -2.796209E-06 -8.190290E-07 -2.796209E-06 +6.946215E-06 
 -3.133577E-04 -1.885134E-04 +3.739172E-05 -1.885134E-04 -9.628932E-05 -6.178107E-05 +3.739172E-05 -6.178107E-05 +4.096470E-04 
 -6.731996E-07 +2.105376E-07 +8.660147E-08 +2.105376E-07 +2.029315E-08 -2.752212E-07 +8.660147E-08 -2.752212E-07 +6.529065E-07 
 -1.926722E-06 +2.623100E-07 +1.104081E-06 +2.623100E-07 -4.437042E-08 -2.580710E-07 +1.104081E-06 -2.580710E-07 +1.971093E-06 
 -1.991664E-07 +5.799505E-08 +1.606499E-07 +5.799505E-08 -4.360560E-08 -4.722579E-10 +1.606499E-07 -4.722579E-10 +2.427720E-07 
 -6.903478E-08 +2.070076E-08 -3.621260E-08 +2.070076E-08 -1.644346E-08 +1.829522E-08 -3.621260E-08 +1.829522E-08 +8.547823E-08 
 -2.572550E-07 -8.970069E-07 -5.595094E-07 -8.970069E-07 -2.348353E-06 -2.052848E-07 -5.595094E-07 -2.052848E-07 +2.605608E-06 
 -1.892790E-06 -1.149597E-06 -2.357175E-07 -1.149597E-06 -4.414761E-07 -9.480620E-07 -2.357175E-07 -9.480620E-07 +2.334266E-06 
 +1.479163E-08 +5.567459E-07 -5.967202E-07 +5.567459E-07 -4.384302E-06 -1.604698E-07 -5.967202E-07 -1.604698E-07 +4.369511E-06 
 -6.752627E-08 -3.100358E-08 -6.202977E-08 -3.100358E-08 +7.928133E-08 -3.288647E-08 -6.202977E-08 -3.288647E-08 -1.175506E-08 
 -1.756565E-07 +7.189402E-07 +5.629154E-07 +7.189402E-07 -1.605625E-06 -8.696251E-08 +5.629154E-07 -8.696251E-08 +1.781282E-06 
 -1.504641E-06 +9.693815E-07 -2.429750E-07 +9.693815E-07 -3.018271E-07 -6.155938E-07 -2.429750E-07 -6.155938E-07 +1.806468E-06 
 -1.811730E-07 +7.487619E-06 +5.429842E-06 +7.487619E-06 -7.357950E-05 +1.196041E-05 +5.429842E-06 +1.196041E-05 +7.376067E-05 
 -2.900875E-08 +1.405957E-08 +8.772752E-09 +1.405957E-08 -3.219220E-08 -9.317741E-09 +8.772752E-09 -9.317741E-09 +6.120095E-08 
 -1.896919E-05 +1.836807E-05 -4.846742E-06 +1.836807E-05 -1.721593E-05 +9.322199E-06 -4.846742E-06 +9.322199E-06 +3.618512E-05 
 -1.000201E-07 +1.849712E-08 +4.853108E-08 +1.849712E-08 -7.817471E-08 -1.614073E-08 +4.853108E-08 -1.614073E-08 +1.781948E-07 
 -4.736530E-06 +1.932885E-06 +1.300117E-06 +1.932885E-06 -6.551170E-07 +3.511187E-07 +1.300117E-06 +3.511187E-07 +5.391646E-06 
 -1.430299E-07 +1.928726E-08 +4.502203E-09 +1.928726E-08 +3.454427E-09 -4.147830E-08 +4.502203E-09 -4.147830E-08 +1.395755E-07 
 -6.802491E-07 -6.886016E-07 +4.172096E-08 -6.886016E-07 -4.374805E-07 -5.107026E-07 +4.172096E-08 -5.107026E-07 +1.117730E-06 
 -4.258219E-07 -1.020153E-06 +5.698648E-08 -1.020153E-06 -2.261208E-06 -5.793650E-07 +5.698648E-08 -5.793650E-07 +2.687030E-06 
 -6.929776E-11 +3.371824E-07 +2.327169E-07 +3.371824E-07 -2.535235E-06 +1.016475E-06 +2.327169E-07 +1.016475E-06 +2.535305E-06 
 +9.715365E-08 -1.364200E-07 -5.043544E-07 -1.364200E-07 -2.492621E-06 +1.030796E-06 -5.043544E-07 +1.030796E-06 +2.395467E-06 
 -1.344618E-06 -8.655055E-06 +8.311676E-06 -8.655055E-06 -2.241856E-05 +3.478268E-06 +8.311676E-06 +3.478268E-06 +2.376317E-05 
 -2.769808E-07 -2.254829E-07 +1.425417E-07 -2.254829E-07 -2.454369E-07 +8.546372E-08 +1.425417E-07 +8.546372E-08 +5.224177E-07 
 -8.824651E-05 +1.023037E-04 -1.042055E-05 +1.023037E-04 -1.040489E-04 +6.515423E-05 -1.042055E-05 +6.515423E-05 +1.922954E-04 
 -5.367704E-08 -1.348975E-08 -1.881236E-09 -1.348975E-08 -8.874807E-08 -2.995970E-08 -1.881236E-09 -2.995970E-08 +1.424251E-07 
 -3.106717E-08 -1.597891E-08 +2.158651E-08 -1.597891E-08 -1.536259E-08 +1.968656E-08 +2.158651E-08 +1.968656E-08 +4.642976E-08 
 -1.538729E-06 +3.149979E-05 +2.255198E-05 +3.149979E-05 -1.511746E-04 +2.704772E-05 +2.255198E-05 +2.704772E-05 +1.527133E-04 
 -6.928344E-05 -5.731372E-11 -4.187981E-06 -5.731372E-11 -5.774745E-10 -2.573694E-10 -4.187981E-06 -2.573694E-10 +6.928403E-05 
 -1.509847E-08 +8.709715E-08 -2.920010E-08 +8.709715E-08 -3.245424E-07 -1.470469E-07 -2.920010E-08 -1.470469E-07 +3.396409E-07 
 -1.647315E-06 -6.438254E-07 -1.161543E-06 -6.438254E-07 -2.312036E-07 -8.958526E-08 -1.161543E-06 -8.958526E-08 +1.878519E-06 
 -6.041852E-06 +5.953573E-06 +5.202062E-07 +5.953573E-06 -5.616054E-06 -2.244715E-06 +5.202062E-07 -2.244715E-06 +1.165791E-05 
 +2.242914E-07 +4.929356E-07 -7.188182E-07 +4.929356E-07 -2.191945E-06 -5.879405E-07 -7.188182E-07 -5.879405E-07 +1.967654E-06 
 -4.655720E-08 +1.488265E-07 +2.521047E-08 +1.488265E-07 -5.739793E-07 -3.520514E-07 +2.521047E-08 -3.520514E-07 +6.205365E-07 
 -1.310504E-06 +1.768693E-06 +8.824302E-07 +1.768693E-06 -2.393796E-06 -1.021677E-06 +8.824302E-07 -1.021677E-06 +3.704300E-06 
 -1.885586E-07 +3.053626E-07 +3.090316E-07 +3.053626E-07 -5.564190E-07 -8.558859E-08 +3.090316E-07 -8.558859E-08 +7.449776E-07 
 -6.704279E-08 +5.994247E-08 +8.173561E-08 +5.994247E-08 -1.269545E-07 -4.842970E-08 +8.173561E-08 -4.842970E-08 +1.939973E-07 
 -3.582499E-08 -2.236186E-08 +4.397865E-09 -2.236186E-08 -5.525114E-08 +6.663841E-09 +4.397865E-09 +6.663841E-09 +9.107612E-08 
 -7.979462E-08 -8.653191E-07 +1.587168E-07 -8.653191E-07 -9.987139E-06 +1.765101E-06 +1.587168E-07 +1.765101E-06 +1.006693E-05 
 -8.290562E-07 +1.858744E-07 -9.066849E-08 +1.858744E-07 +5.802303E-08 +3.058796E-07 -9.066849E-08 +3.058796E-07 +7.710332E-07 
 -1.495075E-05 -2.088435E-05 -2.126524E-06 -2.088435E-05 -2.855141E-05 -8.226953E-06 -2.126524E-06 -8.226953E-06 +4.350216E-05 
 -6.256616E-08 +1.944752E-09 -1.834951E-08 +1.944752E-09 -1.742049E-07 -1.802680E-08 -1.834951E-08 -1.802680E-08 +2.367711E-07 
 -2.877045E-05 +1.946250E-05 -3.074911E-06 +1.946250E-05 -1.035709E-05 -8.449265E-06 -3.074911E-06 -8.449265E-06 +3.912754E-05 
 -3.868118E-05 -1.036454E-05 -6.879503E-06 -1.036454E-05 -2.777275E-06 -1.843384E-06 -6.879503E-06 -1.843384E-06 +4.145846E-05 
 -3.458189E-07 -2.224052E-07 +2.007516E-07 -2.224052E-07 -5.126456E-08 -9.366146E-08 +2.007516E-07 -9.366146E-08 +3.970835E-07 
 +1.237638E-06 +3.105685E-05 +2.479852E-05 +3.105685E-05 -1.172306E-04 +3.814945E-05 +2.479852E-05 +3.814945E-05 +1.159930E-04 
 -8.600534E-08 +2.430325E-09 -3.793395E-08 +2.430325E-09 -3.919296E-08 -7.318396E-09 -3.793395E-08 -7.318396E-09 +1.251983E-07 
 -2.266350E-04 +2.354753E-04 -1.968830E-04 +2.354753E-04 -2.124163E-04 +6.420278E-05 -1.968830E-04 +6.420278E-05 +4.390513E-04 
 -3.797591E-08 -2.547110E-09 -1.639930E-08 -2.547110E-09 -1.905851E-08 +1.435787E-09 -1.639930E-08 +1.435787E-09 +5.703443E-08 
 -4.165103E-07 -9.712107E-07 +3.819193E-07 -9.712107E-07 -1.469608E-06 -4.457466E-07 +3.819193E-07 -4.457466E-07 +1.886118E-06 
 -4.856766E-05 -9.387585E-05 -2.774959E-05 -9.387585E-05 -1.543451E-04 +2.345415E-05 -2.774959E-05 +2.345415E-05 +2.029128E-04 
 -7.646150E-08 +1.778674E-08 +2.058590E-08 +1.778674E-08 -2.223373E-08 -4.441923E-09 +2.058590E-08 -4.441923E-09 +9.869523E-08 
 -2.209175E-04 +1.628558E-04 +7.649740E-05 +1.628558E-04 -1.159194E-04 -1.759749E-05 +7.649740E-05 -1.759749E-05 +3.368369E-04 
 -6.508859E-06 +1.012148E-07 +5.714786E-07 +1.012148E-07 +1.815694E-07 +1.108641E-06 +5.714786E-07 +1.108641E-06 +6.327290E-06 
 -4.398961E-08 +5.981835E-09 +2.099951E-09 +5.981835E-09 -3.182537E-08 -4.054282E-09 +2.099951E-09 -4.054282E-09 +7.581499E-08 
 -6.282018E-06 +2.930415E-05 -1.738365E-05 +2.930415E-05 -1.171958E-04 +2.315067E-05 -1.738365E-05 +2.315067E-05 +1.234778E-04 
 -7.685789E-08 -4.148212E-08 +3.353664E-09 -4.148212E-08 -1.180325E-07 +1.623055E-08 +3.353664E-09 +1.623055E-08 +1.948904E-07 
 +7.889793E-08 -8.041212E-08 +2.411961E-07 -8.041212E-08 -7.559931E-07 -3.865872E-08 +2.411961E-07 -3.865872E-08 +6.770952E-07 
 -4.088638E-08 +1.270539E-08 +2.287556E-08 +1.270539E-08 -4.189839E-08 -1.544415E-08 +2.287556E-08 -1.544415E-08 +8.278477E-08 
 -4.681536E-06 -2.007386E-06 +7.431433E-08 -2.007386E-06 -8.547727E-07 -1.588354E-07 +7.431433E-08 -1.588354E-07 +5.536309E-06 
 -1.393549E-04 -1.825227E-05 -2.587017E-05 -1.825227E-05 -2.109850E-06 +3.083489E-06 -2.587017E-05 +3.083489E-06 +1.414647E-04 
 -5.044179E-05 -2.150657E-05 +1.107615E-05 -2.150657E-05 -4.566015E-06 -1.161828E-05 +1.107615E-05 -1.161828E-05 +5.500780E-05 
 -7.457255E-08 -4.575564E-08 +1.613157E-09 -4.575564E-08 -1.992298E-07 +2.534398E-08 +1.613157E-09 +2.534398E-08 +2.738024E-07 
 -6.038978E-05 +5.810308E-06 +6.000405E-06 +5.810308E-06 -8.895640E-08 +4.786046E-06 +6.000405E-06 +4.786046E-06 +6.047874E-05 
 -5.801932E-09 +7.135753E-08 +6.335410E-08 +7.135753E-08 -2.872820E-06 +5.041269E-07 +6.335410E-08 +5.041269E-07 +2.878622E-06 
 -1.134677E-06 +7.039244E-07 -1.369637E-07 +7.039244E-07 -2.177238E-07 -4.770034E-07 -1.369637E-07 -4.770034E-07 +1.352400E-06 
 -8.525502E-06 -9.380541E-07 -1.089206E-06 -9.380541E-07 +1.502725E-07 +1.381064E-06 -1.089206E-06 +1.381064E-06 +8.375229E-06 
 +3.634404E-06 -3.442138E-06 +1.153883E-05 -3.442138E-06 -3.193631E-05 +5.920289E-06 +1.153883E-05 +5.920289E-06 +2.830191E-05 
 -2.890461E-08 -1.536233E-09 +9.231786E-09 -1.536233E-09 -2.245862E-08 +6.762105E-09 +9.231786E-09 +6.762105E-09 +5.136323E-08 
 -3.291334E-08 +1.852011E-08 +3.142490E-09 +1.852011E-08 -4.387432E-08 -4.697603E-09 +3.142490E-09 -4.697603E-09 +7.678766E-08 
 -1.361777E-07 +1.558060E-07 +4.823190E-08 +1.558060E-07 -2.795381E-07 +1.445801E-08 +4.823190E-08 +1.445801E-08 +4.157158E-07 
 -8.015942E-08 +3.860025E-09 -8.011243E-09 +3.860025E-09 -6.108198E-08 +6.008959E-09 -8.011243E-09 +6.008959E-09 +1.412414E-07 
 -7.109735E-05 -1.015367E-04 +3.613125E-06 -1.015367E-04 -1.450102E-04 +5.160743E-06 +3.613125E-06 +5.160743E-06 +2.161076E-04 
 -8.253078E-06 -8.275522E-07 +3.584197E-07 -8.275522E-07 +1.476106E-07 -1.335471E-06 +3.584197E-07 -1.335471E-06 +8.105467E-06 
 +2.471976E-09 -1.862665E-08 +2.821652E-08 -1.862665E-08 -1.253584E-07 -8.528202E-08 +2.821652E-08 -8.528202E-08 +1.228864E-07 
 -7.691906E-08 +1.684326E-08 +4.840020E-08 +1.684326E-08 -6.720541E-08 -2.249893E-08 +4.840020E-08 -2.249893E-08 +1.441245E-07 
 -2.936804E-07 -5.710579E-08 +1.190775E-07 -5.710579E-08 +3.056273E-08 -9.855276E-08 +1.190775E-07 -9.855276E-08 +2.631177E-07 
 -4.701122E-08 +6.845293E-09 -1.408807E-09 +6.845293E-09 -1.051866E-07 -1.137302E-08 -1.408807E-09 -1.137302E-08 +1.521978E-07 
 +1.783646E-07 +8.327468E-07 +1.203560E-06 +8.327468E-07 -4.645496E-06 +5.070128E-08 +1.203560E-06 +5.070128E-08 +4.467131E-06 
 -8.611719E-09 +1.721870E-09 -4.331541E-09 +1.721870E-09 -8.936102E-09 +3.854137E-09 -4.331541E-09 +3.854137E-09 +1.754782E-08 
 -1.932073E-08 +1.042617E-08 -4.136285E-09 +1.042617E-08 -3.445276E-08 +1.132448E-08 -4.136285E-09 +1.132448E-08 +5.377348E-08 
 -1.742149E-08 -8.559019E-09 +7.758575E-09 -8.559019E-09 -3.209163E-08 +1.298442E-08 +7.758575E-09 +1.298442E-08 +4.951313E-08 
 -7.320975E-07 +1.092823E-06 -9.265585E-07 +1.092823E-06 -1.336369E-06 +3.959526E-07 -9.265585E-07 +3.959526E-07 +2.068467E-06 
 -5.941785E-06 +1.592086E-06 +9.271980E-07 +1.592086E-06 -4.266860E-07 -2.484922E-07 +9.271980E-07 -2.484922E-07 +6.368472E-06 
 -1.533401E-08 -4.251447E-09 +2.620204E-09 -4.251447E-09 -1.876540E-08 -1.503031E-09 +2.620204E-09 -1.503031E-09 +3.409940E-08 
 -3.243635E-05 -7.678477E-06 +2.637062E-07 -7.678477E-06 -1.790636E-06 -9.771480E-07 +2.637062E-07 -9.771480E-07 +3.422699E-05 
 -3.092620E-05 -3.092495E-05 +1.366693E-05 -3.092495E-05 -3.092622E-05 +1.366690E-05 +1.366693E-05 +1.366690E-05 +6.185241E-05 
 -1.948855E-07 +9.587951E-08 +1.077320E-07 +9.587951E-08 -4.639269E-08 -8.703753E-08 +1.077320E-07 -8.703753E-08 +2.412782E-07 
 -1.872855E-08 +1.098006E-08 -2.212863E-09 +1.098006E-08 -2.817735E-08 +1.004069E-08 -2.212863E-09 +1.004069E-08 +4.690591E-08 
 -9.973184E-08 -4.373142E-07 +1.458657E-07 -4.373142E-07 -9.890671E-07 -6.168884E-07 +1.458657E-07 -6.168884E-07 +1.088799E-06 
 +2.825980E-06 +6.244067E-06 -1.199448E-05 +6.244067E-06 -3.096483E-05 +5.379910E-06 -1.199448E-05 +5.379910E-06 +2.813885E-05 
 -4.982846E-08 +1.433642E-08 -4.320486E-09 +1.433642E-08 -2.376329E-08 +1.025766E-09 -4.320486E-09 +1.025766E-09 +7.359175E-08 
 -1.097174E-06 -9.661702E-07 -4.356947E-07 -9.661702E-07 -8.487430E-07 -5.590499E-07 -4.356947E-07 -5.590499E-07 +1.945917E-06 
 -6.659950E-08 -2.009585E-08 +4.557422E-09 -2.009585E-08 -5.195896E-08 +4.521110E-09 +4.557422E-09 +4.521110E-09 +1.185585E-07 
 +3.384320E-08 -1.421036E-07 +3.545105E-07 -1.421036E-07 -1.641225E-06 +6.155473E-07 +3.545105E-07 +6.155473E-07 +1.607382E-06 
 -4.397372E-06 +1.489200E-06 -1.128403E-06 +1.489200E-06 -1.487565E-07 -9.515320E-07 -1.128403E-06 -9.515320E-07 +4.546129E-06 
 -1.120077E-05 -4.589033E-05 +2.963495E-05 -4.589033E-05 -1.305131E-04 +8.475922E-06 +2.963495E-05 +8.475922E-06 +1.417139E-04 
 -1.923732E-06 -4.232164E-07 -3.109956E-07 -4.232164E-07 +4.486229E-08 +4.534978E-07 -3.109956E-07 +4.534978E-07 +1.878870E-06 
 -1.483996E-07 -5.395050E-08 +9.909094E-08 -5.395050E-08 -2.683761E-08 +7.277849E-09 +9.909094E-08 +7.277849E-09 +1.752372E-07 
 -4.035687E-08 -5.437140E-08 +3.146466E-08 -5.437140E-08 -1.516604E-07 +8.948148E-08 +3.146466E-08 +8.948148E-08 +1.920173E-07 
 -4.528055E-06 +1.187270E-06 +2.075109E-06 +1.187270E-06 -1.509143E-07 +4.641452E-07 +2.075109E-06 +4.641452E-07 +4.678970E-06 
 -6.022471E-06 -5.471185E-06 -1.122256E-06 -5.471185E-06 -3.800763E-06 +2.413434E-06 -1.122256E-06 +2.413434E-06 +9.823234E-06 
 -1.225427E-08 +3.911818E-09 +5.916070E-09 +3.911818E-09 -7.999807E-09 -3.265426E-09 +5.916070E-09 -3.265426E-09 +2.025407E-08 
 -8.327426E-07 -6.004138E-07 -1.358175E-08 -6.004138E-07 -3.733997E-07 -2.849484E-07 -1.358175E-08 -2.849484E-07 +1.206142E-06 
 -4.379903E-06 +1.005860E-05 +3.242959E-06 +1.005860E-05 -2.188781E-05 -1.520632E-06 +3.242959E-06 -1.520632E-06 +2.626771E-05 
 -8.284044E-07 +1.980697E-06 +8.610984E-07 +1.980697E-06 -4.397592E-06 -5.632054E-07 +8.610984E-07 -5.632054E-07 +5.225996E-06 
 -1.837168E-08 -2.607897E-09 -4.937738E-09 -2.607897E-09 -2.212425E-08 +2.142443E-10 -4.937738E-09 +2.142443E-10 +4.049593E-08 
 -1.012742E-06 -2.171648E-06 +3.591537E-07 -2.171648E-06 -4.657199E-06 +7.702492E-07 +3.591537E-07 +7.702492E-07 +5.669942E-06 
 -1.941793E-07 +6.506471E-08 +2.586958E-10 +6.506471E-08 -1.327763E-07 +2.741133E-08 +2.586958E-10 +2.741133E-08 +3.269556E-07 
 -2.071557E-07 +2.118892E-09 -1.501692E-08 +2.118892E-09 -3.880180E-08 -1.449450E-08 -1.501692E-08 -1.449450E-08 +2.459575E-07 
 -1.735806E-06 -1.579092E-06 -6.215212E-07 -1.579092E-06 -1.364931E-06 -6.239850E-08 -6.215212E-07 -6.239850E-08 +3.100737E-06 
 -1.084823E-08 -1.206143E-07 +2.072362E-07 -1.206143E-07 -1.097298E-06 +6.220831E-07 +2.072362E-07 +6.220831E-07 +1.108146E-06 
 -2.392426E-06 +1.118675E-06 -9.572580E-07 +1.118675E-06 -5.277634E-07 +4.538550E-07 -9.572580E-07 +4.538550E-07 +2.920189E-06 
 -1.241497E-06 +7.019260E-07 +9.065899E-07 +7.019260E-07 -3.949300E-07 -3.043575E-07 +9.065899E-07 -3.043575E-07 +1.636427E-06 
 -1.456077E-06 -3.237218E-06 +2.481837E-06 -3.237218E-06 -4.896007E-06 +5.801857E-07 +2.481837E-06 +5.801857E-07 +6.352084E-06 
 -2.216586E-08 +5.247941E-07 +4.324804E-07 +5.247941E-07 -3.632502E-06 +1.165800E-07 +4.324804E-07 +1.165800E-07 +3.654668E-06 
 -4.109385E-08 +5.716168E-08 +1.678500E-08 +5.716168E-08 -1.555303E-10 -5.303852E-08 +1.678500E-08 -5.303852E-08 +4.124938E-08 
 -5.368429E-07 -2.239485E-07 +5.836607E-08 -2.239485E-07 -9.018550E-08 +1.106115E-07 +5.836607E-08 +1.106115E-07 +6.270284E-07 
 -3.596608E-05 -1.379847E-05 -1.024475E-05 -1.379847E-05 -3.947135E-06 +3.669812E-06 -1.024475E-05 +3.669812E-06 +3.991322E-05 
 -1.021641E-05 -4.505033E-06 -1.097833E-07 -4.505033E-06 -1.982035E-06 +2.336026E-07 -1.097833E-07 +2.336026E-07 +1.219845E-05 
 -1.605134E-05 -1.568025E-05 -9.412018E-07 -1.568025E-05 -1.140117E-05 -1.132794E-05 -9.412018E-07 -1.132794E-05 +2.745251E-05 
 -1.124767E-04 -7.024691E-05 +2.613564E-05 -7.024691E-05 -3.744041E-05 -1.541676E-05 +2.613564E-05 -1.541676E-05 +1.499171E-04 
 -5.505572E-07 +2.410495E-07 -2.207482E-07 +2.410495E-07 -8.297238E-08 -3.743528E-08 -2.207482E-07 -3.743528E-08 +6.335296E-07 
 -7.795798E-09 -3.964458E-09 -1.560769E-09 -3.964458E-09 -1.880319E-08 -8.373755E-09 -1.560769E-09 -8.373755E-09 +2.659899E-08 
 -2.698173E-08 +1.236837E-08 +1.104205E-08 +1.236837E-08 -9.431275E-08 +3.802773E-08 +1.104205E-08 +3.802773E-08 +1.212945E-07 
 -9.402630E-07 +6.886947E-07 +1.462733E-07 +6.886947E-07 -4.419325E-07 +1.940620E-07 +1.462733E-07 +1.940620E-07 +1.382195E-06 
 -1.149380E-06 +1.196926E-05 -1.095170E-05 +1.196926E-05 -7.888900E-05 +2.182370E-05 -1.095170E-05 +2.182370E-05 +8.003837E-05 
 -3.641237E-06 -3.117040E-06 +1.511628E-07 -3.117040E-06 -1.528656E-06 -2.302410E-06 +1.511628E-07 -2.302410E-06 +5.169893E-06 
 -3.833189E-08 +6.448226E-09 +1.078228E-08 +6.448226E-09 -2.266734E-08 -6.963296E-09 +1.078228E-08 -6.963296E-09 +6.099922E-08 
 -8.196004E-08 +1.751504E-08 +4.099891E-08 +1.751504E-08 -8.166042E-08 +4.686272E-09 +4.099891E-08 +4.686272E-09 +1.636205E-07 
 -1.148689E-07 +6.723469E-08 -1.366350E-08 +6.723469E-08 -1.530858E-07 +1.602972E-08 -1.366350E-08 +1.602972E-08 +2.679547E-07 
 -7.267963E-05 -2.057842E-05 -2.014307E-06 -2.057842E-05 -5.369844E-06 +5.512247E-06 -2.014307E-06 +5.512247E-06 +7.804947E-05 
 -1.096430E-07 -2.385029E-08 -5.814580E-08 -2.385029E-08 -2.845255E-08 -5.082514E-08 -5.814580E-08 -5.082514E-08 +1.380955E-07 
 -2.025094E-08 -2.968449E-09 +7.024086E-09 -2.968449E-09 -1.298925E-08 +1.562720E-09 +7.024086E-09 +1.562720E-09 +3.324019E-08 
 -1.192400E-07 -9.740265E-08 +3.282849E-08 -9.740265E-08 -9.513597E-08 +9.430081E-08 +3.282849E-08 +9.430081E-08 +2.143760E-07 
 -8.997237E-05 -3.714204E-05 -7.402557E-06 -3.714204E-05 -1.290561E-05 +1.281583E-05 -7.402557E-06 +1.281583E-05 +1.028780E-04 
 -2.523278E-04 -1.081883E-04 -9.802796E-05 -1.081883E-04 -4.330219E-05 -7.423337E-05 -9.802796E-05 -7.423337E-05 +2.956300E-04 
 -4.482259E-07 -1.531848E-06 -2.000729E-06 -1.531848E-06 -3.265443E-06 -1.813721E-06 -2.000729E-06 -1.813721E-06 +3.713669E-06 
 +2.026757E-07 +8.831037E-07 +1.596376E-06 +8.831037E-07 -4.683354E-06 -1.334280E-06 +1.596376E-06 -1.334280E-06 +4.480678E-06 
 -1.365741E-06 -2.101556E-06 -6.716155E-07 -2.101556E-06 -3.187363E-06 -5.389760E-07 -6.716155E-07 -5.389760E-07 +4.553104E-06 
 -7.700281E-08 -5.451257E-08 +2.723753E-08 -5.451257E-08 -2.040315E-07 +5.415719E-08 +2.723753E-08 +5.415719E-08 +2.810343E-07 
 -5.336771E-08 +2.664130E-09 -2.213306E-09 +2.664130E-09 -3.449146E-08 -3.468136E-09 -2.213306E-09 -3.468136E-09 +8.785916E-08 
 -2.188191E-08 -8.081203E-10 +5.801830E-09 -8.081203E-10 -5.160679E-09 +4.105659E-10 +5.801830E-09 +4.105659E-10 +2.704259E-08 
 -6.957743E-08 -2.351062E-07 -1.547116E-07 -2.351062E-07 -7.929362E-07 +1.798582E-07 -1.547116E-07 +1.798582E-07 +8.625137E-07 
 -2.906634E-04 -1.355381E-04 -4.805616E-05 -1.355381E-04 -6.320338E-05 -2.240853E-05 -4.805616E-05 -2.240853E-05 +3.538668E-04 
 -2.292733E-08 -2.569368E-07 +1.134492E-07 -2.569368E-07 -2.937343E-06 +1.296746E-06 +1.134492E-07 +1.296746E-06 +2.960270E-06 
 -5.927881E-08 +2.946448E-08 -2.669134E-08 +2.946448E-08 +1.318051E-08 +3.327917E-08 -2.669134E-08 +3.327917E-08 +4.609831E-08 
 -8.867025E-07 -1.689774E-06 +6.993374E-07 -1.689774E-06 -1.934117E-06 -7.653724E-07 +6.993374E-07 -7.653724E-07 +2.820820E-06 
 -2.219867E-08 -9.057111E-09 +1.369494E-08 -9.057111E-09 -1.014830E-07 +4.087580E-08 +1.369494E-08 +4.087580E-08 +1.236816E-07 
 -9.282773E-08 +4.558000E-08 +6.821013E-08 +4.558000E-08 +1.007054E-08 -2.127125E-08 +6.821013E-08 -2.127125E-08 +8.275718E-08 
 +1.909899E-08 +1.261030E-07 +1.920906E-07 +1.261030E-07 -1.213704E-06 +5.163395E-08 +1.920906E-07 +5.163395E-08 +1.194605E-06 
 -9.851219E-07 -8.547539E-07 -5.786055E-07 -8.547539E-07 -7.451789E-07 -2.456023E-07 -5.786055E-07 -2.456023E-07 +1.730301E-06 
 -2.886735E-04 -2.021307E-04 +1.110754E-04 -2.021307E-04 -1.415348E-04 +7.777532E-05 +1.110754E-04 +7.777532E-05 +4.302083E-04 
 -3.652095E-06 +3.408213E-07 +9.067010E-08 +3.408213E-07 +1.929019E-07 +9.128653E-07 +9.067010E-08 +9.128653E-07 +3.459193E-06 
 -2.374832E-08 +6.125612E-09 -3.535574E-08 +6.125612E-09 -1.301119E-07 +6.309279E-08 -3.535574E-08 +6.309279E-08 +1.538602E-07 
 -2.315691E-08 +1.248147E-08 +7.238107E-10 +1.248147E-08 -3.987456E-08 -5.009460E-09 +7.238107E-10 -5.009460E-09 +6.303147E-08 
 -4.268585E-07 +3.852614E-07 -2.298681E-07 +3.852614E-07 -3.401105E-07 +3.703171E-07 -2.298681E-07 +3.703171E-07 +7.669690E-07 
 -2.693312E-06 -4.527895E-06 +1.048607E-06 -4.527895E-06 -7.606957E-06 +1.491638E-06 +1.048607E-06 +1.491638E-06 +1.030027E-05 
 -2.876391E-07 -7.582314E-07 +1.790330E-07 -7.582314E-07 -1.008012E-06 -7.165186E-07 +1.790330E-07 -7.165186E-07 +1.295651E-06 
 -4.326002E-08 +1.407962E-08 -2.225539E-09 +1.407962E-08 -2.841126E-08 +6.024193E-09 -2.225539E-09 +6.024193E-09 +7.167128E-08 
 -2.662973E-05 -8.939546E-06 -5.638680E-06 -8.939546E-06 -2.342102E-06 +2.617978E-06 -5.638680E-06 +2.617978E-06 +2.897184E-05 
 -1.552178E-07 +3.606743E-08 +1.777212E-08 +3.606743E-08 -6.922753E-08 +7.281791E-09 +1.777212E-08 +7.281791E-09 +2.244453E-07 
 -1.332337E-06 +7.162781E-07 -5.978134E-07 +7.162781E-07 -1.331730E-07 -3.429160E-07 -5.978134E-07 -3.429160E-07 +1.465510E-06 
 +3.386899E-06 +4.787425E-06 -1.306924E-05 +4.787425E-06 -5.251429E-05 -1.780117E-05 -1.306924E-05 -1.780117E-05 +4.912739E-05 
 -5.969320E-10 -8.685733E-07 +8.684466E-07 -8.685733E-07 -5.707778E-06 +2.575135E-10 +8.684466E-07 +2.575135E-10 +5.708374E-06 
 -5.777809E-09 +1.638876E-08 -5.795999E-09 +1.638876E-08 -3.973681E-10 +1.395012E-08 -5.795999E-09 +1.395012E-08 +6.175178E-09 
 -2.985985E-08 -4.853792E-07 -6.716878E-07 -4.853792E-07 -1.375631E-06 -5.022785E-07 -6.716878E-07 -5.022785E-07 +1.405491E-06 
 -2.630771E-07 +1.320203E-08 -8.598423E-08 +1.320203E-08 -1.638830E-07 +2.723308E-08 -8.598423E-08 +2.723308E-08 +4.269600E-07 
 -3.783227E-06 +6.129873E-07 -9.288798E-07 +6.129873E-07 +5.428451E-08 -6.303813E-07 -9.288798E-07 -6.303813E-07 +3.728943E-06 
 -5.890501E-08 +3.351731E-08 -4.965558E-08 +3.351731E-08 -4.134492E-08 +3.287846E-09 -4.965558E-08 +3.287846E-09 +1.002499E-07 
 -3.231800E-08 -3.467570E-11 +6.424113E-09 -3.467570E-11 -4.770174E-08 +3.351586E-09 +6.424113E-09 +3.351586E-09 +8.001974E-08 
 -1.719436E-08 -2.934027E-09 -6.198677E-10 -2.934027E-09 -4.467731E-08 +1.322331E-08 -6.198677E-10 +1.322331E-08 +6.187167E-08 
 -2.989786E-07 -1.310797E-06 +6.188667E-07 -1.310797E-06 -5.268292E-06 +8.875483E-07 +6.188667E-07 +8.875483E-07 +5.567270E-06 
 -3.844658E-08 -1.443017E-08 -1.549830E-09 -1.443017E-08 -2.732113E-08 -9.186217E-09 -1.549830E-09 -9.186217E-09 +6.576771E-08 
 -1.212313E-06 -2.751342E-06 -2.217658E-06 -2.751342E-06 -4.236925E-06 -6.325706E-07 -2.217658E-06 -6.325706E-07 +5.449238E-06 
 +1.258918E-06 -5.406009E-06 -8.524029E-06 -5.406009E-06 -3.220831E-05 -9.482864E-07 -8.524029E-06 -9.482864E-07 +3.094939E-05 
 -5.101720E-05 +5.101600E-05 -1.767226E-05 +5.101600E-05 -5.101724E-05 +1.767179E-05 -1.767226E-05 +1.767179E-05 +1.020344E-04 
 -8.264700E-07 +1.083928E-06 +1.822075E-07 +1.083928E-06 -1.342886E-06 +1.827013E-07 +1.822075E-07 +1.827013E-07 +2.169355E-06 
 -7.777706E-09 +1.038409E-09 +1.223023E-09 +1.038409E-09 -1.182632E-08 +5.652778E-10 +1.223023E-09 +5.652778E-10 +1.960403E-08 
 -1.025382E-07 -2.296363E-07 -2.957210E-07 -2.296363E-07 -3.436078E-07 -1.821935E-07 -2.957210E-07 -1.821935E-07 +4.461460E-07 
 -7.918605E-05 +5.211322E-05 -3.109499E-05 +5.211322E-05 -3.290290E-05 +3.373245E-05 -3.109499E-05 +3.373245E-05 +1.120889E-04 
 -1.769675E-08 +6.604333E-08 +3.907482E-08 +6.604333E-08 -7.753127E-07 -4.375502E-07 +3.907482E-08 -4.375502E-07 +7.930095E-07 
 -1.050213E-06 +2.058552E-06 -6.233295E-07 +2.058552E-06 -4.000935E-06 +6.650308E-07 -6.233295E-07 +6.650308E-07 +5.051148E-06 
 -2.261960E-09 -5.367659E-08 -1.730561E-07 -5.367659E-08 -5.109985E-07 -1.962172E-07 -1.730561E-07 -1.962172E-07 +5.132605E-07 
 -4.529715E-08 +1.068295E-08 +2.302166E-08 +1.068295E-08 -5.436634E-08 -1.770311E-08 +2.302166E-08 -1.770311E-08 +9.966348E-08 
 -3.491692E-06 -2.444783E-06 +1.346425E-06 -2.444783E-06 -1.712052E-06 +9.427518E-07 +1.346425E-06 +9.427518E-07 +5.203744E-06 
 -8.662057E-08 -2.741447E-08 -1.848482E-08 -2.741447E-08 -7.520053E-08 -3.157719E-08 -1.848482E-08 -3.157719E-08 +1.618211E-07 
 -3.178626E-06 +1.550363E-05 +6.366785E-06 +1.550363E-05 -6.121747E-05 +2.318345E-06 +6.366785E-06 +2.318345E-06 +6.439610E-05 
 -2.640612E-08 -6.414507E-10 +1.322130E-08 -6.414507E-10 -1.966785E-08 -1.342811E-10 +1.322130E-08 -1.342811E-10 +4.607397E-08 
 -2.031207E-06 +2.079869E-06 -2.471304E-07 +2.079869E-06 -2.075508E-06 +7.369468E-07 -2.471304E-07 +7.369468E-07 +4.106716E-06 
 -5.945220E-08 -4.428913E-09 +1.742978E-09 -4.428913E-09 -5.839155E-08 -4.863010E-09 +1.742978E-09 -4.863010E-09 +1.178438E-07 
 -2.679980E-08 +3.747132E-09 -1.575377E-08 +3.747132E-09 -2.882906E-08 -7.175702E-09 -1.575377E-08 -7.175702E-09 +5.562886E-08 
 -2.478949E-07 -3.483208E-07 +1.959095E-09 -3.483208E-07 -2.921199E-07 -3.324733E-07 +1.959095E-09 -3.324733E-07 +5.400148E-07 
 -2.535783E-05 +4.736805E-06 +1.513961E-06 +4.736805E-06 -9.639126E-08 +4.275711E-06 +1.513961E-06 +4.275711E-06 +2.545422E-05 
 -5.258879E-08 +8.280063E-09 +2.427268E-09 +8.280063E-09 -4.059341E-08 -4.824649E-09 +2.427268E-09 -4.824649E-09 +9.318220E-08 
 -1.201182E-08 +6.929872E-09 -4.629021E-09 +6.929872E-09 -1.347748E-08 +2.992309E-09 -4.629021E-09 +2.992309E-09 +2.548931E-08 
 -9.687489E-09 -3.366748E-12 +7.249281E-10 -3.366748E-12 -1.649340E-08 -6.024309E-09 +7.249281E-10 -6.024309E-09 +2.618088E-08 
 -6.586467E-06 -1.742905E-06 -5.615390E-07 -1.742905E-06 -1.938958E-07 +1.203754E-06 -5.615390E-07 +1.203754E-06 +6.780363E-06 
 -3.226062E-07 -1.723202E-07 +1.957912E-07 -1.723202E-07 -1.731507E-07 +4.865631E-08 +1.957912E-07 +4.865631E-08 +4.957569E-07 
 -1.851852E-07 +1.244390E-07 +1.252817E-08 +1.244390E-07 -1.562405E-07 -1.487904E-08 +1.252817E-08 -1.487904E-08 +3.414257E-07 
 -3.117747E-08 -1.006487E-07 +9.826454E-08 -1.006487E-07 -1.985445E-07 +1.234758E-08 +9.826454E-08 +1.234758E-08 +2.297220E-07 
 -5.108169E-07 +2.022140E-07 +3.515332E-07 +2.022140E-07 -7.711432E-08 -2.874050E-08 +3.515332E-07 -2.874050E-08 +5.879312E-07 
 -1.805831E-06 +4.359321E-06 +6.412233E-07 +4.359321E-06 -7.757482E-06 +3.756870E-06 +6.412233E-07 +3.756870E-06 +9.563314E-06 
 +2.885363E-07 +1.490646E-06 -2.270950E-06 +1.490646E-06 -6.094428E-06 +1.115479E-06 -2.270950E-06 +1.115479E-06 +5.805892E-06 
 -2.263796E-08 +8.741901E-09 +9.150784E-09 +8.741901E-09 -2.159815E-08 -1.029069E-08 +9.150784E-09 -1.029069E-08 +4.423611E-08 
 -2.573756E-08 -3.445391E-09 +2.204978E-09 -3.445391E-09 -1.422071E-08 -1.839739E-09 +2.204978E-09 -1.839739E-09 +3.995827E-08 
 +4.668688E-08 +7.963176E-07 +9.090379E-07 +7.963176E-07 -2.333117E-06 -1.202498E-07 +9.090379E-07 -1.202498E-07 +2.286431E-06 
 -5.380670E-07 +1.740263E-06 -6.836695E-08 +1.740263E-06 -5.508591E-06 +1.109357E-06 -6.836695E-08 +1.109357E-06 +6.046658E-06 
 -4.214340E-09 -6.765871E-10 +1.347143E-09 -6.765871E-10 -6.090388E-09 -1.126805E-09 +1.347143E-09 -1.126805E-09 +1.030473E-08 
 -6.216959E-06 +2.354803E-06 -9.292668E-07 +2.354803E-06 -6.387176E-07 +1.686842E-06 -9.292668E-07 +1.686842E-06 +6.855677E-06 
 -2.040700E-07 -3.326410E-08 +1.079233E-07 -3.326410E-08 -1.030065E-08 +3.491076E-08 +1.079233E-07 +3.491076E-08 +2.143707E-07 
 -2.565758E-08 +7.382166E-09 +1.697176E-09 +7.382166E-09 -1.490480E-08 -3.130364E-09 +1.697176E-09 -3.130364E-09 +4.056238E-08 
 -4.277951E-08 -1.110344E-08 -2.234426E-08 -1.110344E-08 -6.765145E-08 -1.707344E-08 -2.234426E-08 -1.707344E-08 +1.104310E-07 
 -6.455951E-06 -1.151937E-05 +8.107586E-07 -1.151937E-05 -1.659411E-05 +1.104615E-05 +8.107586E-07 +1.104615E-05 +2.305006E-05 
 -6.578868E-06 -4.219617E-06 +3.703696E-06 -4.219617E-06 -2.459220E-06 +6.942713E-07 +3.703696E-06 +6.942713E-07 +9.038088E-06 
 -1.570621E-08 +6.350886E-08 +6.542709E-08 +6.350886E-08 -1.444403E-07 -1.949047E-08 +6.542709E-08 -1.949047E-08 +1.601465E-07 
 -4.480035E-08 +5.589815E-09 -3.666568E-09 +5.589815E-09 -4.880038E-08 +1.957544E-08 -3.666568E-09 +1.957544E-08 +9.360073E-08 
 -5.601323E-07 +6.138719E-07 -1.410010E-07 +6.138719E-07 -6.184077E-07 +4.227631E-07 -1.410010E-07 +4.227631E-07 +1.178540E-06 
 -1.414886E-08 -2.842256E-07 +3.448312E-08 -2.842256E-07 -4.738210E-06 -1.738221E-06 +3.448312E-08 -1.738221E-06 +4.752359E-06 
 -1.923580E-08 -4.501734E-09 -3.605027E-09 -4.501734E-09 -4.907917E-08 -3.940684E-09 -3.605027E-09 -3.940684E-09 +6.831497E-08 
 -1.511816E-08 +6.672115E-09 -5.245296E-09 +6.672115E-09 -2.264756E-08 +1.093809E-08 -5.245296E-09 +1.093809E-08 +3.776572E-08 
 -3.806196E-06 +2.958709E-06 +9.111646E-07 +2.958709E-06 -1.700430E-06 +1.158342E-06 +9.111646E-07 +1.158342E-06 +5.506625E-06 
 -7.698405E-08 -6.952267E-08 +8.169314E-08 -6.952267E-08 -1.048519E-07 +5.197807E-08 +8.169314E-08 +5.197807E-08 +1.818359E-07 
 -5.917014E-06 -6.059681E-07 -2.536303E-07 -6.059681E-07 +9.966879E-08 +9.459051E-07 -2.536303E-07 +9.459051E-07 +5.817345E-06 
 -1.427186E-07 +3.718183E-07 +1.171554E-07 +3.718183E-07 -6.458043E-07 +2.435760E-07 +1.171554E-07 +2.435760E-07 +7.885229E-07 
 -5.707332E-07 +1.783256E-06 +9.181951E-07 +1.783256E-06 -3.466346E-06 +5.759353E-07 +9.181951E-07 +5.759353E-07 +4.037079E-06 
 -3.366659E-05 -9.020429E-06 -3.495178E-06 -9.020429E-06 -2.418961E-06 -9.361164E-07 -3.495178E-06 -9.361164E-07 +3.608555E-05 
 -1.676092E-07 -2.301629E-08 -4.624630E-08 -2.301629E-08 +7.995613E-09 -4.749151E-08 -4.624630E-08 -4.749151E-08 +1.596136E-07 
 -7.032962E-05 +1.884449E-05 -1.636602E-05 +1.884449E-05 -5.050221E-06 +4.385090E-06 -1.636602E-05 +4.385090E-06 +7.537984E-05 
 -1.015480E-06 +1.159050E-05 +8.482019E-07 +1.159050E-05 -1.324812E-04 -9.687353E-06 +8.482019E-07 -9.687353E-06 +1.334967E-04 
 -7.203842E-08 +1.623291E-08 -8.276209E-09 +1.623291E-08 -4.594184E-08 -4.728962E-09 -8.276209E-09 -4.728962E-09 +1.179803E-07 
 -4.716900E-06 -1.715535E-06 -2.212975E-08 -1.715535E-06 -4.581089E-07 +9.561550E-07 -2.212975E-08 +9.561550E-07 +5.175009E-06 
 -8.289942E-07 -1.587710E-06 +1.704907E-07 -1.587710E-06 -3.002834E-06 -7.899742E-08 +1.704907E-07 -7.899742E-08 +3.831828E-06 
 +9.335764E-09 -8.174649E-07 -6.089506E-07 -8.174649E-07 -2.971939E-06 +1.084642E-06 -6.089506E-07 +1.084642E-06 +2.962603E-06 
 -9.055761E-06 -3.149409E-05 -1.288351E-05 -3.149409E-05 -8.089186E-05 +1.095352E-05 -1.288351E-05 +1.095352E-05 +8.994763E-05 
 -3.879853E-08 +1.837408E-08 +5.408743E-09 +1.837408E-08 -4.473425E-08 -3.254392E-09 +5.408743E-09 -3.254392E-09 +8.353278E-08 
 +2.615525E-07 -7.712072E-07 -1.418087E-06 -7.712072E-07 -3.095957E-06 -9.090509E-07 -1.418087E-06 -9.090509E-07 +2.834404E-06 
 -5.052627E-07 -2.997111E-07 -3.624944E-08 -2.997111E-07 -1.286932E-07 +1.797883E-07 -3.624944E-08 +1.797883E-07 +6.339559E-07 
 -7.664612E-06 -1.888512E-06 -2.999286E-06 -1.888512E-06 -1.772531E-07 +8.745475E-07 -2.999286E-06 +8.745475E-07 +7.841865E-06 
 -1.471891E-05 -3.155834E-05 -1.422990E-06 -3.155834E-05 -6.768048E-05 -3.050881E-06 -1.422990E-06 -3.050881E-06 +8.239939E-05 
 -2.342199E-05 +1.023510E-05 +8.286916E-07 +1.023510E-05 -2.869304E-06 -6.885321E-06 +8.286916E-07 -6.885321E-06 +2.629129E-05 
 -6.520100E-06 +1.149583E-06 +2.701583E-07 +1.149583E-06 -2.031940E-07 -4.760906E-08 +2.701583E-07 -4.760906E-08 +6.723294E-06 
 -1.703146E-08 +1.483112E-07 +8.782064E-08 +1.483112E-07 -2.994837E-07 +1.393424E-07 +8.782064E-08 +1.393424E-07 +3.165152E-07 
 -1.856484E-07 +4.352054E-07 -5.938410E-08 +4.352054E-07 -5.263508E-07 -4.755019E-07 -5.938410E-08 -4.755019E-07 +7.119992E-07 
 -9.402666E-09 +4.066325E-10 -7.722402E-10 +4.066325E-10 -8.845955E-09 +2.052215E-10 -7.722402E-10 +2.052215E-10 +1.824862E-08 
 -2.777639E-08 -9.414601E-09 -1.326018E-08 -9.414601E-09 -1.618220E-08 -5.387129E-09 -1.326018E-08 -5.387129E-09 +4.395859E-08 
 +7.801576E-08 -1.694416E-07 -4.568955E-07 -1.694416E-07 -1.617728E-06 -4.213847E-07 -4.568955E-07 -4.213847E-07 +1.539712E-06 
 -1.009908E-07 -1.934373E-08 +1.665160E-08 -1.934373E-08 -1.638124E-07 +1.850073E-08 +1.665160E-08 +1.850073E-08 +2.648032E-07 
 -1.661953E-07 +3.032755E-06 +2.389478E-06 +3.032755E-06 -9.859377E-06 +1.413381E-06 +2.389478E-06 +1.413381E-06 +1.002557E-05 
 -7.214272E-08 -1.242327E-08 +1.866015E-08 -1.242327E-08 -1.915432E-08 -1.420991E-08 +1.866015E-08 -1.420991E-08 +9.129704E-08 
 +2.206270E-07 +2.576617E-07 -6.122673E-07 +2.576617E-07 -1.915995E-06 -7.104326E-07 -6.122673E-07 -7.104326E-07 +1.695368E-06 
 -3.583061E-08 +8.263336E-09 +5.265555E-09 +8.263336E-09 -3.608836E-08 -2.325591E-09 +5.265555E-09 -2.325591E-09 +7.191898E-08 
 -3.097486E-08 +1.466632E-08 +6.215057E-09 +1.466632E-08 -2.365559E-08 -1.607971E-09 +6.215057E-09 -1.607971E-09 +5.463046E-08 
 -1.226329E-05 -1.329184E-05 -8.602222E-06 -1.329184E-05 -1.086340E-05 +8.559729E-07 -8.602222E-06 +8.559729E-07 +2.312669E-05 
 -1.393813E-04 +1.658087E-04 -1.061076E-04 +1.658087E-04 -1.728991E-04 +2.827381E-05 -1.061076E-04 +2.827381E-05 +3.122804E-04 
 -7.049425E-08 +2.786564E-07 +5.002496E-09 +2.786564E-07 -9.603067E-07 +6.374797E-07 +5.002496E-09 +6.374797E-07 +1.030801E-06 
 -3.834111E-08 -5.320244E-09 +8.240659E-09 -5.320244E-09 -4.204056E-08 +1.522375E-08 +8.240659E-09 +1.522375E-08 +8.038167E-08 
 -2.030525E-05 -1.931966E-05 -6.425685E-06 -1.931966E-05 -1.815254E-05 -2.877096E-06 -6.425685E-06 -2.877096E-06 +3.845780E-05 
 -1.883116E-04 +1.580117E-04 +8.716433E-06 +1.580117E-04 -1.325884E-04 -7.314450E-06 +8.716433E-06 -7.314450E-06 +3.209001E-04 
 -1.608459E-04 -1.357772E-04 -7.118486E-06 -1.357772E-04 -1.110668E-04 +2.507847E-05 -7.118486E-06 +2.507847E-05 +2.719127E-04 
 -1.283910E-06 -5.133309E-07 -3.515524E-07 -5.133309E-07 -2.913141E-08 -7.026536E-07 -3.515524E-07 -7.026536E-07 +1.313042E-06 
 -1.206119E-06 +2.876385E-07 -3.190907E-07 +2.876385E-07 -2.963297E-08 +3.468339E-07 -3.190907E-07 +3.468339E-07 +1.235752E-06 
 -2.451566E-06 +1.100125E-06 +1.173999E-06 +1.100125E-06 -6.404832E-08 +6.263945E-07 +1.173999E-06 +6.263945E-07 +2.515614E-06 
 -2.963366E-08 -1.456831E-08 +1.110477E-08 -1.456831E-08 -5.295916E-08 +2.541593E-08 +1.110477E-08 +2.541593E-08 +8.259281E-08 
 -1.351098E-08 -7.670012E-10 +5.133602E-09 -7.670012E-10 -1.191262E-08 +2.491265E-09 +5.133602E-09 +2.491265E-09 +2.542360E-08 
 -2.955909E-06 -5.035057E-06 -1.470173E-06 -5.035057E-06 -7.115971E-06 +1.470732E-06 -1.470173E-06 +1.470732E-06 +1.007188E-05 
 -2.757555E-08 +6.239317E-09 +1.087483E-08 +6.239317E-09 -2.030372E-08 -2.966414E-10 +1.087483E-08 -2.966414E-10 +4.787928E-08 
 -4.472078E-07 -8.154187E-07 +6.612830E-08 -8.154187E-07 -1.142571E-06 -6.364589E-07 +6.612830E-08 -6.364589E-07 +1.589779E-06 
 -7.886109E-06 -1.632856E-06 -1.487197E-06 -1.632856E-06 -2.403566E-07 +6.594817E-07 -1.487197E-06 +6.594817E-07 +8.126465E-06 
 -2.772601E-06 +2.510945E-08 -1.078675E-06 +2.510945E-08 +7.219464E-08 -4.809391E-07 -1.078675E-06 -4.809391E-07 +2.700406E-06 
 -2.653939E-07 +7.446027E-07 -5.316846E-07 +7.446027E-07 -1.891705E-06 +6.684859E-07 -5.316846E-07 +6.684859E-07 +2.157099E-06 
 -2.351463E-06 +2.363182E-06 +3.361852E-07 +2.363182E-06 -2.295630E-06 +2.814380E-07 +3.361852E-07 +2.814380E-07 +4.647093E-06 
 -7.770019E-08 -5.383948E-07 +5.122111E-07 -5.383948E-07 -2.773446E-06 +9.927661E-07 +5.122111E-07 +9.927661E-07 +2.851146E-06 
 -3.211876E-06 -1.819788E-05 -3.222966E-06 -1.819788E-05 -1.032080E-04 -1.827372E-05 -3.222966E-06 -1.827372E-05 +1.064198E-04 
 -6.383577E-07 -7.579413E-07 -6.567313E-07 -7.579413E-07 -3.689329E-07 +1.710730E-07 -6.567313E-07 +1.710730E-07 +1.007291E-06 
 -2.976980E-08 +5.683477E-09 -1.166603E-08 +5.683477E-09 -4.828427E-08 -2.303921E-08 -1.166603E-08 -2.303921E-08 +7.805408E-08 
 -1.361864E-08 +9.709261E-09 +2.563469E-09 +9.709261E-09 -2.955193E-08 -9.368058E-09 +2.563469E-09 -9.368058E-09 +4.317057E-08 
 -2.879920E-06 -3.242678E-06 -7.817085E-07 -3.242678E-06 -2.602726E-06 +1.565974E-06 -7.817085E-07 +1.565974E-06 +5.482646E-06 
 -3.524299E-06 +2.915956E-06 +1.691740E-06 +2.915956E-06 -2.413101E-06 -1.343786E-06 +1.691740E-06 -1.343786E-06 +5.937401E-06 
 +2.808717E-06 +1.843014E-06 -1.606261E-05 +1.843014E-06 -9.402006E-05 -1.042141E-05 -1.606261E-05 -1.042141E-05 +9.121135E-05 
 +1.147015E-06 +3.349867E-06 +8.118226E-06 +3.349867E-06 -4.153531E-05 -5.174611E-06 +8.118226E-06 -5.174611E-06 +4.038829E-05 
 -5.481999E-07 -8.561703E-07 +2.606129E-07 -8.561703E-07 -1.322537E-06 +2.302778E-07 +2.606129E-07 +2.302778E-07 +1.870737E-06 
 -9.510460E-08 +1.378078E-08 -3.005714E-08 +1.378078E-08 -7.019536E-08 +2.048835E-08 -3.005714E-08 +2.048835E-08 +1.653000E-07 
 -9.158462E-07 +1.454805E-06 +2.046377E-07 +1.454805E-06 -1.042636E-06 +1.270063E-06 +2.046377E-07 +1.270063E-06 +1.958482E-06 
 -4.205215E-08 -5.441574E-09 +1.619902E-08 -5.441574E-09 -2.292655E-08 -8.162548E-11 +1.619902E-08 -8.162548E-11 +6.497871E-08 
 -8.532055E-06 +1.492395E-05 -4.423921E-06 +1.492395E-05 -1.566028E-05 -8.933564E-06 -4.423921E-06 -8.933564E-06 +2.419233E-05 
 -1.441363E-05 -2.945712E-05 +7.001695E-06 -2.945712E-05 -5.700351E-05 +2.979623E-05 +7.001695E-06 +2.979623E-05 +7.141714E-05 
 -4.520414E-08 -1.033783E-08 -4.837041E-10 -1.033783E-08 -3.434956E-08 -6.181915E-09 -4.837041E-10 -6.181915E-09 +7.955370E-08 
 -3.091192E-08 -1.615058E-08 +4.725159E-10 -1.615058E-08 -6.009725E-08 +6.968157E-09 +4.725159E-10 +6.968157E-09 +9.100917E-08 
 -6.699287E-08 -9.725615E-09 -2.136364E-08 -9.725615E-09 -4.743862E-08 -1.326454E-08 -2.136364E-08 -1.326454E-08 +1.144315E-07 
 -2.350163E-08 +5.355736E-10 -5.843364E-09 +5.355736E-10 -2.523493E-08 +1.204437E-08 -5.843364E-09 +1.204437E-08 +4.873655E-08 
 -1.946887E-05 +2.901074E-05 +3.941288E-06 +2.901074E-05 -3.775948E-05 +1.195730E-05 +3.941288E-06 +1.195730E-05 +5.722835E-05 
 -7.328742E-06 -3.317110E-06 +3.389734E-07 -3.317110E-06 -1.061820E-06 +2.088525E-06 +3.389734E-07 +2.088525E-06 +8.390562E-06 
 -2.170468E-06 -5.028299E-07 +1.010687E-06 -5.028299E-07 -4.007220E-08 +7.771064E-07 +1.010687E-06 +7.771064E-07 +2.210541E-06 
 -1.237857E-06 -3.009347E-06 -1.567610E-06 -3.009347E-06 -7.212512E-06 -2.699788E-06 -1.567610E-06 -2.699788E-06 +8.450369E-06 
 -2.146906E-07 -1.258977E-07 +1.190953E-07 -1.258977E-07 -6.752798E-08 +1.338805E-07 +1.190953E-07 +1.338805E-07 +2.822186E-07 
 -7.467342E-08 -2.420409E-07 +2.980934E-07 -2.420409E-07 -6.027379E-07 +3.331011E-07 +2.980934E-07 +3.331011E-07 +6.774113E-07 
 +4.226537E-08 +7.226261E-08 -1.685007E-07 +7.226261E-08 -4.207978E-07 +1.063828E-07 -1.685007E-07 +1.063828E-07 +3.785324E-07 
 -5.097946E-05 +3.056719E-05 -9.902964E-06 +3.056719E-05 -1.830576E-05 +7.280438E-06 -9.902964E-06 +7.280438E-06 +6.928521E-05 
 -8.230114E-08 -1.546388E-08 -2.712024E-08 -1.546388E-08 -4.544379E-08 -5.812904E-09 -2.712024E-08 -5.812904E-09 +1.277449E-07 
 -3.102390E-08 -1.842317E-08 +3.938720E-09 -1.842317E-08 -3.913891E-08 +4.127406E-09 +3.938720E-09 +4.127406E-09 +7.016281E-08 
 -6.461312E-08 +1.658234E-08 -2.016915E-08 +1.658234E-08 -4.892518E-08 +1.323350E-08 -2.016915E-08 +1.323350E-08 +1.135383E-07 
 -5.522441E-06 +8.183665E-07 -8.658213E-07 +8.183665E-07 +5.577408E-08 +1.130063E-06 -8.658213E-07 +1.130063E-06 +5.466667E-06 
 -6.630987E-08 -6.361137E-08 +8.409939E-08 -6.361137E-08 -1.140482E-07 +5.680743E-08 +8.409939E-08 +5.680743E-08 +1.803581E-07 
 -6.996477E-08 +3.288450E-08 +9.914381E-09 +3.288450E-08 -3.652458E-08 +6.614747E-09 +9.914381E-09 +6.614747E-09 +1.064893E-07 
 -2.236556E-07 -3.629967E-08 +1.637628E-08 -3.629967E-08 -1.062450E-07 +1.312982E-08 +1.637628E-08 +1.312982E-08 +3.299006E-07 
 -2.150410E-06 -1.089106E-06 +6.628670E-07 -1.089106E-06 -4.718302E-07 -1.410904E-07 +6.628670E-07 -1.410904E-07 +2.622241E-06 
 -7.703547E-05 +7.013966E-05 +4.821967E-05 +7.013966E-05 -6.167879E-05 -2.462840E-05 +4.821967E-05 -2.462840E-05 +1.387143E-04 
 -3.985963E-06 -2.571617E-05 -2.028506E-05 -2.571617E-05 -5.174598E-05 +4.105664E-06 -2.028506E-05 +4.105664E-06 +5.573195E-05 
 -5.413934E-06 +3.332739E-06 -2.200036E-06 +3.332739E-06 -2.049233E-06 +1.615333E-06 -2.200036E-06 +1.615333E-06 +7.463167E-06 
 -5.253428E-08 +8.258392E-10 -1.469128E-08 +8.258392E-10 -1.476618E-08 -3.491908E-09 -1.469128E-08 -3.491908E-09 +6.730045E-08 
 -1.381978E-06 -2.721943E-06 -2.166940E-06 -2.721943E-06 -4.557091E-06 -1.508341E-06 -2.166940E-06 -1.508341E-06 +5.939068E-06 
 -1.493711E-06 -2.675045E-06 +3.289835E-07 -2.675045E-06 -3.858586E-06 -1.663368E-06 +3.289835E-07 -1.663368E-06 +5.352297E-06 
 -4.015834E-06 -6.234809E-07 +2.867910E-07 -6.234809E-07 +7.750119E-08 -7.872025E-07 +2.867910E-07 -7.872025E-07 +3.938333E-06 
 -2.277570E-07 -7.478339E-08 +1.009220E-07 -7.478339E-08 -8.407963E-08 +9.822432E-08 +1.009220E-07 +9.822432E-08 +3.118367E-07 
 -2.257950E-06 -3.503189E-06 -1.852387E-06 -3.503189E-06 -5.235781E-06 -1.505294E-06 -1.852387E-06 -1.505294E-06 +7.493730E-06 
 -2.100354E-06 +3.177515E-06 -1.074079E-06 +3.177515E-06 -4.708731E-06 +7.659031E-07 -1.074079E-06 +7.659031E-07 +6.809085E-06 
 -4.387954E-08 -3.502224E-09 +2.525308E-08 -3.502224E-09 -3.855031E-08 -4.616870E-09 +2.525308E-08 -4.616870E-09 +8.242986E-08 
 -1.063362E-06 +1.699433E-06 -2.922517E-07 +1.699433E-06 -1.626262E-06 -1.272653E-06 -2.922517E-07 -1.272653E-06 +2.689624E-06 
 -2.846848E-09 -5.946532E-09 -1.253852E-08 -5.946532E-09 -1.229560E-07 +6.913357E-08 -1.253852E-08 +6.913357E-08 +1.258028E-07 
 +1.934268E-07 +4.963588E-07 -1.176206E-06 +4.963588E-07 -6.904099E-06 -2.807569E-06 -1.176206E-06 -2.807569E-06 +6.710672E-06 
 -2.226234E-05 -1.947690E-06 +6.314155E-06 -1.947690E-06 -1.706027E-07 +5.523824E-07 +6.314155E-06 +5.523824E-07 +2.243294E-05 
 -4.792940E-08 -7.540655E-09 +2.848931E-10 -7.540655E-09 -7.256168E-08 +5.996022E-09 +2.848931E-10 +5.996022E-09 +1.204911E-07 
 -4.070398E-06 +5.161465E-06 -2.291116E-06 +5.161465E-06 -6.331488E-06 +1.315739E-06 -2.291116E-06 +1.315739E-06 +1.040189E-05 
 +8.101562E-08 -9.106284E-07 -9.050367E-07 -9.106284E-07 -3.544880E-06 +1.111225E-06 -9.050367E-07 +1.111225E-06 +3.463864E-06 
 -1.466213E-06 -1.520660E-06 -8.645924E-07 -1.520660E-06 -1.221503E-06 +2.009655E-07 -8.645924E-07 +2.009655E-07 +2.687716E-06 
 -1.197473E-09 +5.021344E-08 -1.795310E-07 +5.021344E-08 -1.183075E-06 +3.917121E-07 -1.795310E-07 +3.917121E-07 +1.184273E-06 
 -2.404216E-06 -1.251413E-06 +4.309835E-07 -1.251413E-06 -3.844304E-07 +1.108504E-06 +4.309835E-07 +1.108504E-06 +2.788646E-06 
 -1.212832E-06 -2.856873E-07 +5.620735E-07 -2.856873E-07 -1.765654E-08 -1.667779E-07 +5.620735E-07 -1.667779E-07 +1.230488E-06 
 -7.601840E-06 -3.057375E-05 +1.230136E-05 -3.057375E-05 -1.025552E-04 -2.165460E-06 +1.230136E-05 -2.165460E-06 +1.101571E-04 
 -2.321026E-07 -1.157578E-08 +2.305349E-08 -1.157578E-08 -1.008902E-07 +7.826856E-10 +2.305349E-08 +7.826856E-10 +3.329928E-07 
 -1.038316E-07 -1.120518E-06 -2.465814E-07 -1.120518E-06 -1.226458E-05 -2.166831E-06 -2.465814E-07 -2.166831E-06 +1.236841E-05 
 -1.064496E-05 -1.377685E-05 +7.956849E-07 -1.377685E-05 -1.690996E-05 +6.075399E-06 +7.956849E-07 +6.075399E-06 +2.755492E-05 
 -2.407292E-06 +1.184294E-06 -6.587653E-07 +1.184294E-06 -4.873233E-07 +8.883961E-07 -6.587653E-07 +8.883961E-07 +2.894615E-06 
 -2.497758E-05 +1.260106E-05 +1.236239E-05 +1.260106E-05 -3.621320E-06 +3.618231E-06 +1.236239E-05 +3.618231E-06 +2.859890E-05 
 -3.485273E-08 -1.519900E-09 -6.851112E-10 -1.519900E-09 -8.608608E-08 +2.545191E-08 -6.851112E-10 +2.545191E-08 +1.209388E-07 
 -5.161289E-08 -1.979125E-08 -3.164007E-09 -1.979125E-08 -5.819566E-08 -1.090244E-08 -3.164007E-09 -1.090244E-08 +1.098086E-07 
 -1.025063E-07 +8.664000E-08 +8.852217E-08 +8.664000E-08 -7.471560E-07 -4.005627E-07 +8.852217E-08 -4.005627E-07 +8.496623E-07 
 -5.070876E-07 +2.369925E-07 +1.244574E-08 +2.369925E-07 -5.122092E-07 +7.139737E-08 +1.244574E-08 +7.139737E-08 +1.019297E-06 
 -1.483020E-06 +2.251301E-06 +1.267555E-06 +2.251301E-06 -3.358322E-06 -1.299460E-06 +1.267555E-06 -1.299460E-06 +4.841342E-06 
 +1.570606E-06 -5.397339E-06 -1.168902E-05 -5.397339E-06 -6.653909E-05 -2.379878E-06 -1.168902E-05 -2.379878E-06 +6.496849E-05 
 -7.788207E-08 +5.004184E-08 +2.900377E-08 +5.004184E-08 -1.673251E-08 +2.710673E-08 +2.900377E-08 +2.710673E-08 +9.461458E-08 
 -2.417496E-08 +3.364595E-09 +1.345966E-09 +3.364595E-09 -1.502307E-08 -1.547898E-09 +1.345966E-09 -1.547898E-09 +3.919804E-08 
 -8.296019E-08 +3.456936E-08 -1.958028E-08 +3.456936E-08 -9.044690E-08 +1.192522E-09 -1.958028E-08 +1.192522E-09 +1.734071E-07 
 -1.207689E-05 +1.661564E-05 +4.679007E-06 +1.661564E-05 -1.735828E-05 +6.687600E-06 +4.679007E-06 +6.687600E-06 +2.943517E-05 
 -1.578021E-07 -3.465588E-07 +1.251563E-07 -3.465588E-07 -3.886407E-07 -2.208947E-07 +1.251563E-07 -2.208947E-07 +5.464428E-07 
 -2.634331E-06 -1.704624E-06 +2.212243E-07 -1.704624E-06 -1.014624E-06 +7.325775E-07 +2.212243E-07 +7.325775E-07 +3.648955E-06 
 -5.724869E-06 -1.009433E-06 -2.746129E-06 -1.009433E-06 -1.780820E-07 -4.842300E-07 -2.746129E-06 -4.842300E-07 +5.902951E-06 
 -2.584810E-05 -1.006626E-06 -9.506884E-06 -1.006626E-06 -6.946803E-09 +9.659482E-07 -9.506884E-06 +9.659482E-07 +2.585504E-05 
 -9.286742E-05 +5.380055E-05 -1.856899E-06 +5.380055E-05 -2.992473E-05 -1.132805E-05 -1.856899E-06 -1.132805E-05 +1.227921E-04 
 -3.802241E-08 -6.979512E-09 +1.410298E-08 -6.979512E-09 -3.716459E-08 +7.472404E-09 +1.410298E-08 +7.472404E-09 +7.518700E-08 
 -1.935207E-08 +3.924502E-09 +4.964381E-09 +3.924502E-09 -3.275500E-08 -1.637429E-09 +4.964381E-09 -1.637429E-09 +5.210708E-08 
 -8.305138E-06 +1.313629E-06 -4.026290E-07 +1.313629E-06 +8.019329E-07 +2.830752E-06 -4.026290E-07 +2.830752E-06 +7.503206E-06 
 -2.019724E-07 +4.464227E-07 +8.875871E-08 +4.464227E-07 -1.169432E-06 +6.858925E-07 +8.875871E-08 +6.858925E-07 +1.371404E-06 
 -9.543490E-07 -3.018607E-06 -1.456457E-06 -3.018607E-06 -8.584690E-06 -1.173562E-06 -1.456457E-06 -1.173562E-06 +9.539039E-06 
 -5.255177E-06 -4.236211E-06 +4.547212E-07 -4.236211E-06 -3.229181E-06 +1.655958E-06 +4.547212E-07 +1.655958E-06 +8.484358E-06 
 +3.580406E-08 -4.717830E-08 +1.317895E-07 -4.717830E-08 -4.105337E-07 -3.482273E-08 +1.317895E-07 -3.482273E-08 +3.747296E-07 
 -6.262818E-05 -9.090691E-05 +9.624130E-06 -9.090691E-05 -1.275038E-04 -1.525359E-05 +9.624130E-06 -1.525359E-05 +1.901320E-04 
 -9.496073E-08 +6.736872E-09 -9.421326E-09 +6.736872E-09 -3.698313E-08 -5.123196E-09 -9.421326E-09 -5.123196E-09 +1.319439E-07 
 -3.074430E-08 +1.406944E-08 +2.091751E-08 +1.406944E-08 -1.305423E-08 -3.037967E-09 +2.091751E-08 -3.037967E-09 +4.379853E-08 
 -1.437514E-07 +1.633097E-08 -7.406445E-08 +1.633097E-08 +2.003707E-08 -3.782881E-08 -7.406445E-08 -3.782881E-08 +1.237143E-07 
 -2.160130E-07 +2.466116E-06 -3.746067E-07 +2.466116E-06 -2.818836E-05 +4.281128E-06 -3.746067E-07 +4.281128E-06 +2.840437E-05 
 -1.471005E-07 -4.137474E-07 +5.267854E-08 -4.137474E-07 -9.341207E-07 -4.044601E-07 +5.267854E-08 -4.044601E-07 +1.081221E-06 
 -1.250658E-05 +2.986178E-06 -1.354776E-07 +2.986178E-06 -6.646275E-07 -7.691902E-07 -1.354776E-07 -7.691902E-07 +1.317121E-05 
 -1.000693E-04 -1.121911E-05 +1.795068E-05 -1.121911E-05 -1.240414E-06 -5.077043E-07 +1.795068E-05 -5.077043E-07 +1.013097E-04 
 -7.972091E-06 +9.980605E-07 -1.701849E-06 +9.980605E-07 +3.580163E-08 -9.472496E-07 -1.701849E-06 -9.472496E-07 +7.936290E-06 
 -2.402556E-07 +8.300223E-07 -3.359435E-07 +8.300223E-07 -2.129193E-06 -2.961548E-07 -3.359435E-07 -2.961548E-07 +2.369449E-06 
 -2.105589E-06 +1.149670E-06 +2.072861E-07 +1.149670E-06 -3.902004E-07 -8.893977E-07 +2.072861E-07 -8.893977E-07 +2.495790E-06 
 -1.744987E-07 +1.395869E-07 -6.259736E-08 +1.395869E-07 -2.565604E-07 +4.531256E-08 -6.259736E-08 +4.531256E-08 +4.310590E-07 
 -6.035423E-06 +1.567568E-06 +2.347683E-06 +1.567568E-06 -3.947437E-07 -4.521074E-08 +2.347683E-06 -4.521074E-08 +6.430167E-06 
 -8.051842E-08 +3.841600E-09 -3.004137E-09 +3.841600E-09 -6.279536E-08 +8.383772E-09 -3.004137E-09 +8.383772E-09 +1.433138E-07 
 -2.317016E-06 +1.544002E-06 -7.221842E-07 +1.544002E-06 -9.911798E-07 +8.578688E-07 -7.221842E-07 +8.578688E-07 +3.308196E-06 
 -2.429929E-06 -4.615659E-07 -9.143558E-07 -4.615659E-07 -7.573433E-08 +9.857347E-08 -9.143558E-07 +9.857347E-08 +2.505664E-06 
 -6.527524E-08 -7.332834E-09 -1.719008E-08 -7.332834E-09 -1.552253E-08 -3.454420E-09 -1.719008E-08 -3.454420E-09 +8.079777E-08 
 -3.492571E-05 +4.232700E-05 +5.222561E-06 +4.232700E-05 -4.972890E-05 +5.292218E-06 +5.222561E-06 +5.292218E-06 +8.465461E-05 
 -1.748162E-08 -1.355098E-07 +1.072724E-08 -1.355098E-07 -8.048474E-07 -4.915792E-07 +1.072724E-08 -4.915792E-07 +8.223291E-07 
 -1.230756E-08 +2.847863E-09 -9.773093E-10 +2.847863E-09 -1.418168E-08 -1.327339E-09 -9.773093E-10 -1.327339E-09 +2.648923E-08 
 -2.198659E-06 +2.256474E-05 +2.110098E-05 +2.256474E-05 -9.347923E-05 -1.358925E-05 +2.110098E-05 -1.358925E-05 +9.567789E-05 
 -3.599127E-08 +7.863656E-09 -6.177615E-10 +7.863656E-09 -7.261610E-08 +7.903640E-09 -6.177615E-10 +7.903640E-09 +1.086074E-07 
 -1.517041E-07 -5.192311E-08 -1.894732E-08 -5.192311E-08 -9.723860E-08 -6.723544E-10 -1.894732E-08 -6.723544E-10 +2.489427E-07 
 -6.940058E-06 -1.271704E-06 +5.408525E-07 -1.271704E-06 -1.773264E-07 -5.364850E-07 +5.408525E-07 -5.364850E-07 +7.117384E-06 
 -7.845998E-09 -3.003457E-09 -2.719236E-09 -3.003457E-09 -5.141331E-09 -2.033045E-09 -2.719236E-09 -2.033045E-09 +1.298733E-08 
 +1.218920E-08 -5.283260E-10 +4.306042E-08 -5.283260E-10 -1.384144E-07 -3.419703E-09 +4.306042E-08 -3.419703E-09 +1.262252E-07 
 -5.106410E-07 +1.151760E-06 +8.889417E-07 +1.151760E-06 -2.057542E-06 -4.598256E-07 +8.889417E-07 -4.598256E-07 +2.568183E-06 
 -1.757254E-04 +1.474485E-04 +2.726322E-05 +1.474485E-04 -1.237272E-04 -2.287535E-05 +2.726322E-05 -2.287535E-05 +2.994526E-04 
 -1.087353E-06 +1.360867E-06 +7.911447E-07 +1.360867E-06 -1.686524E-06 -6.727013E-07 +7.911447E-07 -6.727013E-07 +2.773877E-06 
 -7.897349E-06 +1.336254E-05 +5.781385E-06 +1.336254E-05 -2.065934E-05 -1.713611E-06 +5.781385E-06 -1.713611E-06 +2.855669E-05 
 -6.756618E-06 -4.421574E-06 -1.687712E-06 -4.421574E-06 -2.018948E-06 +1.736591E-06 -1.687712E-06 +1.736591E-06 +8.775566E-06 
 +2.105681E-08 +3.300134E-07 -4.533728E-07 +3.300134E-07 -4.488154E-06 -8.080001E-08 -4.533728E-07 -8.080001E-08 +4.467097E-06 
 -4.001315E-05 -8.580466E-05 +4.395651E-05 -8.580466E-05 -1.840093E-04 +9.426178E-05 +4.395651E-05 +9.426178E-05 +2.240225E-04 
 -5.993871E-08 +1.272561E-08 -1.505232E-09 +1.272561E-08 -4.302357E-08 +8.360576E-09 -1.505232E-09 +8.360576E-09 +1.029623E-07 
 -1.612870E-08 -4.599075E-10 -4.492187E-09 -4.599075E-10 -5.269745E-09 +1.717469E-09 -4.492187E-09 +1.717469E-09 +2.139844E-08 
 -5.493607E-06 +3.400311E-06 +4.789701E-07 +3.400311E-06 -1.748103E-06 +1.316755E-06 +4.789701E-07 +1.316755E-06 +7.241710E-06 
 -2.112007E-06 +1.519566E-06 -9.736079E-07 +1.519566E-06 -1.120299E-06 +6.374001E-07 -9.736079E-07 +6.374001E-07 +3.232306E-06 
 +3.784035E-07 -2.255161E-07 +1.117416E-06 -2.255161E-07 -3.409233E-06 +1.993094E-07 +1.117416E-06 +1.993094E-07 +3.030830E-06 
 -1.558559E-08 +2.949775E-08 -7.878899E-09 +2.949775E-08 -5.006248E-08 +4.152114E-08 -7.878899E-09 +4.152114E-08 +6.564807E-08 
 +1.894467E-06 +3.664849E-06 -1.099675E-05 +3.664849E-06 -6.438469E-05 -2.077346E-05 -1.099675E-05 -2.077346E-05 +6.249022E-05 
 -2.603138E-05 -9.474394E-06 +3.985353E-06 -9.474394E-06 -3.449119E-06 +1.450710E-06 +3.985353E-06 +1.450710E-06 +2.948050E-05 
 -5.189401E-08 +2.098043E-09 -4.625073E-09 +2.098043E-09 -1.734685E-08 -2.139440E-09 -4.625073E-09 -2.139440E-09 +6.924086E-08 
 +2.938612E-08 +1.999321E-07 +1.889069E-07 +1.999321E-07 -5.847473E-07 +1.707315E-07 +1.889069E-07 +1.707315E-07 +5.553612E-07 
 -2.672327E-07 -4.727714E-07 +3.541126E-07 -4.727714E-07 -5.340368E-07 -2.082864E-08 +3.541126E-07 -2.082864E-08 +8.012695E-07 
 -4.804007E-05 +3.619409E-05 +7.882639E-06 +3.619409E-05 -1.991847E-05 +1.667868E-05 +7.882639E-06 +1.667868E-05 +6.795854E-05 
 +3.721309E-08 -5.943536E-09 +4.018709E-08 -5.943536E-09 -8.269939E-08 -4.725603E-08 +4.018709E-08 -4.725603E-08 +4.548630E-08 
 -9.671132E-08 -3.240124E-08 -2.640568E-08 -3.240124E-08 -4.515388E-08 -1.599749E-08 -2.640568E-08 -1.599749E-08 +1.418652E-07 
 -7.517695E-06 +1.563206E-05 +7.113494E-06 +1.563206E-05 -2.939519E-05 -2.945990E-06 +7.113494E-06 -2.945990E-06 +3.691289E-05 
 -5.566274E-06 -3.568820E-06 +3.304163E-06 -3.568820E-06 -1.529287E-06 -5.379663E-07 +3.304163E-06 -5.379663E-07 +7.095561E-06 
 -2.088760E-07 -1.758622E-08 -4.729039E-08 -1.758622E-08 -1.652240E-07 -5.127777E-11 -4.729039E-08 -5.127777E-11 +3.741000E-07 
 -1.618496E-07 +5.466718E-07 -2.525906E-07 +5.466718E-07 -1.877703E-06 +6.981256E-07 -2.525906E-07 +6.981256E-07 +2.039552E-06 
 -2.735748E-05 -1.256599E-05 +1.974538E-06 -1.256599E-05 -5.465904E-06 +4.088360E-06 +1.974538E-06 +4.088360E-06 +3.282338E-05 
 -1.257286E-04 -1.134275E-05 +6.048135E-09 -1.134275E-05 -1.253925E-08 +1.134068E-05 +6.048135E-09 +1.134068E-05 +1.257412E-04 
 -1.298743E-08 +3.343157E-08 -7.522135E-08 +3.343157E-08 -5.147750E-07 +2.813129E-07 -7.522135E-08 +2.813129E-07 +5.277625E-07 
 -2.921906E-06 +3.818001E-06 +1.075351E-06 +3.818001E-06 -4.462413E-06 +6.206488E-07 +1.075351E-06 +6.206488E-07 +7.384318E-06 
 -2.009233E-05 -2.869191E-05 -8.778629E-06 -2.869191E-05 -4.097832E-05 -1.253624E-05 -8.778629E-06 -1.253624E-05 +6.107065E-05 
 -2.538110E-06 +1.934069E-06 -1.062318E-06 +1.934069E-06 -1.468573E-06 +1.021241E-06 -1.062318E-06 +1.021241E-06 +4.006683E-06 
 -4.111349E-08 -9.832480E-08 +3.064110E-08 -9.832480E-08 -1.219927E-07 -7.539377E-08 +3.064110E-08 -7.539377E-08 +1.631062E-07 
 -1.269157E-06 -3.357762E-06 -1.030320E-06 -3.357762E-06 -5.782504E-06 +2.248524E-06 -1.030320E-06 +2.248524E-06 +7.051662E-06 
 -1.998426E-06 +4.301897E-07 -1.130684E-06 +4.301897E-07 -1.800790E-07 +3.380125E-07 -1.130684E-06 +3.380125E-07 +2.178505E-06 
 -8.884644E-07 +3.366427E-07 -2.656959E-07 +3.366427E-07 +3.745257E-09 -2.582117E-07 -2.656959E-07 -2.582117E-07 +8.847192E-07 
 -3.792744E-05 +5.416067E-05 -2.930597E-05 +5.416067E-05 -7.735314E-05 +4.185514E-05 -2.930597E-05 +4.185514E-05 +1.152806E-04 
 -2.438447E-07 -4.916372E-08 +7.265302E-08 -4.916372E-08 -1.036912E-07 +2.243709E-08 +7.265302E-08 +2.243709E-08 +3.475359E-07 
 +1.333425E-06 -3.701372E-06 +7.360863E-06 -3.701372E-06 -2.623911E-05 +3.390522E-06 +7.360863E-06 +3.390522E-06 +2.490569E-05 
 -2.637886E-09 -3.084819E-07 -4.404977E-07 -3.084819E-07 -2.790543E-06 -1.014370E-06 -4.404977E-07 -1.014370E-06 +2.793181E-06 
 -1.981389E-08 -2.191562E-07 -2.625068E-07 -2.191562E-07 -7.332968E-07 -1.471499E-07 -2.625068E-07 -1.471499E-07 +7.531107E-07 
 -6.751977E-07 +2.045131E-06 -2.951880E-07 +2.045131E-06 -3.634332E-06 -2.538836E-06 -2.951880E-07 -2.538836E-06 +4.309529E-06 
 +5.617981E-08 -2.475289E-06 +2.105859E-06 -2.475289E-06 -5.312192E-06 -1.005022E-06 +2.105859E-06 -1.005022E-06 +5.256012E-06 
 -8.235883E-06 +3.144942E-06 +5.209121E-07 +3.144942E-06 -4.935823E-07 +2.296046E-06 +5.209121E-07 +2.296046E-06 +8.729465E-06 
 -1.431272E-08 -7.074116E-09 -8.057000E-09 -7.074116E-09 -1.334540E-08 -2.076997E-09 -8.057000E-09 -2.076997E-09 +2.765812E-08 
 -1.029611E-05 +1.614466E-05 +1.140626E-05 +1.614466E-05 -1.531150E-05 +1.716295E-06 +1.140626E-05 +1.716295E-06 +2.560761E-05 
 -4.716319E-09 +1.627348E-08 -1.585183E-07 +1.627348E-08 -9.802897E-07 -5.687613E-07 -1.585183E-07 -5.687613E-07 +9.850060E-07 
 -4.272379E-06 +3.584881E-06 +2.487969E-06 +3.584881E-06 -3.008151E-06 -2.087636E-06 +2.487969E-06 -2.087636E-06 +7.280530E-06 
 -2.681986E-08 -7.822606E-09 +9.743879E-10 -7.822606E-09 -3.266616E-08 -1.642550E-08 +9.743879E-10 -1.642550E-08 +5.948602E-08 
 -4.072887E-08 -8.347325E-09 -5.631080E-09 -8.347325E-09 -2.889363E-08 -1.152422E-09 -5.631080E-09 -1.152422E-09 +6.962250E-08 
 -4.284608E-09 +1.443009E-06 +1.208812E-06 +1.443009E-06 -5.072281E-06 +8.925969E-07 +1.208812E-06 +8.925969E-07 +5.076565E-06 
 -4.044116E-06 +1.852416E-06 +7.362029E-08 +1.852416E-06 -4.882760E-07 -1.362041E-06 +7.362029E-08 -1.362041E-06 +4.532392E-06 
 -3.927174E-08 -5.369138E-09 +4.507726E-09 -5.369138E-09 -1.038389E-07 +2.991944E-08 +4.507726E-09 +2.991944E-08 +1.431106E-07 
 -1.079507E-08 -7.761670E-09 -1.139599E-09 -7.761670E-09 -3.027330E-08 -2.406334E-09 -1.139599E-09 -2.406334E-09 +4.106837E-08 
 +8.652700E-08 +5.725603E-08 +2.277704E-07 +5.725603E-08 -5.259434E-07 -1.452740E-07 +2.277704E-07 -1.452740E-07 +4.394165E-07 
 -5.340111E-08 -6.321520E-09 -6.775753E-09 -6.321520E-09 -5.169385E-08 -5.253805E-09 -6.775753E-09 -5.253805E-09 +1.050950E-07 
 -9.581712E-09 -3.173768E-09 +1.268427E-09 -3.173768E-09 -1.531382E-08 +3.758128E-09 +1.268427E-09 +3.758128E-09 +2.489553E-08 
 -9.036957E-09 +2.067693E-09 -2.816916E-10 +2.067693E-09 -1.041118E-08 +3.300711E-09 -2.816916E-10 +3.300711E-09 +1.944814E-08 
 -1.222413E-07 +3.884933E-08 +1.221157E-08 +3.884933E-08 -1.949249E-07 -2.272075E-08 +1.221157E-08 -2.272075E-08 +3.171662E-07 
 -1.697959E-08 +5.098584E-08 -4.406233E-08 +5.098584E-08 -9.541599E-08 +5.702451E-08 -4.406233E-08 +5.702451E-08 +1.123956E-07 
 -4.798502E-06 +1.496552E-05 -7.451080E-06 +1.496552E-05 -2.878022E-05 -5.268420E-06 -7.451080E-06 -5.268420E-06 +3.357872E-05 
 -4.869466E-05 -5.375345E-05 -3.584135E-06 -5.375345E-05 -5.883588E-05 +3.592295E-06 -3.584135E-06 +3.592295E-06 +1.075305E-04 
 -3.006948E-06 -1.274967E-06 +1.691369E-06 -1.274967E-06 -2.207465E-07 -4.407442E-07 +1.691369E-06 -4.407442E-07 +3.227694E-06 
 -1.028462E-04 -5.553802E-05 +1.880787E-05 -5.553802E-05 -2.458844E-05 +3.679059E-05 +1.880787E-05 +3.679059E-05 +1.274347E-04 
 -9.388407E-08 +8.645537E-08 +1.876536E-08 +8.645537E-08 -1.067573E-07 +1.752221E-08 +1.876536E-08 +1.752221E-08 +2.006414E-07 
 -1.613129E-07 -7.617567E-08 +1.045271E-07 -7.617567E-08 -3.820693E-08 -9.483411E-09 +1.045271E-07 -9.483411E-09 +1.995199E-07 
 -7.766620E-07 +4.086757E-07 -2.344844E-07 +4.086757E-07 -2.004398E-07 +2.776910E-07 -2.344844E-07 +2.776910E-07 +9.771019E-07 
 -2.073050E-07 +5.678092E-08 +2.264375E-08 +5.678092E-08 -2.096797E-07 -2.243454E-08 +2.264375E-08 -2.243454E-08 +4.169847E-07 
 -1.180463E-04 +7.705134E-05 -2.600977E-05 +7.705134E-05 -4.259993E-05 +5.278206E-05 -2.600977E-05 +5.278206E-05 +1.606463E-04 
 +2.072708E-08 -8.073585E-08 -2.177710E-07 -8.073585E-08 -7.947499E-07 +1.784007E-07 -2.177710E-07 +1.784007E-07 +7.740228E-07 
 -2.684719E-05 -2.098267E-05 +1.017319E-05 -2.098267E-05 -1.512104E-05 +2.917070E-07 +1.017319E-05 +2.917070E-07 +4.196823E-05 
 -1.520010E-07 -2.307157E-07 -2.440145E-07 -2.307157E-07 -3.195888E-07 -1.010622E-07 -2.440145E-07 -1.010622E-07 +4.715899E-07 
 -2.347160E-06 -5.683656E-07 +7.584176E-07 -5.683656E-07 +1.089927E-07 -6.078773E-07 +7.584176E-07 -6.078773E-07 +2.238167E-06 
 -2.191859E-07 -5.879418E-07 +2.981588E-07 -5.879418E-07 -8.437721E-07 -2.468996E-07 +2.981588E-07 -2.468996E-07 +1.062958E-06 
 +3.986341E-08 -1.544934E-06 +1.782974E-06 -1.544934E-06 -9.401529E-06 +6.254592E-07 +1.782974E-06 +6.254592E-07 +9.361665E-06 
 -2.651892E-06 -1.193120E-06 -6.322875E-07 -1.193120E-06 -4.505304E-07 +2.494222E-07 -6.322875E-07 +2.494222E-07 +3.102423E-06 
 -1.011204E-08 +5.191777E-10 +2.838293E-09 +5.191777E-10 -1.116610E-08 -6.587472E-09 +2.838293E-09 -6.587472E-09 +2.127813E-08 
 -1.365141E-06 -5.503527E-07 +3.047998E-07 -5.503527E-07 -2.000844E-07 -7.796672E-08 +3.047998E-07 -7.796672E-08 +1.565226E-06 
 -1.065654E-07 +2.329353E-08 +1.402243E-08 +2.329353E-08 -1.209281E-07 -2.771581E-09 +1.402243E-08 -2.771581E-09 +2.274935E-07 
 -7.427979E-06 -5.885626E-07 +3.443471E-07 -5.885626E-07 +1.790620E-07 +1.312040E-06 +3.443471E-07 +1.312040E-06 +7.248917E-06 
 -2.216888E-05 +3.406730E-05 -1.986573E-06 +3.406730E-05 -5.215316E-05 -1.402329E-06 -1.986573E-06 -1.402329E-06 +7.432204E-05 
 -3.739650E-05 -3.407607E-05 +2.416969E-05 -3.407607E-05 -2.297684E-05 -2.795003E-06 +2.416969E-05 -2.795003E-06 +6.037335E-05 
 -2.139177E-05 -1.145914E-05 +2.814938E-06 -1.145914E-05 -3.741700E-06 +9.378720E-06 +2.814938E-06 +9.378720E-06 +2.513347E-05 
 -4.196441E-05 -3.185965E-05 +7.765716E-06 -3.185965E-05 -1.779287E-05 -1.403369E-05 +7.765716E-06 -1.403369E-05 +5.975728E-05 
 -1.300176E-06 +2.397005E-06 +8.395780E-07 +2.397005E-06 -4.237769E-06 -4.864500E-07 +8.395780E-07 -4.864500E-07 +5.537945E-06 
 -3.526839E-07 -7.064688E-07 +5.455393E-07 -7.064688E-07 -1.227220E-06 +4.124205E-07 +5.455393E-07 +4.124205E-07 +1.579904E-06 
 +4.225946E-07 -1.336304E-07 +1.007169E-06 -1.336304E-07 -2.682432E-06 +2.393685E-07 +1.007169E-06 +2.393685E-07 +2.259837E-06 
 -9.931158E-09 -4.293429E-08 -5.391204E-09 -4.293429E-08 -1.688962E-07 +3.294475E-08 -5.391204E-09 +3.294475E-08 +1.788274E-07 
 -3.639147E-08 +2.499586E-08 +1.289582E-08 +2.499586E-08 -4.300754E-08 -1.148252E-08 +1.289582E-08 -1.148252E-08 +7.939901E-08 
 -2.001391E-07 +1.273050E-07 -1.456486E-07 +1.273050E-07 -1.286607E-07 +7.839105E-08 -1.456486E-07 +7.839105E-08 +3.287998E-07 
 -1.737634E-04 +1.520217E-05 +2.137623E-05 +1.520217E-05 -1.331742E-06 -1.870616E-06 +2.137623E-05 -1.870616E-06 +1.750951E-04 
 -2.008729E-04 -7.784553E-05 -5.086729E-05 -7.784553E-05 -2.808226E-05 +2.794976E-06 -5.086729E-05 +2.794976E-06 +2.289552E-04 
 -5.175689E-07 -3.606707E-07 -1.380079E-07 -3.606707E-07 -1.213538E-07 -4.061901E-07 -1.380079E-07 -4.061901E-07 +6.389226E-07 
 -8.654634E-09 -2.048822E-09 +2.432984E-10 -2.048822E-09 -1.019814E-08 +5.333352E-09 +2.432984E-10 +5.333352E-09 +1.885278E-08 
 -1.000050E-05 +2.445386E-05 -7.256907E-06 +2.445386E-05 -4.872630E-05 -8.922167E-06 -7.256907E-06 -8.922167E-06 +5.872680E-05 
 -9.478695E-08 +2.744490E-07 +1.510323E-07 +2.744490E-07 -4.660240E-07 +1.392516E-07 +1.510323E-07 +1.392516E-07 +5.608110E-07 
 -8.249714E-07 -1.547802E-07 +1.067887E-07 -1.547802E-07 +9.965891E-08 +3.346418E-07 +1.067887E-07 +3.346418E-07 +7.253125E-07 
 -4.966691E-05 -2.505835E-05 -1.804659E-05 -2.505835E-05 -3.812740E-06 +1.401603E-05 -1.804659E-05 +1.401603E-05 +5.347965E-05 
 -9.116744E-05 -9.116703E-05 -1.915014E-05 -9.116703E-05 -9.116754E-05 -1.915001E-05 -1.915014E-05 -1.915001E-05 +1.823350E-04 
 -1.902119E-07 -1.279117E-08 -1.445006E-08 -1.279117E-08 -4.886656E-08 -2.335428E-09 -1.445006E-08 -2.335428E-09 +2.390784E-07 
 -3.273637E-06 -7.266454E-07 +1.176184E-06 -7.266454E-07 -1.629993E-07 +4.209353E-07 +1.176184E-06 +4.209353E-07 +3.436636E-06 
 -4.168924E-08 +5.585748E-09 -4.329110E-09 +5.585748E-09 -2.492832E-08 +2.742278E-09 -4.329110E-09 +2.742278E-09 +6.661756E-08 
 -1.903060E-08 +8.629351E-09 -2.431702E-09 +8.629351E-09 -3.184736E-08 +2.614886E-09 -2.431702E-09 +2.614886E-09 +5.087796E-08 
 -3.954695E-08 -2.970035E-08 +9.104260E-09 -2.970035E-08 -7.610669E-08 +3.351837E-09 +9.104260E-09 +3.351837E-09 +1.156536E-07 
 -4.456329E-05 +4.118019E-05 -1.654046E-05 +4.118019E-05 -3.363532E-05 -4.098797E-06 -1.654046E-05 -4.098797E-06 +7.819861E-05 
 -4.981245E-09 -8.662956E-10 -2.856689E-09 -8.662956E-10 -5.013127E-09 -2.294856E-09 -2.856689E-09 -2.294856E-09 +9.994372E-09 
 -2.495189E-07 +2.849491E-06 -3.419874E-07 +2.849491E-06 -3.257022E-05 +3.907775E-06 -3.419874E-07 +3.907775E-06 +3.281973E-05 
 -1.825790E-09 +1.989497E-07 -2.250021E-07 +1.989497E-07 -1.205080E-06 +6.828111E-08 -2.250021E-07 +6.828111E-08 +1.206906E-06 
 -7.580697E-07 -1.456894E-06 -4.953690E-07 -1.456894E-06 -2.160224E-06 +4.966073E-07 -4.953690E-07 +4.966073E-07 +2.918293E-06 
 -2.595046E-05 +1.188529E-05 +4.167790E-06 +1.188529E-05 -5.217603E-06 -4.612742E-06 +4.167790E-06 -4.612742E-06 +3.116806E-05 
 +1.044393E-09 +4.421386E-09 +2.032250E-08 +4.421386E-09 -2.867085E-07 +1.058551E-07 +2.032250E-08 +1.058551E-07 +2.856641E-07 
 -4.715026E-07 -7.935699E-06 -5.226502E-06 -7.935699E-06 -3.675477E-05 +8.129228E-06 -5.226502E-06 +8.129228E-06 +3.722627E-05 
 -5.063290E-06 -1.814021E-06 +1.518037E-07 -1.814021E-06 -4.567117E-07 +1.090033E-06 +1.518037E-07 +1.090033E-06 +5.520002E-06 
 +8.985186E-10 -3.372619E-08 -3.212256E-08 -3.372619E-08 -1.159449E-07 +3.315948E-08 -3.212256E-08 +3.315948E-08 +1.150464E-07 
 -2.276161E-07 -2.015652E-07 -1.411332E-09 -2.015652E-07 -1.329311E-07 +1.552470E-07 -1.411332E-09 +1.552470E-07 +3.605472E-07 
 -2.884322E-05 +3.644427E-05 -4.993319E-06 +3.644427E-05 -3.485961E-05 -2.057942E-05 -4.993319E-06 -2.057942E-05 +6.370283E-05 
 -6.620493E-09 +1.558846E-09 +1.462508E-09 +1.558846E-09 -9.710878E-09 +2.572951E-09 +1.462508E-09 +2.572951E-09 +1.633137E-08 
 -3.465745E-06 -2.726071E-06 -1.167750E-07 -2.726071E-06 -2.135899E-06 +1.388636E-07 -1.167750E-07 +1.388636E-07 +5.601644E-06 
 -3.204615E-06 +2.357431E-06 +2.124935E-07 +2.357431E-06 -1.702241E-06 +2.522658E-07 +2.124935E-07 +2.522658E-07 +4.906856E-06 
 +1.571469E-06 -5.497692E-06 -7.782702E-06 -5.497692E-06 -3.368940E-05 +9.466180E-06 -7.782702E-06 +9.466180E-06 +3.211794E-05 
 -3.226065E-05 +8.433887E-06 -1.008454E-05 +8.433887E-06 +3.426891E-07 -6.874560E-06 -1.008454E-05 -6.874560E-06 +3.191796E-05 
 +6.825422E-08 +2.055562E-07 +7.618382E-07 +2.055562E-07 -5.052942E-06 -1.882572E-06 +7.618382E-07 -1.882572E-06 +4.984688E-06 
 -4.421334E-07 +9.123431E-08 -1.482916E-07 +9.123431E-08 -2.956271E-09 +1.207137E-07 -1.482916E-07 +1.207137E-07 +4.450897E-07 
 -1.330430E-07 +5.288856E-08 -1.632866E-08 +5.288856E-08 -1.126183E-07 +6.952440E-09 -1.632866E-08 +6.952440E-09 +2.456613E-07 
 -3.122534E-08 -4.025765E-08 +1.544654E-08 -4.025765E-08 -1.245254E-07 -2.751366E-08 +1.544654E-08 -2.751366E-08 +1.557507E-07 
 -3.203446E-09 -1.266540E-09 +1.010569E-09 -1.266540E-09 -4.212506E-09 +1.873218E-09 +1.010569E-09 +1.873218E-09 +7.415952E-09 
 -5.715153E-05 -8.162016E-05 -1.822310E-05 -8.162016E-05 -1.165659E-04 -2.602521E-05 -1.822310E-05 -2.602521E-05 +1.737175E-04 
 -2.345712E-07 -4.410297E-09 +1.110495E-07 -4.410297E-09 -6.818696E-09 +5.684531E-08 +1.110495E-07 +5.684531E-08 +2.413899E-07 
 -8.111699E-07 -5.182465E-07 +3.800230E-07 -5.182465E-07 -3.285387E-07 +1.798547E-07 +3.800230E-07 +1.798547E-07 +1.139709E-06 
 -5.691521E-08 -1.248407E-08 +1.882370E-08 -1.248407E-08 -3.675129E-08 -1.140648E-08 +1.882370E-08 -1.140648E-08 +9.366651E-08 
 +1.410910E-07 -6.162082E-07 +5.957528E-07 -6.162082E-07 -2.108591E-06 -1.177649E-06 +5.957528E-07 -1.177649E-06 +1.967500E-06 
 -9.847790E-05 +3.094365E-11 +3.718619E-05 +3.094365E-11 -7.546092E-10 -1.112799E-11 +3.718619E-05 -1.112799E-11 +9.847865E-05 
 -1.253018E-07 +5.371679E-08 +4.632841E-08 +5.371679E-08 -7.566866E-08 -6.594762E-08 +4.632841E-08 -6.594762E-08 +2.009705E-07 
 -2.153153E-06 +5.124639E-07 +2.317454E-07 +5.124639E-07 +4.114810E-08 -6.470590E-07 +2.317454E-07 -6.470590E-07 +2.112005E-06 
 -2.486207E-05 -4.702863E-05 -2.275187E-05 -4.702863E-05 -8.500005E-05 -2.019703E-05 -2.275187E-05 -2.019703E-05 +1.098621E-04 
 -7.909200E-07 +3.041131E-07 -3.163379E-07 +3.041131E-07 -5.243467E-08 -1.367862E-07 -3.163379E-07 -1.367862E-07 +8.433547E-07 
 -2.048121E-08 +4.156040E-09 -6.415790E-09 +4.156040E-09 -1.552499E-08 +7.686847E-09 -6.415790E-09 +7.686847E-09 +3.600620E-08 
 -1.004531E-05 -2.575333E-05 +3.821495E-06 -2.575333E-05 -6.428035E-05 -1.783921E-06 +3.821495E-06 -1.783921E-06 +7.432566E-05 
 -2.029127E-08 +5.264885E-09 -9.833171E-09 +5.264885E-09 -1.736716E-08 +6.796861E-09 -9.833171E-09 +6.796861E-09 +3.765843E-08 
 -2.796925E-06 +1.520701E-06 +6.523309E-07 +1.520701E-06 -8.127802E-07 -1.039776E-07 +6.523309E-07 -1.039776E-07 +3.609705E-06 
 -1.661330E-07 -9.645252E-08 -4.404643E-08 -9.645252E-08 -1.316241E-07 -3.723002E-08 -4.404643E-08 -3.723002E-08 +2.977571E-07 
 -1.014534E-06 -1.780106E-06 -1.114277E-06 -1.780106E-06 -2.996228E-06 -1.086596E-06 -1.114277E-06 -1.086596E-06 +4.010761E-06 
 -8.820297E-08 -2.605566E-08 +7.423477E-09 -2.605566E-08 -6.716262E-08 +7.452764E-09 +7.423477E-09 +7.452764E-09 +1.553656E-07 
 -7.150382E-06 -3.369298E-06 +1.302506E-07 -3.369298E-06 -8.936350E-07 -2.310180E-06 +1.302506E-07 -2.310180E-06 +8.044017E-06 
 -4.237406E-06 +2.799084E-05 +2.556954E-05 +2.799084E-05 -8.728269E-05 -1.395903E-05 +2.556954E-05 -1.395903E-05 +9.152010E-05 
 -4.633575E-06 -2.202273E-06 +6.277230E-07 -2.202273E-06 -6.329348E-07 +1.786948E-06 +6.277230E-07 +1.786948E-06 +5.266510E-06 
 -2.342652E-07 +2.366372E-07 -1.983900E-07 +2.366372E-07 -2.108828E-07 +5.488210E-08 -1.983900E-07 +5.488210E-08 +4.451480E-07 
 -5.250543E-05 -5.204113E-05 +3.727799E-06 -5.204113E-05 -5.001319E-05 +1.640883E-05 +3.727799E-06 +1.640883E-05 +1.025186E-04 
 -6.890390E-07 +2.804577E-07 -1.135376E-07 +2.804577E-07 -1.133722E-07 +8.940530E-08 -1.135376E-07 +8.940530E-08 +8.024112E-07 
 +9.944261E-09 -4.095000E-08 -6.594849E-08 -4.095000E-08 -2.109429E-07 +2.179832E-08 -6.594849E-08 +2.179832E-08 +2.009986E-07 
 -6.422528E-08 -1.368507E-08 +1.941863E-08 -1.368507E-08 -3.156499E-08 +5.424997E-09 +1.941863E-08 +5.424997E-09 +9.579026E-08 
 -8.200583E-07 -1.558034E-06 +1.170037E-06 -1.558034E-06 -1.789499E-06 -2.316702E-08 +1.170037E-06 -2.316702E-08 +2.609557E-06 
 -4.371778E-07 +1.593139E-06 -1.171934E-06 +1.593139E-06 -4.034579E-06 +5.938476E-07 -1.171934E-06 +5.938476E-07 +4.471756E-06 
 -2.029662E-06 -1.220451E-06 -5.332892E-07 -1.220451E-06 -7.143868E-07 -8.169079E-08 -5.332892E-07 -8.169079E-08 +2.744049E-06 
 -1.486870E-06 +9.405032E-07 -2.007566E-07 +9.405032E-07 -2.859972E-07 -6.233685E-07 -2.007566E-07 -6.233685E-07 +1.772867E-06 
 -1.165523E-07 +2.023397E-07 -1.324918E-07 +2.023397E-07 -2.620582E-07 -1.848569E-08 -1.324918E-07 -1.848569E-08 +3.786105E-07 
 -3.267767E-06 +2.101237E-07 +1.187753E-06 +2.101237E-07 -3.574222E-09 -2.995961E-07 +1.187753E-06 -2.995961E-07 +3.271341E-06 
 -8.100893E-05 +2.887556E-05 -6.528333E-06 +2.887556E-05 -9.507849E-06 +1.080112E-05 -6.528333E-06 +1.080112E-05 +9.051678E-05 
 -3.543070E-07 -7.632329E-08 -1.051984E-07 -7.632329E-08 -3.095065E-07 -3.222226E-08 -1.051984E-07 -3.222226E-08 +6.638136E-07 
 -5.117084E-08 -8.835685E-09 +2.599944E-08 -8.835685E-09 -3.442010E-08 +1.288744E-09 +2.599944E-08 +1.288744E-09 +8.559093E-08 
 -2.191378E-06 +3.412964E-06 -9.335556E-07 +3.412964E-06 -4.641365E-06 -7.647659E-07 -9.335556E-07 -7.647659E-07 +6.832743E-06 
 -4.521752E-07 +4.910572E-07 +7.183421E-08 +4.910572E-07 -5.069941E-07 +8.613556E-08 +7.183421E-08 +8.613556E-08 +9.591694E-07 
 -4.934644E-08 -1.608677E-08 -6.186937E-09 -1.608677E-08 -4.068694E-08 -5.642877E-10 -6.186937E-09 -5.642877E-10 +9.003339E-08 
 -5.167777E-07 -4.734023E-08 +7.407794E-09 -4.734023E-08 +4.451968E-08 -1.657963E-07 +7.407794E-09 -1.657963E-07 +4.722580E-07 
 -4.298387E-08 -6.200046E-08 -3.927730E-08 -6.200046E-08 -9.440591E-08 -6.450622E-08 -3.927730E-08 -6.450622E-08 +1.373898E-07 
 -8.181333E-09 +1.927928E-09 -1.513287E-09 +1.927928E-09 -1.339493E-08 +7.441548E-09 -1.513287E-09 +7.441548E-09 +2.157626E-08 
 -1.765536E-04 -9.199545E-05 -1.001584E-04 -9.199545E-05 -4.534562E-05 -2.528927E-05 -1.001584E-04 -2.528927E-05 +2.218993E-04 
 -1.075478E-06 -2.515118E-06 -2.228448E-06 -2.515118E-06 -3.178307E-06 -2.774764E-07 -2.228448E-06 -2.774764E-07 +4.253785E-06 
 -9.756555E-08 +1.813464E-09 +2.401847E-08 +1.813464E-09 -2.252445E-08 +5.718654E-09 +2.401847E-08 +5.718654E-09 +1.200900E-07 
 -4.822956E-08 +6.031900E-08 -8.372232E-09 +6.031900E-08 -5.296256E-08 -4.536094E-08 -8.372232E-09 -4.536094E-08 +1.011921E-07 
 -1.388035E-05 -2.382484E-05 +5.013346E-07 -2.382484E-05 -3.491631E-05 +1.805052E-05 +5.013346E-07 +1.805052E-05 +4.879665E-05 
 -5.553692E-07 +1.802832E-06 +9.677397E-07 +1.802832E-06 -2.843414E-06 +7.744891E-07 +9.677397E-07 +7.744891E-07 +3.398783E-06 
 -5.152745E-05 -1.140485E-04 +1.741505E-05 -1.140485E-04 -2.398539E-04 -2.293153E-05 +1.741505E-05 -2.293153E-05 +2.913814E-04 
 -1.732580E-04 +5.641922E-05 +7.132052E-05 +5.641922E-05 -1.647616E-05 -4.362126E-05 +7.132052E-05 -4.362126E-05 +1.897342E-04 
 -1.436351E-08 -3.230598E-09 +2.722257E-09 -3.230598E-09 -2.327695E-08 +1.170096E-08 +2.722257E-09 +1.170096E-08 +3.764045E-08 
 -3.360422E-08 +4.639980E-09 +1.563165E-08 +4.639980E-09 -4.407781E-08 -1.630342E-08 +1.563165E-08 -1.630342E-08 +7.768203E-08 
 -4.617659E-06 +3.817317E-06 +7.124352E-07 +3.817317E-06 -3.082954E-06 -1.349259E-06 +7.124352E-07 -1.349259E-06 +7.700613E-06 
 -5.597191E-07 -1.570751E-06 -8.999098E-07 -1.570751E-06 -3.474706E-06 -2.498126E-07 -8.999098E-07 -2.498126E-07 +4.034425E-06 
 +1.872685E-08 +2.276128E-07 +2.132125E-07 +2.276128E-07 -6.268537E-07 +1.359300E-07 +2.132125E-07 +1.359300E-07 +6.081269E-07 
 -1.030960E-05 +1.344717E-06 +3.479617E-06 +1.344717E-06 +2.909625E-07 +1.875741E-06 +3.479617E-06 +1.875741E-06 +1.001864E-05 
 -2.172829E-07 +1.374473E-06 -2.849548E-07 +1.374473E-06 -6.822733E-06 -1.929792E-06 -2.849548E-07 -1.929792E-06 +7.040016E-06 
 -1.560496E-08 -7.080413E-09 +6.719539E-09 -7.080413E-09 -1.924002E-08 +3.120947E-09 +6.719539E-09 +3.120947E-09 +3.484498E-08 
 -1.617061E-07 +1.193811E-06 +5.583571E-07 +1.193811E-06 -6.641056E-06 +2.578733E-07 +5.583571E-07 +2.578733E-07 +6.802762E-06 
 -5.778178E-08 +2.538830E-08 -3.073742E-08 +2.538830E-08 -2.292701E-08 +2.001596E-08 -3.073742E-08 +2.001596E-08 +8.070879E-08 
 -1.720920E-08 -2.706794E-09 +1.083887E-08 -2.706794E-09 -1.832534E-08 +1.857642E-09 +1.083887E-08 +1.857642E-09 +3.553455E-08 
 -5.204869E-08 -2.318323E-09 -9.784492E-09 -2.318323E-09 -5.097108E-08 +1.789535E-10 -9.784492E-09 +1.789535E-10 +1.030198E-07 
 -1.650882E-08 -1.419104E-09 -4.642111E-10 -1.419104E-09 -9.796314E-09 +2.117661E-09 -4.642111E-10 +2.117661E-09 +2.630513E-08 
 -6.786455E-06 +1.253514E-05 -2.221604E-06 +1.253514E-05 -1.976726E-05 -5.511072E-06 -2.221604E-06 -5.511072E-06 +2.655372E-05 
 -4.134852E-05 -6.329285E-05 +9.304728E-06 -6.329285E-05 -7.196722E-05 -3.955291E-05 +9.304728E-06 -3.955291E-05 +1.133157E-04 
 -1.297731E-06 -9.867941E-07 +7.153700E-07 -9.867941E-07 -7.116109E-07 +2.185212E-07 +7.153700E-07 +2.185212E-07 +2.009342E-06 
 +1.215184E-07 +7.062093E-07 +9.409735E-07 +7.062093E-07 -3.722901E-06 +1.886878E-07 +9.409735E-07 +1.886878E-07 +3.601382E-06 
 -3.391792E-06 -4.856699E-06 +1.933873E-06 -4.856699E-06 -6.653337E-06 +9.279956E-07 +1.933873E-06 +9.279956E-07 +1.004513E-05 
 -2.294577E-06 +8.723333E-07 +1.694259E-07 +8.723333E-07 -1.668983E-07 +6.283184E-07 +1.694259E-07 +6.283184E-07 +2.461476E-06 
 -8.801402E-08 -2.563665E-09 -7.234792E-09 -2.563665E-09 -2.411244E-08 -3.672681E-09 -7.234792E-09 -3.672681E-09 +1.121265E-07 
 +7.024327E-08 +1.285988E-07 -2.596366E-07 +1.285988E-07 -9.574402E-07 -2.786829E-07 -2.596366E-07 -2.786829E-07 +8.871969E-07 
 -9.576170E-07 +4.260518E-05 -3.164618E-05 +4.260518E-05 -4.229905E-04 -6.374237E-05 -3.164618E-05 -6.374237E-05 +4.239481E-04 
 -1.442198E-09 +1.258829E-08 -1.066988E-09 +1.258829E-08 -1.024753E-07 -3.845047E-08 -1.066988E-09 -3.845047E-08 +1.039175E-07 
 -2.163961E-08 -5.907410E-09 -8.847974E-09 -5.907410E-09 -9.069672E-09 -4.068772E-09 -8.847974E-09 -4.068772E-09 +3.070928E-08 
 -4.349737E-07 +6.238153E-07 -3.112947E-07 +6.238153E-07 -6.644402E-07 -1.094573E-07 -3.112947E-07 -1.094573E-07 +1.099414E-06 
 -1.886210E-07 +1.068952E-06 +5.477115E-08 +1.068952E-06 -6.062422E-06 -3.105168E-07 +5.477115E-08 -3.105168E-07 +6.251043E-06 
 -2.478733E-08 -4.606828E-09 +6.941237E-09 -4.606828E-09 -7.534091E-09 +1.140720E-09 +6.941237E-09 +1.140720E-09 +3.232142E-08 
 -1.834180E-07 +9.636248E-09 -7.304141E-08 +9.636248E-09 -2.109437E-08 -5.452406E-08 -7.304141E-08 -5.452406E-08 +2.045124E-07 
 -6.804161E-05 +1.716575E-05 -1.320087E-05 +1.716575E-05 -2.499886E-06 -8.288378E-06 -1.320087E-05 -8.288378E-06 +7.054150E-05 
 -4.864820E-08 +5.178031E-07 -3.288110E-07 +5.178031E-07 -1.523495E-06 -3.957283E-07 -3.288110E-07 -3.957283E-07 +1.572143E-06 
 -3.907034E-08 +1.431796E-08 +1.112082E-08 +1.431796E-08 -4.308627E-08 -1.319805E-08 +1.112082E-08 -1.319805E-08 +8.215661E-08 
 -6.384274E-07 +8.766040E-08 +3.028392E-07 +8.766040E-08 -1.238103E-07 -1.766088E-07 +3.028392E-07 -1.766088E-07 +7.622377E-07 
 -2.431087E-05 +1.073220E-05 +4.415502E-06 +1.073220E-05 -4.759612E-06 -2.617154E-06 +4.415502E-06 -2.617154E-06 +2.907048E-05 
 -1.162734E-04 -5.421877E-05 -6.061370E-05 -5.421877E-05 -2.528366E-05 -2.826479E-05 -6.061370E-05 -2.826479E-05 +1.415570E-04 
 -4.974510E-06 +9.542470E-06 -8.689940E-06 +9.542470E-06 -1.263936E-05 +3.021529E-06 -8.689940E-06 +3.021529E-06 +1.761387E-05 
 -2.910561E-08 +1.047284E-08 -1.720891E-08 +1.047284E-08 -1.144988E-08 +1.268290E-08 -1.720891E-08 +1.268290E-08 +4.055548E-08 
 -1.291231E-06 -2.842660E-06 +1.761708E-06 -2.842660E-06 -5.204881E-06 +7.696824E-07 +1.761708E-06 +7.696824E-07 +6.496112E-06 
 -1.580838E-05 +1.274558E-05 -8.611511E-06 +1.274558E-05 -5.727250E-06 -4.003905E-06 -8.611511E-06 -4.003905E-06 +2.153563E-05 
 -4.556719E-08 +2.945539E-08 +3.345831E-08 +2.945539E-08 -2.251481E-08 -1.325883E-08 +3.345831E-08 -1.325883E-08 +6.808200E-08 
 -8.257591E-09 -1.703575E-09 +2.426918E-09 -1.703575E-09 -1.277535E-08 +4.328524E-10 +2.426918E-09 +4.328524E-10 +2.103294E-08 
 -2.082123E-08 +5.397000E-09 -4.229230E-09 +5.397000E-09 -3.459911E-08 +3.411529E-09 -4.229230E-09 +3.411529E-09 +5.542035E-08 
 +1.721416E-06 +1.436809E-07 +6.476916E-06 +1.436809E-07 -2.353147E-05 -7.109098E-06 +6.476916E-06 -7.109098E-06 +2.181006E-05 
 -1.349561E-08 -5.559551E-09 -6.525680E-09 -5.559551E-09 -1.104678E-08 -5.898431E-09 -6.525680E-09 -5.898431E-09 +2.454239E-08 
 -2.963341E-07 -2.322778E-08 -1.910896E-07 -2.322778E-08 -4.057259E-08 -9.136238E-09 -1.910896E-07 -9.136238E-09 +3.369067E-07 
 -2.709391E-06 +5.419972E-07 -8.364773E-07 +5.419972E-07 +2.445021E-07 -8.183045E-07 -8.364773E-07 -8.183045E-07 +2.464889E-06 
 -3.280519E-07 -1.993404E-06 +2.819801E-07 -1.993404E-06 -9.596039E-06 -3.394949E-06 +2.819801E-07 -3.394949E-06 +9.924091E-06 
 -4.655972E-09 +1.221445E-09 +3.151007E-10 +1.221445E-09 -9.280964E-09 +3.202991E-09 +3.151007E-10 +3.202991E-09 +1.393694E-08 
 -2.882839E-08 +3.690545E-09 -9.463139E-09 +3.690545E-09 -2.394125E-08 +5.728322E-09 -9.463139E-09 +5.728322E-09 +5.276964E-08 
 -9.527994E-08 -3.896151E-08 -8.394729E-09 -3.896151E-08 -8.293179E-08 -1.229307E-08 -8.394729E-09 -1.229307E-08 +1.782117E-07 
 -3.834288E-07 -1.829364E-06 -7.310422E-07 -1.829364E-06 -7.165679E-06 +2.665063E-07 -7.310422E-07 +2.665063E-07 +7.549108E-06 
 +4.412377E-07 -3.697481E-07 +1.269146E-06 -3.697481E-07 -4.000829E-06 -1.001493E-06 +1.269146E-06 -1.001493E-06 +3.559591E-06 
 -3.836677E-06 -4.479917E-06 -6.298185E-07 -4.479917E-06 -5.077795E-06 -1.959098E-06 -6.298185E-07 -1.959098E-06 +8.914473E-06 
 -6.830245E-07 +5.053486E-07 -2.583552E-07 +5.053486E-07 -3.411990E-07 +5.049755E-07 -2.583552E-07 +5.049755E-07 +1.024223E-06 
 -1.241076E-04 +2.188253E-05 -3.723359E-05 +2.188253E-05 -3.863250E-06 +6.564611E-06 -3.723359E-05 +6.564611E-06 +1.279708E-04 
 -2.217841E-07 +1.239714E-08 -4.740984E-08 +1.239714E-08 -2.649695E-07 +8.925079E-08 -4.740984E-08 +8.925079E-08 +4.867537E-07 
 -6.993193E-06 -3.260947E-06 -1.537866E-06 -3.260947E-06 -1.520678E-06 -7.171167E-07 -1.537866E-06 -7.171167E-07 +8.513872E-06 
 -6.714196E-09 -2.206298E-10 +2.670472E-10 -2.206298E-10 -5.567776E-09 -3.812468E-09 +2.670472E-10 -3.812468E-09 +1.228197E-08 
 -8.140927E-07 +1.443794E-06 +8.279612E-08 +1.443794E-06 -1.827535E-06 +1.264688E-06 +8.279612E-08 +1.264688E-06 +2.641628E-06 
 -2.875558E-08 +3.170593E-09 +1.176247E-08 +3.170593E-09 -9.627010E-09 -1.098848E-09 +1.176247E-08 -1.098848E-09 +3.838259E-08 
 -7.165163E-06 -2.166947E-05 +5.996672E-06 -2.166947E-05 -6.532075E-05 +1.139407E-05 +5.996672E-06 +1.139407E-05 +7.248592E-05 
 +2.602207E-06 -4.666243E-06 -9.951272E-06 -4.666243E-06 -3.085580E-05 -1.755883E-06 -9.951272E-06 -1.755883E-06 +2.825359E-05 
 -3.799842E-07 +6.077863E-06 -3.970646E-06 +6.077863E-06 -2.807440E-05 -6.313118E-06 -3.970646E-06 -6.313118E-06 +2.845438E-05 
 -4.854839E-07 +4.642265E-07 -2.539922E-08 +4.642265E-07 -1.702793E-07 +4.492269E-07 -2.539922E-08 +4.492269E-07 +6.557632E-07 
 -5.037587E-06 +3.423034E-06 -1.011903E-07 +3.423034E-06 -1.822925E-06 -1.805858E-06 -1.011903E-07 -1.805858E-06 +6.860512E-06 
 -6.946118E-08 +4.327082E-08 +3.472580E-08 +4.327082E-08 -1.736819E-07 -8.023090E-08 +3.472580E-08 -8.023090E-08 +2.431430E-07 
 -5.467767E-08 -4.563416E-08 +1.469842E-08 -4.563416E-08 -1.016939E-07 +3.026904E-08 +1.469842E-08 +3.026904E-08 +1.563716E-07 
 -3.229662E-04 +7.175923E-05 -8.276291E-05 +7.175923E-05 -4.813190E-06 -4.406022E-05 -8.276291E-05 -4.406022E-05 +3.277794E-04 
 -1.589902E-04 +2.914026E-05 -6.245659E-06 +2.914026E-05 -3.000510E-07 -2.738536E-05 -6.245659E-06 -2.738536E-05 +1.592903E-04 
 -4.999826E-06 +2.992442E-06 -1.320136E-06 +2.992442E-06 -1.740929E-06 +1.858237E-07 -1.320136E-06 +1.858237E-07 +6.740755E-06 
 -3.275020E-06 -2.336559E-06 +1.464718E-06 -2.336559E-06 -1.198597E-06 -5.301340E-07 +1.464718E-06 -5.301340E-07 +4.473618E-06 
 -3.177768E-08 +1.103259E-08 -1.288930E-08 +1.103259E-08 -3.384655E-08 +9.953407E-09 -1.288930E-08 +9.953407E-09 +6.562423E-08 
 -2.298956E-08 -2.351094E-09 -6.397407E-09 -2.351094E-09 -6.803461E-08 +6.368545E-09 -6.397407E-09 +6.368545E-09 +9.102417E-08 
 +1.126474E-07 -1.753284E-07 -3.948416E-07 -1.753284E-07 -8.279658E-07 -1.924317E-07 -3.948416E-07 -1.924317E-07 +7.153184E-07 
 -1.954956E-08 -2.301972E-09 +6.524242E-09 -2.301972E-09 -2.129910E-08 -8.410672E-09 +6.524242E-09 -8.410672E-09 +4.084866E-08 
 -1.961577E-07 -4.794801E-08 +1.571245E-08 -4.794801E-08 -6.450996E-08 +3.864718E-09 +1.571245E-08 +3.864718E-09 +2.606677E-07 
 -1.650142E-06 -7.215594E-06 -3.159410E-06 -7.215594E-06 -2.758052E-05 -1.917501E-06 -3.159410E-06 -1.917501E-06 +2.923066E-05 
 -2.426479E-05 -2.891727E-05 +1.077678E-05 -2.891727E-05 -3.446233E-05 +1.284298E-05 +1.077678E-05 +1.284298E-05 +5.872712E-05 
 -1.063524E-05 -1.383316E-05 -2.146279E-06 -1.383316E-05 -1.106290E-05 +9.641181E-06 -2.146279E-06 +9.641181E-06 +2.169814E-05 
 -3.493861E-08 +1.301543E-08 +4.652873E-09 +1.301543E-08 -3.752992E-08 +4.402834E-09 +4.652873E-09 +4.402834E-09 +7.246852E-08 
 -1.158372E-08 +2.878165E-09 -9.491026E-10 +2.878165E-09 -2.074437E-08 +7.583623E-09 -9.491026E-10 +7.583623E-09 +3.232810E-08 
 -8.175012E-08 -1.295837E-08 +4.391762E-10 -1.295837E-08 -8.013701E-08 -1.002290E-08 +4.391762E-10 -1.002290E-08 +1.618871E-07 
 -4.281777E-07 -6.036308E-07 +8.795084E-08 -6.036308E-07 -7.101218E-07 -5.604614E-07 +8.795084E-08 -5.604614E-07 +1.138299E-06 
 -2.558521E-08 -1.676100E-08 +3.330021E-09 -1.676100E-08 -3.243769E-08 +2.215021E-09 +3.330021E-09 +2.215021E-09 +5.802291E-08 
 -1.770611E-08 +6.959076E-09 -2.709516E-09 +6.959076E-09 -2.649105E-08 +2.020504E-09 -2.709516E-09 +2.020504E-09 +4.419717E-08 
 -1.306045E-07 -3.445117E-08 -1.039982E-08 -3.445117E-08 -6.037035E-08 -9.318081E-09 -1.039982E-08 -9.318081E-09 +1.909749E-07 
 -2.085150E-06 -6.893903E-07 +7.600893E-07 -6.893903E-07 -2.229163E-07 +3.980218E-07 +7.600893E-07 +3.980218E-07 +2.308066E-06 
 -1.530923E-06 -3.965883E-06 +2.499771E-06 -3.965883E-06 -6.817688E-06 -1.251741E-07 +2.499771E-06 -1.251741E-07 +8.348610E-06 
 -1.979846E-05 -1.143146E-05 +7.468096E-06 -1.143146E-05 -4.280189E-06 -3.617026E-06 +7.468096E-06 -3.617026E-06 +2.407864E-05 
 -2.072306E-04 +3.204115E-05 +5.062544E-05 +3.204115E-05 -3.206622E-06 -2.761448E-05 +5.062544E-05 -2.761448E-05 +2.104372E-04 
 -6.478933E-06 -5.062336E-06 +2.106572E-06 -5.062336E-06 -3.692548E-06 -6.767716E-08 +2.106572E-06 -6.767716E-08 +1.017148E-05 
 -2.421921E-08 -1.715757E-09 +4.233911E-09 -1.715757E-09 -1.563955E-08 +7.544584E-10 +4.233911E-09 +7.544584E-10 +3.985875E-08 
 -2.481590E-08 -6.116442E-10 -1.309128E-08 -6.116442E-10 -2.673558E-08 +4.723409E-10 -1.309128E-08 +4.723409E-10 +5.155148E-08 
 +7.637053E-07 -5.745823E-07 +4.837315E-06 -5.745823E-07 -3.112741E-05 -6.288672E-06 +4.837315E-06 -6.288672E-06 +3.036371E-05 
 -2.175567E-06 +2.696372E-06 -6.363289E-07 +2.696372E-06 -3.001080E-06 +2.163211E-06 -6.363289E-07 +2.163211E-06 +5.176646E-06 
 -5.654431E-08 +1.244957E-07 +3.900240E-09 +1.244957E-07 -1.150844E-06 +6.378194E-07 +3.900240E-09 +6.378194E-07 +1.207388E-06 
 -2.701530E-07 -1.532270E-07 +1.523840E-07 -1.532270E-07 -1.236824E-07 +1.186279E-07 +1.523840E-07 +1.186279E-07 +3.938353E-07 
 -2.204899E-08 +2.829273E-07 -3.356567E-08 +2.829273E-07 -3.619089E-06 -3.040967E-09 -3.356567E-08 -3.040967E-09 +3.641138E-06 
 -1.195346E-06 +1.868934E-07 +3.496307E-07 +1.868934E-07 +1.305095E-07 -4.897941E-07 +3.496307E-07 -4.897941E-07 +1.064837E-06 
 -1.610984E-06 -1.076844E-06 -7.897875E-07 -1.076844E-06 -3.365238E-07 +4.246890E-07 -7.897875E-07 +4.246890E-07 +1.947508E-06 
 +3.381589E-08 +2.148486E-07 +2.759478E-07 +2.148486E-07 -7.995030E-07 +6.669576E-09 +2.759478E-07 +6.669576E-09 +7.656870E-07 
 -1.874163E-06 +1.971663E-06 +1.700479E-06 +1.971663E-06 -2.198966E-06 -1.544765E-06 +1.700479E-06 -1.544765E-06 +4.073129E-06 
 -3.683686E-08 -2.315561E-08 -1.154370E-09 -2.315561E-08 -4.932888E-08 -4.128855E-09 -1.154370E-09 -4.128855E-09 +8.616574E-08 
 -7.922582E-09 -1.956313E-09 +4.183395E-09 -1.956313E-09 -5.235265E-09 +1.647844E-09 +4.183395E-09 +1.647844E-09 +1.315785E-08 
 -7.311654E-05 -4.274737E-05 +2.679168E-06 -4.274737E-05 -2.111345E-05 -1.762256E-05 +2.679168E-06 -1.762256E-05 +9.423000E-05 
 -1.875638E-06 -2.137151E-05 +2.163929E-06 -2.137151E-05 -2.442827E-04 +2.476682E-05 +2.163929E-06 +2.476682E-05 +2.461583E-04 
 -9.616942E-05 -6.733826E-05 +1.671575E-05 -6.733826E-05 -4.715108E-05 +1.170403E-05 +1.671575E-05 +1.170403E-05 +1.433205E-04 
 -1.565245E-06 +1.100565E-07 +2.163509E-07 +1.100565E-07 +2.200669E-07 +5.553053E-07 +2.163509E-07 +5.553053E-07 +1.345179E-06 
 +7.156938E-07 +2.060359E-07 +1.959772E-06 +2.060359E-07 -5.688492E-06 +1.905755E-06 +1.959772E-06 +1.905755E-06 +4.972799E-06 
 -1.447264E-08 -3.769235E-09 +2.699850E-09 -3.769235E-09 -1.204229E-08 -1.109710E-09 +2.699850E-09 -1.109710E-09 +2.651493E-08 
 -4.645882E-09 +4.426554E-10 -2.616039E-10 +4.426554E-10 -3.716230E-09 +2.259192E-09 -2.616039E-10 +2.259192E-09 +8.362112E-09 
 -1.728742E-05 -3.939221E-05 +1.128917E-05 -3.939221E-05 -8.511274E-05 +3.024796E-06 +1.128917E-05 +3.024796E-06 +1.024002E-04 
 -1.588765E-07 -1.442573E-07 -1.132564E-07 -1.442573E-07 -2.609322E-07 -2.698589E-08 -1.132564E-07 -2.698589E-08 +4.198087E-07 
 -1.332904E-07 +1.207764E-08 +6.319436E-09 +1.207764E-08 -5.750125E-08 -8.109474E-09 +6.319436E-09 -8.109474E-09 +1.907917E-07 
 -1.031463E-05 -2.525315E-06 +1.464867E-06 -2.525315E-06 +5.071855E-07 -3.006279E-06 +1.464867E-06 -3.006279E-06 +9.807447E-06 
 -2.784498E-05 -1.347228E-05 +5.243603E-06 -1.347228E-05 -6.512003E-06 +3.087696E-06 +5.243603E-06 +3.087696E-06 +3.435698E-05 
 -9.669479E-09 -3.125630E-09 +8.222559E-09 -3.125630E-09 -2.597091E-08 +6.191544E-09 +8.222559E-09 +6.191544E-09 +3.564039E-08 
 -2.045973E-06 +2.000626E-07 +1.864790E-07 +2.000626E-07 +1.241799E-07 +5.108150E-07 +1.864790E-07 +5.108150E-07 +1.921793E-06 
 +6.781886E-09 +1.255334E-08 +1.000611E-08 +1.255334E-08 -4.973575E-08 +2.763166E-08 +1.000611E-08 +2.763166E-08 +4.295386E-08 
 -1.330914E-07 +4.941297E-09 -6.952551E-08 +4.941297E-09 -1.659339E-07 +4.902487E-08 -6.952551E-08 +4.902487E-08 +2.990253E-07 
 -4.917407E-05 +3.443198E-05 -2.548821E-05 +3.443198E-05 -2.410966E-05 +1.784689E-05 -2.548821E-05 +1.784689E-05 +7.328373E-05 
 -2.789086E-06 +9.969858E-06 -3.913727E-06 +9.969858E-06 -2.404984E-05 -5.483257E-06 -3.913727E-06 -5.483257E-06 +2.683893E-05 
 -6.679525E-06 +1.346323E-05 -4.217937E-06 +1.346323E-05 -2.261144E-05 -3.540952E-06 -4.217937E-06 -3.540952E-06 +2.929097E-05 
 -6.258117E-08 +2.489597E-08 +1.444188E-08 +2.489597E-08 -7.155186E-08 -1.682775E-09 +1.444188E-08 -1.682775E-09 +1.341330E-07 
 -5.778935E-07 -7.813606E-07 +4.117368E-07 -7.813606E-07 -6.783109E-07 -2.188719E-07 +4.117368E-07 -2.188719E-07 +1.256204E-06 
 -4.239117E-05 +9.579691E-06 +5.097771E-07 +9.579691E-06 -1.355753E-06 +5.847375E-06 +5.097771E-07 +5.847375E-06 +4.374692E-05 
 -1.892651E-06 +2.996814E-07 -3.293543E-07 +2.996814E-07 -5.274654E-08 +8.788145E-08 -3.293543E-07 +8.788145E-08 +1.945398E-06 
 -8.824322E-07 -4.512957E-07 -3.979930E-07 -4.512957E-07 -1.355523E-07 +1.387610E-07 -3.979930E-07 +1.387610E-07 +1.017984E-06 
 -3.012401E-08 +2.173155E-09 +1.857845E-09 +2.173155E-09 -2.281697E-08 -2.154072E-09 +1.857845E-09 -2.154072E-09 +5.294098E-08 
 -4.180157E-08 -1.924371E-08 -8.114752E-09 -1.924371E-08 -1.372416E-07 -3.757109E-08 -8.114752E-09 -3.757109E-08 +1.790432E-07 
 +2.877314E-08 -1.044057E-08 +2.071675E-07 -1.044057E-08 -1.124650E-06 -3.615268E-07 +2.071675E-07 -3.615268E-07 +1.095877E-06 
 -5.541312E-08 +8.312626E-10 -2.957516E-08 +8.312626E-10 -2.749156E-08 -2.084068E-10 -2.957516E-08 -2.084068E-10 +8.290468E-08 
 -2.203731E-08 -1.987863E-08 -2.659151E-08 -1.987863E-08 -1.356545E-08 -5.494261E-09 -2.659151E-08 -5.494261E-09 +3.560276E-08 
 -2.161687E-07 -2.622119E-08 +4.406462E-09 -2.622119E-08 -1.564865E-07 +3.968863E-08 +4.406462E-09 +3.968863E-08 +3.726551E-07 
 -7.269712E-05 -5.141945E-06 -1.279599E-05 -5.141945E-06 -5.355793E-08 +4.303166E-06 -1.279599E-05 +4.303166E-06 +7.275068E-05 
 -3.146952E-06 -1.104529E-06 +6.021195E-07 -1.104529E-06 -3.879683E-07 +1.676398E-07 +6.021195E-07 +1.676398E-07 +3.534920E-06 
 +9.194272E-08 -1.043825E-06 +2.714917E-06 -1.043825E-06 -4.063962E-05 +6.917790E-06 +2.714917E-06 +6.917790E-06 +4.054768E-05 
 -6.998587E-07 +6.190884E-07 -5.689228E-07 +6.190884E-07 -1.994080E-07 -1.985875E-07 -5.689228E-07 -1.985875E-07 +8.992667E-07 
 -8.120379E-08 +2.126142E-07 +4.977981E-08 +2.126142E-07 -3.631669E-07 +2.540778E-07 +4.977981E-08 +2.540778E-07 +4.443707E-07 
 -1.636068E-04 -6.526300E-05 +6.140977E-05 -6.526300E-05 -2.421685E-05 +4.871043E-06 +6.140977E-05 +4.871043E-06 +1.878237E-04 
 -4.103581E-07 -2.146434E-07 -3.492065E-07 -2.146434E-07 -8.544428E-08 -3.447847E-08 -3.492065E-07 -3.447847E-08 +4.958024E-07 
 -2.010578E-05 +3.412623E-05 -1.763024E-05 +3.412623E-05 -4.987240E-05 +3.676404E-06 -1.763024E-05 +3.676404E-06 +6.997818E-05 
 -6.175279E-08 +2.837547E-08 -4.342419E-09 +2.837547E-08 -8.692562E-08 +5.398089E-08 -4.342419E-09 +5.398089E-08 +1.486784E-07 
 -4.220400E-08 +1.846763E-09 -4.508432E-09 +1.846763E-09 -3.985570E-08 -3.601024E-09 -4.508432E-09 -3.601024E-09 +8.205970E-08 
 -8.250687E-06 -2.969988E-06 -1.786115E-06 -2.969988E-06 -8.010433E-07 +9.720380E-07 -1.786115E-06 +9.720380E-07 +9.051730E-06 
 -3.565395E-08 +2.692223E-09 -3.134746E-09 +2.692223E-09 -3.352544E-08 -2.187074E-09 -3.134746E-09 -2.187074E-09 +6.917939E-08 
 -4.052166E-08 +1.075751E-08 -4.762792E-09 +1.075751E-08 -3.368844E-08 +5.906783E-10 -4.762792E-09 +5.906783E-10 +7.421011E-08 
 -2.552441E-07 -1.898641E-07 -1.471358E-07 -1.898641E-07 -1.494616E-07 -1.803076E-07 -1.471358E-07 -1.803076E-07 +4.047057E-07 
 -1.280342E-08 +3.164792E-09 +7.490213E-09 +3.164792E-09 -2.835936E-08 +9.725972E-10 +7.490213E-09 +9.725972E-10 +4.116278E-08 
 -1.299803E-06 -2.911753E-06 +5.401706E-07 -2.911753E-06 -6.199494E-06 +2.836985E-06 +5.401706E-07 +2.836985E-06 +7.499297E-06 
 -9.314836E-09 -6.278681E-10 -1.910596E-09 -6.278681E-10 -7.460923E-09 -3.558378E-09 -1.910596E-09 -3.558378E-09 +1.677576E-08 
 -3.660867E-08 -5.471421E-09 +2.005196E-09 -5.471421E-09 -3.902278E-08 -4.750178E-09 +2.005196E-09 -4.750178E-09 +7.563145E-08 
 -1.169049E-05 -1.559616E-05 +3.719274E-06 -1.559616E-05 -1.795617E-05 -4.438527E-06 +3.719274E-06 -4.438527E-06 +2.964666E-05 
 -7.613152E-07 +1.202138E-07 -2.977168E-07 +1.202138E-07 +4.084744E-08 +2.776124E-07 -2.977168E-07 +2.776124E-07 +7.204677E-07 
 -1.347000E-04 -2.375080E-05 -3.504969E-05 -2.375080E-05 -4.191796E-06 -6.181995E-06 -3.504969E-05 -6.181995E-06 +1.388918E-04 
 -2.585574E-05 +4.547781E-05 +1.837151E-05 +4.547781E-05 -8.003501E-05 -3.388018E-05 +1.837151E-05 -3.388018E-05 +1.058907E-04 
 -2.748779E-06 +3.925403E-06 -1.431551E-06 +3.925403E-06 -5.606244E-06 +2.044466E-06 -1.431551E-06 +2.044466E-06 +8.355022E-06 
 -9.439843E-09 -2.116717E-09 -2.515400E-09 -2.116717E-09 -8.733361E-09 -3.053799E-09 -2.515400E-09 -3.053799E-09 +1.817320E-08 
 -4.378175E-05 -8.913359E-06 +1.889770E-05 -8.913359E-06 +1.682747E-06 -9.607224E-06 +1.889770E-05 -9.607224E-06 +4.209900E-05 
 -2.651869E-04 +1.023603E-04 -6.277904E-05 +1.023603E-04 -3.678167E-05 -5.251844E-06 -6.277904E-05 -5.251844E-06 +3.019686E-04 
 -3.481720E-07 +1.281949E-06 +4.520178E-07 +1.281949E-06 -3.383550E-06 +7.471036E-07 +4.520178E-07 +7.471036E-07 +3.731722E-06 
 -8.773847E-05 +1.045618E-04 -7.330396E-06 +1.045618E-04 -1.246123E-04 +8.735224E-06 -7.330396E-06 +8.735224E-06 +2.123507E-04 
 -6.911789E-05 +1.851994E-05 -2.221679E-06 +1.851994E-05 -4.963199E-06 +5.951202E-07 -2.221679E-06 +5.951202E-07 +7.408109E-05 
 -4.526618E-08 +2.635351E-09 +2.111767E-08 +2.635351E-09 -1.563738E-08 -7.125893E-09 +2.111767E-08 -7.125893E-09 +6.090355E-08 
 -3.400285E-05 +2.288505E-06 +4.602375E-07 +2.288505E-06 +6.567454E-07 -5.242728E-06 +4.602375E-07 -5.242728E-06 +3.334610E-05 
 -5.141595E-05 -6.835780E-05 +1.707354E-05 -6.835780E-05 -6.906208E-05 -2.980867E-05 +1.707354E-05 -2.980867E-05 +1.204780E-04 
 -5.196342E-06 -1.251650E-06 -1.994235E-06 -1.251650E-06 -1.891364E-07 +3.853585E-07 -1.994235E-06 +3.853585E-07 +5.385479E-06 
 -1.012548E-05 -5.459297E-06 +1.930351E-07 -5.459297E-06 -2.931363E-06 -3.324271E-07 +1.930351E-07 -3.324271E-07 +1.305684E-05 
 -5.893971E-07 +1.035661E-06 -1.597792E-07 +1.035661E-06 -1.761679E-06 -1.128619E-07 -1.597792E-07 -1.128619E-07 +2.351076E-06 
 -1.283854E-05 +2.749545E-05 +9.275217E-08 +2.749545E-05 -5.598223E-05 -1.443337E-05 +9.275217E-08 -1.443337E-05 +6.882077E-05 
 -2.304191E-07 -2.114901E-07 +1.538986E-08 -2.114901E-07 -9.960716E-08 -1.649172E-07 +1.538986E-08 -1.649172E-07 +3.300262E-07 
 +1.861937E-07 +4.858648E-08 +5.560532E-07 +4.858648E-08 -1.674591E-06 -2.624798E-07 +5.560532E-07 -2.624798E-07 +1.488397E-06 
 -2.890784E-07 +1.049338E-06 +8.139921E-07 +1.049338E-06 -3.203981E-06 -1.018566E-06 +8.139921E-07 -1.018566E-06 +3.493060E-06 
 -1.942350E-05 +4.133005E-05 +7.258025E-07 +4.133005E-05 -7.206704E-05 -3.970554E-05 +7.258025E-07 -3.970554E-05 +9.149054E-05 
 -6.074505E-06 +2.203419E-06 -1.024716E-06 +2.203419E-06 -1.552317E-07 +2.449612E-06 -1.024716E-06 +2.449612E-06 +6.229736E-06 
 -8.621954E-08 -3.328605E-08 -6.305735E-09 -3.328605E-08 -4.634586E-08 -9.139492E-09 -6.305735E-09 -9.139492E-09 +1.325654E-07 
 -1.572294E-07 -5.365671E-07 +5.522667E-07 -5.365671E-07 -1.144721E-06 +3.808611E-07 +5.522667E-07 +3.808611E-07 +1.301951E-06 
 -2.628903E-05 -1.517768E-05 -3.679183E-06 -1.517768E-05 -8.763357E-06 -2.124115E-06 -3.679183E-06 -2.124115E-06 +3.505239E-05 
 -2.167715E-08 -1.093168E-08 +6.201174E-09 -1.093168E-08 -4.830233E-08 +2.043953E-08 +6.201174E-09 +2.043953E-08 +6.997948E-08 
 -4.887177E-08 -6.772081E-09 +7.882424E-09 -6.772081E-09 -3.926429E-08 +6.306308E-10 +7.882424E-09 +6.306308E-10 +8.813605E-08 
 -1.160037E-07 +5.020038E-08 +6.187148E-08 +5.020038E-08 -4.605425E-08 -7.988015E-08 +6.187148E-08 -7.988015E-08 +1.620579E-07 
 -5.540241E-07 -3.457472E-07 -7.672480E-08 -3.457472E-07 -1.446952E-07 -2.792681E-07 -7.672480E-08 -2.792681E-07 +6.987192E-07 
 -3.685146E-05 -1.322899E-06 +9.000437E-07 -1.322899E-06 +6.746583E-07 -5.092461E-06 +9.000437E-07 -5.092461E-06 +3.617680E-05 
 -1.253378E-07 +5.006421E-07 +5.092955E-07 +5.006421E-07 -6.804137E-07 -7.976663E-08 +5.092955E-07 -7.976663E-08 +8.057515E-07 
 -7.567230E-08 -2.717626E-08 +1.507602E-08 -2.717626E-08 -5.375298E-08 -6.373495E-09 +1.507602E-08 -6.373495E-09 +1.294253E-07 
 -4.497869E-08 +2.094113E-09 -1.658517E-08 +2.094113E-09 -4.260965E-08 -6.657533E-09 -1.658517E-08 -6.657533E-09 +8.758834E-08 
 -1.079106E-06 -5.188051E-07 -6.070965E-07 -5.188051E-07 -4.790995E-08 +2.560650E-07 -6.070965E-07 +2.560650E-07 +1.127016E-06 
 -1.141385E-07 -1.941137E-08 +1.137680E-08 -1.941137E-08 -4.720106E-08 +1.629917E-10 +1.137680E-08 +1.629917E-10 +1.613395E-07 
 -6.244402E-08 +1.923773E-07 -4.928220E-08 +1.923773E-07 -5.511282E-07 +3.646668E-07 -4.928220E-08 +3.646668E-07 +6.135722E-07 
 -4.847221E-05 -6.922502E-05 +1.856141E-05 -6.922502E-05 -9.886402E-05 +2.650838E-05 +1.856141E-05 +2.650838E-05 +1.473362E-04 
 -7.346109E-09 -1.221019E-09 -1.603156E-09 -1.221019E-09 -1.386924E-08 +3.133268E-10 -1.603156E-09 +3.133268E-10 +2.121535E-08 
 -4.554224E-08 -5.739236E-09 +4.811871E-09 -5.739236E-09 -1.605080E-08 -3.535688E-09 +4.811871E-09 -3.535688E-09 +6.159304E-08 
 -3.441631E-08 -3.105895E-09 +7.057943E-09 -3.105895E-09 -4.440452E-08 -2.123208E-08 +7.057943E-09 -2.123208E-08 +7.882083E-08 
 -2.287419E-05 -5.388813E-05 +1.161811E-05 -5.388813E-05 -1.039021E-04 -2.795678E-05 +1.161811E-05 -2.795678E-05 +1.267763E-04 
 -1.107299E-07 +1.946858E-07 +1.518500E-07 +1.946858E-07 -4.789183E-07 -2.639232E-07 +1.518500E-07 -2.639232E-07 +5.896481E-07 
 -1.646439E-07 +6.679667E-08 +1.913233E-08 +6.679667E-08 -7.067359E-09 +5.614560E-08 +1.913233E-08 +5.614560E-08 +1.717113E-07 
 -3.864542E-08 +6.875820E-09 +1.182544E-08 +6.875820E-09 -2.501015E-08 -5.634681E-09 +1.182544E-08 -5.634681E-09 +6.365558E-08 
 -1.779391E-08 -1.270854E-08 +2.064876E-09 -1.270854E-08 -3.307618E-08 +3.722338E-09 +2.064876E-09 +3.722338E-09 +5.087008E-08 
 -8.034102E-07 -1.080071E-06 -4.906408E-07 -1.080071E-06 -1.405291E-06 -1.169920E-06 -4.906408E-07 -1.169920E-06 +2.208701E-06 
 -6.473714E-06 +3.412528E-07 -9.356474E-07 +3.412528E-07 +7.000110E-07 -2.063555E-06 -9.356474E-07 -2.063555E-06 +5.773703E-06 
 -9.310402E-08 +1.008845E-09 -2.572156E-09 +1.008845E-09 -1.065844E-07 -7.240161E-09 -2.572156E-09 -7.240161E-09 +1.996884E-07 
 -2.040408E-06 +2.099523E-06 +7.726850E-07 +2.099523E-06 -2.107689E-06 -3.062234E-07 +7.726850E-07 -3.062234E-07 +4.148098E-06 
 -4.480968E-08 +8.690389E-09 -7.434014E-09 +8.690389E-09 -4.384013E-08 -2.074799E-08 -7.434014E-09 -2.074799E-08 +8.864982E-08 
 -5.556697E-07 +3.174383E-07 -1.101873E-07 +3.174383E-07 -4.440155E-08 +3.622655E-07 -1.101873E-07 +3.622655E-07 +6.000712E-07 
 -5.287062E-08 -1.448435E-08 +1.581681E-08 -1.448435E-08 -9.561030E-08 -1.050741E-08 +1.581681E-08 -1.050741E-08 +1.484809E-07 
 -1.113236E-05 -3.395274E-05 +2.433681E-05 -3.395274E-05 -7.895983E-05 +1.464969E-05 +2.433681E-05 +1.464969E-05 +9.009219E-05 
 -8.729758E-06 +1.386576E-05 -8.434550E-06 +1.386576E-05 -1.641175E-05 -3.716231E-07 -8.434550E-06 -3.716231E-07 +2.514151E-05 
 -3.130561E-08 -1.532979E-08 +2.116744E-08 -1.532979E-08 -3.215003E-08 +1.692592E-08 +2.116744E-08 +1.692592E-08 +6.345564E-08 
 -7.934094E-07 -1.811003E-06 +6.632221E-07 -1.811003E-06 -3.190559E-06 -5.567299E-07 +6.632221E-07 -5.567299E-07 +3.983969E-06 
 -2.246440E-05 -1.199709E-05 -5.679377E-06 -1.199709E-05 -3.545633E-06 +5.842057E-06 -5.679377E-06 +5.842057E-06 +2.601003E-05 
 -3.399587E-08 +3.730065E-09 -1.694170E-08 +3.730065E-09 -6.643047E-09 -4.624509E-09 -1.694170E-08 -4.624509E-09 +4.063892E-08 
 -1.807475E-06 -3.023657E-06 +9.934865E-07 -3.023657E-06 -4.968651E-06 +7.584659E-07 +9.934865E-07 +7.584659E-07 +6.776127E-06 
 -7.410063E-06 +2.524360E-06 -9.724139E-07 +2.524360E-06 -7.466084E-07 +1.313613E-06 -9.724139E-07 +1.313613E-06 +8.156670E-06 
 -3.054075E-08 -7.829792E-09 +8.298608E-11 -7.829792E-09 -4.032552E-08 -3.855752E-09 +8.298608E-11 -3.855752E-09 +7.086626E-08 
 -1.809596E-05 -1.794061E-05 +3.743050E-07 -1.794061E-05 -1.330941E-05 +1.225812E-05 +3.743050E-07 +1.225812E-05 +3.140537E-05 
 -4.808295E-06 -1.363003E-05 +7.379575E-06 -1.363003E-05 -1.991499E-05 -5.099926E-06 +7.379575E-06 -5.099926E-06 +2.472328E-05 
 -2.962432E-05 +8.222062E-06 +5.345449E-06 +8.222062E-06 -2.280494E-06 -1.783438E-06 +5.345449E-06 -1.783438E-06 +3.190482E-05 
 -4.309132E-08 -1.141249E-08 -1.649033E-08 -1.141249E-08 -3.384195E-08 -1.874819E-08 -1.649033E-08 -1.874819E-08 +7.693326E-08 
 -2.040184E-06 +2.942634E-06 -1.268151E-06 +2.942634E-06 -3.240495E-06 -6.736825E-07 -1.268151E-06 -6.736825E-07 +5.280679E-06 
 -1.049840E-05 -1.902872E-05 -3.312281E-06 -1.902872E-05 -3.295827E-05 +2.322943E-06 -3.312281E-06 +2.322943E-06 +4.345668E-05 
 -1.010673E-06 -7.265431E-08 -2.607036E-07 -7.265431E-08 +1.105485E-07 -3.642533E-07 -2.607036E-07 -3.642533E-07 +9.001246E-07 
 -2.661942E-05 +3.938352E-06 +1.979711E-06 +3.938352E-06 +2.618642E-06 -9.132033E-06 +1.979711E-06 -9.132033E-06 +2.400078E-05 
 -6.446093E-06 +1.180844E-07 -4.447530E-07 +1.180844E-07 +4.104382E-07 -1.606143E-06 -4.447530E-07 -1.606143E-06 +6.035655E-06 
 -3.025106E-05 -1.210777E-05 +1.179510E-05 -1.210777E-05 -4.509065E-06 +1.059139E-06 +1.179510E-05 +1.059139E-06 +3.476012E-05 
 -1.869644E-08 +1.446106E-08 +9.763863E-11 +1.446106E-08 -5.329811E-08 -2.280126E-08 +9.763863E-11 -2.280126E-08 +7.199455E-08 
 -4.591621E-08 -2.082125E-08 -4.116972E-08 -2.082125E-08 +2.927033E-08 +8.501584E-09 -4.116972E-08 +8.501584E-09 +1.664589E-08 
 -8.354692E-08 -1.974338E-08 +2.890002E-09 -1.974338E-08 -7.998880E-08 +1.079472E-08 +2.890002E-09 +1.079472E-08 +1.635357E-07 
 -7.006194E-08 +1.462133E-07 -1.837419E-07 +1.462133E-07 -1.490855E-07 +5.243103E-08 -1.837419E-07 +5.243103E-08 +2.191474E-07 
 -5.210474E-08 -2.700193E-09 -5.952050E-10 -2.700193E-09 -5.779921E-08 +3.501424E-09 -5.952050E-10 +3.501424E-09 +1.099039E-07 
 -2.721468E-07 -3.088294E-07 +1.256979E-08 -3.088294E-07 -2.133440E-07 +2.826972E-07 +1.256979E-08 +2.826972E-07 +4.854908E-07 
 -4.884575E-05 +5.860109E-05 +2.915524E-06 +5.860109E-05 -6.815101E-05 +1.244271E-05 +2.915524E-06 +1.244271E-05 +1.169968E-04 
 +1.851696E-06 +9.790679E-06 -1.540360E-05 +9.790679E-06 -9.345747E-05 -9.128172E-06 -1.540360E-05 -9.128172E-06 +9.160578E-05 
 -5.671146E-06 +1.673898E-07 -4.602485E-07 +1.673898E-07 +6.517990E-07 -1.814938E-06 -4.602485E-07 -1.814938E-06 +5.019348E-06 
 -8.459740E-05 +6.538777E-06 +9.813235E-06 +6.538777E-06 +1.499640E-07 -8.271831E-06 +9.813235E-06 -8.271831E-06 +8.444743E-05 
 -3.994008E-05 -4.759620E-05 +4.247375E-06 -4.759620E-05 -5.672501E-05 +5.060945E-06 +4.247375E-06 +5.060945E-06 +9.666508E-05 
 -1.400926E-07 +6.659768E-07 +2.458388E-07 +6.659768E-07 -3.063065E-06 -5.299237E-07 +2.458388E-07 -5.299237E-07 +3.203158E-06 
 -1.301846E-06 +2.983607E-07 +5.448846E-07 +2.983607E-07 -4.744274E-08 +6.656209E-08 +5.448846E-07 +6.656209E-08 +1.349288E-06 
 -1.138053E-07 -9.889040E-08 +1.281369E-07 -9.889040E-08 -1.733774E-07 +6.769685E-08 +1.281369E-07 +6.769685E-08 +2.871827E-07 
 +2.252851E-08 +6.785605E-09 +4.914195E-08 +6.785605E-09 -1.151842E-07 -3.890049E-08 +4.914195E-08 -3.890049E-08 +9.265572E-08 
 -7.887358E-05 -2.870691E-05 -2.496631E-06 -2.870691E-05 -1.045083E-05 -9.083110E-07 -2.496631E-06 -9.083110E-07 +8.932441E-05 
 -1.252672E-04 -4.559331E-05 +6.573942E-06 -4.559331E-05 -1.659546E-05 +2.392823E-06 +6.573942E-06 +2.392823E-06 +1.418627E-04 
 -1.330159E-07 +1.760398E-07 -1.191739E-07 +1.760398E-07 -2.655274E-07 +1.725465E-07 -1.191739E-07 +1.725465E-07 +3.985433E-07 
 -2.795054E-08 -8.180465E-09 -6.396506E-09 -8.180465E-09 -3.122624E-08 -1.320004E-08 -6.396506E-09 -1.320004E-08 +5.917678E-08 
 -6.989656E-08 -4.582109E-08 -5.134280E-08 -4.582109E-08 -1.616322E-07 -8.299348E-08 -5.134280E-08 -8.299348E-08 +2.315288E-07 
 -8.410790E-07 +6.550910E-07 +2.047548E-07 +6.550910E-07 -3.770658E-07 +2.535852E-07 +2.047548E-07 +2.535852E-07 +1.218145E-06 
 -1.935807E-08 +1.148811E-08 +1.672636E-09 +1.148811E-08 -3.029515E-08 -3.867427E-09 +1.672636E-09 -3.867427E-09 +4.965321E-08 
 -4.920141E-08 +7.189849E-09 +2.899102E-09 +7.189849E-09 -4.299356E-08 -4.413436E-09 +2.899102E-09 -4.413436E-09 +9.219497E-08 
 -1.215543E-07 +2.603806E-08 -5.801476E-09 +2.603806E-08 -1.248891E-07 +2.896198E-09 -5.801476E-09 +2.896198E-09 +2.464434E-07 
 -8.106558E-09 +9.885706E-10 +4.376987E-09 +9.885706E-10 -5.721312E-09 -1.373154E-09 +4.376987E-09 -1.373154E-09 +1.382787E-08 
 -6.206252E-06 +4.784139E-06 -6.803601E-07 +4.784139E-06 -2.593520E-06 -2.594773E-06 -6.803601E-07 -2.594773E-06 +8.799772E-06 
 -1.147838E-05 +3.152717E-05 -8.496375E-06 +3.152717E-05 -8.662384E-05 +2.334480E-05 -8.496375E-06 +2.334480E-05 +9.810222E-05 
 -9.446411E-07 +5.981203E-06 -1.261894E-06 +5.981203E-06 -2.974270E-05 -8.296774E-06 -1.261894E-06 -8.296774E-06 +3.068734E-05 
 -2.654025E-05 +1.567449E-07 +2.695606E-06 +1.567449E-07 +1.801337E-06 -6.750555E-06 +2.695606E-06 -6.750555E-06 +2.473891E-05 
 -2.328668E-07 -2.019106E-07 +6.487772E-08 -2.019106E-07 -1.067704E-07 -1.057623E-07 +6.487772E-08 -1.057623E-07 +3.396372E-07 
 -1.346854E-06 -9.567513E-10 -5.440668E-07 -9.567513E-10 -5.757371E-08 +3.364819E-07 -5.440668E-07 +3.364819E-07 +1.404427E-06 
 -5.499146E-05 -4.900137E-05 +2.245685E-05 -4.900137E-05 -3.376470E-05 -1.115395E-05 +2.245685E-05 -1.115395E-05 +8.875616E-05 
 -5.670506E-06 -3.978294E-06 +9.797362E-07 -3.978294E-06 -1.433461E-06 -2.455716E-06 +9.797362E-07 -2.455716E-06 +7.103966E-06 
 -3.971332E-06 +3.474379E-07 +1.467646E-06 +3.474379E-07 -3.049007E-08 -1.284123E-07 +1.467646E-06 -1.284123E-07 +4.001822E-06 
 -9.793720E-08 +3.892099E-10 +6.639660E-09 +3.892099E-10 -8.761744E-08 -8.719514E-09 +6.639660E-09 -8.719514E-09 +1.855547E-07 
 -1.454526E-06 +5.168629E-07 -6.301162E-07 +5.168629E-07 -1.693263E-07 +4.193019E-08 -6.301162E-07 +4.193019E-08 +1.623852E-06 
 -1.961361E-07 -8.948114E-09 +5.799955E-08 -8.948114E-09 -7.603031E-08 +1.069109E-07 +5.799955E-08 +1.069109E-07 +2.721665E-07 
 -5.526403E-08 -5.192186E-10 +6.752879E-09 -5.192186E-10 -3.953616E-08 +1.137768E-09 +6.752879E-09 +1.137768E-09 +9.480019E-08 
 -3.560493E-08 -6.379403E-09 +1.039432E-08 -6.379403E-09 -1.392594E-08 +8.502333E-10 +1.039432E-08 +8.502333E-10 +4.953088E-08 
 -1.068487E-05 +1.390606E-05 +9.007172E-07 +1.390606E-05 -1.798953E-05 +7.609140E-07 +9.007172E-07 +7.609140E-07 +2.867440E-05 
 -1.366728E-08 -2.525050E-09 -2.738735E-09 -2.525050E-09 -1.849698E-08 -7.713553E-09 -2.738735E-09 -7.713553E-09 +3.216426E-08 
 -5.490941E-09 +6.673360E-08 +5.024279E-08 +6.673360E-08 -2.008184E-07 +6.668822E-08 +5.024279E-08 +6.668822E-08 +2.063094E-07 
 -1.669990E-05 +1.619769E-05 +4.044263E-06 +1.619769E-05 -1.521068E-05 -7.991071E-06 +4.044263E-06 -7.991071E-06 +3.191059E-05 
 -1.856524E-05 +1.353592E-05 +5.049958E-06 +1.353592E-05 -9.539264E-06 -5.371682E-07 +5.049958E-06 -5.371682E-07 +2.810450E-05 
 -4.029376E-08 -3.878385E-09 -3.042794E-08 -3.878385E-09 -1.351013E-07 -5.846421E-08 -3.042794E-08 -5.846421E-08 +1.753951E-07 
 -6.513423E-07 -1.531944E-07 +1.937953E-07 -1.531944E-07 +3.154112E-08 -1.802033E-07 +1.937953E-07 -1.802033E-07 +6.198012E-07 
 -8.206061E-06 +3.076292E-05 -5.551405E-07 +3.076292E-05 -1.028407E-04 -3.543626E-05 -5.551405E-07 -3.543626E-05 +1.110468E-04 
 -1.561962E-05 -1.259291E-05 -4.464150E-06 -1.259291E-05 -9.811971E-06 -6.647571E-06 -4.464150E-06 -6.647571E-06 +2.543159E-05 
 -1.902635E-08 +1.164908E-08 -4.463009E-09 +1.164908E-08 -1.618274E-08 +1.521895E-08 -4.463009E-09 +1.521895E-08 +3.520909E-08 
 -2.083908E-07 +4.447847E-08 +3.954823E-08 +4.447847E-08 +5.094341E-09 -6.635990E-08 +3.954823E-08 -6.635990E-08 +2.032964E-07 
 -1.495053E-06 -1.999551E-06 +2.692567E-07 -1.999551E-06 -2.644823E-06 +7.264279E-07 +2.692567E-07 +7.264279E-07 +4.139876E-06 
 -2.977097E-05 -4.867743E-05 +2.478467E-06 -4.867743E-05 -7.937183E-05 -1.422912E-06 +2.478467E-06 -1.422912E-06 +1.091428E-04 
 -1.556200E-06 -3.757887E-06 -1.042162E-06 -3.757887E-06 -7.435766E-06 +1.508846E-06 -1.042162E-06 +1.508846E-06 +8.991966E-06 
 -1.868884E-08 -1.098768E-08 -2.652824E-09 -1.098768E-08 -2.053871E-08 -8.536499E-09 -2.652824E-09 -8.536499E-09 +3.922755E-08 
 -7.691169E-09 +8.755456E-09 -1.028787E-08 +8.755456E-09 -5.446936E-08 +2.727355E-08 -1.028787E-08 +2.727355E-08 +6.216053E-08 
 -1.714443E-06 +3.710624E-06 -9.344717E-07 +3.710624E-06 -7.466258E-06 -3.390871E-07 -9.344717E-07 -3.390871E-07 +9.180701E-06 
 +1.514103E-07 +2.124144E-06 +1.925458E-06 +2.124144E-06 -4.746132E-06 +8.203958E-07 +1.925458E-06 +8.203958E-07 +4.594722E-06 
 -1.871469E-08 +1.126594E-08 -2.092517E-09 +1.126594E-08 -5.825528E-08 +4.418839E-09 -2.092517E-09 +4.418839E-09 +7.696998E-08 
 -5.024531E-08 +2.077423E-09 -5.153999E-09 +2.077423E-09 -7.144686E-08 +5.852806E-09 -5.153999E-09 +5.852806E-09 +1.216922E-07 
 -2.059222E-05 +9.296637E-06 -6.934768E-07 +9.296637E-06 -8.255228E-07 +8.861833E-06 -6.934768E-07 +8.861833E-06 +2.141774E-05 
 -3.692689E-08 +4.360849E-08 -3.691074E-09 +4.360849E-08 -1.289905E-07 +7.463679E-08 -3.691074E-09 +7.463679E-08 +1.659174E-07 
 -9.201717E-06 -5.212172E-05 -1.361552E-05 -5.212172E-05 -2.956059E-04 -7.723567E-05 -1.361552E-05 -7.723567E-05 +3.048077E-04 
 -8.831854E-07 -6.514317E-08 +4.513584E-07 -6.514317E-08 -1.097927E-07 -1.485327E-07 +4.513584E-07 -1.485327E-07 +9.929781E-07 
 -1.855221E-05 -1.427033E-05 +5.612114E-06 -1.427033E-05 -9.413626E-06 +1.114138E-05 +5.612114E-06 +1.114138E-05 +2.796584E-05 
 -7.382299E-08 +5.975799E-10 +2.298235E-08 +5.975799E-10 -1.318535E-08 +1.521180E-08 +2.298235E-08 +1.521180E-08 +8.700834E-08 
 -4.624654E-05 -8.278149E-05 +1.536890E-05 -8.278149E-05 -1.422723E-04 -6.358378E-06 +1.536890E-05 -6.358378E-06 +1.885188E-04 
 -2.904855E-07 -7.423166E-08 +5.313332E-08 -7.423166E-08 -1.167397E-08 +1.353099E-07 +5.313332E-08 +1.353099E-07 +3.021594E-07 
 -2.240088E-07 -8.347726E-07 -8.250025E-07 -8.347726E-07 -1.331237E-06 -2.018622E-07 -8.250025E-07 -2.018622E-07 +1.555246E-06 
 -2.026721E-06 +2.742816E-06 -9.823550E-07 +2.742816E-06 -3.574189E-06 +2.256068E-06 -9.823550E-07 +2.256068E-06 +5.600910E-06 
 -3.976795E-08 +1.667219E-10 -5.352076E-09 +1.667219E-10 -2.469878E-08 +1.707445E-08 -5.352076E-09 +1.707445E-08 +6.446673E-08 
 -6.114837E-06 -1.311089E-05 -2.584426E-06 -1.311089E-05 -2.811760E-05 -5.541929E-06 -2.584426E-06 -5.541929E-06 +3.423244E-05 
 -1.364089E-07 +2.530663E-08 -7.542158E-08 +2.530663E-08 -2.626064E-08 -1.457189E-09 -7.542158E-08 -1.457189E-09 +1.626696E-07 
 -7.083606E-08 -3.296074E-07 +5.083927E-08 -3.296074E-07 -1.491148E-06 +5.739979E-07 +5.083927E-08 +5.739979E-07 +1.561984E-06 
 -3.050775E-08 -2.587944E-08 +1.252320E-08 -2.587944E-08 -4.296884E-08 +1.003103E-08 +1.252320E-08 +1.003103E-08 +7.347658E-08 
 -1.003466E-07 -1.162390E-06 +1.183385E-06 -1.162390E-06 -7.935498E-06 +2.664540E-06 +1.183385E-06 +2.664540E-06 +8.035845E-06 
 -1.754118E-05 -1.605500E-05 -3.862541E-06 -1.605500E-05 -1.112007E-05 +6.769837E-06 -3.862541E-06 +6.769837E-06 +2.866124E-05 
 -2.398870E-05 -4.887694E-06 -7.415274E-06 -4.887694E-06 -7.900828E-07 +8.895127E-07 -7.415274E-06 +8.895127E-07 +2.477878E-05 
 -3.791223E-08 +1.438375E-08 +1.155351E-08 +1.438375E-08 -3.749632E-08 -1.104387E-08 +1.155351E-08 -1.104387E-08 +7.540856E-08 
 +6.955159E-08 +8.201015E-08 -2.476789E-07 +8.201015E-08 -7.029483E-07 +1.098522E-07 -2.476789E-07 +1.098522E-07 +6.333968E-07 
 -2.828561E-07 +1.118387E-06 -6.872835E-07 +1.118387E-06 -3.595575E-06 +5.731253E-07 -6.872835E-07 +5.731253E-07 +3.878431E-06 
 -1.374400E-08 -1.459539E-09 +4.619530E-09 -1.459539E-09 -1.040485E-08 +5.121585E-09 +4.619530E-09 +5.121585E-09 +2.414885E-08 
 -1.609788E-06 -4.771056E-07 +6.411783E-07 -4.771056E-07 -1.237950E-07 -2.508133E-08 +6.411783E-07 -2.508133E-08 +1.733583E-06 
 -2.535514E-08 -5.776255E-09 -1.625228E-09 -5.776255E-09 -6.622894E-08 -4.992886E-09 -1.625228E-09 -4.992886E-09 +9.158408E-08 
 -7.383164E-07 +2.428571E-07 +4.863138E-07 +2.428571E-07 -7.823885E-08 -3.960401E-08 +4.863138E-07 -3.960401E-08 +8.165552E-07 
 -9.498866E-08 -7.153561E-08 +2.074307E-08 -7.153561E-08 -1.409529E-07 +4.610559E-08 +2.074307E-08 +4.610559E-08 +2.359416E-07 
 -5.982794E-06 -1.067889E-06 +9.262649E-07 -1.067889E-06 -1.460176E-07 +7.115028E-07 +9.262649E-07 +7.115028E-07 +6.128811E-06 
 -1.730438E-05 -1.811224E-05 -3.278588E-06 -1.811224E-05 -1.682120E-05 +5.218970E-06 -3.278588E-06 +5.218970E-06 +3.412558E-05 
 -7.025716E-08 +2.335774E-08 -9.020765E-09 +2.335774E-08 -7.060545E-08 +5.621798E-09 -9.020765E-09 +5.621798E-09 +1.408626E-07 
 -5.601166E-08 +1.554358E-07 +1.042677E-07 +1.554358E-07 -4.195745E-07 -1.487360E-07 +1.042677E-07 -1.487360E-07 +4.755861E-07 
 -3.869584E-07 -2.675941E-07 +1.097337E-07 -2.675941E-07 -8.267732E-08 +3.094952E-07 +1.097337E-07 +3.094952E-07 +4.696358E-07 
 -1.544094E-04 +8.241992E-05 -6.648329E-05 +8.241992E-05 -4.172260E-05 +5.818475E-05 -6.648329E-05 +5.818475E-05 +1.961320E-04 
 -6.943242E-06 -5.011301E-06 -5.006564E-07 -5.011301E-06 -3.474509E-06 +8.688484E-07 -5.006564E-07 +8.688484E-07 +1.041775E-05 
 -1.483447E-04 -3.693157E-05 +3.109681E-05 -3.693157E-05 -7.861905E-06 +2.247878E-05 +3.109681E-05 +2.247878E-05 +1.562066E-04 
 -4.061631E-08 +1.624035E-09 -1.090021E-08 +1.624035E-09 -3.198278E-08 +1.133628E-08 -1.090021E-08 +1.133628E-08 +7.259910E-08 
 -8.419724E-09 +1.543408E-09 +5.821967E-10 +1.543408E-09 -1.616604E-08 -8.880465E-09 +5.821967E-10 -8.880465E-09 +2.458576E-08 
 -5.257280E-06 +1.779174E-06 -1.070904E-06 +1.779174E-06 -5.838492E-07 -3.407131E-08 -1.070904E-06 -3.407131E-08 +5.841130E-06 
 +1.993581E-07 -2.865996E-06 +3.249248E-06 -2.865996E-06 -8.279596E-06 +3.815830E-07 +3.249248E-06 +3.815830E-07 +8.080237E-06 
 -9.046801E-05 -2.295019E-05 +3.413724E-06 -2.295019E-05 -4.727108E-06 -9.372436E-06 +3.413724E-06 -9.372436E-06 +9.519512E-05 
 -3.905147E-07 -3.508453E-07 -7.388403E-08 -3.508453E-07 -1.669908E-07 -3.580178E-07 -7.388403E-08 -3.580178E-07 +5.575055E-07 
 -3.150489E-08 +6.094427E-09 +1.515843E-09 +6.094427E-09 -3.268511E-08 -2.077530E-08 +1.515843E-09 -2.077530E-08 +6.419000E-08 
 -3.166832E-07 -6.162697E-07 -1.330992E-07 -6.162697E-07 -8.570224E-07 +3.956507E-07 -1.330992E-07 +3.956507E-07 +1.173706E-06 
 -1.414270E-07 -3.144999E-08 -1.142289E-08 -3.144999E-08 -5.997704E-08 -6.648799E-09 -1.142289E-08 -6.648799E-09 +2.014040E-07 
 -7.671628E-08 -8.121676E-07 -7.794047E-07 -8.121676E-07 -2.398537E-06 -2.091569E-07 -7.794047E-07 -2.091569E-07 +2.475253E-06 
 -8.547455E-07 -1.840330E-06 +4.600501E-08 -1.840330E-06 -3.769920E-06 -8.572458E-07 +4.600501E-08 -8.572458E-07 +4.624666E-06 
 +1.635137E-06 -4.619967E-07 -6.309865E-06 -4.619967E-07 -2.325585E-05 -5.826447E-06 -6.309865E-06 -5.826447E-06 +2.162072E-05 
 +4.967933E-06 +9.472606E-06 -1.878949E-05 +9.472606E-06 -7.528125E-05 -3.530543E-05 -1.878949E-05 -3.530543E-05 +7.031331E-05 
 -9.291546E-05 +5.364436E-05 -2.283949E-05 +5.364436E-05 -3.097204E-05 +1.318567E-05 -2.283949E-05 +1.318567E-05 +1.238875E-04 
 -4.947410E-08 +3.480480E-09 -1.586331E-08 +3.480480E-09 -2.717406E-08 +3.023335E-09 -1.586331E-08 +3.023335E-09 +7.664816E-08 
 -4.825018E-05 -6.243301E-05 +3.744552E-05 -6.243301E-05 -6.096064E-05 -3.916534E-06 +3.744552E-05 -3.916534E-06 +1.092108E-04 
 -7.365385E-05 +1.510995E-05 +3.220275E-05 +1.510995E-05 +2.922111E-06 +1.614498E-05 +3.220275E-05 +1.614498E-05 +7.073174E-05 
 -1.114687E-07 -2.279727E-08 +1.297092E-09 -2.279727E-08 -8.685645E-08 -2.112079E-08 +1.297092E-09 -2.112079E-08 +1.983252E-07 
 -9.779606E-09 +5.812900E-09 +4.526886E-10 +5.812900E-09 -9.515432E-09 -2.515343E-09 +4.526886E-10 -2.515343E-09 +1.929504E-08 
 -2.084492E-06 -1.523391E-06 -6.831918E-07 -1.523391E-06 -9.706436E-07 +1.940793E-07 -6.831918E-07 +1.940793E-07 +3.055136E-06 
 -1.723844E-07 +8.721724E-07 +8.685963E-07 +8.721724E-07 -3.218463E-06 -9.186382E-07 +8.685963E-07 -9.186382E-07 +3.390847E-06 
 -1.228070E-06 +7.949820E-07 +8.535183E-08 +7.949820E-07 -1.193457E-07 -7.938020E-07 +8.535183E-08 -7.938020E-07 +1.347415E-06 
 -5.937529E-05 +9.198950E-06 -7.036610E-06 +9.198950E-06 +4.463178E-07 +1.176999E-05 -7.036610E-06 +1.176999E-05 +5.892897E-05 
 -2.292927E-05 -1.510961E-05 -7.890340E-06 -1.510961E-05 -9.133726E-06 -1.065189E-05 -7.890340E-06 -1.065189E-05 +3.206300E-05 
 -1.914474E-10 -5.774113E-07 +5.773022E-07 -5.774113E-07 -5.018085E-06 +8.736328E-11 +5.773022E-07 +8.736328E-11 +5.018276E-06 
 -7.639920E-08 +2.749378E-09 +1.180510E-08 +2.749378E-09 -1.364138E-07 -3.204758E-08 +1.180510E-08 -3.204758E-08 +2.128130E-07 
 -3.236876E-07 -1.741565E-06 +4.039433E-07 -1.741565E-06 -9.357448E-06 +1.661895E-06 +4.039433E-07 +1.661895E-06 +9.681135E-06 
 -1.386970E-05 -1.771117E-05 +8.649247E-07 -1.771117E-05 -1.800436E-05 -1.103324E-05 +8.649247E-07 -1.103324E-05 +3.187406E-05 
 -8.199030E-05 -7.859860E-06 +3.877092E-06 -7.859860E-06 +1.756898E-06 -1.385620E-05 +3.877092E-06 -1.385620E-05 +8.023340E-05 
 -1.618701E-04 +4.006622E-05 +4.235383E-05 +4.006622E-05 +2.622354E-06 +3.578647E-05 +4.235383E-05 +3.578647E-05 +1.592477E-04 
 -9.150546E-07 -1.552861E-06 -6.838883E-07 -1.552861E-06 -2.637803E-06 -1.097352E-06 -6.838883E-07 -1.097352E-06 +3.552858E-06 
 -7.975964E-08 -1.052045E-09 -1.609694E-08 -1.052045E-09 -5.492782E-08 -1.266845E-09 -1.609694E-08 -1.266845E-09 +1.346875E-07 
 -7.991927E-06 -3.367148E-06 -1.551578E-07 -3.367148E-06 -1.396421E-06 +4.311054E-07 -1.551578E-07 +4.311054E-07 +9.388348E-06 
 -2.102201E-06 +4.542100E-06 +7.812076E-07 +4.542100E-06 -9.431579E-06 +4.515525E-07 +7.812076E-07 +4.515525E-07 +1.153378E-05 
 -4.003976E-05 +5.249075E-06 -5.617571E-06 +5.249075E-06 +5.748423E-08 +6.264778E-06 -5.617571E-06 +6.264778E-06 +3.998228E-05 
 -3.066798E-07 -1.642718E-07 +6.463026E-08 -1.642718E-07 -3.139596E-07 +1.234622E-07 +6.463026E-08 +1.234622E-07 +6.206393E-07 
 -1.448243E-04 -1.215214E-04 +1.925954E-05 -1.215214E-04 -1.019696E-04 +1.616116E-05 +1.925954E-05 +1.616116E-05 +2.467939E-04 
 +8.389109E-07 -1.625503E-07 +2.866670E-06 -1.625503E-07 -1.057534E-05 -1.004956E-06 +2.866670E-06 -1.004956E-06 +9.736429E-06 
 -4.284542E-08 -1.119071E-08 +5.292311E-09 -1.119071E-08 -3.648260E-08 +2.793737E-09 +5.292311E-09 +2.793737E-09 +7.932802E-08 
 -2.668469E-06 +1.806212E-06 -1.798206E-06 +1.806212E-06 -9.474505E-07 +6.113805E-08 -1.798206E-06 +6.113805E-08 +3.615919E-06 
 -1.976474E-06 -1.120082E-05 +3.062816E-06 -1.120082E-05 -6.352463E-05 +1.737052E-05 +3.062816E-06 +1.737052E-05 +6.550110E-05 
 -8.021906E-09 -1.860072E-09 -2.422472E-09 -1.860072E-09 -1.055975E-08 +2.864149E-09 -2.422472E-09 +2.864149E-09 +1.858165E-08 
 -3.481709E-07 +1.843671E-06 -1.141507E-06 +1.843671E-06 -4.534427E-06 -6.818497E-07 -1.141507E-06 -6.818497E-07 +4.882598E-06 
 -4.320721E-07 +1.415435E-07 -1.476381E-07 +1.415435E-07 -1.347027E-09 +2.094602E-07 -1.476381E-07 +2.094602E-07 +4.334192E-07 
 -4.793382E-08 -1.101231E-08 +1.586805E-08 -1.101231E-08 -1.976563E-08 -1.144242E-08 +1.586805E-08 -1.144242E-08 +6.769945E-08 
 -8.630588E-06 +3.912614E-07 +4.977005E-07 +3.912614E-07 +4.071426E-07 +1.853417E-06 +4.977005E-07 +1.853417E-06 +8.223446E-06 
 -8.522063E-08 -1.139121E-08 +7.119949E-09 -1.139121E-08 -2.583090E-08 +4.301956E-10 +7.119949E-09 +4.301956E-10 +1.110515E-07 
 -7.427037E-07 -2.771726E-06 +1.762795E-07 -2.771726E-06 -1.034424E-05 +6.578645E-07 +1.762795E-07 +6.578645E-07 +1.108695E-05 
 -2.860782E-06 +4.211890E-06 +1.164239E-06 +4.211890E-06 -5.056384E-06 +1.388284E-06 +1.164239E-06 +1.388284E-06 +7.917166E-06 
 -1.096490E-07 -8.329345E-07 -2.142203E-07 -8.329345E-07 -5.960611E-06 +3.835336E-08 -2.142203E-07 +3.835336E-08 +6.070260E-06 
 -1.225858E-08 -1.366897E-09 -3.619765E-09 -1.366897E-09 -7.144894E-09 -1.661415E-09 -3.619765E-09 -1.661415E-09 +1.940347E-08 
 -9.486494E-07 +1.175243E-06 -1.193282E-06 +1.175243E-06 -1.322825E-06 +4.370172E-07 -1.193282E-06 +4.370172E-07 +2.271474E-06 
 -3.611916E-07 +2.688404E-08 -2.375255E-07 +2.688404E-08 -2.770136E-08 +1.234861E-07 -2.375255E-07 +1.234861E-07 +3.888929E-07 
 -2.952867E-08 +5.872927E-09 -4.653244E-10 +5.872927E-09 -3.435719E-08 +6.343067E-09 -4.653244E-10 +6.343067E-09 +6.388585E-08 
 -1.058170E-07 +7.653506E-08 -6.842855E-08 +7.653506E-08 -8.408451E-08 +6.497140E-08 -6.842855E-08 +6.497140E-08 +1.899015E-07 
 -6.253673E-08 -8.020505E-09 +3.899336E-09 -8.020505E-09 -3.043133E-08 +2.044211E-09 +3.899336E-09 +2.044211E-09 +9.296806E-08 
 -6.246559E-08 -3.279340E-08 -1.521587E-08 -3.279340E-08 -1.469993E-07 -4.259686E-08 -1.521587E-08 -4.259686E-08 +2.094649E-07 
 -1.937716E-07 +2.928072E-08 +4.345805E-08 +2.928072E-08 +3.981826E-09 -7.212832E-08 +4.345805E-08 -7.212832E-08 +1.897898E-07 
 -3.280047E-08 -2.998789E-08 +7.145208E-09 -2.998789E-08 -7.615099E-08 +2.128456E-08 +7.145208E-09 +2.128456E-08 +1.089515E-07 
 -2.533897E-08 -4.106218E-08 +1.686455E-08 -4.106218E-08 -1.833531E-07 +9.895818E-08 +1.686455E-08 +9.895818E-08 +2.086921E-07 
 -2.577550E-04 -1.201922E-04 +5.797084E-05 -1.201922E-04 -5.604835E-05 +2.703269E-05 +5.797084E-05 +2.703269E-05 +3.138034E-04 
 -9.566413E-06 +2.851040E-05 -8.718299E-06 +2.851040E-05 -7.868657E-05 +1.382625E-06 -8.718299E-06 +1.382625E-06 +8.825299E-05 
 -4.972730E-08 +1.247711E-08 +2.131820E-09 +1.247711E-08 -3.509656E-08 -7.139375E-09 +2.131820E-09 -7.139375E-09 +8.482386E-08 
 -1.458736E-05 -3.602509E-05 -3.057695E-05 -3.602509E-05 -7.051608E-05 -2.296717E-05 -3.057695E-05 -2.296717E-05 +8.510343E-05 
 -3.482220E-08 +2.218649E-08 +8.272103E-09 +2.218649E-08 -4.445662E-08 -1.522651E-08 +8.272103E-09 -1.522651E-08 +7.927882E-08 
 -2.417578E-08 +6.825827E-10 +3.745356E-09 +6.825827E-10 -4.637657E-08 +7.654021E-09 +3.745356E-09 +7.654021E-09 +7.055235E-08 
 -8.053554E-05 -5.638920E-05 -1.667143E-06 -5.638920E-05 -3.948773E-05 -1.168981E-06 -1.667143E-06 -1.168981E-06 +1.200233E-04 
 -1.239474E-04 +3.631938E-06 -2.059479E-05 +3.631938E-06 +3.724042E-06 -2.118633E-05 -2.059479E-05 -2.118633E-05 +1.202234E-04 
 -1.845457E-04 -1.791659E-04 -6.952378E-05 -1.791659E-04 -1.321229E-04 +5.228842E-05 -6.952378E-05 +5.228842E-05 +3.166685E-04 
 -1.168983E-06 -5.906933E-07 +5.729776E-07 -5.906933E-07 +9.944147E-09 -3.788414E-07 +5.729776E-07 -3.788414E-07 +1.159039E-06 
 -1.612854E-07 -2.517521E-07 +1.795412E-07 -2.517521E-07 -4.249057E-07 +2.701724E-07 +1.795412E-07 +2.701724E-07 +5.861912E-07 
 -1.528670E-06 +4.886874E-07 +5.462126E-07 +4.886874E-07 -1.927991E-07 -2.581890E-07 +5.462126E-07 -2.581890E-07 +1.721469E-06 
 -1.376323E-07 +2.426653E-07 -1.473491E-07 +2.426653E-07 -4.184502E-07 +1.529716E-07 -1.473491E-07 +1.529716E-07 +5.560825E-07 
 -5.603813E-07 +1.531847E-06 +6.019470E-08 +1.531847E-06 -3.644359E-06 -1.728318E-06 +6.019470E-08 -1.728318E-06 +4.204740E-06 
 -4.494184E-08 -7.784813E-09 +2.830949E-09 -7.784813E-09 -3.494502E-08 +4.081038E-09 +2.830949E-09 +4.081038E-09 +7.988685E-08 
 -1.052935E-06 +1.503673E-06 +2.930732E-07 +1.503673E-06 -2.147526E-06 -4.185503E-07 +2.930732E-07 -4.185503E-07 +3.200461E-06 
 -1.070446E-07 +8.214093E-07 +7.000912E-07 +8.214093E-07 -5.088974E-06 -1.835379E-06 +7.000912E-07 -1.835379E-06 +5.196019E-06 
 -1.989454E-08 +1.974975E-09 +1.778251E-09 +1.974975E-09 -2.724828E-08 +2.230414E-09 +1.778251E-09 +2.230414E-09 +4.714283E-08 
 -7.481223E-09 +8.270387E-10 -7.727305E-10 +8.270387E-10 -7.815234E-09 +1.478655E-09 -7.727305E-10 +1.478655E-09 +1.529646E-08 
 -1.355552E-07 +3.461416E-06 -2.106243E-06 +3.461416E-06 -3.500986E-05 -6.663802E-06 -2.106243E-06 -6.663802E-06 +3.514541E-05 
 -1.735532E-05 +3.267969E-05 -7.762304E-06 +3.267969E-05 -4.888445E-05 -1.523100E-05 -7.762304E-06 -1.523100E-05 +6.623977E-05 
 -5.343271E-08 -1.294418E-08 +2.329793E-08 -1.294418E-08 -1.751164E-08 -4.848805E-10 +2.329793E-08 -4.848805E-10 +7.094435E-08 
 -8.070412E-06 +1.442173E-05 +2.613619E-06 +1.442173E-05 -2.474393E-05 +1.218392E-06 +2.613619E-06 +1.218392E-06 +3.281435E-05 
 -3.822630E-05 -9.196220E-06 -6.486902E-06 -9.196220E-06 -2.067650E-06 -4.113213E-06 -6.486902E-06 -4.113213E-06 +4.029394E-05 
 -7.673112E-08 -3.965409E-08 +3.335197E-08 -3.965409E-08 -4.995344E-08 +3.854121E-08 +3.335197E-08 +3.854121E-08 +1.266846E-07 
 -5.072536E-06 +3.284678E-06 -2.037493E-06 +3.284678E-06 -2.181247E-06 +1.635457E-06 -2.037493E-06 +1.635457E-06 +7.253783E-06 
 -1.354147E-07 +2.331869E-08 +9.365338E-08 +2.331869E-08 -1.778249E-07 -1.903231E-08 +9.365338E-08 -1.903231E-08 +3.132397E-07 
 -8.360275E-09 +1.089275E-07 -4.397060E-08 +1.089275E-07 -9.758617E-07 -1.838517E-07 -4.397060E-08 -1.838517E-07 +9.842219E-07 
 -7.153544E-06 +2.669331E-05 -2.898334E-07 +2.669331E-05 -9.962182E-05 +1.082034E-06 -2.898334E-07 +1.082034E-06 +1.067754E-04 
 -1.872117E-04 -8.729812E-05 -1.674318E-05 -8.729812E-05 -4.070821E-05 -7.806742E-06 -1.674318E-05 -7.806742E-06 +2.279199E-04 
 -6.907574E-08 +1.191540E-07 +7.684699E-08 +1.191540E-07 -6.145443E-06 +2.212437E-06 +7.684699E-08 +2.212437E-06 +6.214519E-06 
 +3.753906E-08 -1.206086E-06 -1.406444E-06 -1.206086E-06 -2.404651E-06 -3.142822E-07 -1.406444E-06 -3.142822E-07 +2.367112E-06 
 -4.515773E-06 -2.109731E-05 -1.034941E-05 -2.109731E-05 -6.973837E-05 +4.827247E-06 -1.034941E-05 +4.827247E-06 +7.425414E-05 
 -9.527340E-06 +1.811463E-07 +2.070266E-06 +1.811463E-07 +7.107239E-08 +8.265623E-07 +2.070266E-06 +8.265623E-07 +9.456267E-06 
 -3.443784E-08 +5.850027E-09 -2.983493E-09 +5.850027E-09 -1.243214E-08 +4.433235E-10 -2.983493E-09 +4.433235E-10 +4.686997E-08 
 -1.773658E-06 +1.350008E-07 +1.010226E-06 +1.350008E-07 -2.382911E-08 -2.305157E-07 +1.010226E-06 -2.305157E-07 +1.797487E-06 
 -5.299462E-06 -4.418807E-06 +1.124879E-07 -4.418807E-06 -3.237119E-06 +2.057049E-06 +1.124879E-07 +2.057049E-06 +8.536581E-06 
 -5.402126E-08 +1.375365E-08 -7.255340E-09 +1.375365E-08 -7.246349E-08 +3.464698E-09 -7.255340E-09 +3.464698E-09 +1.264847E-07 
 -3.779255E-07 +3.971048E-07 +7.942224E-08 +3.971048E-07 -3.847674E-07 +1.990809E-07 +7.942224E-08 +1.990809E-07 +7.626930E-07 
 -2.457869E-06 +4.665404E-08 -1.715113E-07 +4.665404E-08 +1.579549E-07 -6.125438E-07 -1.715113E-07 -6.125438E-07 +2.299914E-06 
 -8.816494E-09 -1.034965E-07 -2.646492E-08 -1.034965E-07 -9.351145E-07 +3.524819E-07 -2.646492E-08 +3.524819E-07 +9.439310E-07 
 -1.310329E-06 +8.540413E-07 -6.164643E-07 +8.540413E-07 -2.747154E-07 -3.387020E-07 -6.164643E-07 -3.387020E-07 +1.585045E-06 
 -4.619342E-06 -5.186625E-06 -4.017441E-07 -5.186625E-06 -5.756648E-06 +4.024064E-07 -4.017441E-07 +4.024064E-07 +1.037599E-05 
 -2.491015E-08 -7.969200E-09 -1.173123E-09 -7.969200E-09 -5.264008E-08 -1.671142E-08 -1.173123E-09 -1.671142E-08 +7.755022E-08 
 -3.465989E-08 +1.808813E-09 -4.325924E-09 +1.808813E-09 -2.134414E-08 -8.965179E-10 -4.325924E-09 -8.965179E-10 +5.600403E-08 
 -4.956143E-08 -8.193305E-09 -2.934974E-08 -8.193305E-09 -4.582663E-08 -1.324971E-08 -2.934974E-08 -1.324971E-08 +9.538805E-08 
 -2.280262E-09 +6.362761E-06 -7.583282E-06 +6.362761E-06 -9.538460E-05 +1.681842E-05 -7.583282E-06 +1.681842E-05 +9.538688E-05 
 -1.039815E-06 -2.359417E-07 -3.833567E-07 -2.359417E-07 +8.088669E-08 +3.057697E-07 -3.833567E-07 +3.057697E-07 +9.589282E-07 
 +6.176823E-08 +3.151152E-07 -6.940945E-07 +3.151152E-07 -3.331578E-06 +1.040173E-06 -6.940945E-07 +1.040173E-06 +3.269810E-06 
 -1.121860E-05 +1.169303E-06 -2.142534E-06 +1.169303E-06 +2.882705E-07 +2.384862E-06 -2.142534E-06 +2.384862E-06 +1.093033E-05 
 +2.721027E-08 +9.145381E-08 -1.583862E-07 +9.145381E-08 -4.176893E-07 +6.868829E-08 -1.583862E-07 +6.868829E-08 +3.904790E-07 
 -1.638885E-08 +2.513606E-09 +5.635796E-10 +2.513606E-09 -4.129208E-08 -3.999527E-09 +5.635796E-10 -3.999527E-09 +5.768093E-08 
 -4.229472E-07 -5.179905E-07 +2.431294E-07 -5.179905E-07 -5.986059E-07 +5.969572E-07 +2.431294E-07 +5.969572E-07 +1.021553E-06 
 -3.338863E-06 -4.320432E-07 +4.654911E-07 -4.320432E-07 +4.299043E-09 +5.261895E-07 +4.654911E-07 +5.261895E-07 +3.334564E-06 
 -5.908416E-08 -7.732521E-08 -1.212395E-07 -7.732521E-08 -1.320322E-07 -8.542166E-08 -1.212395E-07 -8.542166E-08 +1.911163E-07 
 -1.736712E-04 +1.216052E-04 +5.935529E-05 +1.216052E-04 -8.514983E-05 -4.155981E-05 +5.935529E-05 -4.155981E-05 +2.588210E-04 
 -5.082439E-08 -2.039775E-08 -2.267181E-08 -2.039775E-08 -2.877116E-08 -1.188081E-08 -2.267181E-08 -1.188081E-08 +7.959554E-08 
 -3.831815E-07 +1.350133E-07 +1.571764E-07 +1.350133E-07 -3.946542E-08 +2.056496E-08 +1.571764E-07 +2.056496E-08 +4.226470E-07 
 -2.312182E-08 -7.742782E-09 +1.228293E-08 -7.742782E-09 -3.857536E-08 +1.739828E-08 +1.228293E-08 +1.739828E-08 +6.169718E-08 
 +3.908323E-09 +1.255540E-07 +1.062240E-07 +1.255540E-07 -3.511037E-07 +8.441372E-08 +1.062240E-07 +8.441372E-08 +3.471954E-07 
 -1.142024E-06 -2.021176E-07 -6.510907E-07 -2.021176E-07 -5.970238E-08 -1.284541E-07 -6.510907E-07 -1.284541E-07 +1.201727E-06 
 -5.928953E-07 +9.107505E-08 -3.366343E-07 +9.107505E-08 -1.949669E-08 +9.961364E-08 -3.366343E-07 +9.961364E-08 +6.123919E-07 
 -2.063475E-08 +7.165737E-09 -6.038223E-09 +7.165737E-09 -4.774974E-08 -1.989916E-08 -6.038223E-09 -1.989916E-08 +6.838449E-08 
 -3.195128E-05 +1.197785E-05 +2.648573E-06 +1.197785E-05 -3.213244E-06 -7.784106E-06 +2.648573E-06 -7.784106E-06 +3.516452E-05 
 -2.446435E-09 -1.174351E-07 -1.678145E-07 -1.174351E-07 -3.942630E-06 -1.433494E-06 -1.678145E-07 -1.433494E-06 +3.945077E-06 
 -8.403440E-08 +1.719153E-07 +3.990058E-08 +1.719153E-07 -3.567341E-07 -1.593823E-07 +3.990058E-08 -1.593823E-07 +4.407685E-07 
 -1.989630E-07 -8.268945E-08 +6.064587E-08 -8.268945E-08 -2.942676E-08 +6.092731E-08 +6.064587E-08 +6.092731E-08 +2.283898E-07 
 +5.540110E-08 -5.624523E-07 +6.091013E-07 -5.624523E-07 -4.079780E-06 -1.161567E-06 +6.091013E-07 -1.161567E-06 +4.024379E-06 
 -2.250192E-08 -4.949246E-09 +9.001214E-09 -4.949246E-09 -9.516776E-09 -2.016912E-09 +9.001214E-09 -2.016912E-09 +3.201870E-08 
 -5.403866E-07 +2.187344E-06 -5.197809E-07 +2.187344E-06 -7.861096E-06 -8.969072E-07 -5.197809E-07 -8.969072E-07 +8.401482E-06 
 -4.812560E-05 -6.872958E-05 +1.204531E-05 -6.872958E-05 -9.815655E-05 +1.720293E-05 +1.204531E-05 +1.720293E-05 +1.462821E-04 
 -3.852309E-06 +3.836292E-06 -1.747571E-08 +3.836292E-06 -2.227747E-06 +3.132841E-06 -1.747571E-08 +3.132841E-06 +6.080056E-06 
 -1.155503E-04 -1.155494E-04 +3.823023E-05 -1.155494E-04 -1.155505E-04 +3.823075E-05 +3.823023E-05 +3.823075E-05 +2.311008E-04 
 -8.894227E-08 -9.155828E-08 +4.235907E-08 -9.155828E-08 -8.478825E-08 +1.112654E-07 +4.235907E-08 +1.112654E-07 +1.737305E-07 
 -3.421774E-08 -1.432687E-08 +1.582155E-08 -1.432687E-08 -3.274241E-08 +1.512277E-08 +1.582155E-08 +1.512277E-08 +6.696015E-08 
 -3.935249E-05 +1.081183E-04 +8.440687E-06 +1.081183E-04 -2.970532E-04 -2.319108E-05 +8.440687E-06 -2.319108E-05 +3.364057E-04 
 -7.596879E-09 -1.728878E-09 +1.169802E-10 -1.728878E-09 -6.395391E-09 +7.986531E-10 +1.169802E-10 +7.986531E-10 +1.399227E-08 
 -7.897928E-08 -8.828966E-09 +6.877693E-09 -8.828966E-09 -2.668522E-08 -9.081863E-10 +6.877693E-09 -9.081863E-10 +1.056645E-07 
 -3.245116E-05 -5.214677E-05 +1.889374E-05 -5.214677E-05 -7.283119E-05 -5.368340E-06 +1.889374E-05 -5.368340E-06 +1.052823E-04 
 -4.757742E-08 -1.169802E-08 -5.703179E-09 -1.169802E-08 -4.840555E-08 +3.585426E-09 -5.703179E-09 +3.585426E-09 +9.598297E-08 
 +1.164990E-07 +1.654457E-06 -1.566903E-06 +1.654457E-06 -6.944348E-06 -1.581560E-06 -1.566903E-06 -1.581560E-06 +6.827849E-06 
 -5.436604E-06 +1.225705E-06 +2.273527E-06 +1.225705E-06 -1.893285E-07 +3.056290E-07 +2.273527E-06 +3.056290E-07 +5.625933E-06 
 +8.029961E-08 +5.726404E-07 -6.623499E-07 +5.726404E-07 -1.963306E-06 -1.298041E-07 -6.623499E-07 -1.298041E-07 +1.883007E-06 
 -3.150772E-07 -8.691903E-07 +4.926046E-07 -8.691903E-07 -1.923832E-06 +1.288293E-07 +4.926046E-07 +1.288293E-07 +2.238909E-06 
 -3.825771E-08 -5.708933E-09 -5.934506E-09 -5.708933E-09 -4.410575E-08 -1.631606E-08 -5.934506E-09 -1.631606E-08 +8.236345E-08 
 -1.814384E-08 -7.714525E-09 +2.820068E-09 -7.714525E-09 -2.860391E-08 +1.812758E-09 +2.820068E-09 +1.812758E-09 +4.674775E-08 
 -1.500459E-07 -6.068127E-08 +9.262022E-08 -6.068127E-08 +2.091494E-08 -4.373686E-08 +9.262022E-08 -4.373686E-08 +1.291310E-07 
 -7.790087E-07 +9.262970E-07 -2.828600E-07 +9.262970E-07 -1.075343E-06 +6.205721E-07 -2.828600E-07 +6.205721E-07 +1.854352E-06 
 -3.117651E-09 +1.094256E-09 +1.883194E-10 +1.094256E-09 -7.005518E-09 -2.722383E-09 +1.883194E-10 -2.722383E-09 +1.012317E-08 
 -3.327415E-08 -1.491093E-08 -1.576242E-09 -1.491093E-08 -2.282295E-08 -4.295177E-09 -1.576242E-09 -4.295177E-09 +5.609710E-08 
 -4.603745E-08 +1.523012E-08 -1.284479E-08 +1.523012E-08 -7.329994E-08 +1.672175E-08 -1.284479E-08 +1.672175E-08 +1.193374E-07 
 -2.021223E-08 +2.055422E-09 -6.964568E-09 +2.055422E-09 -2.568794E-08 +1.098554E-08 -6.964568E-09 +1.098554E-08 +4.590016E-08 
 -1.257285E-08 +2.543695E-09 -5.201607E-10 +2.543695E-09 -1.693528E-08 -8.832819E-09 -5.201607E-10 -8.832819E-09 +2.950813E-08 
 -4.641253E-08 +2.253959E-09 +7.611582E-09 +2.253959E-09 -4.030308E-08 +1.285689E-10 +7.611582E-09 +1.285689E-10 +8.671560E-08 
 -6.072820E-08 +4.590565E-08 +5.335201E-09 +4.590565E-08 -9.855601E-08 -5.758146E-08 +5.335201E-09 -5.758146E-08 +1.592842E-07 
 -1.399898E-07 +3.101285E-08 -1.362379E-08 +3.101285E-08 -7.330178E-08 +6.575321E-09 -1.362379E-08 +6.575321E-09 +2.132915E-07 
 -4.265473E-06 -3.021036E-06 +1.825387E-06 -3.021036E-06 -1.534561E-06 -7.300297E-07 +1.825387E-06 -7.300297E-07 +5.800035E-06 
 +2.387606E-07 +2.101134E-07 +7.043067E-07 +2.101134E-07 -2.224904E-06 +5.679288E-07 +7.043067E-07 +5.679288E-07 +1.986144E-06 
 -1.963277E-08 +3.085460E-09 +1.079716E-08 +3.085460E-09 -1.541808E-08 -4.134995E-09 +1.079716E-08 -4.134995E-09 +3.505085E-08 
 -6.341602E-08 -1.004950E-07 +9.604951E-08 -1.004950E-07 -1.596127E-07 +9.228241E-08 +9.604951E-08 +9.228241E-08 +2.230287E-07 
 -2.341201E-06 -5.237907E-07 +1.348278E-06 -5.237907E-07 -1.167460E-07 +4.343895E-07 +1.348278E-06 +4.343895E-07 +2.457947E-06 
 -1.743417E-08 -4.820794E-10 -4.922537E-09 -4.820794E-10 -2.094259E-08 -6.973329E-09 -4.922537E-09 -6.973329E-09 +3.837675E-08 
 -6.194117E-05 -2.209576E-05 -4.789070E-06 -2.209576E-05 -7.290582E-06 -8.182538E-06 -4.789070E-06 -8.182538E-06 +6.923175E-05 
 -2.708318E-05 +3.356006E-05 +9.472046E-06 +3.356006E-05 -4.028960E-05 -2.123855E-06 +9.472046E-06 -2.123855E-06 +6.737278E-05 
 -4.381168E-08 +3.818097E-07 +1.846063E-07 +3.818097E-07 -1.771314E-06 +4.076346E-07 +1.846063E-07 +4.076346E-07 +1.815126E-06 
 -1.327652E-07 -4.742025E-08 -2.407990E-08 -4.742025E-08 -1.225330E-07 -5.936368E-09 -2.407990E-08 -5.936368E-09 +2.552982E-07 
 -7.308685E-05 +7.571407E-05 +2.128588E-05 +7.571407E-05 -7.607241E-05 -2.837406E-06 +2.128588E-05 -2.837406E-06 +1.491593E-04 
 +1.944570E-06 -1.174531E-06 -8.174362E-06 -1.174531E-06 -3.591818E-05 +8.389895E-06 -8.174362E-06 +8.389895E-06 +3.397361E-05 
 -2.814226E-06 -2.464187E-06 +2.296540E-06 -2.464187E-06 -1.856862E-06 +6.036178E-07 +2.296540E-06 +6.036178E-07 +4.671088E-06 
 -1.319083E-07 -5.684841E-08 +3.961549E-08 -5.684841E-08 -9.549624E-08 +2.744796E-08 +3.961549E-08 +2.744796E-08 +2.274045E-07 
 -7.734277E-05 -1.517386E-06 +1.132414E-05 -1.517386E-06 +1.814115E-06 +1.228710E-05 +1.132414E-05 +1.228710E-05 +7.552866E-05 
 -2.832057E-08 +3.801613E-08 +9.858321E-09 +3.801613E-08 -4.447495E-08 -4.996305E-08 +9.858321E-09 -4.996305E-08 +7.279553E-08 
 -6.957400E-08 -8.688180E-08 +5.807340E-08 -8.688180E-08 -1.223942E-07 +3.154310E-08 +5.807340E-08 +3.154310E-08 +1.919682E-07 
 -6.108324E-07 -1.229941E-07 -1.067049E-07 -1.229941E-07 +5.542670E-08 +1.997434E-07 -1.067049E-07 +1.997434E-07 +5.554057E-07 
 -3.015805E-07 +3.424410E-07 +9.486490E-08 +3.424410E-07 -2.551684E-07 +1.823356E-07 +9.486490E-08 +1.823356E-07 +5.567488E-07 
 -3.888251E-05 +3.630831E-05 +3.996569E-06 +3.630831E-05 -3.179143E-05 -1.601576E-05 +3.996569E-06 -1.601576E-05 +7.067395E-05 
 -2.323606E-05 +4.346193E-05 +2.788749E-05 +4.346193E-05 -4.787760E-05 +6.962950E-06 +2.788749E-05 +6.962950E-06 +7.111367E-05 
 -1.293151E-07 +3.477957E-08 +8.572179E-08 +3.477957E-08 -7.977501E-09 +5.606402E-09 +8.572179E-08 +5.606402E-09 +1.372926E-07 
 -5.177570E-07 +8.960994E-06 -6.812322E-06 +8.960994E-06 -2.859756E-05 -4.681645E-06 -6.812322E-06 -4.681645E-06 +2.911532E-05 
 -2.582631E-05 +6.984983E-05 -1.721447E-06 +6.984983E-05 -1.443490E-04 +9.233894E-05 -1.721447E-06 +9.233894E-05 +1.701753E-04 
 -1.837207E-07 +3.469270E-07 +2.761194E-07 +3.469270E-07 -3.291638E-07 +3.131864E-08 +2.761194E-07 +3.131864E-08 +5.128845E-07 
 -1.257454E-06 +1.839229E-06 +3.565225E-07 +1.839229E-06 -2.689128E-06 -5.999033E-07 +3.565225E-07 -5.999033E-07 +3.946581E-06 
 -3.066410E-08 -3.105417E-07 -1.343206E-07 -3.105417E-07 -1.205520E-06 +5.570362E-07 -1.343206E-07 +5.570362E-07 +1.236185E-06 
 -7.073588E-06 -3.480612E-07 -5.984937E-07 -3.480612E-07 +6.915607E-07 +2.108237E-06 -5.984937E-07 +2.108237E-06 +6.382027E-06 
 -2.837422E-06 -2.590524E-07 +5.018593E-07 -2.590524E-07 -2.708497E-08 +3.542933E-08 +5.018593E-07 +3.542933E-08 +2.864507E-06 
 -3.432595E-07 -2.536833E-07 -2.365802E-07 -2.536833E-07 -1.001208E-07 +6.173163E-08 -2.365802E-07 +6.173163E-08 +4.433803E-07 
 -2.394606E-08 +6.878420E-09 -5.840167E-09 +6.878420E-09 -5.745725E-08 +1.675390E-09 -5.840167E-09 +1.675390E-09 +8.140331E-08 
 -2.462599E-08 -1.874035E-09 +1.630407E-09 -1.874035E-09 -2.919922E-08 +1.157155E-09 +1.630407E-09 +1.157155E-09 +5.382522E-08 
 -7.140690E-06 +3.658842E-06 +7.692719E-07 +3.658842E-06 -1.625577E-06 +1.097233E-06 +7.692719E-07 +1.097233E-06 +8.766267E-06 
 +3.026353E-07 -1.023565E-06 +1.758825E-06 -1.023565E-06 -4.600539E-06 +7.604452E-07 +1.758825E-06 +7.604452E-07 +4.297904E-06 
 -1.137004E-04 -4.138333E-05 +3.373478E-06 -4.138333E-05 -1.506302E-05 +1.227471E-06 +3.373478E-06 +1.227471E-06 +1.287634E-04 
 -5.900146E-06 -5.447414E-06 -7.549156E-07 -5.447414E-06 -4.737373E-06 +1.078939E-06 -7.549156E-07 +1.078939E-06 +1.063752E-05 
 -2.219236E-07 +4.542760E-07 -2.699071E-07 +4.542760E-07 -4.698946E-07 -1.390398E-07 -2.699071E-07 -1.390398E-07 +6.918182E-07 
 -8.334305E-08 +7.445044E-09 +4.226702E-09 +7.445044E-09 -9.982824E-08 +8.716197E-09 +4.226702E-09 +8.716197E-09 +1.831713E-07 
 -1.142226E-08 +1.424831E-10 -1.233725E-09 +1.424831E-10 -1.064195E-08 -4.354204E-09 -1.233725E-09 -4.354204E-09 +2.206421E-08 
 -5.944073E-08 +1.090689E-07 +1.265469E-08 +1.090689E-07 -1.378763E-07 +8.216556E-08 +1.265469E-08 +8.216556E-08 +1.973170E-07 
 -1.594706E-06 -8.657659E-07 +1.065513E-06 -8.657659E-07 -4.834947E-07 +5.187110E-07 +1.065513E-06 +5.187110E-07 +2.078201E-06 
 -7.905567E-07 -1.076960E-06 +1.037288E-07 -1.076960E-06 -1.446083E-06 -8.743855E-08 +1.037288E-07 -8.743855E-08 +2.236640E-06 
 -6.688789E-05 +2.995053E-05 -4.331546E-05 +2.995053E-05 -5.727251E-06 -8.478794E-06 -4.331546E-05 -8.478794E-06 +7.261514E-05 
 -6.283880E-06 +2.344717E-05 -3.442478E-06 +2.344717E-05 -8.750727E-05 +1.284546E-05 -3.442478E-06 +1.284546E-05 +9.379115E-05 
 -2.572720E-07 +3.911687E-08 +2.199359E-08 +3.911687E-08 -1.102060E-07 -3.463391E-08 +2.199359E-08 -3.463391E-08 +3.674780E-07 
 -3.328008E-06 -3.706132E-07 +1.209993E-06 -3.706132E-07 -3.204815E-09 +5.295487E-07 +1.209993E-06 +5.295487E-07 +3.331213E-06 
 -3.081388E-06 -1.224477E-06 +2.574475E-08 -1.224477E-06 -2.054974E-07 +9.726327E-07 +2.574475E-08 +9.726327E-07 +3.286885E-06 
 -1.670691E-07 +4.524840E-07 +5.032668E-08 +4.524840E-07 -1.247197E-06 -5.095691E-07 +5.032668E-08 -5.095691E-07 +1.414266E-06 
 -3.540667E-08 -4.861309E-08 -5.297510E-08 -4.861309E-08 -8.726933E-08 -4.245641E-08 -5.297510E-08 -4.245641E-08 +1.226760E-07 
 +1.178754E-07 +8.012775E-07 -1.069748E-06 +8.012775E-07 -4.244757E-06 -2.134230E-07 -1.069748E-06 -2.134230E-07 +4.126882E-06 
 -5.395993E-05 +1.064695E-04 +7.457673E-05 +1.064695E-04 -1.992902E-04 -8.488591E-05 +7.457673E-05 -8.488591E-05 +2.532502E-04 
 -8.219377E-05 +2.440445E-05 -1.720652E-06 +2.440445E-05 -6.051966E-06 -9.760885E-06 -1.720652E-06 -9.760885E-06 +8.824574E-05 
 -2.452521E-07 -5.584640E-07 +3.470306E-07 -5.584640E-07 -7.327801E-07 -1.092671E-07 +3.470306E-07 -1.092671E-07 +9.780322E-07 
 +3.811565E-08 +3.769799E-08 +1.009144E-07 +3.769799E-08 -2.793134E-07 +1.702314E-07 +1.009144E-07 +1.702314E-07 +2.411978E-07 
 -1.992241E-08 +6.109646E-09 +1.291541E-08 +6.109646E-09 -3.663713E-09 +1.748615E-09 +1.291541E-08 +1.748615E-09 +2.358613E-08 
 -3.316435E-07 -1.392583E-06 +7.362308E-07 -1.392583E-06 -5.152875E-06 +8.520007E-07 +7.362308E-07 +8.520007E-07 +5.484519E-06 
 -5.147102E-06 +4.133090E-06 +1.552710E-06 +4.133090E-06 -2.738968E-06 -3.456362E-06 +1.552710E-06 -3.456362E-06 +7.886070E-06 
 -7.235084E-08 -5.082924E-07 -3.244916E-07 -5.082924E-07 -3.649345E-06 -1.313628E-06 -3.244916E-07 -1.313628E-06 +3.721696E-06 
 -3.638591E-05 +3.509538E-05 +1.519254E-05 +3.509538E-05 -3.335638E-05 -2.132595E-05 +1.519254E-05 -2.132595E-05 +6.974229E-05 
 -3.557818E-05 -1.628371E-07 -9.315650E-07 -1.628371E-07 +1.040689E-06 +6.075230E-06 -9.315650E-07 +6.075230E-06 +3.453749E-05 
 -1.252669E-07 -5.480701E-08 +2.122583E-08 -5.480701E-08 -4.134085E-08 -2.319322E-08 +2.122583E-08 -2.319322E-08 +1.666077E-07 
 -3.411225E-10 +3.703055E-08 -7.572634E-08 +3.703055E-08 -5.594071E-07 +1.902241E-07 -7.572634E-08 +1.902241E-07 +5.597482E-07 
 -3.225227E-07 +9.194826E-07 -5.157659E-07 +9.194826E-07 -1.365009E-06 -3.181247E-07 -5.157659E-07 -3.181247E-07 +1.687532E-06 
 -3.144455E-06 +4.063825E-07 -1.062587E-06 +4.063825E-07 +9.075424E-08 -5.699892E-07 -1.062587E-06 -5.699892E-07 +3.053701E-06 
 -1.126478E-08 +1.275605E-05 -1.263710E-05 +1.275605E-05 -1.448622E-04 -9.379200E-07 -1.263710E-05 -9.379200E-07 +1.448735E-04 
 -5.119021E-08 +7.807042E-09 -3.269148E-08 +7.807042E-09 -6.235712E-10 -6.665575E-09 -3.269148E-08 -6.665575E-09 +5.181378E-08 
 -8.042293E-08 -1.331258E-08 +4.691047E-09 -1.331258E-08 -3.452781E-08 +9.168019E-09 +4.691047E-09 +9.168019E-09 +1.149507E-07 
 -2.601337E-04 -7.225799E-05 +2.824579E-05 -7.225799E-05 -1.777959E-05 -1.759574E-05 +2.824579E-05 -1.759574E-05 +2.779133E-04 
 -6.305719E-05 -6.691261E-05 -1.549816E-05 -6.691261E-05 -6.295928E-05 +1.591077E-05 -1.549816E-05 +1.591077E-05 +1.260165E-04 
 -3.595381E-05 +1.145576E-05 +6.165757E-06 +1.145576E-05 -3.564997E-06 -3.900487E-06 +6.165757E-06 -3.900487E-06 +3.951880E-05 
 -3.204534E-07 -6.017372E-07 +4.257621E-07 -6.017372E-07 -9.898661E-07 +2.611663E-07 +4.257621E-07 +2.611663E-07 +1.310319E-06 
 -6.802733E-08 +2.101457E-08 +1.391576E-08 +2.101457E-08 -9.044306E-08 -3.109265E-08 +1.391576E-08 -3.109265E-08 +1.584704E-07 
 -4.598859E-06 -1.630527E-06 +1.452585E-06 -1.630527E-06 -2.043903E-07 -9.308641E-07 +1.452585E-06 -9.308641E-07 +4.803249E-06 
 -4.786230E-06 +8.813861E-07 +1.257762E-06 +8.813861E-07 +4.389127E-07 +1.458975E-06 +1.257762E-06 +1.458975E-06 +4.347317E-06 
 -9.239790E-09 +1.976423E-09 +4.125994E-09 +1.976423E-09 -6.902894E-09 +1.438850E-10 +4.125994E-09 +1.438850E-10 +1.614268E-08 
 -2.698288E-09 +1.266831E-08 -6.025871E-09 +1.266831E-08 -4.390490E-08 -2.908579E-08 -6.025871E-09 -2.908579E-08 +4.660319E-08 
 -1.035852E-07 +1.348158E-06 +1.040261E-06 +1.348158E-06 -3.138707E-06 +5.448115E-07 +1.040261E-06 +5.448115E-07 +3.242292E-06 
 -6.466188E-06 -2.200663E-07 +1.280055E-06 -2.200663E-07 +4.377621E-07 +1.728386E-06 +1.280055E-06 +1.728386E-06 +6.028426E-06 
 -1.522319E-07 +1.291641E-08 -1.171769E-08 +1.291641E-08 -3.956445E-08 +2.083205E-09 -1.171769E-08 +2.083205E-09 +1.917964E-07 
 -3.593079E-08 -3.509382E-09 -4.854675E-09 -3.509382E-09 -4.158823E-08 +7.765171E-10 -4.854675E-09 +7.765171E-10 +7.751902E-08 
 -1.981956E-07 -1.159558E-06 -1.984292E-07 -1.159558E-06 -4.889828E-06 +2.041496E-06 -1.984292E-07 +2.041496E-06 +5.088024E-06 
 -2.240810E-08 -2.853709E-09 -1.146876E-09 -2.853709E-09 -4.327480E-08 -4.675459E-09 -1.146876E-09 -4.675459E-09 +6.568290E-08 
 -7.025212E-05 +1.803611E-05 +8.687455E-06 +1.803611E-05 -4.017873E-06 -9.051252E-06 +8.687455E-06 -9.051252E-06 +7.427000E-05 
 -4.034850E-07 +3.429655E-07 +1.099266E-07 +3.429655E-07 -1.451911E-07 -3.876681E-07 +1.099266E-07 -3.876681E-07 +5.486762E-07 
 -1.397730E-07 -2.644422E-08 -1.018683E-09 -2.644422E-08 -1.455786E-07 -6.557770E-08 -1.018683E-09 -6.557770E-08 +2.853516E-07 
 -1.481179E-08 -1.721019E-09 -4.159570E-09 -1.721019E-09 -3.327266E-08 +1.423606E-08 -4.159570E-09 +1.423606E-08 +4.808444E-08 
 -1.126746E-05 +3.589961E-07 -2.039386E-06 +3.589961E-07 +1.957973E-08 -5.709102E-07 -2.039386E-06 -5.709102E-07 +1.124788E-05 
 -5.246577E-05 +1.383803E-05 -1.838596E-05 +1.383803E-05 +1.032159E-06 +2.133453E-05 -1.838596E-05 +2.133453E-05 +5.143361E-05 
 -2.898732E-08 +6.711001E-09 +2.521921E-10 +6.711001E-09 -2.444963E-08 -3.237985E-09 +2.521921E-10 -3.237985E-09 +5.343695E-08 
 -3.141309E-05 -7.630619E-05 +1.423637E-05 -7.630619E-05 -1.215753E-04 -6.635718E-05 +1.423637E-05 -6.635718E-05 +1.529884E-04 
 -7.222891E-08 -1.400851E-09 +4.311202E-09 -1.400851E-09 -1.977475E-07 +1.803311E-08 +4.311202E-09 +1.803311E-08 +2.699764E-07 
 -3.036387E-06 -3.036359E-06 +8.725544E-07 -3.036359E-06 -3.036392E-06 +8.725482E-07 +8.725544E-07 +8.725482E-07 +6.072779E-06 
 -2.391479E-08 -5.948927E-09 -1.170083E-08 -5.948927E-09 -1.303092E-08 -6.195459E-09 -1.170083E-08 -6.195459E-09 +3.694571E-08 
 -9.449410E-06 -2.596064E-05 +6.854979E-06 -2.596064E-05 -7.132668E-05 +1.883425E-05 +6.854979E-06 +1.883425E-05 +8.077609E-05 
 -6.594379E-06 +9.781180E-07 -1.024348E-06 +9.781180E-07 +6.331073E-08 +1.347117E-06 -1.024348E-06 +1.347117E-06 +6.531068E-06 
 -1.877000E-04 +5.111151E-05 +9.061117E-06 +5.111151E-05 -1.228803E-05 +1.567640E-05 +9.061117E-06 +1.567640E-05 +1.999881E-04 
 -6.453306E-06 +4.805520E-06 -2.557728E-06 +4.805520E-06 -1.951437E-06 -2.011900E-06 -2.557728E-06 -2.011900E-06 +8.404743E-06 
 +1.594797E-06 +9.784534E-07 -6.571771E-06 +9.784534E-07 -1.981707E-05 +9.219573E-06 -6.571771E-06 +9.219573E-06 +1.822228E-05 
 -2.288526E-08 -1.004428E-08 -1.156918E-08 -1.004428E-08 -1.215756E-08 -2.913909E-09 -1.156918E-08 -2.913909E-09 +3.504282E-08 
 -6.284736E-10 +5.610383E-07 +6.684405E-07 +5.610383E-07 -2.417910E-06 -4.260960E-07 +6.684405E-07 -4.260960E-07 +2.418538E-06 
 -2.538845E-10 -2.222052E-07 +2.647930E-07 -2.222052E-07 -6.891401E-06 +1.215099E-06 +2.647930E-07 +1.215099E-06 +6.891655E-06 
 -1.950166E-06 +5.386308E-07 +5.594659E-07 +5.386308E-07 -9.249424E-08 -5.396639E-07 +5.594659E-07 -5.396639E-07 +2.042660E-06 
 -2.554179E-05 +7.016832E-05 +1.565370E-05 +7.016832E-05 -1.927882E-04 -4.300692E-05 +1.565370E-05 -4.300692E-05 +2.183300E-04 
 -5.743010E-06 +4.718695E-06 -2.676815E-07 +4.718695E-06 -2.838046E-06 +3.220081E-06 -2.676815E-07 +3.220081E-06 +8.581055E-06 
 -1.649838E-05 -2.879284E-05 +1.703008E-05 -2.879284E-05 -4.298238E-05 +6.043104E-06 +1.703008E-05 +6.043104E-06 +5.948077E-05 
 -1.394330E-08 -1.028158E-09 -3.186962E-09 -1.028158E-09 -1.367690E-08 -7.340121E-09 -3.186962E-09 -7.340121E-09 +2.762020E-08 
 -1.188223E-04 +3.183777E-05 -3.002307E-05 +3.183777E-05 -8.532892E-06 +8.044420E-06 -3.002307E-05 +8.044420E-06 +1.273552E-04 
 +4.960222E-07 +3.539493E-07 -1.539675E-06 +3.539493E-07 -4.211038E-06 +1.042586E-06 -1.539675E-06 +1.042586E-06 +3.715016E-06 
 -1.790901E-08 +4.228151E-09 +1.731031E-09 +4.228151E-09 -2.192458E-08 -3.741496E-09 +1.731031E-09 -3.741496E-09 +3.983358E-08 
 -2.692706E-05 -3.387996E-06 -2.435740E-06 -3.387996E-06 +1.059155E-06 -6.579893E-06 -2.435740E-06 -6.579893E-06 +2.586790E-05 
 +1.469837E-08 +5.617823E-08 +3.664978E-08 +5.617823E-08 -4.892708E-08 -4.428791E-08 +3.664978E-08 -4.428791E-08 +3.422871E-08 
 -5.302127E-07 -3.668068E-07 -2.317245E-07 -3.668068E-07 -2.626860E-07 -1.647106E-07 -2.317245E-07 -1.647106E-07 +7.928987E-07 
 -2.761822E-08 -1.628268E-08 -2.214387E-10 -1.628268E-08 -3.586906E-08 -5.716503E-09 -2.214387E-10 -5.716503E-09 +6.348728E-08 
 -2.850256E-05 +1.562039E-05 +2.487082E-06 +1.562039E-05 -7.914827E-06 +3.544567E-06 +2.487082E-06 +3.544567E-06 +3.641739E-05 
 -2.268639E-08 +2.154401E-08 -1.986969E-08 +2.154401E-08 -7.944013E-08 -3.382635E-08 -1.986969E-08 -3.382635E-08 +1.021265E-07 
 -1.088452E-07 +2.282215E-08 +4.848490E-08 +2.282215E-08 -7.897794E-10 +2.936700E-08 +4.848490E-08 +2.936700E-08 +1.096350E-07 
 -2.941293E-08 -5.106769E-09 +6.486490E-09 -5.106769E-09 -3.321109E-08 +1.775588E-08 +6.486490E-09 +1.775588E-08 +6.262403E-08 
 -1.693622E-07 -3.763268E-07 -7.002414E-08 -3.763268E-07 -8.029280E-07 -3.666168E-07 -7.002414E-08 -3.666168E-07 +9.722902E-07 
 -2.181717E-08 -6.453358E-09 -2.670896E-09 -6.453358E-09 -3.685106E-08 -1.207886E-08 -2.670896E-09 -1.207886E-08 +5.866823E-08 
 -4.224021E-07 +1.189478E-06 -3.021970E-08 +1.189478E-06 -3.360917E-06 -1.170714E-08 -3.021970E-08 -1.170714E-08 +3.783319E-06 
 -5.502970E-06 -2.310548E-06 +2.056910E-06 -2.310548E-06 -9.539656E-07 +1.216688E-06 +2.056910E-06 +1.216688E-06 +6.456936E-06 
 +1.494590E-07 +1.571371E-06 +2.070535E-06 +1.571371E-06 -6.778642E-06 -8.793356E-07 +2.070535E-06 -8.793356E-07 +6.629183E-06 
 +6.773409E-08 -1.303314E-07 -2.711999E-07 -1.303314E-07 -5.946658E-07 -1.365258E-07 -2.711999E-07 -1.365258E-07 +5.269317E-07 
 -6.828976E-05 -1.506187E-05 -1.834700E-06 -1.506187E-05 +3.154966E-06 -2.095484E-05 -1.834700E-06 -2.095484E-05 +6.513479E-05 
 -9.461247E-08 -6.634540E-09 -2.065750E-08 -6.634540E-09 -7.115858E-09 +1.284214E-08 -2.065750E-08 +1.284214E-08 +1.017283E-07 
 -7.925480E-09 +5.606574E-10 -2.140051E-09 +5.606574E-10 -9.948527E-09 +5.415562E-10 -2.140051E-09 +5.415562E-10 +1.787401E-08 
 -1.665814E-08 -5.224252E-07 +5.441462E-07 -5.224252E-07 -9.777076E-07 +5.515472E-08 +5.441462E-07 +5.515472E-08 +9.943657E-07 
 -1.396489E-08 -1.686819E-10 +3.886460E-09 -1.686819E-10 -9.595717E-09 +5.800879E-09 +3.886460E-09 +5.800879E-09 +2.356061E-08 
 -6.192633E-09 -3.445622E-10 -1.444292E-09 -3.445622E-10 -6.167888E-09 -3.613252E-09 -1.444292E-09 -3.613252E-09 +1.236052E-08 
 -8.332948E-08 +1.981123E-05 +1.881503E-05 +1.981123E-05 -2.202916E-04 +6.133166E-06 +1.881503E-05 +6.133166E-06 +2.203750E-04 
 -3.358133E-06 +1.150747E-06 -2.052567E-06 +1.150747E-06 -2.404623E-07 -2.832679E-07 -2.052567E-06 -2.832679E-07 +3.598595E-06 
 -3.682779E-08 -1.565109E-08 -2.543628E-10 -1.565109E-08 -4.430316E-08 -7.084925E-09 -2.543628E-10 -7.084925E-09 +8.113096E-08 
 +2.260359E-07 +5.593454E-08 +6.529992E-07 +5.593454E-08 -1.700136E-06 -6.520441E-07 +6.529992E-07 -6.520441E-07 +1.474100E-06 
 -2.708544E-06 +4.423410E-06 +1.207576E-06 +4.423410E-06 -5.368969E-06 +2.039766E-06 +1.207576E-06 +2.039766E-06 +8.077513E-06 
 -1.720517E-07 +1.306683E-07 +1.114294E-07 +1.306683E-07 -1.092895E-07 -1.099325E-07 +1.114294E-07 -1.099325E-07 +2.813412E-07 
 -7.706227E-07 -2.633676E-07 +5.602262E-07 -2.633676E-07 -5.445314E-08 -3.180960E-08 +5.602262E-07 -3.180960E-08 +8.250759E-07 
 -9.193116E-07 +1.467479E-06 +1.451714E-06 +1.467479E-06 -1.652536E-06 -4.796947E-07 +1.451714E-06 -4.796947E-07 +2.571847E-06 
 -7.487705E-08 -1.016428E-09 +1.808802E-08 -1.016428E-09 -9.795619E-08 -5.711468E-09 +1.808802E-08 -5.711468E-09 +1.728332E-07 
 +4.173724E-09 +2.287710E-08 -3.805025E-08 +2.287710E-08 -1.285140E-07 +6.552368E-08 -3.805025E-08 +6.552368E-08 +1.243403E-07 
 -5.903144E-06 -2.181556E-06 -1.715592E-06 -2.181556E-06 -5.533704E-07 +6.959585E-07 -1.715592E-06 +6.959585E-07 +6.456515E-06 
 -1.371036E-06 +1.678745E-06 +2.275968E-07 +1.678745E-06 -2.001930E-06 +1.587588E-07 +2.275968E-07 +1.587588E-07 +3.372965E-06 
 -4.353055E-05 -4.345456E-05 +5.355837E-08 -4.345456E-05 -2.536246E-05 -3.526229E-05 +5.355837E-08 -3.526229E-05 +6.889301E-05 
 -3.681866E-07 +1.060624E-06 +5.689901E-07 +1.060624E-06 -1.402261E-06 +4.691904E-07 +5.689901E-07 +4.691904E-07 +1.770448E-06 
 -8.992172E-07 +1.736489E-06 +9.786191E-07 +1.736489E-06 -2.415535E-06 +1.464445E-07 +9.786191E-07 +1.464445E-07 +3.314752E-06 
 -2.560383E-05 -1.650641E-06 -5.482529E-06 -1.650641E-06 +1.376969E-06 -6.493204E-06 -5.482529E-06 -6.493204E-06 +2.422686E-05 
 -1.068412E-06 +2.372230E-06 +3.977996E-07 +2.372230E-06 -5.004311E-06 +4.030863E-07 +3.977996E-07 +4.030863E-07 +6.072722E-06 
 -9.604719E-07 +1.680287E-06 +6.759122E-07 +1.680287E-06 -2.173525E-06 +4.922929E-07 +6.759122E-07 +4.922929E-07 +3.133997E-06 
 -9.934126E-08 -1.124617E-07 -1.105159E-08 -1.124617E-07 -1.338213E-07 +6.304812E-08 -1.105159E-08 +6.304812E-08 +2.331626E-07 
 -1.155005E-06 -1.278655E-07 +5.710771E-08 -1.278655E-07 +1.694797E-07 -4.229464E-07 +5.710771E-08 -4.229464E-07 +9.855254E-07 
 -3.900169E-06 -1.060619E-05 -3.788487E-06 -1.060619E-05 -2.495167E-05 +1.011544E-06 -3.788487E-06 +1.011544E-06 +2.885183E-05 
 -1.338048E-07 +1.057469E-07 +1.032514E-09 +1.057469E-07 -2.601334E-07 -2.838307E-08 +1.032514E-09 -2.838307E-08 +3.939382E-07 
 +9.085988E-09 +6.864847E-09 -6.211751E-09 +6.864847E-09 -1.848139E-08 +1.369949E-08 -6.211751E-09 +1.369949E-08 +9.395401E-09 
 -6.823772E-08 -1.870931E-08 -1.108366E-08 -1.870931E-08 -1.264793E-07 -4.089377E-08 -1.108366E-08 -4.089377E-08 +1.947170E-07 
 -1.411546E-07 +7.222350E-08 -7.421531E-08 +7.222350E-08 -1.068021E-08 -3.947244E-08 -7.421531E-08 -3.947244E-08 +1.518348E-07 
 -3.780054E-07 +1.618909E-07 -7.011509E-08 +1.618909E-07 -1.134782E-08 +1.943165E-07 -7.011509E-08 +1.943165E-07 +3.893532E-07 
 -7.735565E-06 +6.276006E-07 +1.464433E-06 +6.276006E-07 +1.683437E-07 -1.432062E-06 +1.464433E-06 -1.432062E-06 +7.567222E-06 
 -2.162801E-07 -2.443716E-07 +7.768042E-09 -2.443716E-07 -1.238738E-07 +2.383493E-07 +7.768042E-09 +2.383493E-07 +3.401540E-07 
 -2.166532E-06 -2.132843E-06 +3.528882E-07 -2.132843E-06 -1.926550E-06 -5.050243E-07 +3.528882E-07 -5.050243E-07 +4.093082E-06 
 -2.682948E-08 +9.368438E-09 -1.081557E-08 +9.368438E-09 -1.499292E-08 +8.531664E-09 -1.081557E-08 +8.531664E-09 +4.182240E-08 
 -1.230420E-07 -1.411027E-07 -1.071100E-07 -1.411027E-07 -2.077184E-07 -1.285816E-07 -1.071100E-07 -1.285816E-07 +3.307604E-07 
 +1.099288E-07 +3.825623E-07 +6.698478E-07 +3.825623E-07 -1.495067E-06 -4.008242E-07 +6.698478E-07 -4.008242E-07 +1.385139E-06 
 -3.159407E-06 -1.858059E-06 -1.543987E-06 -1.858059E-06 -1.056584E-06 -4.667252E-07 -1.543987E-06 -4.667252E-07 +4.215991E-06 
 -1.028949E-06 +7.498986E-08 -6.373971E-07 +7.498986E-08 +2.191752E-08 -1.812436E-07 -6.373971E-07 -1.812436E-07 +1.007032E-06 
 -4.528437E-06 -2.765795E-06 -1.012025E-06 -2.765795E-06 -1.690120E-06 -4.348408E-07 -1.012025E-06 -4.348408E-07 +6.218556E-06 
 -3.314670E-08 +9.747722E-08 +4.610059E-09 +9.747722E-08 -2.360116E-07 -1.016648E-07 +4.610059E-09 -1.016648E-07 +2.691583E-07 
 -2.574679E-07 -1.715490E-06 -1.189613E-06 -1.715490E-06 -5.948042E-06 +1.027665E-07 -1.189613E-06 +1.027665E-07 +6.205510E-06 
 -8.547631E-07 -2.418203E-06 +1.641496E-07 -2.418203E-06 -6.248781E-06 +2.627516E-06 +1.641496E-07 +2.627516E-06 +7.103544E-06 
 -1.138586E-05 +1.106983E-06 +1.476421E-06 +1.106983E-06 +2.175160E-07 -2.084206E-06 +1.476421E-06 -2.084206E-06 +1.116835E-05 
 -2.979121E-07 +1.348581E-06 +2.303402E-07 +1.348581E-06 -5.923080E-06 +6.191148E-08 +2.303402E-07 +6.191148E-08 +6.220992E-06 
 -3.106497E-07 +1.313163E-08 +7.426467E-08 +1.313163E-08 -3.768437E-08 -2.063045E-08 +7.426467E-08 -2.063045E-08 +3.483340E-07 
 -4.858264E-07 -5.132571E-08 +1.226090E-07 -5.132571E-08 +2.972204E-08 -1.485268E-07 +1.226090E-07 -1.485268E-07 +4.561043E-07 
 -1.332972E-04 +2.136726E-04 -1.528762E-04 +2.136726E-04 -3.277483E-04 +1.480218E-04 -1.528762E-04 +1.480218E-04 +4.610455E-04 
 -5.502049E-05 -1.024827E-05 +2.021328E-06 -1.024827E-05 +2.006327E-06 -1.405236E-05 +2.021328E-06 -1.405236E-05 +5.301416E-05 
 -1.110025E-04 -4.950742E-05 -5.100812E-06 -4.950742E-05 -1.859199E-05 +1.908894E-05 -5.100812E-06 +1.908894E-05 +1.295945E-04 
 -1.253436E-07 -8.780978E-09 -5.506715E-08 -8.780978E-09 -2.116999E-08 -2.513520E-08 -5.506715E-08 -2.513520E-08 +1.465136E-07 
 -3.672176E-08 -8.736236E-08 +1.109578E-07 -8.736236E-08 -1.936422E-07 +1.035327E-07 +1.109578E-07 +1.035327E-07 +2.303640E-07 
 -2.889483E-05 +1.404933E-05 +5.993452E-06 +1.404933E-05 -6.498944E-06 +6.172966E-07 +5.993452E-06 +6.172966E-07 +3.539378E-05 
 -2.501177E-05 -4.775921E-05 +2.541395E-05 -4.775921E-05 -8.700196E-05 +2.442746E-05 +2.541395E-05 +2.442746E-05 +1.120137E-04 
 -1.710461E-08 +1.376049E-08 -6.033461E-09 +1.376049E-08 -2.208716E-08 +1.520238E-08 -6.033461E-09 +1.520238E-08 +3.919177E-08 
 -1.674284E-05 -1.453774E-05 +8.698289E-07 -1.453774E-05 -9.921120E-06 +9.256660E-06 +8.698289E-07 +9.256660E-06 +2.666396E-05 
 -3.061919E-06 -2.060001E-05 +1.065659E-05 -2.060001E-05 -7.374731E-05 -1.451465E-05 +1.065659E-05 -1.451465E-05 +7.680922E-05 
 -8.464224E-05 -6.365900E-05 +2.045746E-05 -6.365900E-05 -4.182013E-05 -1.288069E-05 +2.045746E-05 -1.288069E-05 +1.264624E-04 
 -2.121290E-06 -1.227279E-06 -9.567059E-07 -1.227279E-06 -1.493081E-07 +6.914288E-07 -9.567059E-07 +6.914288E-07 +2.270598E-06 
 -4.399167E-08 -6.232286E-10 +2.878858E-09 -6.232286E-10 -6.137841E-08 +4.611185E-09 +2.878858E-09 +4.611185E-09 +1.053701E-07 
 -1.217652E-08 +1.752051E-09 -4.226465E-09 +1.752051E-09 -8.005625E-09 +1.324168E-09 -4.226465E-09 +1.324168E-09 +2.018214E-08 
 -1.491955E-07 -6.902872E-08 +9.249332E-08 -6.902872E-08 -3.522951E-08 +4.387279E-08 +9.249332E-08 +4.387279E-08 +1.844250E-07 
 -9.070943E-08 -1.501282E-07 +8.148916E-08 -1.501282E-07 -1.920635E-07 -5.185319E-08 +8.148916E-08 -5.185319E-08 +2.827729E-07 
 -2.178201E-04 -1.015710E-04 -9.281340E-05 -1.015710E-04 -4.736399E-05 -4.328012E-05 -9.281340E-05 -4.328012E-05 +2.651840E-04 
 -6.130526E-07 -4.251967E-07 +5.469056E-07 -4.251967E-07 -2.711453E-07 +1.326180E-07 +5.469056E-07 +1.326180E-07 +8.841980E-07 
 -2.841726E-07 +7.998773E-07 +1.837138E-07 +7.998773E-07 -1.705723E-06 +5.568656E-07 +1.837138E-07 +5.568656E-07 +1.989896E-06 
 -5.452373E-08 -3.462317E-08 -1.691682E-09 -3.462317E-08 -9.170287E-08 +1.189966E-08 -1.691682E-09 +1.189966E-08 +1.462266E-07 
 -1.067079E-07 -3.302698E-07 +3.429641E-07 -3.302698E-07 -3.707984E-07 +4.176168E-08 +3.429641E-07 +4.176168E-08 +4.775064E-07 
 -2.900462E-08 +9.888255E-10 +1.181764E-08 +9.888255E-10 -2.472880E-08 +3.003446E-09 +1.181764E-08 +3.003446E-09 +5.373342E-08 
 -6.622301E-05 +3.279127E-05 +1.979827E-05 +3.279127E-05 -1.542187E-05 -1.351211E-06 +1.979827E-05 -1.351211E-06 +8.164488E-05 
 -3.998156E-08 +5.334855E-09 -1.162914E-08 +5.334855E-09 -5.577684E-08 +1.560714E-08 -1.162914E-08 +1.560714E-08 +9.575841E-08 
 -3.381426E-05 -4.356525E-06 +7.906769E-06 -4.356525E-06 +5.058641E-07 -5.188252E-06 +7.906769E-06 -5.188252E-06 +3.330839E-05 
 -9.607656E-07 -1.591057E-07 -4.552742E-07 -1.591057E-07 +4.338595E-08 +2.542795E-07 -4.552742E-07 +2.542795E-07 +9.173797E-07 
 -2.702161E-10 -4.081870E-08 -4.084720E-08 -4.081870E-08 -4.162448E-06 -9.769930E-11 -4.084720E-08 -9.769930E-11 +4.162719E-06 
 -1.608735E-07 +1.187824E-08 +1.018652E-07 +1.187824E-08 +3.919613E-08 -1.201880E-08 +1.018652E-07 -1.201880E-08 +1.216773E-07 
 -3.177737E-06 -3.723669E-07 -9.529172E-07 -3.723669E-07 +3.182827E-07 +9.806033E-07 -9.529172E-07 +9.806033E-07 +2.859454E-06 
 -1.233713E-06 -1.057948E-06 +7.633073E-07 -1.057948E-06 -6.981913E-07 -2.100894E-07 +7.633073E-07 -2.100894E-07 +1.931904E-06 
 -2.486986E-08 -2.820327E-09 -1.009920E-08 -2.820327E-09 -2.195879E-08 -1.077434E-08 -1.009920E-08 -1.077434E-08 +4.682865E-08 
 -1.222234E-08 +2.555605E-07 +3.751829E-07 +2.555605E-07 -6.815923E-07 -1.657062E-07 +3.751829E-07 -1.657062E-07 +6.938146E-07 
 -2.919950E-05 -2.554581E-06 +5.354079E-06 -2.554581E-06 -2.240528E-07 +4.682333E-07 +5.354079E-06 +4.682333E-07 +2.942356E-05 
 -9.843185E-05 +4.297914E-05 -5.413328E-05 +4.297914E-05 -1.195867E-05 -7.294435E-06 -5.413328E-05 -7.294435E-06 +1.103905E-04 
 -7.166621E-06 +9.456485E-07 +2.653208E-06 +9.456485E-07 -1.252033E-07 -4.307504E-09 +2.653208E-06 -4.307504E-09 +7.291824E-06 
 -3.155621E-05 +3.155530E-05 -1.065263E-05 +3.155530E-05 -3.155635E-05 +1.065334E-05 -1.065263E-05 +1.065334E-05 +6.311256E-05 
 -4.906312E-05 -7.512474E-05 +3.316726E-05 -7.512474E-05 -1.108009E-04 +2.299019E-05 +3.316726E-05 +2.299019E-05 +1.598640E-04 
 -3.085770E-08 -7.961535E-10 -1.490452E-08 -7.961535E-10 -1.923320E-08 -3.937237E-09 -1.490452E-08 -3.937237E-09 +5.009089E-08 
 -6.445085E-05 -1.045654E-05 -1.020537E-05 -1.045654E-05 -1.169721E-06 -7.626205E-06 -1.020537E-05 -7.626205E-06 +6.562058E-05 
 -2.865361E-06 -1.312878E-06 -4.130549E-08 -1.312878E-06 -1.331459E-07 -1.213262E-06 -4.130549E-08 -1.213262E-06 +2.998507E-06 
 -9.413515E-07 -5.354043E-07 -5.321452E-07 -5.354043E-07 -3.595940E-08 +2.867179E-07 -5.321452E-07 +2.867179E-07 +9.773109E-07 
 -1.021576E-06 -2.187007E-06 +8.801701E-07 -2.187007E-06 -4.686992E-06 +1.881241E-06 +8.801701E-07 +1.881241E-06 +5.708569E-06 
 +7.669902E-09 -5.331691E-10 -7.112538E-10 -5.331691E-10 -9.589256E-09 -7.266411E-09 -7.112538E-10 -7.266411E-09 +1.919354E-09 
 -2.640288E-08 +1.250793E-08 -6.550413E-09 +1.250793E-08 -3.009030E-08 +7.101043E-09 -6.550413E-09 +7.101043E-09 +5.649319E-08 
 -3.308007E-06 +5.250708E-06 -1.144086E-06 +5.250708E-06 -6.195266E-06 -2.797128E-06 -1.144086E-06 -2.797128E-06 +9.503273E-06 
 -8.723559E-09 -2.508906E-08 -7.601979E-08 -2.508906E-08 -2.246958E-07 -1.261317E-07 -7.601979E-08 -1.261317E-07 +2.334193E-07 
 -8.083485E-08 -6.640807E-08 -2.694599E-08 -6.640807E-08 -1.470501E-07 -8.001545E-08 -2.694599E-08 -8.001545E-08 +2.278849E-07 
 -1.984672E-06 -1.289018E-06 -1.022584E-06 -1.289018E-06 -5.618755E-07 +2.702833E-07 -1.022584E-06 +2.702833E-07 +2.546547E-06 
 -1.867597E-05 -1.949229E-05 -1.237471E-06 -1.949229E-05 -1.766157E-05 +8.669797E-06 -1.237471E-06 +8.669797E-06 +3.633754E-05 
 +2.939349E-07 -9.579475E-08 +8.809144E-07 -9.579475E-08 -2.783558E-06 -2.679569E-07 +8.809144E-07 -2.679569E-07 +2.489624E-06 
 -2.514034E-08 -1.468416E-08 -3.488691E-09 -1.468416E-08 -5.021301E-08 -4.987711E-09 -3.488691E-09 -4.987711E-09 +7.535334E-08 
 -7.572139E-06 -1.294052E-06 -1.839996E-06 -1.294052E-06 +5.967095E-08 +1.183322E-06 -1.839996E-06 +1.183322E-06 +7.512468E-06 
 -2.823192E-07 +3.276051E-07 +9.226382E-08 +3.276051E-07 -2.399365E-07 +1.740619E-07 +9.226382E-08 +1.740619E-07 +5.222558E-07 
 -7.003671E-09 -7.163231E-10 -3.530981E-09 -7.163231E-10 -4.429354E-09 -1.981194E-09 -3.530981E-09 -1.981194E-09 +1.143303E-08 
 -2.506274E-08 +6.774477E-09 -3.894485E-09 +6.774477E-09 -2.291351E-08 +4.332548E-10 -3.894485E-09 +4.332548E-10 +4.797624E-08 
 -3.347487E-07 -3.263791E-07 +2.668489E-07 -3.263791E-07 -5.337417E-07 +6.371879E-08 +2.668489E-07 +6.371879E-08 +8.684905E-07 
 -7.930790E-08 -1.745846E-08 +4.014917E-08 -1.745846E-08 -1.345135E-08 +2.812964E-08 +4.014917E-08 +2.812964E-08 +9.275925E-08 
 -6.070427E-08 -7.620245E-09 +6.787371E-09 -7.620245E-09 -2.059146E-08 +1.883215E-09 +6.787371E-09 +1.883215E-09 +8.129572E-08 
 -1.379539E-04 +1.095753E-04 -2.674854E-05 +1.095753E-04 -7.549481E-05 +7.154985E-05 -2.674854E-05 +7.154985E-05 +2.134487E-04 
 -6.784217E-05 -4.299169E-05 -4.006626E-06 -4.299169E-05 -1.818508E-05 +2.544038E-05 -4.006626E-06 +2.544038E-05 +8.602726E-05 
 -6.109312E-05 +4.239122E-05 +3.599614E-06 +4.239122E-05 -2.839580E-05 -1.207566E-05 +3.599614E-06 -1.207566E-05 +8.948892E-05 
 -1.414661E-04 -1.414647E-04 -3.088721E-05 -1.414647E-04 -1.414661E-04 -3.088892E-05 -3.088721E-05 -3.088892E-05 +2.829322E-04 
 -1.556449E-07 -1.433197E-08 +9.220512E-08 -1.433197E-08 -8.748752E-09 -3.948412E-08 +9.220512E-08 -3.948412E-08 +1.643937E-07 
 -1.349896E-08 -1.358962E-08 +1.138906E-08 -1.358962E-08 +5.325664E-09 +1.201000E-08 +1.138906E-08 +1.201000E-08 +8.173297E-09 
 +6.414218E-08 +4.331224E-08 +2.035432E-07 +4.331224E-08 -5.603173E-07 -1.471136E-07 +2.035432E-07 -1.471136E-07 +4.961751E-07 
 -1.263147E-05 +1.803921E-05 -1.503377E-06 +1.803921E-05 -2.576295E-05 +2.147230E-06 -1.503377E-06 +2.147230E-06 +3.839441E-05 
 -8.842495E-08 -1.374242E-08 +8.908184E-09 -1.374242E-08 -4.754444E-08 -3.999846E-09 +8.908184E-09 -3.999846E-09 +1.359694E-07 
 -2.024175E-05 +5.595387E-06 +7.362510E-06 +5.595387E-06 -1.282239E-08 -7.986245E-06 +7.362510E-06 -7.986245E-06 +2.025457E-05 
 -6.582028E-08 +4.897080E-08 -2.986389E-08 +4.897080E-08 -7.264191E-08 +1.168931E-08 -2.986389E-08 +1.168931E-08 +1.384622E-07 
 -1.337381E-07 -1.307483E-08 -4.392008E-08 -1.307483E-08 -2.790993E-08 -5.084538E-09 -4.392008E-08 -5.084538E-09 +1.616480E-07 
 -9.239767E-08 -7.931697E-08 +8.431009E-08 -7.931697E-08 -7.374975E-08 +2.856888E-08 +8.431009E-08 +2.856888E-08 +1.661474E-07 
 -5.304114E-05 -6.303816E-05 +1.257605E-06 -6.303816E-05 -7.259656E-05 +1.859656E-05 +1.257605E-06 +1.859656E-05 +1.256377E-04 
 -1.782796E-08 -1.836853E-07 -7.846340E-08 -1.836853E-07 -5.069186E-07 +3.494458E-07 -7.846340E-08 +3.494458E-07 +5.247466E-07 
 -1.578056E-07 +1.438204E-07 +1.743459E-07 +1.438204E-07 -6.568253E-08 +6.453925E-09 +1.743459E-07 +6.453925E-09 +2.234881E-07 
 -9.568260E-06 -4.255934E-06 +3.234454E-06 -4.255934E-06 -1.271281E-06 -1.288352E-06 +3.234454E-06 -1.288352E-06 +1.083954E-05 
 -2.615126E-08 -4.400868E-09 +3.014440E-09 -4.400868E-09 -1.502092E-08 -1.102887E-09 +3.014440E-09 -1.102887E-09 +4.117219E-08 
 -1.771018E-08 -4.340530E-09 +1.483062E-09 -4.340530E-09 -1.353641E-08 +2.725066E-09 +1.483062E-09 +2.725066E-09 +3.124659E-08 
 -2.428166E-05 -6.277171E-05 +3.876409E-05 -6.277171E-05 -1.070731E-04 -3.156727E-06 +3.876409E-05 -3.156727E-06 +1.313547E-04 
 -9.139882E-06 +1.847854E-06 +8.760099E-07 +1.847854E-06 +2.720791E-07 +2.249183E-06 +8.760099E-07 +2.249183E-06 +8.867803E-06 
 -2.565282E-07 -5.070575E-07 +1.388125E-07 -5.070575E-07 -9.973917E-07 +1.789889E-07 +1.388125E-07 +1.789889E-07 +1.253920E-06 
 +1.837785E-08 +2.551027E-07 -3.190218E-07 +2.551027E-07 -7.729711E-07 +1.099382E-07 -3.190218E-07 +1.099382E-07 +7.545933E-07 
 -2.340511E-06 +1.405487E-05 +1.562215E-06 +1.405487E-05 -6.665998E-05 +2.590028E-05 +1.562215E-06 +2.590028E-05 +6.900049E-05 
 -1.023837E-07 -2.259475E-08 +2.054344E-08 -2.259475E-08 -2.662712E-08 +4.161368E-09 +2.054344E-08 +4.161368E-09 +1.290108E-07 
 -3.582615E-05 +3.521077E-05 -4.957108E-06 +3.521077E-05 -3.353772E-05 +1.353734E-05 -4.957108E-06 +1.353734E-05 +6.936387E-05 
 -2.390508E-06 +1.167645E-06 +5.510376E-07 +1.167645E-06 -5.427559E-07 +2.573375E-08 +5.510376E-07 +2.573375E-08 +2.933264E-06 
 -1.809883E-07 +2.822760E-08 +1.767814E-08 +2.822760E-08 -1.200030E-07 -1.810792E-08 +1.767814E-08 -1.810792E-08 +3.009913E-07 
 -4.933333E-06 -3.703808E-06 +6.160682E-07 -3.703808E-06 -1.631736E-06 -2.300921E-06 +6.160682E-07 -2.300921E-06 +6.565069E-06 
 -3.053899E-06 -3.865286E-06 +3.060138E-06 -3.865286E-06 -4.283525E-06 +1.301924E-06 +3.060138E-06 +1.301924E-06 +7.337424E-06 
 -1.774686E-06 -1.871642E-07 +5.033734E-07 -1.871642E-07 +1.805595E-07 -5.627829E-07 +5.033734E-07 -5.627829E-07 +1.594126E-06 
 -3.200363E-07 +4.404485E-07 +1.160520E-07 +4.404485E-07 -3.924968E-07 +2.524740E-07 +1.160520E-07 +2.524740E-07 +7.125331E-07 
 -3.002509E-08 -6.934278E-09 +6.385695E-09 -6.934278E-09 -2.677729E-08 -2.302258E-09 +6.385695E-09 -2.302258E-09 +5.680238E-08 
 -2.479277E-08 -6.225493E-09 -3.438397E-09 -6.225493E-09 -4.256326E-08 -1.404912E-08 -3.438397E-09 -1.404912E-08 +6.735603E-08 
 -5.433847E-07 -2.758197E-07 -2.110844E-07 -2.758197E-07 -1.398657E-07 -1.342276E-07 -2.110844E-07 -1.342276E-07 +6.832504E-07 
 -2.641908E-07 +2.648135E-07 -2.489146E-07 +2.648135E-07 -2.251862E-07 +1.756402E-08 -2.489146E-07 +1.756402E-08 +4.893770E-07 
 -3.905827E-07 -6.017697E-07 +2.024247E-07 -6.017697E-07 -9.482050E-07 +4.382892E-07 +2.024247E-07 +4.382892E-07 +1.338788E-06 
 -3.271685E-08 -1.439288E-10 -1.718718E-08 -1.439288E-10 -1.862917E-08 +1.175256E-09 -1.718718E-08 +1.175256E-09 +5.134601E-08 
 -4.995597E-05 -5.020136E-05 -2.030287E-06 -5.020136E-05 -4.894533E-05 +1.020086E-05 -2.030287E-06 +1.020086E-05 +9.890130E-05 
 -4.256043E-05 +3.094297E-05 +4.688684E-06 +3.094297E-05 -1.960725E-05 +1.005759E-05 +4.688684E-06 +1.005759E-05 +6.216768E-05 
 -2.474545E-06 -1.366455E-06 +1.202819E-06 -1.366455E-06 -2.612740E-07 -6.175023E-07 +1.202819E-06 -6.175023E-07 +2.735819E-06 
 -1.351334E-07 +4.932998E-09 +6.710768E-08 +4.932998E-09 -3.711762E-08 -5.845660E-09 +6.710768E-08 -5.845660E-09 +1.722510E-07 
 -1.548506E-07 +4.335428E-07 +3.034224E-07 +4.335428E-07 -1.124659E-06 -3.981616E-07 +3.034224E-07 -3.981616E-07 +1.279510E-06 
 +1.294619E-09 +1.602195E-08 +6.110299E-08 +1.602195E-08 -3.363827E-07 -1.949300E-07 +6.110299E-08 -1.949300E-07 +3.350881E-07 
 -2.331063E-08 -4.651359E-09 +3.734030E-09 -4.651359E-09 -2.173987E-08 +3.308452E-10 +3.734030E-09 +3.308452E-10 +4.505050E-08 
 -7.533444E-08 +4.952850E-08 +2.261476E-08 +4.952850E-08 -9.968006E-08 -2.940594E-08 +2.261476E-08 -2.940594E-08 +1.750145E-07 
 +7.404653E-08 -2.292792E-07 -3.788770E-07 -2.292792E-07 -8.378863E-07 -1.208960E-07 -3.788770E-07 -1.208960E-07 +7.638398E-07 
 -6.687862E-08 -4.379600E-07 -3.619400E-07 -4.379600E-07 -9.096550E-07 +4.809162E-08 -3.619400E-07 +4.809162E-08 +9.765337E-07 
 -1.858169E-08 -4.693423E-10 +4.520828E-09 -4.693423E-10 -1.661228E-08 +9.587344E-09 +4.520828E-09 +9.587344E-09 +3.519397E-08 
 -8.269913E-06 +1.619383E-06 +1.457106E-06 +1.619383E-06 -3.144253E-07 -4.520651E-07 +1.457106E-06 -4.520651E-07 +8.584339E-06 
 -8.507154E-07 -1.656048E-06 -3.506690E-07 -1.656048E-06 -2.295407E-06 +1.074460E-06 -3.506690E-07 +1.074460E-06 +3.146122E-06 
 -9.107492E-06 -9.189794E-08 +3.312850E-06 -9.189794E-08 -2.491648E-09 +1.313876E-07 +3.312850E-06 +1.313876E-07 +9.109984E-06 
 -1.212892E-06 +1.126939E-06 +5.372832E-07 +1.126939E-06 -9.638671E-07 -5.014541E-08 +5.372832E-07 -5.014541E-08 +2.176759E-06 
 -5.610087E-08 +6.534825E-10 -1.768974E-08 +6.534825E-10 -1.074454E-07 +2.961312E-09 -1.768974E-08 +2.961312E-09 +1.635463E-07 
 -1.795319E-04 -1.108802E-06 -6.286462E-06 -1.108802E-06 +5.396912E-06 +3.069141E-05 -6.286462E-06 +3.069141E-05 +1.741350E-04 
 -3.833317E-05 -7.853837E-05 +1.766810E-05 -7.853837E-05 -1.524131E-04 +7.736930E-05 +1.766810E-05 +7.736930E-05 +1.907463E-04 
 -7.121517E-08 +3.203151E-08 +5.514303E-09 +3.203151E-08 -3.362917E-08 -2.505655E-09 +5.514303E-09 -2.505655E-09 +1.048443E-07 
 +3.325178E-08 +4.118290E-07 -3.810288E-07 +4.118290E-07 -2.560939E-06 -1.113218E-06 -3.810288E-07 -1.113218E-06 +2.527688E-06 
 -2.223275E-06 -9.814650E-06 +4.521094E-06 -9.814650E-06 -4.007101E-05 +6.771340E-06 +4.521094E-06 +6.771340E-06 +4.229428E-05 
 -4.847249E-06 +6.106150E-07 -1.819222E-06 +6.106150E-07 -6.845956E-08 -3.165096E-08 -1.819222E-06 -3.165096E-08 +4.915708E-06 
 +1.194709E-07 +9.673184E-08 -3.893053E-07 +9.673184E-08 -8.946780E-07 +3.356397E-07 -3.893053E-07 +3.356397E-07 +7.752070E-07 
 -1.935900E-08 +2.168984E-09 -3.279814E-09 +2.168984E-09 -1.273860E-08 -7.371990E-10 -3.279814E-09 -7.371990E-10 +3.209759E-08 
 -1.292923E-07 +1.230126E-07 +1.059943E-07 +1.230126E-07 -1.191247E-07 -9.380275E-08 +1.059943E-07 -9.380275E-08 +2.484171E-07 
 -3.047819E-04 -1.967754E-04 +1.557058E-04 -1.967754E-04 -1.212832E-04 +1.545253E-04 +1.557058E-04 +1.545253E-04 +4.260651E-04 
 -6.095979E-06 +3.388556E-05 +1.662973E-05 +3.388556E-05 -1.133935E-04 +1.922106E-05 +1.662973E-05 +1.922106E-05 +1.194894E-04 
 -1.262587E-06 -7.949449E-07 +1.834145E-07 -7.949449E-07 -3.400778E-07 +6.350152E-07 +1.834145E-07 +6.350152E-07 +1.602665E-06 
 -4.395294E-08 +3.254920E-08 +2.411086E-09 +3.254920E-08 -1.109915E-07 -3.406000E-08 +2.411086E-09 -3.406000E-08 +1.549444E-07 
 -4.192339E-05 -5.282453E-05 +1.050450E-05 -5.282453E-05 -5.883236E-05 -1.509498E-05 +1.050450E-05 -1.509498E-05 +1.007558E-04 
 -6.899537E-07 -1.845489E-06 +4.050993E-08 -1.845489E-06 -4.455056E-06 +1.913220E-06 +4.050993E-08 +1.913220E-06 +5.145009E-06 
 -5.727219E-07 -3.786219E-07 +2.998328E-07 -3.786219E-07 -2.327778E-07 +4.325632E-07 +2.998328E-07 +4.325632E-07 +8.054997E-07 
 +5.426757E-09 -6.081216E-08 -1.833304E-07 -6.081216E-08 -7.879643E-07 -4.520536E-07 -1.833304E-07 -4.520536E-07 +7.825375E-07 
 -5.792671E-07 +3.940065E-07 -2.379370E-07 +3.940065E-07 -3.441008E-07 +1.822307E-07 -2.379370E-07 +1.822307E-07 +9.233678E-07 
 -4.282152E-07 +6.699611E-07 +5.231320E-07 +6.699611E-07 -9.113456E-07 -2.927590E-07 +5.231320E-07 -2.927590E-07 +1.339561E-06 
 -1.923348E-07 +7.731878E-07 +1.611660E-07 +7.731878E-07 -2.677347E-06 +5.405242E-07 +1.611660E-07 +5.405242E-07 +2.869682E-06 
 -1.148818E-07 -9.979916E-09 +1.337276E-08 -9.979916E-09 -1.835055E-07 -1.613802E-08 +1.337276E-08 -1.613802E-08 +2.983873E-07 
 -2.945892E-05 -2.099729E-06 -1.190124E-05 -2.099729E-06 +8.818292E-07 +5.034345E-06 -1.190124E-05 +5.034345E-06 +2.857709E-05 
 +2.776198E-07 -5.099582E-07 -9.155237E-07 -5.099582E-07 -2.974017E-06 +6.818706E-07 -9.155237E-07 +6.818706E-07 +2.696398E-06 
 -1.377807E-08 -1.014717E-09 -2.495351E-09 -1.014717E-09 -2.279371E-08 +1.547683E-09 -2.495351E-09 +1.547683E-09 +3.657178E-08 
 -1.011366E-07 -8.146314E-09 +8.463727E-09 -8.146314E-09 -1.572188E-07 +2.940407E-08 +8.463727E-09 +2.940407E-08 +2.583554E-07 
 -2.082525E-04 +1.202335E-04 +2.716256E-06 +1.202335E-04 -6.941869E-05 -1.569652E-06 +2.716256E-06 -1.569652E-06 +2.776712E-04 
 -5.886262E-05 -1.577144E-05 -1.104746E-05 -1.577144E-05 -4.229054E-06 -2.959143E-06 -1.104746E-05 -2.959143E-06 +6.309167E-05 
 -1.043840E-08 +1.968964E-09 -3.146361E-09 +1.968964E-09 -1.340932E-08 +7.150619E-09 -3.146361E-09 +7.150619E-09 +2.384772E-08 
 -5.322237E-08 -1.436339E-08 -6.360463E-09 -1.436339E-08 -3.586306E-08 +1.248750E-08 -6.360463E-09 +1.248750E-08 +8.908543E-08 
 -9.221617E-05 +7.737720E-05 -2.901257E-05 +7.737720E-05 -6.492879E-05 +2.434471E-05 -2.901257E-05 +2.434471E-05 +1.571450E-04 
 -9.654495E-09 -7.484983E-10 +3.548196E-09 -7.484983E-10 -5.023804E-09 -1.831886E-09 +3.548196E-09 -1.831886E-09 +1.467830E-08 
 -1.542958E-08 +6.020416E-09 -3.102268E-09 +6.020416E-09 -3.030277E-08 -1.140811E-08 -3.102268E-09 -1.140811E-08 +4.573235E-08 
 -1.688183E-07 -4.221128E-07 +3.047634E-07 -4.221128E-07 -1.046827E-06 +3.161744E-07 +3.047634E-07 +3.161744E-07 +1.215646E-06 
 -4.366251E-08 -8.690082E-09 +1.968691E-08 -8.690082E-09 -6.671567E-08 +2.951558E-08 +1.968691E-08 +2.951558E-08 +1.103782E-07 
 -1.302435E-08 -2.022794E-09 -1.975343E-09 -2.022794E-09 -1.392777E-08 +4.980151E-12 -1.975343E-09 +4.980151E-12 +2.695212E-08 
 -6.097481E-07 -6.917288E-07 -5.404190E-07 -6.917288E-07 -8.114159E-07 -5.922750E-07 -5.404190E-07 -5.922750E-07 +1.421164E-06 
 -1.021203E-06 +1.624264E-06 +2.743846E-07 +1.624264E-06 -1.547837E-06 +1.220854E-06 +2.743846E-07 +1.220854E-06 +2.569040E-06 
 -3.232233E-05 -5.315169E-06 -9.365749E-06 -5.315169E-06 +2.715628E-07 -8.113401E-06 -9.365749E-06 -8.113401E-06 +3.205076E-05 
 -7.416013E-08 -1.802690E-08 +5.353931E-08 -1.802690E-08 -1.290688E-07 +7.655877E-08 +5.353931E-08 +7.655877E-08 +2.032289E-07 
 -2.607164E-06 -2.005897E-06 -6.975350E-07 -2.005897E-06 -1.531886E-06 -3.034788E-07 -6.975350E-07 -3.034788E-07 +4.139050E-06 
 -6.387773E-06 -1.214575E-05 +5.056277E-06 -1.214575E-05 -1.858459E-05 -1.836677E-06 +5.056277E-06 -1.836677E-06 +2.497237E-05 
 -1.184390E-07 +6.729493E-09 +4.699358E-09 +6.729493E-09 -1.464072E-07 -2.211181E-08 +4.699358E-09 -2.211181E-08 +2.648462E-07 
 -1.211326E-07 +6.669127E-07 -3.306048E-07 +6.669127E-07 -2.239889E-06 -3.691450E-07 -3.306048E-07 -3.691450E-07 +2.361021E-06 
 -1.467330E-07 +3.223962E-07 +2.073398E-07 +3.223962E-07 -6.694286E-07 -2.401755E-07 +2.073398E-07 -2.401755E-07 +8.161616E-07 
 +3.648375E-06 +3.974073E-06 -1.594488E-05 +3.974073E-06 -7.246304E-05 -9.505988E-06 -1.594488E-05 -9.505988E-06 +6.881466E-05 
 -1.898620E-07 +4.553710E-08 -8.882215E-09 +4.553710E-08 -2.536526E-07 +4.215956E-08 -8.882215E-09 +4.215956E-08 +4.435146E-07 
 -6.373040E-08 +8.955452E-09 +8.042823E-09 +8.955452E-09 -4.152418E-08 -2.645419E-09 +8.042823E-09 -2.645419E-09 +1.052546E-07 
 -2.073351E-07 +1.615403E-07 -8.528115E-09 +1.615403E-07 -4.096321E-07 -1.901283E-07 -8.528115E-09 -1.901283E-07 +6.169673E-07 
 -2.696548E-05 +8.584841E-06 -4.913206E-06 +8.584841E-06 -5.700524E-07 -6.307281E-06 -4.913206E-06 -6.307281E-06 +2.753554E-05 
 -1.315151E-07 -1.005057E-07 +1.294772E-08 -1.005057E-07 -3.479529E-07 -3.813193E-08 +1.294772E-08 -3.813193E-08 +4.794680E-07 
 -2.564586E-05 -9.333991E-06 +1.604242E-07 -9.333991E-06 -3.398497E-06 +5.772765E-08 +1.604242E-07 +5.772765E-08 +2.904436E-05 
 -3.182204E-08 -6.751972E-09 +2.702472E-09 -6.751972E-09 -3.711622E-08 +4.536184E-09 +2.702472E-09 +4.536184E-09 +6.893826E-08 
 -3.654742E-08 +2.598017E-09 -2.819812E-09 +2.598017E-09 -1.931004E-08 +1.526645E-09 -2.819812E-09 +1.526645E-09 +5.585746E-08 
 -9.129097E-05 +4.256945E-05 +2.792605E-05 +4.256945E-05 -1.985115E-05 -1.302261E-05 +2.792605E-05 -1.302261E-05 +1.111421E-04 
 +8.490852E-06 +1.782258E-06 +3.268480E-05 +1.782258E-06 -1.198386E-04 -3.227931E-05 +3.268480E-05 -3.227931E-05 +1.113477E-04 
 -5.807345E-06 -2.812182E-06 -1.803878E-06 -2.812182E-06 -3.610202E-07 +1.723706E-06 -1.803878E-06 +1.723706E-06 +6.168365E-06 
 -2.734963E-08 +6.593556E-09 -1.083076E-08 +6.593556E-09 -2.014217E-08 +1.001706E-08 -1.083076E-08 +1.001706E-08 +4.749180E-08 
 -7.139425E-08 +4.301441E-07 -3.990340E-07 +4.301441E-07 -1.861493E-06 +6.001119E-07 -3.990340E-07 +6.001119E-07 +1.932888E-06 
 -2.561210E-07 +9.254784E-08 +9.973253E-08 +9.254784E-08 +2.286138E-08 +8.861802E-08 +9.973253E-08 +8.861802E-08 +2.332596E-07 
 -4.007185E-06 -2.963978E-07 -2.501115E-06 -2.963978E-07 +1.192394E-07 +7.179461E-07 -2.501115E-06 +7.179461E-07 +3.887946E-06 
 -1.074400E-05 +6.247222E-07 +1.891242E-06 +6.247222E-07 -7.673008E-09 +5.212605E-07 +1.891242E-06 +5.212605E-07 +1.075167E-05 
 -9.169738E-08 -6.154600E-08 +7.177706E-08 -6.154600E-08 -6.902144E-08 +3.117139E-08 +7.177706E-08 +3.117139E-08 +1.607188E-07 
 -1.079491E-06 -2.174833E-08 -4.072000E-07 -2.174833E-08 +7.472571E-08 +3.879096E-07 -4.072000E-07 +3.879096E-07 +1.004765E-06 
 -2.124645E-06 +6.505636E-08 -3.362945E-07 +6.505636E-08 +2.418105E-07 +7.069517E-07 -3.362945E-07 +7.069517E-07 +1.882835E-06 
 -2.616439E-05 -3.871530E-05 +1.812565E-05 -3.871530E-05 -4.314463E-05 -7.234345E-06 +1.812565E-05 -7.234345E-06 +6.930903E-05 
 -2.585147E-05 +2.023014E-05 -9.144488E-06 +2.023014E-05 -1.325795E-05 -3.307053E-06 -9.144488E-06 -3.307053E-06 +3.910942E-05 
 -7.260752E-08 +2.498958E-08 +4.299596E-08 +2.498958E-08 +5.458901E-09 -2.100668E-08 +4.299596E-08 -2.100668E-08 +6.714862E-08 
 -1.384694E-06 -6.781794E-07 -1.296870E-07 -6.781794E-07 -4.449952E-08 +5.944619E-07 -1.296870E-07 +5.944619E-07 +1.429194E-06 
 -9.284074E-06 -2.620058E-06 -1.430294E-06 -2.620058E-06 -6.905220E-07 -1.192398E-06 -1.430294E-06 -1.192398E-06 +9.974596E-06 
 -8.349889E-08 +2.911780E-09 +9.701442E-09 +2.911780E-09 -4.246897E-08 +3.144038E-09 +9.701442E-09 +3.144038E-09 +1.259679E-07 
 -3.854282E-08 +3.851962E-07 +2.311258E-07 +3.851962E-07 -9.234892E-07 +4.923162E-07 +2.311258E-07 +4.923162E-07 +9.620320E-07 
 +2.140969E-09 -9.986724E-10 +8.912541E-08 -9.986724E-10 -4.582820E-07 +2.645463E-07 +8.912541E-08 +2.645463E-07 +4.561410E-07 
 -4.793565E-08 -4.010049E-10 -4.309674E-09 -4.010049E-10 -9.034164E-08 -2.938630E-08 -4.309674E-09 -2.938630E-08 +1.382773E-07 
 -2.898610E-05 -9.297494E-06 -8.420694E-06 -9.297494E-06 -1.910600E-06 +3.366741E-06 -8.420694E-06 +3.366741E-06 +3.089670E-05 
 -8.476812E-06 -1.157722E-06 -8.044386E-07 -1.157722E-06 +2.748307E-07 -2.010066E-06 -8.044386E-07 -2.010066E-06 +8.201981E-06 
 -6.976845E-07 -3.519110E-07 +9.464088E-08 -3.519110E-07 -1.102302E-07 -1.925923E-07 +9.464088E-08 -1.925923E-07 +8.079147E-07 
 -1.588012E-07 +8.441766E-08 +1.204677E-07 +8.441766E-08 -8.107139E-08 -4.678724E-08 +1.204677E-07 -4.678724E-08 +2.398725E-07 
 -2.967530E-05 -8.211366E-06 +1.432302E-06 -8.211366E-06 -1.248195E-06 -5.255479E-06 +1.432302E-06 -5.255479E-06 +3.092350E-05 
 -3.716071E-05 -1.138793E-04 -4.624834E-05 -1.138793E-04 -3.219197E-04 -3.525715E-05 -4.624834E-05 -3.525715E-05 +3.590804E-04 
 -3.009258E-08 +2.237460E-09 +5.027087E-09 +2.237460E-09 -1.222886E-08 -2.784411E-09 +5.027087E-09 -2.784411E-09 +4.232145E-08 
 -1.105282E-08 +4.084672E-09 +1.384843E-11 +4.084672E-09 -5.798521E-08 +2.755220E-08 +1.384843E-11 +2.755220E-08 +6.903802E-08 
 -4.389040E-07 +6.103199E-07 +2.312777E-07 +6.103199E-07 -7.320617E-07 -7.572521E-07 +2.312777E-07 -7.572521E-07 +1.170966E-06 
 -2.063792E-07 -1.062946E-07 +1.261118E-07 -1.062946E-07 -7.964532E-08 +1.280900E-07 +1.261118E-07 +1.280900E-07 +2.860246E-07 
 -7.425086E-08 -6.818327E-09 +6.450487E-09 -6.818327E-09 -2.748819E-08 +3.576686E-09 +6.450487E-09 +3.576686E-09 +1.017391E-07 
 -3.134284E-08 -2.243195E-09 -4.762733E-09 -2.243195E-09 -1.364137E-08 -7.341376E-09 -4.762733E-09 -7.341376E-09 +4.498421E-08 
 -7.506938E-06 +3.891060E-06 -4.859573E-07 +3.891060E-06 -1.547679E-06 -1.815686E-06 -4.859573E-07 -1.815686E-06 +9.054617E-06 
 -5.517493E-06 +1.561296E-06 +2.237731E-06 +1.561296E-06 -4.182926E-07 -1.421237E-07 +2.237731E-06 -1.421237E-07 +5.935785E-06 
 -4.095810E-06 -3.249022E-06 +1.664238E-06 -3.249022E-06 -2.547156E-06 +1.833606E-06 +1.664238E-06 +1.833606E-06 +6.642966E-06 
 -3.055939E-08 -1.503095E-08 +8.261283E-09 -1.503095E-08 -4.537852E-08 +1.303814E-08 +8.261283E-09 +1.303814E-08 +7.593792E-08 
 -3.670016E-08 -4.020071E-09 +2.011579E-08 -4.020071E-09 -1.912534E-07 -1.001817E-07 +2.011579E-08 -1.001817E-07 +2.279535E-07 
 -1.016446E-04 -6.429278E-05 +2.757967E-05 -6.429278E-05 -3.473182E-05 -1.182660E-05 +2.757967E-05 -1.182660E-05 +1.363764E-04 
 -1.224663E-07 -3.770270E-08 -1.773767E-08 -3.770270E-08 -7.448833E-08 +2.018612E-09 -1.773767E-08 +2.018612E-09 +1.969546E-07 
 +1.575038E-07 -1.309499E-05 +1.218261E-05 -1.309499E-05 -5.692460E-05 -5.683695E-06 +1.218261E-05 -5.683695E-06 +5.676709E-05 
 -8.994921E-07 +3.549377E-06 -2.731910E-06 +3.549377E-06 -7.910425E-06 +3.533723E-07 -2.731910E-06 +3.533723E-07 +8.809917E-06 
 -6.376112E-06 -3.141927E-06 +9.607016E-07 -3.141927E-06 -1.442730E-06 +1.391204E-06 +9.607016E-07 +1.391204E-06 +7.818841E-06 
 -2.940568E-08 -1.776149E-09 -2.973301E-09 -1.776149E-09 -9.317236E-08 -7.797057E-09 -2.973301E-09 -7.797057E-09 +1.225780E-07 
 -2.150518E-08 -1.604649E-08 -1.534706E-09 -1.604649E-08 -3.475182E-08 -3.442990E-09 -1.534706E-09 -3.442990E-09 +5.625700E-08 
 -1.509948E-05 -2.005749E-05 +9.736270E-06 -2.005749E-05 -2.070234E-05 -2.910283E-06 +9.736270E-06 -2.910283E-06 +3.580182E-05 
 -3.840346E-06 -1.670425E-06 -9.611509E-07 -1.670425E-06 -3.711414E-07 +8.469638E-07 -9.611509E-07 +8.469638E-07 +4.211488E-06 
 -1.775470E-07 -2.844832E-07 +1.834325E-07 -2.844832E-07 -4.395985E-07 +1.340216E-07 +1.834325E-07 +1.340216E-07 +6.171455E-07 
 -4.550091E-08 -3.461329E-09 +5.811557E-09 -3.461329E-09 -6.104114E-08 -7.340109E-09 +5.811557E-09 -7.340109E-09 +1.065421E-07 
 -6.217216E-09 +1.081476E-09 -3.433048E-10 +1.081476E-09 -8.417790E-09 +9.690009E-11 -3.433048E-10 +9.690009E-11 +1.463501E-08 
 -2.349763E-08 +2.848970E-09 +1.172973E-08 +2.848970E-09 -2.122280E-08 -8.483693E-09 +1.172973E-08 -8.483693E-09 +4.472043E-08 
 -6.315586E-06 -3.587952E-06 +1.736067E-07 -3.587952E-06 -1.320773E-06 +2.455216E-06 +1.736067E-07 +2.455216E-06 +7.636359E-06 
 -1.337864E-06 -2.876419E-07 +7.576261E-07 -2.876419E-07 -8.264620E-08 +2.320967E-07 +7.576261E-07 +2.320967E-07 +1.420510E-06 
 -2.321955E-06 +1.112381E-06 -7.456212E-07 +1.112381E-06 -4.223633E-07 -2.226713E-07 -7.456212E-07 -2.226713E-07 +2.744318E-06 
 -1.072343E-06 -6.718241E-07 -6.089688E-07 -6.718241E-07 -3.775174E-07 -9.136692E-08 -6.089688E-07 -9.136692E-08 +1.449860E-06 
 -4.803563E-05 -2.937073E-05 +1.623347E-05 -2.937073E-05 -1.724462E-05 +2.782593E-06 +1.623347E-05 +2.782593E-06 +6.528026E-05 
 -2.527687E-06 +4.434629E-07 -5.890480E-07 +4.434629E-07 +1.961652E-07 -7.618012E-07 -5.890480E-07 -7.618012E-07 +2.331522E-06 
 -1.727846E-04 -1.425861E-04 +2.094624E-05 -1.425861E-04 -1.139051E-04 +5.031128E-05 +2.094624E-05 +5.031128E-05 +2.866898E-04 
 -5.310604E-08 -2.205131E-09 +1.795118E-08 -2.205131E-09 -5.159498E-08 +1.318489E-08 +1.795118E-08 +1.318489E-08 +1.047010E-07 
 -1.757501E-08 -3.863715E-10 -3.384878E-09 -3.863715E-10 -2.203430E-08 +1.218102E-08 -3.384878E-09 +1.218102E-08 +3.960931E-08 
 -8.725630E-07 +4.274188E-07 +4.884445E-07 +4.274188E-07 -2.377199E-07 -3.938963E-07 +4.884445E-07 -3.938963E-07 +1.110283E-06 
 -7.819883E-08 +1.741317E-07 +1.432274E-07 +1.741317E-07 -3.942899E-07 -2.338675E-07 +1.432274E-07 -2.338675E-07 +4.724887E-07 
 -1.444604E-05 -3.505614E-05 -9.817940E-06 -3.505614E-05 -6.938943E-05 +1.389661E-05 -9.817940E-06 +1.389661E-05 +8.383548E-05 
 -5.246698E-07 +1.126160E-07 +3.160604E-07 +1.126160E-07 -4.572151E-08 +3.011508E-09 +3.160604E-07 +3.011508E-09 +5.703913E-07 
 -5.175990E-08 +2.266848E-07 +4.043753E-08 +2.266848E-07 -8.564940E-07 +1.850324E-07 +4.043753E-08 +1.850324E-07 +9.082539E-07 
 -3.944642E-08 -8.498415E-07 -8.568581E-07 -8.498415E-07 -4.399177E-06 -5.189918E-07 -8.568581E-07 -5.189918E-07 +4.438623E-06 
 -3.059793E-08 +1.749435E-09 -2.138699E-09 +1.749435E-09 -4.413642E-08 +1.668666E-08 -2.138699E-09 +1.668666E-08 +7.473435E-08 
 -2.876419E-08 -1.152114E-08 +6.719230E-09 -1.152114E-08 -5.773815E-08 +4.589497E-09 +6.719230E-09 +4.589497E-09 +8.650234E-08 
 -8.804837E-08 -1.377825E-07 -2.418227E-08 -1.377825E-07 -1.328681E-07 +1.019670E-07 -2.418227E-08 +1.019670E-07 +2.209165E-07 
 -3.432192E-08 -9.887851E-09 -6.315139E-09 -9.887851E-09 -4.924254E-08 -1.854337E-08 -6.315139E-09 -1.854337E-08 +8.356446E-08 
 -3.384455E-08 +1.598518E-08 +1.900366E-08 +1.598518E-08 -8.087479E-09 -1.418469E-08 +1.900366E-08 -1.418469E-08 +4.193203E-08 
 -2.779182E-07 -1.278854E-09 +4.897799E-08 -1.278854E-09 -6.223512E-11 -1.084429E-09 +4.897799E-08 -1.084429E-09 +2.779805E-07 
 -3.529248E-06 +4.280454E-06 -1.823753E-06 +4.280454E-06 -4.705337E-06 +8.173902E-08 -1.823753E-06 +8.173902E-08 +8.234585E-06 
 -1.377118E-07 -1.840955E-08 -9.345888E-08 -1.840955E-08 -2.240063E-08 +1.150280E-08 -9.345888E-08 +1.150280E-08 +1.601124E-07 
 +2.868674E-07 -2.713354E-07 +1.166142E-06 -2.713354E-07 -4.492408E-06 +4.465857E-07 +1.166142E-06 +4.465857E-07 +4.205541E-06 
 -1.529978E-07 +1.646736E-08 -8.424620E-08 +1.646736E-08 -8.194983E-09 +1.509523E-08 -8.424620E-08 +1.509523E-08 +1.611928E-07 
 -9.417363E-08 -5.906035E-10 -8.807712E-09 -5.906035E-10 -1.118770E-07 +1.834640E-08 -8.807712E-09 +1.834640E-08 +2.060506E-07 
 -1.293707E-07 -3.165141E-07 -1.416260E-07 -3.165141E-07 -7.941590E-07 -5.124390E-07 -1.416260E-07 -5.124390E-07 +9.235297E-07 
 -2.897674E-08 -2.405204E-08 -2.016980E-08 -2.405204E-08 -2.202962E-08 -1.818758E-08 -2.016980E-08 -1.818758E-08 +5.100636E-08 
 -1.450238E-08 -5.910958E-09 +6.672632E-09 -5.910958E-09 -1.524052E-08 +7.338038E-09 +6.672632E-09 +7.338038E-09 +2.974290E-08 
 -4.546500E-08 -2.353100E-08 -2.390203E-08 -2.353100E-08 -1.173907E-08 -2.727883E-08 -2.390203E-08 -2.727883E-08 +5.720407E-08 
 -4.693404E-08 +3.700828E-08 -3.608961E-08 +3.700828E-08 -3.942770E-08 +4.565382E-08 -3.608961E-08 +4.565382E-08 +8.636174E-08 
 -2.194963E-08 +9.342180E-10 -5.399069E-09 +9.342180E-10 -5.080005E-08 -1.790428E-08 -5.399069E-09 -1.790428E-08 +7.274968E-08 
 -1.684967E-08 +5.562987E-09 -3.837171E-09 +5.562987E-09 -2.265375E-08 +1.249781E-09 -3.837171E-09 +1.249781E-09 +3.950343E-08 
 +3.507115E-07 +1.699725E-07 +1.431567E-06 +1.699725E-07 -6.167939E-06 +3.838126E-07 +1.431567E-06 +3.838126E-07 +5.817227E-06 
 -1.132201E-05 +1.780199E-05 +5.366970E-06 +1.780199E-05 -2.441948E-05 +3.309630E-06 +5.366970E-06 +3.309630E-06 +3.574149E-05 
 -8.489656E-06 +4.115624E-06 +1.048982E-06 +4.115624E-06 -1.601594E-06 +1.497874E-06 +1.048982E-06 +1.497874E-06 +1.009125E-05 
 -3.634977E-06 +2.675725E-07 -1.115802E-06 +2.675725E-07 +1.978521E-07 -8.381887E-07 -1.115802E-06 -8.381887E-07 +3.437125E-06 
 -3.490078E-05 +3.336397E-05 -2.733377E-05 +3.336397E-05 -2.341584E-05 +9.238699E-08 -2.733377E-05 +9.238699E-08 +5.831662E-05 
 -5.587029E-07 +9.139438E-08 -2.632062E-07 +9.139438E-08 -8.799065E-08 +1.525563E-07 -2.632062E-07 +1.525563E-07 +6.466936E-07 
 -2.344801E-06 -6.568864E-07 +1.066584E-06 -6.568864E-07 -1.095372E-07 -1.853543E-07 +1.066584E-06 -1.853543E-07 +2.454338E-06 
 -1.010368E-05 +4.297794E-06 +2.765742E-07 +4.297794E-06 -1.074786E-06 -3.034614E-06 +2.765742E-07 -3.034614E-06 +1.117847E-05 
 -3.736165E-06 +5.843614E-06 -1.964564E-06 +5.843614E-06 -7.883546E-06 -9.158685E-07 -1.964564E-06 -9.158685E-07 +1.161971E-05 
 -6.485705E-08 -3.534617E-08 +4.310747E-08 -3.534617E-08 -8.106210E-08 +4.404055E-08 +4.310747E-08 +4.404055E-08 +1.459191E-07 
 -2.440890E-05 +1.610528E-05 -1.004948E-06 +1.610528E-05 -1.046784E-05 -1.745768E-06 -1.004948E-06 -1.745768E-06 +3.487674E-05 
 -4.759516E-05 +5.667880E-05 +2.686114E-07 +5.667880E-05 -6.541578E-05 -1.569614E-05 +2.686114E-07 -1.569614E-05 +1.130109E-04 
 -2.353075E-04 -6.080794E-05 +2.472239E-05 -6.080794E-05 -1.366177E-05 +2.916561E-05 +2.472239E-05 +2.916561E-05 +2.489693E-04 
 -1.653506E-06 +1.788750E-05 -1.708514E-05 +1.788750E-05 -1.195508E-04 +3.588806E-05 -1.708514E-05 +3.588806E-05 +1.212043E-04 
 -4.743255E-06 +5.133928E-06 -1.493992E-06 +5.133928E-06 -3.588466E-06 -2.553125E-06 -1.493992E-06 -2.553125E-06 +8.331721E-06 
 -2.625193E-07 -4.275273E-07 -3.417186E-07 -4.275273E-07 -4.330190E-07 +4.697283E-09 -3.417186E-07 +4.697283E-09 +6.955384E-07 
 -6.072940E-08 -4.021214E-09 +1.566506E-08 -4.021214E-09 -1.414907E-08 +1.784763E-09 +1.566506E-08 +1.784763E-09 +7.487846E-08 
 -6.853905E-06 -1.135260E-05 +2.921030E-06 -1.135260E-05 -1.802119E-05 +9.407129E-06 +2.921030E-06 +9.407129E-06 +2.487509E-05 
 -6.944683E-07 -2.300890E-06 +1.339357E-06 -2.300890E-06 -4.640938E-06 -4.852408E-07 +1.339357E-06 -4.852408E-07 +5.335406E-06 
 -8.019544E-06 +1.750804E-06 +5.765595E-08 +1.750804E-06 -3.696233E-07 +3.311992E-07 +5.765595E-08 +3.311992E-07 +8.389167E-06 
 -1.420587E-07 -6.034902E-08 +2.381635E-08 -6.034902E-08 -9.796842E-08 +4.887547E-08 +2.381635E-08 +4.887547E-08 +2.400271E-07 
 -1.100868E-05 -3.387165E-06 +1.484247E-06 -3.387165E-06 -2.422549E-07 -2.570432E-06 +1.484247E-06 -2.570432E-06 +1.125093E-05 
 +1.136066E-07 +4.585932E-06 +5.882639E-06 +4.585932E-06 -5.979502E-05 -7.349382E-06 +5.882639E-06 -7.349382E-06 +5.968142E-05 
 -3.363949E-07 +4.408294E-07 -3.398034E-07 +4.408294E-07 -3.561751E-07 -3.925948E-08 -3.398034E-07 -3.925948E-08 +6.925700E-07 
 -4.715989E-08 +1.974012E-08 +4.349228E-10 +1.974012E-08 -5.526903E-08 +9.346190E-09 +4.349228E-10 +9.346190E-09 +1.024289E-07 
 -3.316398E-06 -1.975406E-06 -1.986154E-07 -1.975406E-06 -1.142236E-06 +2.827296E-07 -1.986154E-07 +2.827296E-07 +4.458635E-06 
 -1.050508E-07 -2.586456E-08 -2.837623E-08 -2.586456E-08 -4.251603E-08 -1.201365E-08 -2.837623E-08 -1.201365E-08 +1.475668E-07 
 +7.105180E-09 -3.475615E-07 +4.528377E-07 -3.475615E-07 -9.172570E-06 -4.064731E-08 +4.528377E-07 -4.064731E-08 +9.165465E-06 
 -3.410561E-05 +4.870491E-05 -1.896556E-05 +4.870491E-05 -6.955997E-05 +2.708442E-05 -1.896556E-05 +2.708442E-05 +1.036656E-04 
 -1.873780E-06 +2.491533E-07 +1.449384E-07 +2.491533E-07 +2.266331E-07 -6.957036E-07 +1.449384E-07 -6.957036E-07 +1.647147E-06 
 -4.726444E-06 -6.644863E-07 -4.377436E-07 -6.644863E-07 +4.662532E-07 -1.630596E-06 -4.377436E-07 -1.630596E-06 +4.260191E-06 
 -2.452705E-08 +1.031444E-08 -5.093781E-09 +1.031444E-08 -2.442593E-08 -1.775900E-09 -5.093781E-09 -1.775900E-09 +4.895297E-08 
 -4.545076E-07 +3.809087E-07 -1.748425E-07 +3.809087E-07 -3.142746E-07 +2.347460E-07 -1.748425E-07 +2.347460E-07 +7.687822E-07 
 -9.594360E-08 -1.873898E-07 +1.119186E-07 -1.873898E-07 -5.111680E-07 +4.392881E-07 +1.119186E-07 +4.392881E-07 +6.071116E-07 
 -5.183386E-05 -2.348359E-05 +7.092820E-06 -2.348359E-05 -1.005976E-05 +9.278930E-06 +7.092820E-06 +9.278930E-06 +6.189362E-05 
 -8.171057E-08 +2.096575E-08 +9.303681E-09 +2.096575E-08 -2.447517E-08 -2.403396E-09 +9.303681E-09 -2.403396E-09 +1.061857E-07 
 -7.009088E-06 +2.615147E-05 -3.140121E-06 +2.615147E-05 -9.760018E-05 +1.171452E-05 -3.140121E-06 +1.171452E-05 +1.046093E-04 
 -7.651757E-09 -2.479817E-06 -2.481586E-06 -2.479817E-06 -4.438006E-05 -3.571115E-09 -2.481586E-06 -3.571115E-09 +4.438771E-05 
 -3.131747E-05 -1.047720E-05 -6.358632E-06 -1.047720E-05 -3.370026E-06 +1.071908E-07 -6.358632E-06 +1.071908E-07 +3.468749E-05 
 -1.554617E-08 -3.294932E-09 -6.824483E-09 -3.294932E-09 -1.531222E-08 +4.314795E-10 -6.824483E-09 +4.314795E-10 +3.085839E-08 
 -1.386358E-06 -3.701445E-07 -6.361926E-07 -3.701445E-07 -4.803981E-08 +1.359264E-07 -6.361926E-07 +1.359264E-07 +1.434398E-06 
 -1.070312E-07 -4.088514E-09 -2.106308E-09 -4.088514E-09 -1.521548E-07 +2.116385E-08 -2.106308E-09 +2.116385E-08 +2.591860E-07 
 +8.395984E-07 +7.190625E-06 -1.146263E-05 +7.190625E-06 -6.609770E-05 +8.811038E-06 -1.146263E-05 +8.811038E-06 +6.525810E-05 
 -2.319676E-08 -1.677873E-08 +1.555388E-09 -1.677873E-08 -3.786349E-08 +3.011000E-08 +1.555388E-09 +3.011000E-08 +6.106025E-08 
 -7.306720E-05 -4.218503E-05 +1.061359E-05 -4.218503E-05 -2.435620E-05 +6.127538E-06 +1.061359E-05 +6.127538E-06 +9.742341E-05 
 -2.492488E-07 +8.428685E-07 -1.393573E-07 +8.428685E-07 -2.559781E-06 +1.698545E-06 -1.393573E-07 +1.698545E-06 +2.809029E-06 
 -6.888229E-09 +3.704281E-09 +2.719059E-09 +3.704281E-09 -4.235036E-08 -2.378838E-09 +2.719059E-09 -2.378838E-09 +4.923859E-08 
 -7.610281E-08 +8.663995E-09 +4.244486E-08 +8.663995E-09 -1.174108E-08 -2.295059E-08 +4.244486E-08 -2.295059E-08 +8.784389E-08 
 -2.147562E-08 +1.243239E-08 -3.062492E-09 +1.243239E-08 -2.530491E-08 +9.325301E-09 -3.062492E-09 +9.325301E-09 +4.678054E-08 
 -8.248859E-06 +2.618674E-06 +2.014932E-07 +2.618674E-06 -6.686565E-07 +1.146782E-06 +2.014932E-07 +1.146782E-06 +8.917516E-06 
 +4.967029E-08 -1.625238E-07 -1.751041E-07 -1.625238E-07 -5.495698E-07 +4.396134E-07 -1.751041E-07 +4.396134E-07 +4.998995E-07 
 -2.098246E-04 -1.469203E-04 +4.339458E-05 -1.469203E-04 -1.028753E-04 +3.038526E-05 +4.339458E-05 +3.038526E-05 +3.126999E-04 
 -4.054683E-08 +7.038177E-09 +1.708807E-07 +7.038177E-09 -4.359380E-07 +1.459581E-07 +1.708807E-07 +1.459581E-07 +4.764848E-07 
 +2.014135E-08 +2.145530E-08 -5.091402E-10 +2.145530E-08 -5.715632E-08 +4.152445E-08 -5.091402E-10 +4.152445E-08 +3.701497E-08 
 -4.423760E-06 -3.017870E-06 -9.905672E-07 -3.017870E-06 -2.058546E-06 -5.781584E-07 -9.905672E-07 -5.781584E-07 +6.482307E-06 
 -8.167779E-08 +2.505506E-08 -5.882479E-08 +2.505506E-08 -9.343800E-09 -8.648677E-09 -5.882479E-08 -8.648677E-09 +9.102159E-08 
 -3.846881E-08 -6.027755E-09 -1.050742E-08 -6.027755E-09 -2.632724E-08 -9.979646E-09 -1.050742E-08 -9.979646E-09 +6.479605E-08 
 -1.048097E-06 -1.476217E-06 +3.818931E-07 -1.476217E-06 -1.749017E-06 -4.591999E-07 +3.818931E-07 -4.591999E-07 +2.797114E-06 
 -1.846368E-07 +9.163150E-08 -9.087499E-09 +9.163150E-08 -3.191434E-07 -4.648443E-08 -9.087499E-09 -4.648443E-08 +5.037802E-07 
 -1.711912E-08 -2.318991E-09 -2.967095E-09 -2.318991E-09 -2.433723E-08 -5.937839E-10 -2.967095E-09 -5.937839E-10 +4.145635E-08 
 -1.593718E-08 +3.026032E-09 +7.263415E-09 +3.026032E-09 -6.949600E-09 -3.697939E-09 +7.263415E-09 -3.697939E-09 +2.288678E-08 
 -2.051020E-05 -3.667195E-05 +3.338019E-06 -3.667195E-05 -5.605727E-05 -2.119909E-05 +3.338019E-06 -2.119909E-05 +7.656748E-05 
 -1.140034E-06 -4.275416E-07 -7.996463E-07 -4.275416E-07 -1.524569E-07 -4.306565E-08 -7.996463E-07 -4.306565E-08 +1.292491E-06 
 -3.715305E-08 -1.035467E-08 +1.805302E-08 -1.035467E-08 -1.862690E-08 +8.398520E-09 +1.805302E-08 +8.398520E-09 +5.577995E-08 
 -7.242596E-06 -2.702712E-05 -3.899917E-06 -2.702712E-05 -1.008672E-04 -1.455679E-05 -3.899917E-06 -1.455679E-05 +1.081098E-04 
 -3.338996E-06 +1.526228E-07 -1.196279E-06 +1.526228E-07 -2.074569E-08 +1.971851E-07 -1.196279E-06 +1.971851E-07 +3.359741E-06 
 -1.378834E-06 +1.034989E-06 +1.253609E-06 +1.034989E-06 -7.074095E-07 -4.340130E-07 +1.253609E-06 -4.340130E-07 +2.086244E-06 
 -2.585372E-08 +5.150893E-08 -4.345137E-08 +5.150893E-08 -2.436501E-07 +1.328868E-07 -4.345137E-08 +1.328868E-07 +2.695038E-07 
 -6.648513E-08 +8.641706E-09 +7.305265E-09 +8.641706E-09 -7.202275E-08 -1.154094E-08 +7.305265E-09 -1.154094E-08 +1.385079E-07 
 -6.178273E-06 -1.794028E-06 +1.097589E-06 -1.794028E-06 -5.182511E-07 +4.651685E-07 +1.097589E-06 +4.651685E-07 +6.696524E-06 
 -3.989851E-08 +2.860752E-09 -2.573666E-09 +2.860752E-09 -4.895534E-08 -4.946127E-09 -2.573666E-09 -4.946127E-09 +8.885385E-08 
 -7.766163E-07 +1.817685E-06 +7.363673E-07 +1.817685E-06 -2.861477E-06 +7.371028E-07 +7.363673E-07 +7.371028E-07 +3.638093E-06 
 -5.013616E-08 +5.617395E-09 -2.857706E-09 +5.617395E-09 -2.889716E-08 +5.180532E-09 -2.857706E-09 +5.180532E-09 +7.903331E-08 
 -2.078901E-07 -4.012695E-08 -3.368760E-08 -4.012695E-08 -8.134180E-08 +8.616045E-08 -3.368760E-08 +8.616045E-08 +2.892318E-07 
 -9.145052E-05 +1.306023E-04 -3.421662E-05 +1.306023E-04 -1.865203E-04 +4.886577E-05 -3.421662E-05 +4.886577E-05 +2.779708E-04 
 +5.166245E-08 -4.292619E-07 -8.000359E-07 -4.292619E-07 -3.020605E-06 -8.345724E-07 -8.000359E-07 -8.345724E-07 +2.968943E-06 
 -2.212100E-08 +3.274350E-09 +1.750271E-09 +3.274350E-09 -1.697905E-08 +7.160684E-10 +1.750271E-09 +7.160684E-10 +3.910006E-08 
 -3.141165E-08 -1.725533E-08 +1.195136E-08 -1.725533E-08 -5.402836E-08 +2.821141E-08 +1.195136E-08 +2.821141E-08 +8.544001E-08 
 -1.210692E-05 +3.326155E-05 +9.758419E-06 +3.326155E-05 -9.138598E-05 -2.680934E-05 +9.758419E-06 -2.680934E-05 +1.034929E-04 
 -2.795084E-08 +1.260553E-08 +2.495496E-09 +1.260553E-08 -5.674165E-08 +6.818357E-09 +2.495496E-09 +6.818357E-09 +8.469249E-08 
 -4.202466E-07 +2.822531E-06 -1.262919E-06 +2.822531E-06 -7.239655E-06 -3.187937E-06 -1.262919E-06 -3.187937E-06 +7.659902E-06 
 +1.024945E-07 -1.607060E-07 -3.534633E-07 -1.607060E-07 -1.131805E-06 +1.710351E-07 -3.534633E-07 +1.710351E-07 +1.029311E-06 
 -3.564698E-08 -1.357509E-08 +6.591503E-09 -1.357509E-08 -8.375920E-09 +1.274596E-08 +6.591503E-09 +1.274596E-08 +4.402290E-08 
 -2.288818E-08 +2.547486E-10 +1.092888E-08 +2.547486E-10 -2.345280E-08 -1.103842E-08 +1.092888E-08 -1.103842E-08 +4.634097E-08 
 -6.727845E-08 -1.951652E-09 +7.524251E-09 -1.951652E-09 -2.947514E-08 +2.818616E-09 +7.524251E-09 +2.818616E-09 +9.675358E-08 
 -5.582974E-07 +1.110787E-07 +3.221415E-07 +1.110787E-07 -5.137482E-08 -3.558319E-08 +3.221415E-07 -3.558319E-08 +6.096722E-07 
 -8.768168E-08 +1.871229E-08 -2.991560E-08 +1.871229E-08 -2.533040E-08 -1.012517E-08 -2.991560E-08 -1.012517E-08 +1.130121E-07 
 -2.265104E-07 +1.092414E-07 -2.163988E-08 +1.092414E-07 -1.143615E-08 +1.185954E-07 -2.163988E-08 +1.185954E-07 +2.379465E-07 
 -1.222074E-04 -4.447934E-05 -2.054838E-05 -4.447934E-05 -1.619063E-05 -7.478896E-06 -2.054838E-05 -7.478896E-06 +1.383980E-04 
 -6.850952E-08 +3.033397E-08 +3.346267E-08 +3.033397E-08 -8.066725E-08 -4.086192E-08 +3.346267E-08 -4.086192E-08 +1.491768E-07 
 -2.978890E-05 -4.255006E-05 -1.581567E-07 -4.255006E-05 -4.467491E-05 +3.448883E-05 -1.581567E-07 +3.448883E-05 +7.446382E-05 
 -3.791685E-08 +9.161504E-08 -8.786331E-08 +9.161504E-08 -3.882448E-07 -1.897999E-07 -8.786331E-08 -1.897999E-07 +4.261616E-07 
 -2.255747E-05 +1.025574E-05 -7.518878E-06 +1.025574E-05 -3.307059E-06 -2.790407E-06 -7.518878E-06 -2.790407E-06 +2.586453E-05 
 -4.707543E-05 +6.376052E-05 -1.559591E-05 +6.376052E-05 -7.386532E-05 -1.858973E-05 -1.559591E-05 -1.858973E-05 +1.209407E-04 
 -1.095091E-07 +6.063129E-07 -5.861509E-07 +6.063129E-07 -1.310034E-06 +1.747489E-07 -5.861509E-07 +1.747489E-07 +1.419543E-06 
 -1.389453E-08 -9.454947E-10 +8.407455E-10 -9.454947E-10 -3.079384E-08 +9.784000E-09 +8.407455E-10 +9.784000E-09 +4.468837E-08 
 -3.440968E-08 +1.034284E-09 -5.284762E-09 +1.034284E-09 -4.138852E-08 +1.958756E-09 -5.284762E-09 +1.958756E-09 +7.579821E-08 
 -1.685245E-05 +3.807236E-05 -4.759717E-06 +3.807236E-05 -7.069984E-05 -2.628785E-05 -4.759717E-06 -2.628785E-05 +8.755229E-05 
 -3.316308E-05 +4.262915E-05 +1.135564E-05 +4.262915E-05 -4.838668E-05 +8.829005E-06 +1.135564E-05 +8.829005E-06 +8.154976E-05 
 +5.768224E-08 +2.993345E-09 -1.779528E-07 +2.993345E-09 -5.599815E-07 -1.121144E-08 -1.779528E-07 -1.121144E-08 +5.022993E-07 
 -1.008725E-05 +3.729452E-05 +1.866532E-05 +3.729452E-05 -9.973784E-05 +5.301058E-06 +1.866532E-05 +5.301058E-06 +1.098251E-04 
 -1.235851E-05 +1.216474E-05 +1.096115E-05 +1.216474E-05 -9.587560E-06 -2.061035E-06 +1.096115E-05 -2.061035E-06 +2.194607E-05 
 -3.783371E-06 -6.252741E-07 -7.665161E-09 -6.252741E-07 -1.037644E-07 +4.142457E-08 -7.665161E-09 +4.142457E-08 +3.887135E-06 
 -3.833093E-08 -1.132563E-08 -6.473412E-09 -1.132563E-08 -2.759091E-08 +2.941471E-09 -6.473412E-09 +2.941471E-09 +6.592184E-08 
 -9.571049E-08 +3.654520E-07 +1.457856E-07 +3.654520E-07 -1.129788E-06 +6.812749E-08 +1.457856E-07 +6.812749E-08 +1.225499E-06 
 -1.541060E-06 +2.596596E-06 -4.600402E-07 +2.596596E-06 -4.011248E-06 +2.247480E-06 -4.600402E-07 +2.247480E-06 +5.552308E-06 
 -2.126718E-07 +9.592565E-07 -1.662539E-07 +9.592565E-07 -3.212987E-06 -1.439524E-06 -1.662539E-07 -1.439524E-06 +3.425659E-06 
 +5.473166E-08 +2.660169E-08 +3.106179E-08 +2.660169E-08 +6.764655E-09 -1.331383E-08 +3.106179E-08 -1.331383E-08 -6.149632E-08 
 -2.783639E-07 -6.913450E-07 -3.802488E-07 -6.913450E-07 -7.778644E-07 +2.802591E-07 -3.802488E-07 +2.802591E-07 +1.056228E-06 
 -3.399326E-08 +1.199886E-08 -1.912132E-09 +1.199886E-08 -6.620673E-08 +2.237584E-08 -1.912132E-09 +2.237584E-08 +1.002000E-07 
 +1.545782E-07 -5.395908E-07 +1.599603E-06 -5.395908E-07 -8.922771E-06 +3.336715E-06 +1.599603E-06 +3.336715E-06 +8.768192E-06 
 -1.956634E-05 -3.677815E-05 -1.653295E-05 -3.677815E-05 -6.609394E-05 -1.365213E-05 -1.653295E-05 -1.365213E-05 +8.566029E-05 
 +3.058120E-09 +2.514277E-07 +1.763403E-07 +2.514277E-07 -5.317607E-07 +2.148556E-07 +1.763403E-07 +2.148556E-07 +5.287026E-07 
 -7.806443E-09 -3.287267E-08 +2.638874E-08 -3.287267E-08 -8.372788E-07 -4.823958E-07 +2.638874E-08 -4.823958E-07 +8.450852E-07 
 -7.720225E-07 -3.552425E-07 +4.265923E-09 -3.552425E-07 -4.034196E-08 +3.239384E-07 +4.265923E-09 +3.239384E-07 +8.123645E-07 
 -1.178767E-04 +6.805520E-05 +2.873820E-05 +6.805520E-05 -3.929338E-05 -1.659180E-05 +2.873820E-05 -1.659180E-05 +1.571700E-04 
 -9.136185E-07 -2.852991E-07 +3.377530E-07 -2.852991E-07 +3.874468E-08 -2.590905E-07 +3.377530E-07 -2.590905E-07 +8.748739E-07 
 -5.095925E-08 +7.477315E-09 -4.667418E-09 +7.477315E-09 -3.571995E-08 -4.957708E-09 -4.667418E-09 -4.957708E-09 +8.667921E-08 
 -1.288458E-07 -2.276812E-08 +7.106082E-08 -2.276812E-08 -1.002456E-08 +2.559930E-08 +7.106082E-08 +2.559930E-08 +1.388703E-07 
 -9.231248E-07 +1.178538E-07 -5.330281E-07 +1.178538E-07 +1.307820E-08 +2.938879E-07 -5.330281E-07 +2.938879E-07 +9.100467E-07 
 -1.444676E-08 +4.366376E-09 -2.578936E-09 +4.366376E-09 -3.312088E-08 +1.592377E-08 -2.578936E-09 +1.592377E-08 +4.756764E-08 
 -4.658991E-08 -2.894577E-08 +1.752090E-08 -2.894577E-08 -1.062810E-07 +2.861512E-08 +1.752090E-08 +2.861512E-08 +1.528709E-07 
 -2.338981E-07 +2.164712E-08 -1.117437E-07 +2.164712E-08 -2.127095E-08 +3.913250E-08 -1.117437E-07 +3.913250E-08 +2.551691E-07 
 -6.963419E-07 -2.747114E-06 +1.624449E-06 -2.747114E-06 -7.637429E-06 +1.703477E-07 +1.624449E-06 +1.703477E-07 +8.333771E-06 
 -1.206796E-07 -3.857843E-08 +3.194199E-08 -3.857843E-08 -5.424376E-08 +1.679352E-08 +3.194199E-08 +1.679352E-08 +1.749233E-07 
 -1.324021E-08 -4.246945E-08 +6.071258E-08 -4.246945E-08 -3.296531E-06 +1.193731E-06 +6.071258E-08 +1.193731E-06 +3.309771E-06 
 -5.336601E-05 +1.144418E-04 +3.052066E-05 +1.144418E-04 -2.454218E-04 -6.545235E-05 +3.052066E-05 -6.545235E-05 +2.987878E-04 
 -2.500800E-06 +1.182845E-06 +1.504092E-07 +1.182845E-06 -4.335869E-07 -6.850277E-07 +1.504092E-07 -6.850277E-07 +2.934387E-06 
 -6.467191E-05 -5.315239E-05 -3.655782E-05 -5.315239E-05 -3.797513E-05 -3.507002E-06 -3.655782E-05 -3.507002E-06 +1.026470E-04 
 -5.578054E-06 +2.020401E-06 +4.032049E-08 +2.020401E-06 -5.239081E-07 -1.156768E-06 +4.032049E-08 -1.156768E-06 +6.101963E-06 
 +7.788466E-07 +5.966273E-07 +2.576420E-06 +5.966273E-07 -9.180268E-06 +9.389578E-07 +2.576420E-06 +9.389578E-07 +8.401421E-06 
 -2.681965E-05 +1.557278E-05 +7.039392E-06 +1.557278E-05 -4.673545E-06 +7.995217E-06 +7.039392E-06 +7.995217E-06 +3.149320E-05 
 -2.716066E-08 -1.328708E-06 -1.194630E-06 -1.328708E-06 -3.350605E-06 +2.895048E-07 -1.194630E-06 +2.895048E-07 +3.377765E-06 
 -3.486103E-06 +3.116487E-06 -2.462865E-07 +3.116487E-06 -2.437592E-06 +1.661626E-06 -2.462865E-07 +1.661626E-06 +5.923695E-06 
 -1.165056E-08 -4.100305E-09 -6.149501E-09 -4.100305E-09 -7.096969E-09 -1.738602E-09 -6.149501E-09 -1.738602E-09 +1.874753E-08 
 -7.749169E-08 +3.449987E-07 -2.703638E-07 +3.449987E-07 -1.038975E-06 +1.710137E-07 -2.703638E-07 +1.710137E-07 +1.116467E-06 
 -9.447584E-08 +1.430078E-08 +4.391972E-08 +1.430078E-08 -3.504702E-10 +2.494282E-08 +4.391972E-08 +2.494282E-08 +9.482631E-08 
 -5.820147E-06 +5.530347E-06 +3.192095E-07 +5.530347E-06 -4.929387E-06 -2.201974E-06 +3.192095E-07 -2.201974E-06 +1.074953E-05 
 -1.238808E-06 +2.599179E-06 -1.816839E-06 +2.599179E-06 -5.015778E-06 +1.752351E-06 -1.816839E-06 +1.752351E-06 +6.254586E-06 
 -1.758500E-06 -1.813321E-06 -1.512013E-06 -1.813321E-06 -1.601627E-06 -4.314209E-07 -1.512013E-06 -4.314209E-07 +3.360127E-06 
 -1.676152E-06 -2.116139E-07 -6.288623E-07 -2.116139E-07 -2.387649E-08 +1.033411E-08 -6.288623E-07 +1.033411E-08 +1.700028E-06 
 -2.263063E-06 +8.444415E-06 +1.443413E-07 +8.444415E-06 -3.151541E-05 -5.391906E-07 +1.443413E-07 -5.391906E-07 +3.377847E-05 
 -4.222104E-08 -1.790907E-08 +4.763924E-09 -1.790907E-08 -3.087946E-08 +1.619782E-09 +4.763924E-09 +1.619782E-09 +7.310050E-08 
 -3.303172E-07 +9.093802E-07 -1.898593E-07 +9.093802E-07 -2.574422E-06 +4.706935E-07 -1.898593E-07 +4.706935E-07 +2.904739E-06 
 -7.471590E-05 +1.067030E-04 +2.749472E-05 +1.067030E-04 -1.523894E-04 -3.926635E-05 +2.749472E-05 -3.926635E-05 +2.271053E-04 
 -4.562914E-07 -5.503912E-07 -2.506062E-07 -5.503912E-07 -7.739771E-07 -6.371829E-07 -2.506062E-07 -6.371829E-07 +1.230268E-06 
 -2.255547E-07 +7.836371E-08 -1.231998E-08 +7.836371E-08 -3.272145E-07 +3.518396E-08 -1.231998E-08 +3.518396E-08 +5.527692E-07 
 -5.857610E-08 -9.232641E-08 -3.576605E-08 -9.232641E-08 -1.393125E-07 +3.533268E-08 -3.576605E-08 +3.533268E-08 +1.978886E-07 
 -2.588486E-06 -1.090739E-06 +1.047494E-06 -1.090739E-06 -4.417544E-08 -6.917607E-07 +1.047494E-06 -6.917607E-07 +2.632661E-06 
 -3.624080E-08 +3.039123E-07 +1.057517E-07 +3.039123E-07 -2.260475E-06 +9.140867E-09 +1.057517E-07 +9.140867E-09 +2.296715E-06 
 -4.146035E-06 +2.611369E-06 -2.359011E-06 +2.611369E-06 -1.465112E-06 +3.639806E-07 -2.359011E-06 +3.639806E-07 +5.611147E-06 
 -8.262716E-05 -4.647551E-05 -6.012119E-06 -4.647551E-05 -2.180768E-05 -2.472521E-05 -6.012119E-06 -2.472521E-05 +1.044348E-04 
 -2.617862E-06 +1.743091E-05 +5.171434E-06 +1.743091E-05 -9.010408E-05 +1.737001E-05 +5.171434E-06 +1.737001E-05 +9.272194E-05 
 -3.064006E-06 -2.300355E-06 +9.402517E-07 -2.300355E-06 -1.636572E-06 +2.760667E-08 +9.402517E-07 +2.760667E-08 +4.700578E-06 
 -8.159581E-08 -2.754575E-08 +1.277009E-08 -2.754575E-08 -3.607873E-08 +1.619398E-08 +1.277009E-08 +1.619398E-08 +1.176745E-07 
 +1.460374E-06 +1.307488E-06 -9.872665E-06 +1.307488E-06 -6.239244E-05 +9.158088E-06 -9.872665E-06 +9.158088E-06 +6.093206E-05 
 -9.720886E-07 -1.279975E-06 -9.360585E-07 -1.279975E-06 -1.551712E-06 -5.122340E-07 -9.360585E-07 -5.122340E-07 +2.523800E-06 
 -8.993511E-08 +7.772713E-08 +3.477322E-08 +7.772713E-08 -4.081620E-08 +3.295183E-08 +3.477322E-08 +3.295183E-08 +1.307513E-07 
 -4.154749E-08 +2.973167E-08 +4.249317E-09 +2.973167E-08 -7.134047E-08 -8.559639E-09 +4.249317E-09 -8.559639E-09 +1.128880E-07 
 -6.569808E-07 +2.910525E-06 -1.057380E-06 +2.910525E-06 -8.114017E-06 -2.395980E-06 -1.057380E-06 -2.395980E-06 +8.770998E-06 
 -1.440334E-05 +2.470488E-05 +6.446920E-07 +2.470488E-05 -3.612343E-05 -1.892176E-05 +6.446920E-07 -1.892176E-05 +5.052677E-05 
 -4.273636E-07 +8.884530E-07 -4.598570E-07 +8.884530E-07 -1.092390E-06 -2.927417E-07 -4.598570E-07 -2.927417E-07 +1.519754E-06 
 -2.063603E-07 -1.237501E-07 +7.359434E-09 -1.237501E-07 -6.043319E-08 +9.058903E-08 +7.359434E-09 +9.058903E-08 +2.667934E-07 
 -1.559966E-07 +7.054053E-08 +1.133180E-08 +7.054053E-08 -1.166711E-07 -1.391835E-08 +1.133180E-08 -1.391835E-08 +2.726677E-07 
 -5.923292E-06 -2.940276E-07 +2.325298E-07 -2.940276E-07 +2.871503E-07 +1.317767E-06 +2.325298E-07 +1.317767E-06 +5.636141E-06 
 -1.740629E-07 +5.870278E-08 +4.497210E-08 +5.870278E-08 -5.018132E-08 +6.175578E-10 +4.497210E-08 +6.175578E-10 +2.242442E-07 
 -3.345275E-05 -3.236366E-05 -1.458224E-05 -3.236366E-05 -2.626757E-05 +4.239586E-06 -1.458224E-05 +4.239586E-06 +5.972033E-05 
 -1.199506E-07 +5.124794E-09 +1.130432E-08 +5.124794E-09 -1.038386E-07 +2.258023E-08 +1.130432E-08 +2.258023E-08 +2.237891E-07 
 -8.956571E-05 -2.572535E-05 +1.907938E-05 -2.572535E-05 -6.577791E-06 -3.589278E-06 +1.907938E-05 -3.589278E-06 +9.614351E-05 
 -2.175080E-06 -6.586827E-07 +1.437757E-06 -6.586827E-07 -1.759518E-07 +2.678128E-08 +1.437757E-06 +2.678128E-08 +2.351032E-06 
 -1.628831E-06 +3.945403E-06 +1.321176E-06 +3.945403E-06 -6.853021E-06 +1.898604E-06 +1.321176E-06 +1.898604E-06 +8.481852E-06 
 +1.590122E-06 +6.539979E-06 -7.569075E-06 +6.539979E-06 -2.503084E-05 -5.730406E-06 -7.569075E-06 -5.730406E-06 +2.344072E-05 
 -3.516213E-07 +2.208645E-06 -8.730336E-07 +2.208645E-06 -1.161972E-05 -2.349777E-07 -8.730336E-07 -2.349777E-07 +1.197134E-05 
 -1.481708E-07 +8.439188E-08 -7.122943E-09 +8.439188E-08 -2.379041E-07 -3.857424E-08 -7.122943E-09 -3.857424E-08 +3.860749E-07 
 -5.395895E-07 +1.262997E-06 -4.923939E-07 +1.262997E-06 -1.927233E-06 -5.816028E-07 -4.923939E-07 -5.816028E-07 +2.466822E-06 
 -1.986865E-08 +1.178052E-09 +1.176096E-09 +1.178052E-09 -3.908419E-08 -1.292970E-08 +1.176096E-09 -1.292970E-08 +5.895284E-08 
 -5.214109E-08 +2.093368E-08 -1.026505E-08 +2.093368E-08 -7.936637E-08 +2.568935E-09 -1.026505E-08 +2.568935E-09 +1.315075E-07 
 -2.281174E-06 +2.372556E-07 -1.033948E-07 +2.372556E-07 +2.350278E-07 -7.298850E-07 -1.033948E-07 -7.298850E-07 +2.046147E-06 
 -2.921702E-05 +3.948191E-05 +7.249859E-06 +3.948191E-05 -4.609588E-05 -3.349459E-05 +7.249859E-06 -3.349459E-05 +7.531290E-05 
 -5.945573E-08 +7.239569E-09 +2.078927E-08 +7.239569E-09 -5.188244E-08 -2.223570E-08 +2.078927E-08 -2.223570E-08 +1.113382E-07 
 +1.284960E-07 -1.636670E-07 +3.948321E-07 -1.636670E-07 -1.239925E-06 -4.419834E-07 +3.948321E-07 -4.419834E-07 +1.111429E-06 
 +1.858962E-07 -9.736523E-06 +1.085968E-05 -9.736523E-06 -5.815703E-05 +2.847270E-06 +1.085968E-05 +2.847270E-06 +5.797114E-05 
 -2.988795E-05 +2.168127E-05 -5.535200E-07 +2.168127E-05 -1.352562E-05 +1.025077E-05 -5.535200E-07 +1.025077E-05 +4.341358E-05 
 -1.914631E-06 +1.424874E-06 +2.075997E-07 +1.424874E-06 -5.827397E-07 +9.520418E-07 +2.075997E-07 +9.520418E-07 +2.497370E-06 
 -8.772345E-06 +3.843485E-06 +4.107992E-06 +3.843485E-06 -1.524807E-06 -3.670845E-07 +4.107992E-06 -3.670845E-07 +1.029715E-05 
 -1.622878E-04 +1.342709E-04 -1.666726E-05 +1.342709E-04 -1.075514E-04 +4.480077E-05 -1.666726E-05 +4.480077E-05 +2.698392E-04 
 -3.095894E-07 -6.391843E-08 -1.744626E-07 -6.391843E-08 -1.311176E-08 -7.951391E-08 -1.744626E-07 -7.951391E-08 +3.227012E-07 
 -2.265734E-08 -9.131410E-10 -9.056693E-09 -9.131410E-10 -2.815072E-08 -6.334858E-09 -9.056693E-09 -6.334858E-09 +5.080806E-08 
 -1.369318E-07 -3.958203E-08 -4.375416E-08 -3.958203E-08 -1.552843E-07 -5.566504E-08 -4.375416E-08 -5.566504E-08 +2.922160E-07 
 -8.439796E-08 +1.681528E-08 +6.163473E-09 +1.681528E-08 -3.768744E-08 -9.530448E-09 +6.163473E-09 -9.530448E-09 +1.220854E-07 
 -4.574708E-09 -1.418866E-07 +8.515980E-08 -1.418866E-07 -1.024176E-06 -4.090090E-07 +8.515980E-08 -4.090090E-07 +1.028751E-06 
 -6.822010E-08 -1.023444E-08 +3.574121E-08 -1.023444E-08 -5.489493E-08 -1.756668E-08 +3.574121E-08 -1.756668E-08 +1.231150E-07 
 +1.424677E-07 +2.645435E-07 +9.406460E-07 +2.645435E-07 -4.981764E-06 -9.672191E-07 +9.406460E-07 -9.672191E-07 +4.839296E-06 
 +2.814255E-07 -1.873142E-07 -8.997029E-07 -1.873142E-07 -2.441351E-06 -6.439649E-07 -8.997029E-07 -6.439649E-07 +2.159926E-06 
 -3.279222E-05 +9.473441E-06 -8.430352E-07 +9.473441E-06 -2.556401E-06 -2.310842E-06 -8.430352E-07 -2.310842E-06 +3.534862E-05 
 -1.403078E-06 -8.229639E-08 +4.749638E-07 -8.229639E-08 +7.128809E-09 +2.023754E-07 +4.749638E-07 +2.023754E-07 +1.395949E-06 
 -1.613089E-07 +4.051063E-08 +4.303269E-08 +4.051063E-08 -1.887586E-07 -7.363478E-08 +4.303269E-08 -7.363478E-08 +3.500676E-07 
 -9.131417E-09 +8.671221E-11 +3.897450E-09 +8.671221E-11 -2.103640E-08 -6.573511E-10 +3.897450E-09 -6.573511E-10 +3.016781E-08 
 -1.379391E-07 -2.414930E-08 -1.545486E-08 -2.414930E-08 -5.739313E-08 +4.401108E-10 -1.545486E-08 +4.401108E-10 +1.953322E-07 
 -2.252338E-06 +2.909779E-07 +2.066435E-07 +2.909779E-07 +8.395798E-08 -5.461658E-07 +2.066435E-07 -5.461658E-07 +2.168380E-06 
 -2.163634E-08 +2.667213E-09 -9.808351E-09 +2.667213E-09 -1.122080E-08 +5.119049E-09 -9.808351E-09 +5.119049E-09 +3.285714E-08 
 -1.752077E-07 -3.103083E-07 +1.980862E-07 -3.103083E-07 -4.699293E-07 +8.509167E-08 +1.980862E-07 +8.509167E-08 +6.451371E-07 
 -1.170047E-07 +2.191910E-08 +1.135590E-08 +2.191910E-08 -1.690216E-07 +6.507592E-08 +1.135590E-08 +6.507592E-08 +2.860263E-07 
 -1.271823E-07 -4.509895E-08 +5.223261E-08 -4.509895E-08 -1.301475E-08 +7.423693E-09 +5.223261E-08 +7.423693E-09 +1.401970E-07 
 -3.764672E-08 +6.807272E-09 -8.363031E-09 +6.807272E-09 -3.959813E-08 -1.439398E-08 -8.363031E-09 -1.439398E-08 +7.724485E-08 
 -2.145123E-08 +8.966840E-09 -8.396050E-09 +8.966840E-09 -2.450800E-08 +1.055663E-08 -8.396050E-09 +1.055663E-08 +4.595923E-08 
 -2.378729E-08 +1.286036E-08 -6.963548E-09 +1.286036E-08 -2.301245E-08 +7.203808E-09 -6.963548E-09 +7.203808E-09 +4.679974E-08 
 -3.578842E-07 +2.447944E-07 -2.578981E-07 +2.447944E-07 -8.482183E-08 -7.061077E-08 -2.578981E-07 -7.061077E-08 +4.427061E-07 
 -2.406031E-05 +7.473485E-05 +3.687566E-05 +7.473485E-05 -1.433335E-04 +2.681353E-05 +3.687566E-05 +2.681353E-05 +1.673938E-04 
 -2.803886E-08 +7.213810E-09 +1.330519E-08 +7.213810E-09 -2.752885E-08 -3.613873E-09 +1.330519E-08 -3.613873E-09 +5.556771E-08 
 -4.055907E-08 +8.764149E-08 -5.832291E-08 +8.764149E-08 -1.456086E-07 -9.621012E-09 -5.832291E-08 -9.621012E-09 +1.861676E-07 
 -4.975830E-05 +1.373601E-05 +1.823834E-05 +1.373601E-05 +3.382115E-07 +1.021196E-05 +1.823834E-05 +1.021196E-05 +4.942008E-05 
 -6.573457E-06 -4.287129E-06 +1.457039E-06 -4.287129E-06 -2.370740E-06 +2.943484E-06 +1.457039E-06 +2.943484E-06 +8.944196E-06 
 -3.364154E-06 -1.247847E-05 +8.862283E-06 -1.247847E-05 -3.338013E-05 +5.015457E-06 +8.862283E-06 +5.015457E-06 +3.674428E-05 
 -3.857234E-09 -1.271465E-07 +8.996241E-08 -1.271465E-07 -1.654415E-06 -6.007943E-07 +8.996241E-08 -6.007943E-07 +1.658272E-06 
 -3.142574E-08 +1.792878E-09 -1.775580E-09 +1.792878E-09 -2.820757E-08 -1.867791E-09 -1.775580E-09 -1.867791E-09 +5.963331E-08 
 -9.344600E-06 -2.567213E-05 -4.466961E-06 -2.567213E-05 -7.053413E-05 -1.227261E-05 -4.466961E-06 -1.227261E-05 +7.987873E-05 
 -3.006516E-05 +6.447128E-05 -4.082244E-06 +6.447128E-05 -1.382607E-04 +8.755226E-06 -4.082244E-06 +8.755226E-06 +1.683259E-04 
 -7.861292E-07 -4.345748E-07 -2.733585E-07 -4.345748E-07 -8.306839E-08 +2.508586E-07 -2.733585E-07 +2.508586E-07 +8.691977E-07 
 -9.171835E-07 -3.090545E-07 -3.995110E-07 -3.090545E-07 +2.808298E-08 +2.520487E-07 -3.995110E-07 +2.520487E-07 +8.891005E-07 
 -1.019011E-04 -1.780649E-04 +9.022041E-06 -1.780649E-04 -2.988856E-04 -5.448894E-05 +9.022041E-06 -5.448894E-05 +4.007867E-04 
 -5.615107E-05 -2.114287E-05 -7.587749E-06 -2.114287E-05 -7.404896E-06 +3.153469E-06 -7.587749E-06 +3.153469E-06 +6.355596E-05 
 -1.314719E-06 -2.168297E-06 +6.907847E-07 -2.168297E-06 -3.521107E-06 +5.550143E-07 +6.907847E-07 +5.550143E-07 +4.835826E-06 
 -1.062014E-08 +2.411339E-10 -4.560072E-09 +2.411339E-10 -7.486104E-09 -2.513508E-09 -4.560072E-09 -2.513508E-09 +1.810624E-08 
 -1.524658E-07 +7.358757E-08 -5.313622E-09 +7.358757E-08 -1.344189E-07 +2.929314E-08 -5.313622E-09 +2.929314E-08 +2.868847E-07 
 -3.719751E-06 +1.411579E-05 +4.367677E-06 +1.411579E-05 -4.074884E-05 +8.727023E-06 +4.367677E-06 +8.727023E-06 +4.446859E-05 
 -1.746092E-08 +1.197656E-09 +9.284425E-10 +1.197656E-09 -2.228613E-08 +1.227796E-08 +9.284425E-10 +1.227796E-08 +3.974705E-08 
 +1.663929E-08 -7.904279E-09 +4.475804E-08 -7.904279E-09 -1.279427E-07 -3.339555E-08 +4.475804E-08 -3.339555E-08 +1.113034E-07 
 -3.448336E-09 -9.622345E-07 +1.373550E-06 -9.622345E-07 -4.592220E-06 +1.670021E-06 +1.373550E-06 +1.670021E-06 +4.595668E-06 
 -8.342728E-08 +7.852128E-08 +4.394318E-08 +7.852128E-08 -7.141423E-08 +1.377389E-08 +4.394318E-08 +1.377389E-08 +1.548415E-07 
 -4.113930E-08 -1.152089E-08 -7.912957E-09 -1.152089E-08 -1.259852E-07 -3.359058E-08 -7.912957E-09 -3.359058E-08 +1.671244E-07 
 -9.192636E-07 -1.317886E-06 +8.768473E-07 -1.317886E-06 -1.959053E-06 +1.371769E-06 +8.768473E-07 +1.371769E-06 +2.878316E-06 
 +1.298672E-07 +5.923471E-07 +8.245016E-07 +5.923471E-07 -3.745808E-06 +5.664353E-07 +8.245016E-07 +5.664353E-07 +3.615941E-06 
 -7.302902E-08 +7.823935E-10 +7.506460E-12 +7.823935E-10 -1.071451E-07 +3.882741E-08 +7.506460E-12 +3.882741E-08 +1.801742E-07 
 -2.000473E-07 -6.283679E-07 -5.521737E-07 -6.283679E-07 -1.440476E-06 -3.268673E-07 -5.521737E-07 -3.268673E-07 +1.640524E-06 
 -2.505349E-08 +1.486486E-08 -1.486919E-08 +1.486486E-08 -2.418964E-08 +9.095376E-09 -1.486919E-08 +9.095376E-09 +4.924313E-08 
 -5.320060E-08 -3.765709E-08 +4.236938E-08 -3.765709E-08 -2.610369E-09 +1.731294E-08 +4.236938E-08 +1.731294E-08 +5.581097E-08 
 -7.087166E-08 +8.762120E-08 -6.280806E-08 +8.762120E-08 -7.673860E-08 -4.630231E-10 -6.280806E-08 -4.630231E-10 +1.476103E-07 
 -2.620227E-07 +6.405811E-08 -1.586710E-07 +6.405811E-08 -1.997126E-08 +4.662478E-09 -1.586710E-07 +4.662478E-09 +2.819940E-07 
 +6.392147E-08 -7.899341E-08 +1.981209E-07 -7.899341E-08 -6.275441E-07 -2.121679E-07 +1.981209E-07 -2.121679E-07 +5.636226E-07 
 -8.259869E-05 +4.756038E-05 +1.236986E-06 +4.756038E-05 -2.628068E-05 -1.170986E-05 +1.236986E-06 -1.170986E-05 +1.088794E-04 
 -7.995213E-07 +1.221505E-06 +7.560796E-07 +1.221505E-06 -1.813852E-06 -5.926033E-07 +7.560796E-07 -5.926033E-07 +2.613373E-06 
 -3.114145E-05 -1.719083E-05 +5.112144E-06 -1.719083E-05 -9.263214E-06 +5.894172E-06 +5.112144E-06 +5.894172E-06 +4.040467E-05 
 -1.538665E-06 -1.365927E-06 +8.722705E-07 -1.365927E-06 -1.202401E-06 +5.332416E-07 +8.722705E-07 +5.332416E-07 +2.741066E-06 
 -2.064090E-09 -2.907505E-06 +2.907057E-06 -2.907505E-06 -4.132459E-05 +7.748922E-10 +2.907057E-06 +7.748922E-10 +4.132666E-05 
 -4.066844E-08 +5.088080E-09 -1.253952E-08 +5.088080E-09 -1.824616E-08 +1.286353E-09 -1.253952E-08 +1.286353E-09 +5.891459E-08 
 -2.000225E-08 -1.404585E-09 +3.834550E-09 -1.404585E-09 -2.501337E-08 -8.781111E-10 +3.834550E-09 -8.781111E-10 +4.501562E-08 
 -4.462836E-05 +8.252393E-07 +7.868818E-06 +8.252393E-07 -2.251529E-09 -9.832667E-07 +7.868818E-06 -9.832667E-07 +4.463061E-05 
 -1.008392E-05 -1.286917E-05 -1.578990E-06 -1.286917E-05 -1.002781E-05 +9.442248E-06 -1.578990E-06 +9.442248E-06 +2.011172E-05 
 -4.968946E-06 -1.925700E-06 -6.350277E-07 -1.925700E-06 -5.552450E-07 +8.026454E-07 -6.350277E-07 +8.026454E-07 +5.524191E-06 
 -2.085445E-06 +3.804477E-07 -4.998349E-07 +3.804477E-07 -9.665871E-10 -2.980745E-07 -4.998349E-07 -2.980745E-07 +2.086411E-06 
 -2.914795E-05 +2.154871E-05 -6.532594E-07 +2.154871E-05 -1.590791E-05 -9.441054E-07 -6.532594E-07 -9.441054E-07 +4.505586E-05 
 -1.150845E-07 +1.006212E-08 +2.226010E-08 +1.006212E-08 -6.991883E-08 +7.657786E-09 +2.226010E-08 +7.657786E-09 +1.850033E-07 
 -6.229257E-07 +5.706294E-09 -2.401552E-07 +5.706294E-09 +1.107526E-08 -1.057487E-07 -2.401552E-07 -1.057487E-07 +6.118504E-07 
 -5.737715E-08 +1.711829E-08 +1.360530E-08 +1.711829E-08 -4.926046E-08 -1.821092E-08 +1.360530E-08 -1.821092E-08 +1.066376E-07 
 -3.270174E-09 +7.676472E-10 +1.176856E-09 +7.676472E-10 -2.411852E-09 -1.127088E-09 +1.176856E-09 -1.127088E-09 +5.682026E-09 
 -5.051357E-06 -1.252693E-05 -8.556975E-06 -1.252693E-05 -2.318601E-05 -2.860394E-06 -8.556975E-06 -2.860394E-06 +2.823737E-05 
 -1.834281E-06 +1.679856E-05 -1.272349E-05 +1.679856E-05 -1.046130E-04 +1.853866E-05 -1.272349E-05 +1.853866E-05 +1.064472E-04 
 -1.144370E-08 -1.863659E-08 -6.575446E-10 -1.863659E-08 -7.229885E-08 +4.260803E-08 -6.575446E-10 +4.260803E-08 +8.374254E-08 
 -3.796429E-07 -2.737129E-06 +1.295956E-06 -2.737129E-06 -7.161595E-06 -2.942820E-06 +1.295956E-06 -2.942820E-06 +7.541238E-06 
 -2.259564E-06 +1.280295E-05 -8.701215E-07 +1.280295E-05 -7.261075E-05 +4.930795E-06 -8.701215E-07 +4.930795E-06 +7.487031E-05 
 -9.597621E-05 -3.493222E-05 +1.067965E-05 -3.493222E-05 -1.271504E-05 +3.886666E-06 +1.067965E-05 +3.886666E-06 +1.086912E-04 
 -9.947925E-06 +2.732547E-05 +1.132139E-05 +2.732547E-05 -7.507841E-05 -3.110569E-05 +1.132139E-05 -3.110569E-05 +8.502634E-05 
 +1.366099E-08 -2.070463E-08 +6.409208E-09 -2.070463E-08 -2.114941E-08 +2.046114E-08 +6.409208E-09 +2.046114E-08 +7.488414E-09 
 -2.416097E-07 -3.959483E-08 +3.824399E-08 -3.959483E-08 -1.145091E-07 +1.530590E-08 +3.824399E-08 +1.530590E-08 +3.561188E-07 
 -3.018981E-08 -6.387524E-09 +2.175903E-08 -6.387524E-09 -4.542102E-08 +1.255617E-08 +2.175903E-08 +1.255617E-08 +7.561083E-08 
 -4.788852E-09 -2.646748E-09 -2.222661E-09 -2.646748E-09 -7.236868E-09 -3.363865E-09 -2.222661E-09 -3.363865E-09 +1.202572E-08 
 -2.698345E-08 -6.237117E-09 +4.124065E-09 -6.237117E-09 -2.833216E-08 +3.164343E-09 +4.124065E-09 +3.164343E-09 +5.531562E-08 
 -2.007503E-06 +3.381275E-06 -1.770575E-06 +3.381275E-06 -3.493192E-06 -9.775747E-07 -1.770575E-06 -9.775747E-07 +5.500694E-06 
 -1.643584E-06 -2.400022E-06 -7.919645E-07 -2.400022E-06 -2.178929E-06 +1.208621E-06 -7.919645E-07 +1.208621E-06 +3.822512E-06 
 +1.159637E-07 -1.456326E-07 -5.201366E-07 -1.456326E-07 -2.030908E-06 -1.171086E-07 -5.201366E-07 -1.171086E-07 +1.914945E-06 
 -6.464172E-07 +1.969488E-07 +7.608527E-08 +1.969488E-07 +7.151029E-09 +2.075348E-07 +7.608527E-08 +2.075348E-07 +6.392661E-07 
 +7.086212E-09 -7.299010E-08 +1.838092E-07 -7.299010E-08 -6.024648E-07 +3.488643E-07 +1.838092E-07 +3.488643E-07 +5.953785E-07 
 -3.998459E-05 -4.828744E-05 +1.162722E-06 -4.828744E-05 -4.802964E-05 -2.871110E-05 +1.162722E-06 -2.871110E-05 +8.801423E-05 
 -8.952241E-05 -1.093950E-04 +1.995261E-05 -1.093950E-04 -1.295578E-04 -6.031002E-06 +1.995261E-05 -6.031002E-06 +2.190802E-04 
 -1.662469E-07 -5.310772E-08 -1.380614E-08 -5.310772E-08 -7.878234E-08 -1.943534E-08 -1.380614E-08 -1.943534E-08 +2.450292E-07 
 -2.349363E-07 -2.935406E-07 +4.088887E-07 -2.935406E-07 -3.930905E-07 +2.571843E-07 +4.088887E-07 +2.571843E-07 +6.280268E-07 
 -3.520863E-08 -3.656830E-08 +6.880634E-08 -3.656830E-08 -1.221735E-07 +6.561757E-08 +6.880634E-08 +6.561757E-08 +1.573821E-07 
 -7.664094E-07 +7.928712E-07 +2.340245E-07 +7.928712E-07 -7.428092E-07 -6.160724E-07 +2.340245E-07 -6.160724E-07 +1.509219E-06 
 -5.137049E-07 -6.192923E-07 -2.983905E-07 -6.192923E-07 -7.097273E-07 -7.112946E-07 -2.983905E-07 -7.112946E-07 +1.223432E-06 
 -2.237542E-06 -1.271382E-05 +9.232152E-06 -1.271382E-05 -2.455873E-05 -3.182553E-06 +9.232152E-06 -3.182553E-06 +2.679627E-05 
 -6.126018E-06 +2.561015E-06 -1.179148E-06 +2.561015E-06 -5.294553E-07 -1.458649E-06 -1.179148E-06 -1.458649E-06 +6.655473E-06 
 -1.758840E-08 -4.615792E-08 -1.304580E-07 -4.615792E-08 -7.882207E-07 -4.271110E-07 -1.304580E-07 -4.271110E-07 +8.058091E-07 
 -5.877054E-06 -2.867459E-06 +6.837751E-07 -2.867459E-06 -1.148374E-06 -1.040887E-06 +6.837751E-07 -1.040887E-06 +7.025428E-06 
 -2.358807E-08 -3.098878E-08 +3.852011E-08 -3.098878E-08 -8.555046E-08 +4.001430E-08 +3.852011E-08 +4.001430E-08 +1.091385E-07 
 -1.483222E-07 -1.557124E-08 +5.276104E-08 -1.557124E-08 -1.024447E-07 +8.233946E-09 +5.276104E-08 +8.233946E-09 +2.507668E-07 
 -9.454211E-07 +3.249239E-07 -6.072702E-07 +3.249239E-07 -1.403533E-07 +9.593485E-08 -6.072702E-07 +9.593485E-08 +1.085774E-06 
 -6.759121E-07 +4.324634E-07 +2.451615E-07 +4.324634E-07 -1.762242E-07 +1.851339E-07 +2.451615E-07 +1.851339E-07 +8.521363E-07 
 -5.235568E-08 +1.025568E-07 -2.873144E-07 +1.025568E-07 -2.190882E-06 +7.190645E-07 -2.873144E-07 +7.190645E-07 +2.243238E-06 
 -6.106171E-09 +2.484129E-09 +8.430034E-10 +2.484129E-09 -2.456620E-08 +1.255981E-08 +8.430034E-10 +1.255981E-08 +3.067237E-08 
 -2.177350E-08 +8.490879E-09 -9.082045E-09 +8.490879E-09 -3.247633E-08 +1.071706E-08 -9.082045E-09 +1.071706E-08 +5.424983E-08 
 -5.022147E-07 +2.441171E-07 -1.658930E-07 +2.441171E-07 -7.287301E-08 +2.546340E-07 -1.658930E-07 +2.546340E-07 +5.750877E-07 
 -5.834260E-07 -5.774299E-08 +3.326399E-07 -5.774299E-08 +1.008202E-08 +1.600618E-07 +3.326399E-07 +1.600618E-07 +5.733439E-07 
 -5.330444E-06 +1.987571E-05 +2.156102E-06 +1.987571E-05 -7.418225E-05 -8.053354E-06 +2.156102E-06 -8.053354E-06 +7.951270E-05 
 -2.122105E-08 +1.072722E-08 -8.945848E-10 +1.072722E-08 -3.404998E-08 +1.435129E-08 -8.945848E-10 +1.435129E-08 +5.527102E-08 
 -2.916737E-08 -5.467445E-09 +8.335737E-09 -5.467445E-09 -2.846989E-08 +8.882188E-09 +8.335737E-09 +8.882188E-09 +5.763726E-08 
 -8.615010E-05 -8.614918E-05 +3.338019E-06 -8.614918E-05 -8.614992E-05 +3.336986E-06 +3.338019E-06 +3.336986E-06 +1.723000E-04 
 -3.056376E-05 +7.407903E-06 +1.272161E-06 +7.407903E-06 -1.353523E-06 +3.483362E-06 +1.272161E-06 +3.483362E-06 +3.191728E-05 
 -1.484141E-06 +1.523411E-05 +1.354360E-05 +1.523411E-05 -9.947243E-05 -2.595167E-05 +1.354360E-05 -2.595167E-05 +1.009566E-04 
 -1.047826E-07 -2.287571E-07 -1.344217E-07 -2.287571E-07 -2.945729E-07 +5.489627E-08 -1.344217E-07 +5.489627E-08 +3.993554E-07 
 -9.341392E-08 +2.097374E-08 +3.822192E-08 +2.097374E-08 -9.123654E-08 -1.972862E-08 +3.822192E-08 -1.972862E-08 +1.846505E-07 
 -1.089047E-07 -7.390635E-07 -7.582675E-07 -7.390635E-07 -2.707834E-06 -7.718612E-07 -7.582675E-07 -7.718612E-07 +2.816738E-06 
 -6.904131E-09 -1.719516E-09 +7.981082E-10 -1.719516E-09 -1.005705E-08 +4.659495E-09 +7.981082E-10 +4.659495E-09 +1.696119E-08 
 -3.022035E-08 +1.145846E-08 -6.554114E-09 +1.145846E-08 -4.015210E-08 -3.511518E-09 -6.554114E-09 -3.511518E-09 +7.037244E-08 
 -1.263625E-06 -4.316374E-06 +2.803865E-06 -4.316374E-06 -8.331730E-06 -4.942021E-07 +2.803865E-06 -4.942021E-07 +9.595355E-06 
 -4.069394E-08 +1.339879E-09 +7.707149E-09 +1.339879E-09 -1.699060E-07 +1.234731E-08 +7.707149E-09 +1.234731E-08 +2.105999E-07 
 +1.458568E-08 +1.482050E-08 +7.044864E-08 +1.482050E-08 -2.357842E-07 +1.515477E-07 +7.044864E-08 +1.515477E-07 +2.211985E-07 
 -5.188238E-08 +1.794339E-09 +2.244618E-08 +1.794339E-09 -2.709581E-08 -1.134947E-09 +2.244618E-08 -1.134947E-09 +7.897819E-08 
 -1.332123E-04 +5.748539E-05 -4.797511E-05 +5.748539E-05 -2.319197E-05 +3.746654E-05 -4.797511E-05 +3.746654E-05 +1.564042E-04 
 -8.914249E-08 -7.008047E-10 -4.750758E-08 -7.008047E-10 -5.519557E-08 +8.119956E-09 -4.750758E-08 +8.119956E-09 +1.443381E-07 
 -3.724061E-08 -1.001181E-07 -1.013788E-07 -1.001181E-07 -2.506374E-07 -1.293148E-07 -1.013788E-07 -1.293148E-07 +2.878780E-07 
 -3.291325E-08 -5.691191E-10 +5.315982E-09 -5.691191E-10 -2.174387E-08 -5.897999E-10 +5.315982E-09 -5.897999E-10 +5.465712E-08 
 -4.312632E-06 +2.620735E-06 -4.690314E-07 +2.620735E-06 -1.095284E-06 +1.933321E-06 -4.690314E-07 +1.933321E-06 +5.407916E-06 
 -5.942409E-08 +1.216489E-08 -2.080783E-08 +1.216489E-08 -3.847222E-08 +6.527860E-09 -2.080783E-08 +6.527860E-09 +9.789630E-08 
 -2.182651E-08 -1.337619E-08 -1.144345E-09 -1.337619E-08 -6.153092E-08 +8.332453E-09 -1.144345E-09 +8.332453E-09 +8.335743E-08 
 -5.098697E-06 +2.019533E-07 +2.015912E-06 +2.019533E-07 +2.250462E-07 -1.238936E-06 +2.015912E-06 -1.238936E-06 +4.873652E-06 
 -2.226092E-07 -6.360087E-08 +1.591305E-07 -6.360087E-08 -1.075005E-08 -2.577542E-08 +1.591305E-07 -2.577542E-08 +2.333593E-07 
 +3.239433E-08 +5.182133E-08 +1.450901E-07 +5.182133E-08 -3.570521E-07 -1.051505E-07 +1.450901E-07 -1.051505E-07 +3.246578E-07 
 -4.400219E-08 +1.401102E-08 -1.365562E-08 +1.401102E-08 +9.510082E-09 +2.283205E-08 -1.365562E-08 +2.283205E-08 +3.449210E-08 
 +1.570076E-06 +2.164905E-06 -7.964415E-06 +2.164905E-06 -2.609454E-05 +1.046426E-05 -7.964415E-06 +1.046426E-05 +2.452446E-05 
 -5.598127E-07 +3.919912E-07 +6.598150E-07 +3.919912E-07 -2.744651E-07 -4.620078E-07 +6.598150E-07 -4.620078E-07 +8.342778E-07 
 -1.793972E-06 -1.720684E-06 +9.321282E-08 -1.720684E-06 -9.683328E-07 +1.487172E-06 +9.321282E-08 +1.487172E-06 +2.762305E-06 
 -1.808752E-07 +1.998925E-07 -1.049589E-07 +1.998925E-07 -2.153074E-07 +2.005195E-07 -1.049589E-07 +2.005195E-07 +3.961826E-07 
 -3.065713E-08 -1.099706E-08 -4.001286E-09 -1.099706E-08 -3.770370E-08 -3.232845E-09 -4.001286E-09 -3.232845E-09 +6.836083E-08 
 -8.798762E-08 +1.705746E-07 -7.244955E-08 +1.705746E-07 -3.655142E-07 +2.447699E-07 -7.244955E-08 +2.447699E-07 +4.535018E-07 
 -3.434322E-07 -8.976642E-08 -1.222599E-07 -8.976642E-08 +6.538049E-09 -1.400141E-07 -1.222599E-07 -1.400141E-07 +3.368942E-07 
 -1.103989E-07 -7.110023E-07 +6.440295E-08 -7.110023E-07 -3.833619E-06 -1.499186E-06 +6.440295E-08 -1.499186E-06 +3.944018E-06 
 -1.123000E-07 +8.093307E-08 +1.167840E-08 +8.093307E-08 -3.393216E-07 +3.278083E-08 +1.167840E-08 +3.278083E-08 +4.516215E-07 
 -1.067006E-06 -8.355909E-07 +7.263872E-07 -8.355909E-07 -4.761818E-07 -5.313113E-08 +7.263872E-07 -5.313113E-08 +1.543188E-06 
 -9.013915E-09 +1.955188E-09 +2.097712E-10 +1.955188E-09 -1.833286E-08 -1.965231E-09 +2.097712E-10 -1.965231E-09 +2.734677E-08 
 -2.580682E-06 -2.401835E-06 -1.604161E-06 -2.401835E-06 -2.124996E-06 -2.399687E-06 -1.604161E-06 -2.399687E-06 +4.705678E-06 
 +3.943345E-06 -5.145857E-07 -1.121772E-05 -5.145857E-07 -3.322589E-05 -7.202525E-06 -1.121772E-05 -7.202525E-06 +2.928254E-05 
 -1.815167E-08 -5.350705E-07 -3.131652E-07 -5.350705E-07 -2.841471E-06 +1.216427E-06 -3.131652E-07 +1.216427E-06 +2.859622E-06 
 -5.638756E-07 +1.286497E-07 -3.770934E-07 +1.286497E-07 -1.439850E-08 -6.283912E-08 -3.770934E-07 -6.283912E-08 +5.782741E-07 
 -2.949037E-08 +2.826101E-08 -1.903320E-08 +2.826101E-08 -1.186734E-08 -9.884886E-09 -1.903320E-08 -9.884886E-09 +4.135772E-08 
 -9.396977E-09 +7.721303E-10 -1.531589E-09 +7.721303E-10 -3.167654E-08 +8.641450E-09 -1.531589E-09 +8.641450E-09 +4.107351E-08 
 -4.050184E-08 +5.659974E-10 +5.841741E-10 +5.659974E-10 -2.375362E-08 -5.518458E-09 +5.841741E-10 -5.518458E-09 +6.425546E-08 
 -4.335050E-07 +9.467269E-07 +4.204947E-07 +9.467269E-07 -2.135310E-06 -8.258339E-07 +4.204947E-07 -8.258339E-07 +2.568815E-06 
 +3.140690E-07 -2.150493E-07 +1.332656E-06 -2.150493E-07 -5.045786E-06 +8.241166E-07 +1.332656E-06 +8.241166E-07 +4.731717E-06 
 -3.073387E-06 +5.808146E-07 -1.159314E-06 +5.808146E-07 +1.248928E-07 -6.871277E-07 -1.159314E-06 -6.871277E-07 +2.948494E-06 
 -9.471178E-08 -2.519810E-08 -6.268883E-09 -2.519810E-08 -4.650692E-08 -1.051273E-08 -6.268883E-09 -1.051273E-08 +1.412187E-07 
 -3.658271E-07 -2.339788E-07 -1.692436E-07 -2.339788E-07 -1.544347E-07 -7.892510E-08 -1.692436E-07 -7.892510E-08 +5.202618E-07 
 -6.088334E-08 -2.627028E-07 -3.064891E-07 -2.627028E-07 -4.910043E-07 -1.276529E-07 -3.064891E-07 -1.276529E-07 +5.518876E-07 
 -1.275928E-06 +2.770791E-08 -2.146267E-07 +2.770791E-08 +1.375744E-07 +4.182440E-07 -2.146267E-07 +4.182440E-07 +1.138353E-06 
 -1.759687E-04 +1.297120E-10 +7.049502E-05 +1.297120E-10 -3.331884E-09 -1.219498E-09 +7.049502E-05 -1.219498E-09 +1.759720E-04 
 -1.323957E-05 +1.470722E-05 -1.103441E-06 +1.470722E-05 -1.536873E-05 +6.531501E-06 -1.103441E-06 +6.531501E-06 +2.860830E-05 
 -6.123068E-05 +4.287308E-05 -3.327495E-05 +4.287308E-05 -3.002146E-05 +2.329864E-05 -3.327495E-05 +2.329864E-05 +9.125214E-05 
 -8.588481E-08 +9.703466E-09 -6.558393E-09 +9.703466E-09 -1.091413E-07 +3.968598E-09 -6.558393E-09 +3.968598E-09 +1.950261E-07 
 -5.226161E-08 +6.618298E-10 -1.164367E-09 +6.618298E-10 -5.671665E-08 +7.071986E-10 -1.164367E-09 +7.071986E-10 +1.089783E-07 
 -2.359351E-05 -6.321767E-06 +3.598721E-06 -6.321767E-06 -1.694414E-06 +9.640662E-07 +3.598721E-06 +9.640662E-07 +2.528792E-05 
 -4.775491E-06 +4.372548E-06 +2.058955E-06 +4.372548E-06 -4.012800E-06 -2.442818E-06 +2.058955E-06 -2.442818E-06 +8.788291E-06 
 -3.087245E-04 -1.554146E-04 -1.186633E-04 -1.554146E-04 -7.424785E-05 -1.836785E-05 -1.186633E-04 -1.836785E-05 +3.829723E-04 
 -6.519680E-06 -5.420725E-06 -3.437247E-07 -5.420725E-06 -3.689497E-06 +2.629066E-06 -3.437247E-07 +2.629066E-06 +1.020918E-05 
 +2.385169E-06 -1.655431E-06 -2.737251E-05 -1.655431E-06 -3.153268E-04 +1.891808E-05 -2.737251E-05 +1.891808E-05 +3.129417E-04 
 -3.253785E-04 -6.118001E-06 -6.991880E-05 -6.118001E-06 +2.468992E-06 +2.824663E-05 -6.991880E-05 +2.824663E-05 +3.229095E-04 
 -3.588212E-09 +2.827341E-07 -1.694965E-07 +2.827341E-07 -5.388177E-07 -2.870306E-07 -1.694965E-07 -2.870306E-07 +5.424059E-07 
 -8.467588E-08 +3.215521E-08 -2.926207E-08 +3.215521E-08 -4.954491E-08 +5.443388E-09 -2.926207E-08 +5.443388E-09 +1.342208E-07 
 -1.195479E-08 -2.432433E-09 -4.271481E-09 -2.432433E-09 -8.750797E-09 -4.298295E-09 -4.271481E-09 -4.298295E-09 +2.070558E-08 
 -9.915912E-09 -1.330170E-08 -3.367650E-09 -1.330170E-08 -1.132764E-07 -7.056368E-08 -3.367650E-09 -7.056368E-08 +1.231923E-07 
 -2.557317E-06 +2.632536E-06 +2.343710E-07 +2.632536E-06 -2.074105E-06 +1.508101E-06 +2.343710E-07 +1.508101E-06 +4.631422E-06 
 +3.938903E-07 -5.311308E-07 +1.506007E-06 -5.311308E-07 -6.038355E-06 -1.979211E-06 +1.506007E-06 -1.979211E-06 +5.644465E-06 
 -2.327743E-05 -1.250832E-06 -4.947829E-06 -1.250832E-06 +1.164236E-06 -5.607920E-06 -4.947829E-06 -5.607920E-06 +2.211319E-05 
 -7.327989E-08 -6.728079E-07 +4.093870E-07 -6.728079E-07 -1.947344E-06 -5.448360E-07 +4.093870E-07 -5.448360E-07 +2.020624E-06 
 -2.118829E-07 +2.302392E-07 +2.226209E-07 +2.302392E-07 -2.643669E-07 -1.542714E-07 +2.226209E-07 -1.542714E-07 +4.762498E-07 
 -7.680176E-08 -4.646176E-09 -6.105134E-09 -4.646176E-09 -4.178397E-08 +1.020716E-09 -6.105134E-09 +1.020716E-09 +1.185857E-07 
 -1.172693E-07 +2.111909E-07 +1.099258E-07 +2.111909E-07 -5.454358E-07 -1.896971E-07 +1.099258E-07 -1.896971E-07 +6.627051E-07 
 -1.371396E-06 +1.453039E-06 -5.854670E-07 +1.453039E-06 -1.542433E-06 +8.828138E-07 -5.854670E-07 +8.828138E-07 +2.913829E-06 
 -7.700273E-08 -1.747194E-08 +9.799594E-09 -1.747194E-08 -4.820662E-08 -2.625445E-09 +9.799594E-09 -2.625445E-09 +1.252094E-07 
 -1.047961E-07 -2.068604E-08 -5.200333E-09 -2.068604E-08 -1.358288E-07 +6.813882E-08 -5.200333E-09 +6.813882E-08 +2.406249E-07 
 -1.591752E-06 -7.216769E-07 -3.824431E-07 -7.216769E-07 -8.462802E-08 +5.007620E-07 -3.824431E-07 +5.007620E-07 +1.676380E-06 
 -5.402391E-08 -2.441159E-09 -8.029772E-09 -2.441159E-09 -4.248268E-08 -6.436150E-09 -8.029772E-09 -6.436150E-09 +9.650658E-08 
 -1.618353E-05 +1.763958E-05 -4.465103E-07 +1.763958E-05 -1.677224E-05 +9.491784E-06 -4.465103E-07 +9.491784E-06 +3.295576E-05 
 -2.586798E-07 +2.517102E-08 -3.619424E-08 +2.517102E-08 +3.433204E-08 +9.844538E-08 -3.619424E-08 +9.844538E-08 +2.243478E-07 
 -6.441137E-07 +1.066692E-05 +8.117019E-06 +1.066692E-05 -3.408781E-05 +5.549773E-06 +8.117019E-06 +5.549773E-06 +3.473193E-05 
 -8.575887E-06 -1.193646E-06 -1.771951E-06 -1.193646E-06 +1.099410E-07 -1.825042E-06 -1.771951E-06 -1.825042E-06 +8.465947E-06 
 -1.238172E-06 +8.374850E-07 -1.142306E-06 +8.374850E-07 -4.829512E-07 +2.277234E-07 -1.142306E-06 +2.277234E-07 +1.721124E-06 
 +9.074449E-09 -4.557075E-09 +7.652478E-08 -4.557075E-09 -2.380847E-07 +7.954395E-08 +7.652478E-08 +7.954395E-08 +2.290102E-07 
 -8.335169E-08 +1.681179E-08 +2.932126E-08 +1.681179E-08 -1.508692E-07 +5.078991E-09 +2.932126E-08 +5.078991E-09 +2.342209E-07 
 -2.085138E-07 +1.238639E-07 -2.880827E-08 +1.238639E-07 -6.832804E-08 -6.818561E-08 -2.880827E-08 -6.818561E-08 +2.768419E-07 
 -1.038327E-07 -1.349054E-07 +7.703165E-08 -1.349054E-07 -2.340016E-07 +1.543219E-07 +7.703165E-08 +1.543219E-07 +3.378344E-07 
 +2.642143E-07 -5.497772E-07 -1.429198E-06 -5.497772E-07 -7.803686E-06 +1.758811E-06 -1.429198E-06 +1.758811E-06 +7.539472E-06 
 -1.070990E-07 +5.709274E-07 -5.269615E-07 +5.709274E-07 -2.483712E-06 +7.978585E-07 -5.269615E-07 +7.978585E-07 +2.590811E-06 
 +7.093358E-08 +2.477553E-08 -6.243919E-09 +2.477553E-08 -1.695347E-07 -1.219348E-07 -6.243919E-09 -1.219348E-07 +9.860113E-08 
 -6.447122E-07 +5.378277E-07 -3.650542E-07 +5.378277E-07 -5.610382E-07 +5.106860E-07 -3.650542E-07 +5.106860E-07 +1.205750E-06 
 -2.032162E-06 -1.158423E-05 +1.974489E-06 -1.158423E-05 -6.626853E-05 +1.188055E-05 +1.974489E-06 +1.188055E-05 +6.830069E-05 
 -8.401617E-05 -5.940529E-05 +5.409699E-06 -5.940529E-05 -4.058192E-05 -9.516521E-06 +5.409699E-06 -9.516521E-06 +1.245981E-04 
 -5.914989E-07 -2.081746E-06 -1.642937E-06 -2.081746E-06 -4.640741E-06 -6.462357E-07 -1.642937E-06 -6.462357E-07 +5.232239E-06 
 -4.120854E-07 +5.468759E-07 +2.650418E-07 +5.468759E-07 -5.658598E-07 +7.930783E-08 +2.650418E-07 +7.930783E-08 +9.779451E-07 
 -7.980738E-07 -6.604977E-07 +6.766388E-07 -6.604977E-07 -5.584207E-07 +3.862109E-07 +6.766388E-07 +3.862109E-07 +1.356494E-06 
 -2.849303E-05 -5.972630E-06 +1.068048E-05 -5.972630E-06 -9.894122E-07 -7.347697E-07 +1.068048E-05 -7.347697E-07 +2.948245E-05 
 -1.103490E-07 +4.634400E-08 -6.786335E-08 +4.634400E-08 -7.563103E-08 +2.681517E-08 -6.786335E-08 +2.681517E-08 +1.859800E-07 
 -4.120742E-06 -4.182943E-05 -3.672022E-05 -4.182943E-05 -2.720667E-04 -6.912791E-05 -3.672022E-05 -6.912791E-05 +2.761874E-04 
 -2.411816E-05 +1.382214E-05 -1.324973E-05 +1.382214E-05 -6.496824E-06 +2.276508E-07 -1.324973E-05 +2.276508E-07 +3.061498E-05 
 +6.718007E-07 -2.053524E-06 -6.121184E-06 -2.053524E-06 -4.150463E-05 -7.761015E-06 -6.121184E-06 -7.761015E-06 +4.083283E-05 
 -2.475649E-05 +9.732803E-06 -4.472046E-06 +9.732803E-06 +1.953928E-07 +1.189004E-05 -4.472046E-06 +1.189004E-05 +2.456110E-05 
 -6.411074E-07 +1.008108E-06 +4.632487E-07 +1.008108E-06 -1.006590E-06 +3.588104E-07 +4.632487E-07 +3.588104E-07 +1.647697E-06 
 -2.460933E-08 -1.038553E-08 +1.495028E-09 -1.038553E-08 -1.943282E-08 -8.859780E-10 +1.495028E-09 -8.859780E-10 +4.404214E-08 
 -4.412400E-06 +1.664438E-05 -5.401669E-07 +1.664438E-05 -5.590876E-05 -1.836963E-05 -5.401669E-07 -1.836963E-05 +6.032116E-05 
 -9.738463E-08 -4.413523E-08 -4.816633E-08 -4.413523E-08 -7.899873E-08 +9.701259E-09 -4.816633E-08 +9.701259E-09 +1.763834E-07 
 -6.049085E-08 -1.004865E-08 -1.554386E-08 -1.004865E-08 -7.775676E-08 -2.427358E-08 -1.554386E-08 -2.427358E-08 +1.382476E-07 
 -7.268249E-05 +2.150269E-05 -2.239076E-05 +2.150269E-05 -5.666123E-06 -1.094292E-06 -2.239076E-05 -1.094292E-06 +7.834862E-05 
 -7.971632E-07 +1.600900E-06 +4.213924E-07 +1.600900E-06 -2.283608E-06 +9.154701E-07 +4.213924E-07 +9.154701E-07 +3.080771E-06 
 -1.455979E-08 -4.118672E-09 -1.004379E-08 -4.118672E-09 -1.246383E-09 +2.476767E-09 -1.004379E-08 +2.476767E-09 +1.580617E-08 
 -5.093420E-08 -1.137424E-08 +9.677565E-09 -1.137424E-08 -1.337294E-07 -9.398598E-09 +9.677565E-09 -9.398598E-09 +1.846636E-07 
 -1.774055E-06 -5.330526E-07 +8.114989E-07 -5.330526E-07 -1.312883E-08 -3.376650E-07 +8.114989E-07 -3.376650E-07 +1.787184E-06 
 -5.681941E-08 +2.896746E-08 +5.273419E-09 +2.896746E-08 -4.478147E-08 -3.806336E-09 +5.273419E-09 -3.806336E-09 +1.016009E-07 
 -2.891500E-08 +1.139049E-08 +1.891262E-08 +1.139049E-08 -2.243365E-08 -5.599305E-09 +1.891262E-08 -5.599305E-09 +5.134866E-08 
 -7.098921E-09 +1.139614E-08 +1.883486E-08 +1.139614E-08 -1.025126E-07 -5.463093E-08 +1.883486E-08 -5.463093E-08 +1.096115E-07 
 -3.307669E-07 +7.644944E-06 +3.868646E-06 +7.644944E-06 -6.547641E-05 +2.182289E-05 +3.868646E-06 +2.182289E-05 +6.580717E-05 
 -4.091149E-08 +6.059359E-09 -3.892830E-09 +6.059359E-09 -1.613035E-08 -3.294832E-09 -3.892830E-09 -3.294832E-09 +5.704184E-08 
 -2.004410E-06 +1.681669E-06 -5.608121E-08 +1.681669E-06 -1.411372E-06 +4.697358E-08 -5.608121E-08 +4.697358E-08 +3.415782E-06 
 -6.130134E-08 +8.541669E-08 +2.781753E-09 +8.541669E-08 -2.158929E-07 -2.031230E-07 +2.781753E-09 -2.031230E-07 +2.771942E-07 
 -1.736522E-06 -1.954155E-06 -7.848578E-07 -1.954155E-06 -2.173676E-06 -1.226406E-06 -7.848578E-07 -1.226406E-06 +3.910198E-06 
 -2.075521E-05 +1.428458E-05 +5.595127E-06 +1.428458E-05 -9.601279E-06 -9.917133E-07 +5.595127E-06 -9.917133E-07 +3.035649E-05 
 -5.476660E-05 -3.161846E-05 +1.596812E-05 -3.161846E-05 -1.825695E-05 +9.219928E-06 +1.596812E-05 +9.219928E-06 +7.302355E-05 
 -3.522782E-08 +1.038160E-09 +4.273918E-09 +1.038160E-09 -4.867696E-08 -1.131340E-08 +4.273918E-09 -1.131340E-08 +8.390479E-08 
 -1.104519E-08 +6.641880E-10 +5.879933E-09 +6.641880E-10 -7.944640E-09 -1.945845E-10 +5.879933E-09 -1.945845E-10 +1.898983E-08 
 -1.349051E-06 -1.048637E-07 -6.731843E-07 -1.048637E-07 -3.369509E-08 -3.350856E-07 -6.731843E-07 -3.350856E-07 +1.382746E-06 
 -1.057338E-07 -2.010194E-06 +1.059936E-06 -2.010194E-06 -8.188747E-06 -3.816654E-06 +1.059936E-06 -3.816654E-06 +8.294482E-06 
 -5.391892E-05 +2.421117E-05 -3.126790E-06 +2.421117E-05 -5.692762E-06 +1.904570E-05 -3.126790E-06 +1.904570E-05 +5.961169E-05 
 -2.984451E-05 +1.026159E-05 -1.083088E-05 +1.026159E-05 -8.972221E-08 -7.161931E-06 -1.083088E-05 -7.161931E-06 +2.993423E-05 
 -3.807964E-08 +2.840197E-09 +1.120927E-08 +2.840197E-09 -1.242929E-08 +3.333765E-09 +1.120927E-08 +3.333765E-09 +5.050893E-08 
 -3.676469E-07 +1.264652E-07 +1.670517E-07 +1.264652E-07 +1.111176E-08 +1.003688E-07 +1.670517E-07 +1.003688E-07 +3.565352E-07 
 +3.183364E-07 -4.936220E-06 -4.410700E-06 -4.936220E-06 -2.265216E-05 +6.400769E-06 -4.410700E-06 +6.400769E-06 +2.233382E-05 
 -1.133718E-08 -3.376156E-09 -2.545880E-09 -3.376156E-09 -1.316560E-08 -6.284451E-09 -2.545880E-09 -6.284451E-09 +2.450278E-08 
 -4.584151E-08 +1.526392E-08 -8.626691E-09 +1.526392E-08 -4.972542E-08 -1.331874E-09 -8.626691E-09 -1.331874E-09 +9.556693E-08 
 -3.351983E-07 +2.211176E-07 -4.868520E-09 +2.211176E-07 -5.209008E-08 -1.876595E-07 -4.868520E-09 -1.876595E-07 +3.872883E-07 
 -4.559407E-08 +2.193822E-08 -1.489785E-08 +2.193822E-08 -3.324549E-08 +7.663557E-09 -1.489785E-08 +7.663557E-09 +7.883956E-08 
 -8.471461E-05 -3.896293E-05 -5.560762E-06 -3.896293E-05 -1.697819E-05 -1.240490E-05 -5.560762E-06 -1.240490E-05 +1.016928E-04 
 -6.518540E-06 +5.390106E-06 -8.131615E-07 +5.390106E-06 -4.051878E-06 -1.408948E-06 -8.131615E-07 -1.408948E-06 +1.057042E-05 
 -7.967233E-08 -1.281204E-09 +5.997554E-08 -1.281204E-09 +5.072112E-08 +2.343281E-09 +5.997554E-08 +2.343281E-09 +2.895121E-08 
 -9.637306E-05 -2.521391E-05 -2.160227E-06 -2.521391E-05 +6.943756E-07 -2.705661E-05 -2.160227E-06 -2.705661E-05 +9.567868E-05 
 -9.348318E-06 +3.730371E-07 +1.394972E-06 +3.730371E-07 +6.070861E-07 +2.330572E-06 +1.394972E-06 +2.330572E-06 +8.741232E-06 
 -1.023487E-06 +5.460847E-07 -3.367612E-07 +5.460847E-07 -5.398466E-08 -3.589307E-07 -3.367612E-07 -3.589307E-07 +1.077472E-06 
 -5.067784E-06 -5.457885E-08 +1.398720E-07 -5.457885E-08 +5.593781E-07 -1.617900E-06 +1.398720E-07 -1.617900E-06 +4.508406E-06 
 -6.862845E-05 -2.723456E-07 +1.545616E-06 -2.723456E-07 +2.043261E-06 -1.172765E-05 +1.545616E-06 -1.172765E-05 +6.658519E-05 
 -5.489056E-07 +9.739326E-07 -5.887211E-07 +9.739326E-07 -1.682327E-06 +6.168177E-07 -5.887211E-07 +6.168177E-07 +2.231232E-06 
 -8.717790E-08 -1.682943E-08 -2.337139E-08 -1.682943E-08 -8.141358E-08 -3.240913E-08 -2.337139E-08 -3.240913E-08 +1.685915E-07 
 -2.680375E-09 -1.594598E-05 -1.900303E-05 -1.594598E-05 -9.601376E-05 -1.692942E-05 -1.900303E-05 -1.692942E-05 +9.601644E-05 
 -9.409627E-05 -1.659149E-05 +1.029196E-05 -1.659149E-05 -2.926471E-06 +1.814299E-06 +1.029196E-05 +1.814299E-06 +9.702274E-05 
 -8.427866E-05 -6.064046E-05 +1.525351E-05 -6.064046E-05 -4.216163E-05 -2.821398E-06 +1.525351E-05 -2.821398E-06 +1.264403E-04 
 -1.180997E-05 +4.406066E-05 +6.763163E-06 +4.406066E-05 -1.644402E-04 -2.524125E-05 +6.763163E-06 -2.524125E-05 +1.762502E-04 
 -5.035969E-08 -2.529275E-09 +1.413057E-08 -2.529275E-09 -1.780815E-08 +2.893326E-10 +1.413057E-08 +2.893326E-10 +6.816784E-08 
 -1.073487E-06 -3.753235E-07 -4.667203E-07 -3.753235E-07 -1.191175E-07 -2.179792E-08 -4.667203E-07 -2.179792E-08 +1.192605E-06 
 -1.936368E-08 +2.880709E-07 +2.111490E-07 +2.880709E-07 -1.047846E-06 +3.930472E-07 +2.111490E-07 +3.930472E-07 +1.067209E-06 
 -1.036352E-06 -2.750485E-06 +1.790743E-06 -2.750485E-06 -4.764889E-06 -1.420340E-09 +1.790743E-06 -1.420340E-09 +5.801241E-06 
 +1.353068E-06 -3.455342E-06 -6.204632E-06 -3.455342E-06 -2.590129E-05 +4.426369E-06 -6.204632E-06 +4.426369E-06 +2.454823E-05 
 -2.875878E-06 -4.055692E-06 +4.814927E-07 -4.055692E-06 -5.583220E-06 -4.042367E-07 +4.814927E-07 -4.042367E-07 +8.459097E-06 
 -1.752807E-08 +2.697730E-09 +4.617883E-09 +2.697730E-09 -2.246444E-08 -6.996102E-09 +4.617883E-09 -6.996102E-09 +3.999251E-08 
 -6.287740E-09 +1.603364E-09 -1.033026E-09 +1.603364E-09 -7.891095E-09 +4.636195E-09 -1.033026E-09 +4.636195E-09 +1.417884E-08 
 -2.390501E-06 +8.916688E-06 +1.880888E-06 +8.916688E-06 -3.327887E-05 -7.018966E-06 +1.880888E-06 -7.018966E-06 +3.566937E-05 
 +1.578499E-08 -1.064694E-07 +7.628733E-08 -1.064694E-07 -2.847292E-07 -2.207628E-07 +7.628733E-08 -2.207628E-07 +2.689442E-07 
 -4.941364E-07 -5.605899E-07 +3.560159E-08 -5.605899E-07 -3.733086E-07 +5.271550E-07 +3.560159E-08 +5.271550E-07 +8.674451E-07 
 -1.386190E-06 -3.614275E-06 +2.282970E-06 -3.614275E-06 -6.207905E-06 -1.047311E-07 +2.282970E-06 -1.047311E-07 +7.594095E-06 
 -7.921327E-07 +8.128684E-08 +2.214522E-07 +8.128684E-08 +8.395149E-08 +2.639284E-07 +2.214522E-07 +2.639284E-07 +7.081812E-07 
 -7.908540E-08 +5.537027E-09 -1.690474E-08 +5.537027E-09 -1.232551E-07 +6.379034E-08 -1.690474E-08 +6.379034E-08 +2.023405E-07 
 -3.233562E-09 -3.908820E-10 +2.019319E-10 -3.908820E-10 -7.690827E-09 +3.387368E-09 +2.019319E-10 +3.387368E-09 +1.092439E-08 
 -2.925377E-08 +5.296225E-10 -9.582214E-09 +5.296225E-10 -1.466797E-08 +6.024642E-10 -9.582214E-09 +6.024642E-10 +4.392174E-08 
 -6.522130E-07 +4.366854E-07 +4.408594E-07 +4.366854E-07 -3.224142E-07 -2.938581E-07 +4.408594E-07 -2.938581E-07 +9.746271E-07 
 -1.233472E-07 +7.188263E-07 +8.072022E-07 +7.188263E-07 -1.226095E-06 -1.647733E-07 +8.072022E-07 -1.647733E-07 +1.349443E-06 
 -1.032928E-07 +1.167515E-07 +1.635918E-08 +1.167515E-07 -9.499659E-08 +7.692690E-08 +1.635918E-08 +7.692690E-08 +1.982894E-07 
 -5.399803E-06 -3.209569E-06 +4.252472E-07 -3.209569E-06 -1.621670E-06 -1.169053E-06 +4.252472E-07 -1.169053E-06 +7.021473E-06 
 -3.760562E-08 +7.198530E-09 -1.392033E-08 +7.198530E-09 -2.573309E-08 +1.818102E-09 -1.392033E-08 +1.818102E-09 +6.333871E-08 
 -1.158323E-04 -5.270703E-05 +1.351823E-05 -5.270703E-05 -2.268269E-05 +1.967139E-05 +1.351823E-05 +1.967139E-05 +1.385150E-04 
 -5.722505E-08 +6.886550E-09 -3.041143E-08 +6.886550E-09 -5.491899E-08 +1.747901E-08 -3.041143E-08 +1.747901E-08 +1.121440E-07 
 -7.400520E-09 +1.518753E-09 +1.720037E-09 +1.518753E-09 -9.700742E-09 -5.168943E-09 +1.720037E-09 -5.168943E-09 +1.710126E-08 
 -1.440867E-08 +8.640834E-10 +1.017749E-10 +8.640834E-10 -1.416492E-08 -9.897098E-10 +1.017749E-10 -9.897098E-10 +2.857359E-08 
 +4.871566E-08 +4.167077E-07 +4.911603E-07 +4.167077E-07 -3.209132E-06 +7.680910E-07 +4.911603E-07 +7.680910E-07 +3.160416E-06 
 -1.146750E-08 +1.171332E-08 +6.044261E-09 +1.171332E-08 -3.572069E-08 -3.890529E-09 +6.044261E-09 -3.890529E-09 +4.718818E-08 
 -1.454833E-04 +4.667471E-06 +3.400719E-05 +4.667471E-06 +7.934213E-06 +3.322004E-05 +3.400719E-05 +3.322004E-05 +1.375490E-04 
 -4.654236E-07 +8.023663E-07 +5.839628E-07 +8.023663E-07 -1.161128E-06 -2.422422E-07 +5.839628E-07 -2.422422E-07 +1.626552E-06 
 -4.848199E-05 +3.846956E-05 -8.259212E-06 +3.846956E-05 -3.010467E-05 +1.236295E-05 -8.259212E-06 +1.236295E-05 +7.858667E-05 
 -2.092982E-04 -3.953750E-05 +2.967679E-05 -3.953750E-05 -5.772143E-06 -1.385412E-05 +2.967679E-05 -1.385412E-05 +2.150704E-04 
 -9.975960E-08 +9.034644E-08 +6.414702E-08 +9.034644E-08 -8.179487E-08 +4.819113E-09 +6.414702E-08 +4.819113E-09 +1.815545E-07 
 -4.544236E-08 -7.172887E-09 +4.981535E-09 -7.172887E-09 -3.959688E-08 -4.500866E-09 +4.981535E-09 -4.500866E-09 +8.503924E-08 
 -8.123370E-07 +1.604049E-06 +1.719537E-07 +1.604049E-06 -3.124499E-06 +9.995176E-08 +1.719537E-07 +9.995176E-08 +3.936836E-06 
 -7.842066E-07 -3.112161E-07 -4.653288E-07 -3.112161E-07 -1.441562E-07 -2.286847E-07 -4.653288E-07 -2.286847E-07 +9.283629E-07 
 +1.077129E-07 -2.333151E-06 +1.924383E-06 -2.333151E-06 -8.984892E-06 -2.743570E-06 +1.924383E-06 -2.743570E-06 +8.877179E-06 
 -1.771197E-06 +6.464118E-07 +6.839544E-07 +6.464118E-07 -2.384478E-07 -2.529256E-07 +6.839544E-07 -2.529256E-07 +2.009645E-06 
 -1.381433E-08 -9.913964E-08 -8.467678E-08 -9.913964E-08 -6.141993E-07 -2.210741E-07 -8.467678E-08 -2.210741E-07 +6.280136E-07 
 -2.719189E-07 +1.246585E-07 -2.060354E-07 +1.246585E-07 -5.073663E-08 +1.686067E-08 -2.060354E-07 +1.686067E-08 +3.226555E-07 
 +3.335232E-10 -2.593789E-07 -1.959285E-07 -2.593789E-07 -6.786328E-07 +2.069474E-07 -1.959285E-07 +2.069474E-07 +6.782993E-07 
 -4.165938E-08 +3.210407E-08 -4.179322E-08 +3.210407E-08 -3.760906E-08 +2.805764E-08 -4.179322E-08 +2.805764E-08 +7.926843E-08 
 +4.369590E-08 +7.031500E-06 -7.535523E-06 +7.031500E-06 -8.313134E-05 +2.748329E-06 -7.535523E-06 +2.748329E-06 +8.308765E-05 
 -2.577887E-07 -2.051689E-08 -8.949098E-08 -2.051689E-08 +1.495597E-08 -8.049000E-08 -8.949098E-08 -8.049000E-08 +2.428327E-07 
 -6.778568E-08 +1.138183E-08 +2.990652E-08 +1.138183E-08 -7.246949E-08 -3.449646E-08 +2.990652E-08 -3.449646E-08 +1.402552E-07 
 -2.117103E-05 +3.666851E-05 -3.132491E-06 +3.666851E-05 -6.351213E-05 +5.425996E-06 -3.132491E-06 +5.425996E-06 +8.468315E-05 
 -3.038366E-05 +8.141250E-06 +2.763794E-06 +8.141250E-06 -2.181531E-06 -7.405262E-07 +2.763794E-06 -7.405262E-07 +3.256519E-05 
 -4.864127E-08 +1.781430E-08 +1.575959E-08 +1.781430E-08 -3.739732E-08 -8.923237E-09 +1.575959E-08 -8.923237E-09 +8.603860E-08 
 -7.947673E-06 -2.667515E-05 +1.255721E-05 -2.667515E-05 -5.999875E-05 -8.795803E-06 +1.255721E-05 -8.795803E-06 +6.794642E-05 
 +4.009929E-08 +4.153104E-07 -4.017652E-07 +4.153104E-07 -1.772684E-06 -9.290468E-07 -4.017652E-07 -9.290468E-07 +1.732584E-06 
 -1.852836E-04 -2.646096E-04 +1.883554E-05 -2.646096E-04 -3.779032E-04 +2.690096E-05 +1.883554E-05 +2.690096E-05 +5.631868E-04 
 -3.097392E-05 +3.097311E-05 -9.146749E-06 +3.097311E-05 -3.097403E-05 +9.146978E-06 -9.146749E-06 +9.146978E-06 +6.194795E-05 
 -1.373960E-08 -4.697207E-09 +3.465737E-09 -4.697207E-09 -1.051808E-08 +2.923197E-10 +3.465737E-09 +2.923197E-10 +2.425767E-08 
 -3.236875E-05 -1.719995E-05 -8.890088E-07 -1.719995E-05 -9.014761E-06 +1.916625E-06 -8.890088E-07 +1.916625E-06 +4.138352E-05 
 -1.756685E-06 +2.611360E-07 -3.997604E-07 +2.611360E-07 +7.547047E-08 -4.114972E-07 -3.997604E-07 -4.114972E-07 +1.681214E-06 
 -8.998114E-09 -2.019636E-09 +4.763060E-09 -2.019636E-09 -7.865001E-09 -2.155295E-09 +4.763060E-09 -2.155295E-09 +1.686312E-08 
 -3.084327E-07 +1.679066E-07 -1.310990E-07 +1.679066E-07 -9.549863E-08 +6.185941E-08 -1.310990E-07 +6.185941E-08 +4.039314E-07 
 -2.779669E-05 -3.349525E-05 +2.749522E-06 -3.349525E-05 -3.912936E-05 -5.827455E-06 +2.749522E-06 -5.827455E-06 +6.692606E-05 
 -9.743778E-08 +2.135526E-07 -1.874259E-07 +2.135526E-07 -2.220328E-07 -1.432439E-09 -1.874259E-07 -1.432439E-09 +3.194706E-07 
 -3.920101E-06 +3.727858E-06 -1.681016E-06 +3.727858E-06 -3.320066E-06 +2.555655E-07 -1.681016E-06 +2.555655E-07 +7.240167E-06 
 -2.083455E-06 -3.812645E-07 -5.427191E-07 -3.812645E-07 +1.950274E-07 +6.368896E-07 -5.427191E-07 +6.368896E-07 +1.888427E-06 
 -5.796325E-08 -1.098031E-06 +6.620044E-07 -1.098031E-06 -2.525153E-06 -1.121391E-06 +6.620044E-07 -1.121391E-06 +2.583116E-06 
 -1.723839E-07 +3.095447E-08 -7.924522E-08 +3.095447E-08 -3.012052E-08 +3.941237E-08 -7.924522E-08 +3.941237E-08 +2.025045E-07 
 -4.709670E-07 -2.655202E-06 -2.085988E-06 -2.655202E-06 -6.637915E-06 -6.614566E-08 -2.085988E-06 -6.614566E-08 +7.108882E-06 
 -4.963347E-08 -1.722685E-07 -4.995600E-08 -1.722685E-07 -2.765029E-07 +1.872720E-07 -4.995600E-08 +1.872720E-07 +3.261364E-07 
 -6.910289E-08 +1.341134E-08 +5.472312E-09 +1.341134E-08 -2.243280E-08 -2.421667E-09 +5.472312E-09 -2.421667E-09 +9.153569E-08 
 -9.448743E-09 +1.980252E-09 -2.011074E-09 +1.980252E-09 -1.936664E-08 +9.450484E-09 -2.011074E-09 +9.450484E-09 +2.881538E-08 
 -6.239539E-07 -5.317711E-07 -4.573893E-07 -5.317711E-07 -3.977931E-07 -9.502087E-08 -4.573893E-07 -9.502087E-08 +1.021747E-06 
 -1.402748E-07 +9.204745E-07 +4.533606E-07 +9.204745E-07 -3.512758E-06 +6.826353E-07 +4.533606E-07 +6.826353E-07 +3.653033E-06 
 -2.626734E-07 -1.728055E-07 +1.242940E-07 -1.728055E-07 -2.505673E-07 +1.305743E-08 +1.242940E-07 +1.305743E-08 +5.132406E-07 
 -8.064335E-05 -1.927303E-05 -1.275309E-05 -1.927303E-05 -1.814319E-06 -1.845594E-05 -1.275309E-05 -1.845594E-05 +8.245766E-05 
 -9.103064E-06 +2.983541E-06 -2.806205E-06 +2.983541E-06 -4.124644E-07 -1.504813E-06 -2.806205E-06 -1.504813E-06 +9.515529E-06 
 -2.168173E-06 +6.816900E-07 -6.704878E-07 +6.816900E-07 -1.761176E-07 +5.646524E-07 -6.704878E-07 +5.646524E-07 +2.344291E-06 
 -5.429493E-07 +8.680018E-07 -6.577422E-09 +8.680018E-07 -1.298529E-06 +4.181842E-07 -6.577422E-09 +4.181842E-07 +1.841479E-06 
 -3.257231E-08 -2.498047E-09 -1.776046E-09 -2.498047E-09 -2.169383E-08 +4.843674E-09 -1.776046E-09 +4.843674E-09 +5.426613E-08 
 -1.650826E-05 +3.178560E-05 -1.826389E-05 +3.178560E-05 -5.830178E-05 +1.854683E-05 -1.826389E-05 +1.854683E-05 +7.481004E-05 
 -1.311813E-06 -5.356546E-07 +7.434436E-07 -5.356546E-07 -4.399268E-08 -2.865508E-07 +7.434436E-07 -2.865508E-07 +1.355805E-06 
 -1.797071E-07 -1.359923E-06 +1.444439E-06 -1.359923E-06 -2.672818E-06 +4.326919E-07 +1.444439E-06 +4.326919E-07 +2.852526E-06 
 -1.518749E-08 -3.493660E-07 +4.749404E-07 -3.493660E-07 -2.601047E-06 +8.484023E-07 +4.749404E-07 +8.484023E-07 +2.616235E-06 
 -3.040467E-05 +3.991314E-05 -1.103210E-05 +3.991314E-05 -4.707572E-05 -6.366631E-06 -1.103210E-05 -6.366631E-06 +7.748038E-05 
 -4.603600E-05 -4.130841E-05 +3.191559E-06 -4.130841E-05 -3.236224E-05 +2.211422E-05 +3.191559E-06 +2.211422E-05 +7.839824E-05 
 -8.847186E-06 +1.487874E-06 +3.187961E-06 +1.487874E-06 -1.940100E-07 -1.302599E-06 +3.187961E-06 -1.302599E-06 +9.041197E-06 
 -4.005684E-07 -4.539378E-07 +2.381638E-07 -4.539378E-07 -5.155091E-07 +2.343979E-07 +2.381638E-07 +2.343979E-07 +9.160775E-07 
 -5.883399E-06 -1.092740E-05 +4.229401E-06 -1.092740E-05 -1.943578E-05 +2.897358E-06 +4.229401E-06 +2.897358E-06 +2.531918E-05 
 -1.565117E-08 +1.587947E-09 -1.194252E-09 +1.587947E-09 -1.811122E-08 +7.102039E-09 -1.194252E-09 +7.102039E-09 +3.376239E-08 
 -1.090657E-06 -1.480802E-06 -3.880107E-07 -1.480802E-06 -2.005304E-06 -3.947114E-07 -3.880107E-07 -3.947114E-07 +3.095961E-06 
 -1.477245E-04 +1.239540E-04 -3.015817E-05 +1.239540E-04 -1.040121E-04 +2.530686E-05 -3.015817E-05 +2.530686E-05 +2.517367E-04 
 -1.051062E-05 +1.985831E-06 +5.780064E-07 +1.985831E-06 +4.154730E-07 -2.951634E-06 +5.780064E-07 -2.951634E-06 +1.009515E-05 
 -5.505127E-07 -1.075714E-06 +7.837338E-08 -1.075714E-06 -1.800679E-06 +1.043798E-06 +7.837338E-08 +1.043798E-06 +2.351192E-06 
 -4.833850E-06 +4.833765E-06 -2.926779E-07 +4.833765E-06 -4.833853E-06 +2.926633E-07 -2.926779E-07 +2.926633E-07 +9.667702E-06 
 -2.613331E-08 -2.767896E-08 +1.075583E-09 -2.767896E-08 -1.100942E-07 +8.304998E-08 +1.075583E-09 +8.304998E-08 +1.362275E-07 
 -1.351577E-08 -3.503619E-09 +6.364746E-09 -3.503619E-09 -1.521752E-08 +7.372972E-09 +6.364746E-09 +7.372972E-09 +2.873329E-08 
 -9.510112E-08 -2.395193E-08 +4.511580E-08 -2.395193E-08 -5.878828E-08 +4.170321E-08 +4.511580E-08 +4.170321E-08 +1.538894E-07 
 -4.261904E-08 +9.057135E-09 +4.264664E-09 +9.057135E-09 -3.403340E-08 -3.598905E-09 +4.264664E-09 -3.598905E-09 +7.665244E-08 
 -9.891736E-06 -1.437986E-07 -6.335529E-08 -1.437986E-07 +4.946966E-08 +7.186304E-07 -6.335529E-08 +7.186304E-07 +9.842267E-06 
 -2.064195E-07 -4.646144E-07 -1.120690E-07 -4.646144E-07 -1.080487E-06 -4.500319E-07 -1.120690E-07 -4.500319E-07 +1.286907E-06 
 -1.462029E-06 +1.743722E-06 -1.039563E-08 +1.743722E-06 -1.227802E-06 -1.503278E-06 -1.039563E-08 -1.503278E-06 +2.689831E-06 
 -3.842284E-07 +6.756997E-07 +2.202794E-07 +6.756997E-07 -1.125059E-06 -9.208810E-07 +2.202794E-07 -9.208810E-07 +1.509287E-06 
 +2.573000E-07 +8.711868E-10 +9.882641E-07 +8.711868E-10 -3.962282E-06 +5.363058E-09 +9.882641E-07 +5.363058E-09 +3.704982E-06 
 -2.607231E-07 +1.313334E-08 -1.428307E-08 +1.313334E-08 -1.379785E-07 +6.553725E-08 -1.428307E-08 +6.553725E-08 +3.987017E-07 
 -9.462610E-05 -8.337122E-05 -1.963010E-05 -8.337122E-05 -7.330936E-05 -2.266878E-05 -1.963010E-05 -2.266878E-05 +1.679355E-04 
 -3.006683E-05 -6.447209E-05 -1.572909E-05 -6.447209E-05 -1.382640E-04 -3.373234E-05 -1.572909E-05 -3.373234E-05 +1.683308E-04 
 -1.066203E-07 +4.258258E-09 +2.570941E-09 +4.258258E-09 -6.077891E-09 -2.116665E-08 +2.570941E-09 -2.116665E-08 +1.126981E-07 
 +4.804623E-08 -9.935638E-07 -1.059266E-06 -9.935638E-07 -5.827322E-06 +3.858473E-07 -1.059266E-06 +3.858473E-07 +5.779275E-06 
 +1.256137E-06 -1.385813E-06 +5.870681E-06 -1.385813E-06 -2.785698E-05 -1.573629E-06 +5.870681E-06 -1.573629E-06 +2.660084E-05 
 -3.850151E-08 -1.741219E-08 +1.669225E-08 -1.741219E-08 -2.886174E-08 +2.457440E-08 +1.669225E-08 +2.457440E-08 +6.736325E-08 
 +2.346286E-08 -4.658102E-08 -1.347556E-07 -4.658102E-08 -5.382225E-07 +2.787057E-10 -1.347556E-07 +2.787057E-10 +5.147596E-07 
 -2.268808E-05 +3.240115E-05 +2.441109E-06 +3.240115E-05 -4.627395E-05 -3.487192E-06 +2.441109E-06 -3.487192E-06 +6.896204E-05 
 -1.616312E-05 -2.143954E-05 -1.604206E-05 -2.143954E-05 -2.735351E-05 -1.319990E-05 -1.604206E-05 -1.319990E-05 +4.351663E-05 
 -4.370079E-08 +4.820325E-09 -9.154843E-09 +4.820325E-09 -1.630339E-08 +1.012763E-08 -9.154843E-09 +1.012763E-08 +6.000418E-08 
 -5.340775E-06 -1.725050E-06 -1.280724E-06 -1.725050E-06 -2.686004E-07 -1.803789E-06 -1.280724E-06 -1.803789E-06 +5.609375E-06 
 -3.133432E-06 +6.449152E-07 +1.767236E-06 +6.449152E-07 -1.222347E-07 -8.005960E-07 +1.767236E-06 -8.005960E-07 +3.255667E-06 
 +5.642858E-08 -5.969353E-08 +9.166725E-08 -5.969353E-08 -1.114263E-07 +4.984688E-08 +9.166725E-08 +4.984688E-08 +5.499777E-08 
 -9.684921E-06 +1.498505E-05 +5.228773E-06 +1.498505E-05 -1.976336E-05 +2.435301E-06 +5.228773E-06 +2.435301E-06 +2.944828E-05 
 -1.042259E-07 -8.879747E-07 +8.099503E-07 -8.879747E-07 -1.936717E-06 +1.306784E-08 +8.099503E-07 +1.306784E-08 +2.040943E-06 
 -2.472236E-09 -2.199192E-08 -3.163284E-08 -2.199192E-08 -1.386423E-06 -5.034491E-07 -3.163284E-08 -5.034491E-07 +1.388895E-06 
 -1.333125E-06 +6.482986E-07 +5.931789E-07 +6.482986E-07 -3.147784E-07 -8.796487E-08 +5.931789E-07 -8.796487E-08 +1.647903E-06 
 -1.060716E-07 +1.129993E-06 +1.082458E-06 +1.129993E-06 -4.728220E-06 -7.493951E-07 +1.082458E-06 -7.493951E-07 +4.834291E-06 
 -8.679083E-08 -3.585458E-07 +1.281214E-07 -3.585458E-07 -1.297044E-06 -2.232786E-08 +1.281214E-07 -2.232786E-08 +1.383835E-06 
 -2.842754E-07 +1.197362E-07 -1.653312E-07 +1.197362E-07 -1.831704E-07 -1.119232E-08 -1.653312E-07 -1.119232E-08 +4.674458E-07 
 -6.306724E-08 -3.455410E-08 +5.279144E-09 -3.455410E-08 -4.483043E-08 +4.157124E-09 +5.279144E-09 +4.157124E-09 +1.078977E-07 
 -9.053703E-08 +7.513299E-10 +8.127688E-09 +7.513299E-10 -2.951445E-08 +2.250768E-09 +8.127688E-09 +2.250768E-09 +1.200515E-07 
 -3.816330E-08 +2.548245E-10 -4.276508E-09 +2.548245E-10 -2.283926E-08 +5.213541E-09 -4.276508E-09 +5.213541E-09 +6.100256E-08 
 -4.706580E-05 +3.354253E-05 +7.648603E-06 +3.354253E-05 -1.316724E-05 +2.026146E-05 +7.648603E-06 +2.026146E-05 +6.023304E-05 
 -7.163514E-05 -8.317326E-06 +3.638528E-06 -8.317326E-06 +5.157577E-06 +2.062875E-05 +3.638528E-06 +2.062875E-05 +6.647756E-05 
 -7.133863E-08 +1.389211E-08 +9.312553E-09 +1.389211E-08 -4.516313E-08 -9.581440E-10 +9.312553E-09 -9.581440E-10 +1.165018E-07 
 -2.383897E-04 -2.000294E-04 -5.267251E-06 -2.000294E-04 -1.678481E-04 -4.421909E-06 -5.267251E-06 -4.421909E-06 +4.062378E-04 
 -1.238244E-04 +1.098300E-05 +1.712954E-06 +1.098300E-05 -2.722731E-08 +1.072220E-05 +1.712954E-06 +1.072220E-05 +1.238516E-04 
 -8.134252E-10 +7.711883E-06 -9.190331E-06 +7.711883E-06 -3.455766E-05 +6.093293E-06 -9.190331E-06 +6.093293E-06 +3.455847E-05 
 -1.515649E-08 -8.709042E-09 -1.161773E-08 -8.709042E-09 -2.138465E-08 -1.668019E-08 -1.161773E-08 -1.668019E-08 +3.654115E-08 
 -8.425437E-08 +1.696070E-08 +1.250382E-08 +1.696070E-08 -1.019391E-07 +2.045447E-08 +1.250382E-08 +2.045447E-08 +1.861935E-07 
 -1.913060E-08 +1.952270E-09 -5.612744E-09 +1.952270E-09 -1.604964E-08 -3.669845E-09 -5.612744E-09 -3.669845E-09 +3.518025E-08 
 -4.717803E-08 +1.513186E-09 -5.396870E-09 +1.513186E-09 -8.280011E-08 -3.704360E-09 -5.396870E-09 -3.704360E-09 +1.299781E-07 
 -2.616189E-06 -5.660063E-07 +4.538973E-07 -5.660063E-07 +8.071881E-08 +9.117942E-07 +4.538973E-07 +9.117942E-07 +2.535470E-06 
 -9.935643E-07 +5.901982E-07 +6.823947E-08 +5.901982E-07 -8.181724E-08 +5.009607E-07 +6.823947E-08 +5.009607E-07 +1.075382E-06 
 -3.750808E-08 -2.618357E-08 +1.326143E-08 -2.618357E-08 -4.021093E-08 +1.031620E-08 +1.326143E-08 +1.031620E-08 +7.771900E-08 
 -1.187416E-07 +7.587392E-09 +1.077513E-08 +7.587392E-09 -8.614192E-08 +1.906153E-09 +1.077513E-08 +1.906153E-09 +2.048835E-07 
 -2.361676E-08 -7.153800E-09 +7.449363E-09 -7.153800E-09 -3.195211E-08 +9.282805E-09 +7.449363E-09 +9.282805E-09 +5.556887E-08 
 +1.372130E-07 +6.955941E-07 +1.008212E-06 +6.955941E-07 -4.859301E-06 +3.670325E-07 +1.008212E-06 +3.670325E-07 +4.722088E-06 
 -2.122626E-06 -2.471433E-06 +3.210891E-07 -2.471433E-06 -2.823116E-06 +9.113502E-07 +3.210891E-07 +9.113502E-07 +4.945742E-06 
 -6.327579E-06 +1.204794E-06 +2.472575E-06 +1.204794E-06 -1.931245E-07 +6.199759E-08 +2.472575E-06 +6.199759E-08 +6.520703E-06 
 -8.578099E-07 +7.027579E-06 +4.401196E-06 +7.027579E-06 -3.218873E-05 +1.604748E-06 +4.401196E-06 +1.604748E-06 +3.304654E-05 
 -2.034720E-06 -2.764972E-06 -3.389268E-07 -2.764972E-06 -3.702216E-06 -1.035807E-06 -3.389268E-07 -1.035807E-06 +5.736937E-06 
 -4.779407E-07 -4.764480E-07 +1.282181E-07 -4.764480E-07 -2.451941E-07 -2.944284E-07 +1.282181E-07 -2.944284E-07 +7.231347E-07 
 -7.937133E-05 -4.526636E-06 -2.751928E-05 -4.526636E-06 +4.214471E-07 -9.339237E-06 -2.751928E-05 -9.339237E-06 +7.894988E-05 
 -1.460725E-06 -1.623892E-06 +1.447150E-06 -1.623892E-06 -7.768176E-07 -3.359853E-07 +1.447150E-06 -3.359853E-07 +2.237542E-06 
 -7.699628E-05 +1.111329E-04 +4.709660E-05 +1.111329E-04 -1.216215E-04 +2.644252E-05 +4.709660E-05 +2.644252E-05 +1.986178E-04 
 -7.073903E-06 +4.848762E-06 +4.168135E-07 +4.848762E-06 -2.891293E-06 -2.425257E-06 +4.168135E-07 -2.425257E-06 +9.965196E-06 
 -5.542164E-05 +3.199718E-05 -2.349932E-05 +3.199718E-05 -1.847427E-05 +1.356710E-05 -2.349932E-05 +1.356710E-05 +7.389591E-05 
 +3.935486E-06 +2.015626E-06 +1.555519E-05 +2.015626E-06 -5.824668E-05 -1.140772E-05 +1.555519E-05 -1.140772E-05 +5.431120E-05 
 -5.226963E-05 -3.494751E-05 +2.344161E-05 -3.494751E-05 -1.994723E-05 -1.163597E-06 +2.344161E-05 -1.163597E-06 +7.221686E-05 
 -1.049190E-07 +7.810630E-07 -6.837949E-07 +7.810630E-07 -4.645754E-06 +1.672780E-06 -6.837949E-07 +1.672780E-06 +4.750672E-06 
 -6.843120E-06 +6.305694E-06 -7.432956E-07 +6.305694E-06 -5.478283E-06 +2.724540E-06 -7.432956E-07 +2.724540E-06 +1.232140E-05 
 -1.610783E-05 +3.848782E-05 +1.914332E-05 +3.848782E-05 -8.664511E-05 -1.979494E-05 +1.914332E-05 -1.979494E-05 +1.027529E-04 
 -1.479692E-08 +1.351643E-09 +2.583018E-10 +1.351643E-09 -1.337225E-08 +1.430135E-09 +2.583018E-10 +1.430135E-09 +2.816917E-08 
 -9.987118E-09 +3.005141E-09 +2.353781E-09 +3.005141E-09 -1.002804E-08 -3.649509E-09 +2.353781E-09 -3.649509E-09 +2.001516E-08 
 +5.705312E-08 +5.132642E-07 -5.568851E-07 +5.132642E-07 -2.350084E-06 -3.657817E-07 -5.568851E-07 -3.657817E-07 +2.293031E-06 
 -3.345982E-08 -4.917406E-09 +1.433760E-09 -4.917406E-09 -8.236285E-08 +3.884992E-08 +1.433760E-09 +3.884992E-08 +1.158227E-07 
 -1.252731E-06 -3.259476E-07 -8.424502E-07 -3.259476E-07 -5.089583E-08 +8.255221E-08 -8.424502E-07 +8.255221E-08 +1.303627E-06 
 -3.762460E-06 +6.400870E-07 -4.075001E-07 +6.400870E-07 +2.643323E-08 +7.971934E-07 -4.075001E-07 +7.971934E-07 +3.736027E-06 
 -8.313002E-05 -4.718774E-05 +6.323240E-06 -4.718774E-05 -2.533499E-05 -9.024551E-06 +6.323240E-06 -9.024551E-06 +1.084650E-04 
 -2.028816E-07 +6.699477E-08 -8.569236E-08 +6.699477E-08 -1.308908E-07 -6.118648E-09 -8.569236E-08 -6.118648E-09 +3.337724E-07 
 -3.630725E-08 -1.073834E-08 -1.527197E-08 -1.073834E-08 -4.081783E-08 -1.895643E-08 -1.527197E-08 -1.895643E-08 +7.712508E-08 
 -3.308161E-05 +3.308114E-05 -6.336615E-06 +3.308114E-05 -3.308173E-05 +6.336547E-06 -6.336615E-06 +6.336547E-06 +6.616334E-05 
 -4.638532E-08 -1.718829E-08 +1.991280E-09 -1.718829E-08 -8.268852E-08 -7.990898E-09 +1.991280E-09 -7.990898E-09 +1.290738E-07 
 -3.504593E-07 -4.356223E-07 +2.696361E-07 -4.356223E-07 -5.299026E-07 +1.789004E-07 +2.696361E-07 +1.789004E-07 +8.803619E-07 
 -9.668803E-05 -5.990696E-05 -4.043537E-05 -5.990696E-05 -3.559958E-05 -9.984687E-06 -4.043537E-05 -9.984687E-06 +1.322876E-04 
 -8.840615E-08 +3.726128E-10 -2.944030E-08 +3.726128E-10 -5.861278E-08 -6.856370E-09 -2.944030E-08 -6.856370E-09 +1.470189E-07 
 -4.236227E-07 -2.726438E-07 -2.892604E-07 -2.726438E-07 -1.274660E-07 +8.618747E-09 -2.892604E-07 +8.618747E-09 +5.510886E-07 
 -2.120582E-06 -3.028320E-06 +4.160086E-07 -3.028320E-06 -4.325008E-06 +5.942190E-07 +4.160086E-07 +5.942190E-07 +6.445590E-06 
 -4.243521E-06 -3.594718E-06 -2.995133E-07 -3.594718E-06 -2.951517E-06 +5.701484E-07 -2.995133E-07 +5.701484E-07 +7.195038E-06 
 -5.205924E-05 -8.082470E-05 -4.256041E-05 -8.082470E-05 -1.206951E-04 -3.444290E-05 -4.256041E-05 -3.444290E-05 +1.727543E-04 
 -4.717523E-07 -5.720979E-07 -3.985298E-07 -5.720979E-07 -4.514108E-07 +8.561487E-08 -3.985298E-07 +8.561487E-08 +9.231631E-07 
 -1.170272E-05 +2.509257E-05 +6.341550E-06 +2.509257E-05 -5.381305E-05 -1.360081E-05 +6.341550E-06 -1.360081E-05 +6.551577E-05 
 -5.914652E-09 -4.754543E-09 +4.280145E-10 -4.754543E-09 -1.808989E-08 +1.147538E-08 +4.280145E-10 +1.147538E-08 +2.400455E-08 
 -2.586470E-06 -2.065983E-06 +9.118626E-07 -2.065983E-06 -1.591877E-06 +1.242191E-06 +9.118626E-07 +1.242191E-06 +4.178348E-06 
 -8.244402E-06 +4.869356E-06 +3.000449E-06 +4.869356E-06 -2.370892E-06 +6.653373E-07 +3.000449E-06 +6.653373E-07 +1.061529E-05 
 +2.213973E-07 -1.828773E-07 +6.686082E-07 -1.828773E-07 -1.828825E-06 +3.300156E-07 +6.686082E-07 +3.300156E-07 +1.607428E-06 
 -1.906698E-08 +8.626330E-08 +1.493984E-07 +8.626330E-08 -4.928363E-07 -2.726812E-07 +1.493984E-07 -2.726812E-07 +5.119032E-07 
 -5.669378E-07 -7.526419E-07 +4.156121E-07 -7.526419E-07 -1.149519E-06 +8.417756E-07 +4.156121E-07 +8.417756E-07 +1.716457E-06 
 +3.788211E-06 -5.346193E-06 -1.600412E-05 -5.346193E-06 -6.318201E-05 -6.746537E-07 -1.600412E-05 -6.746537E-07 +5.939379E-05 
 -7.980260E-06 +5.995991E-06 -1.015954E-06 +5.995991E-06 -2.965711E-06 -3.369312E-06 -1.015954E-06 -3.369312E-06 +1.094597E-05 
 -5.546802E-06 +1.199668E-05 -4.981362E-07 +1.199668E-05 -2.465445E-05 -5.182540E-06 -4.981362E-07 -5.182540E-06 +3.020125E-05 
 +9.117204E-08 +1.444582E-07 +2.902024E-07 +1.444582E-07 -8.746684E-07 +3.004908E-07 +2.902024E-07 +3.004908E-07 +7.834964E-07 
 -9.681483E-06 -1.463575E-05 -1.131419E-05 -1.463575E-05 -1.899021E-05 -5.623935E-06 -1.131419E-05 -5.623935E-06 +2.867169E-05 
 -5.921535E-07 +8.027425E-08 -3.467289E-07 +8.027425E-08 +1.517707E-08 +1.972572E-07 -3.467289E-07 +1.972572E-07 +5.769764E-07 
 -2.945028E-07 -3.438361E-07 -8.770420E-08 -3.438361E-07 -2.269539E-07 +2.191962E-07 -8.770420E-08 +2.191962E-07 +5.214567E-07 
 -3.495393E-07 -3.419989E-07 -8.325506E-08 -3.419989E-07 -1.847502E-07 +2.141173E-07 -8.325506E-08 +2.141173E-07 +5.342895E-07 
 -1.458822E-09 -2.702455E-07 -3.218373E-07 -2.702455E-07 -4.007329E-06 -7.063509E-07 -3.218373E-07 -7.063509E-07 +4.008788E-06 
 -1.790333E-08 +9.256893E-09 +2.451128E-09 +9.256893E-09 -2.842648E-08 +7.866545E-09 +2.451128E-09 +7.866545E-09 +4.632981E-08 
 -4.963175E-06 -3.678051E-07 -1.705197E-06 -3.678051E-07 +1.404682E-08 -6.601113E-07 -1.705197E-06 -6.601113E-07 +4.949129E-06 
 -1.665425E-06 -9.463067E-08 -5.600986E-07 -9.463067E-08 +3.449052E-09 -2.469366E-07 -5.600986E-07 -2.469366E-07 +1.661975E-06 
 -2.226394E-07 -7.357561E-08 +5.911706E-09 -7.357561E-08 -3.169644E-07 -4.025122E-08 +5.911706E-09 -4.025122E-08 +5.396038E-07 
 +1.950231E-07 +6.945036E-07 -1.365778E-06 +6.945036E-07 -4.190916E-06 +9.233859E-07 -1.365778E-06 +9.233859E-07 +3.995893E-06 
 -1.945804E-08 +5.379839E-09 -1.213718E-09 +5.379839E-09 -1.356565E-08 -1.702305E-09 -1.213718E-09 -1.702305E-09 +3.302369E-08 
 -3.372660E-08 +1.304883E-08 +1.010648E-08 +1.304883E-08 -9.853590E-09 +5.390657E-10 +1.010648E-08 +5.390657E-10 +4.358019E-08 
 +5.757288E-08 -1.163065E-07 +1.920609E-07 -1.163065E-07 -4.655833E-07 +1.342365E-08 +1.920609E-07 +1.342365E-08 +4.080104E-07 
 -7.242040E-08 +2.220100E-08 -1.293224E-08 +2.220100E-08 -9.484700E-08 -5.403289E-09 -1.293224E-08 -5.403289E-09 +1.672674E-07 
 -1.010142E-07 +1.013763E-07 +6.341023E-09 +1.013763E-07 -6.916523E-08 -9.362339E-08 +6.341023E-09 -9.362339E-08 +1.701795E-07 
 -1.756328E-05 +1.958615E-05 +8.153032E-06 +1.958615E-05 -1.933696E-05 +1.038341E-06 +8.153032E-06 +1.038341E-06 +3.690023E-05 
 -4.114731E-08 -2.137226E-10 -6.062541E-09 -2.137226E-10 -4.755943E-08 -2.754879E-08 -6.062541E-09 -2.754879E-08 +8.870673E-08 
 -6.458315E-07 +2.780792E-06 -9.812987E-07 +2.780792E-06 -7.698611E-06 -2.265117E-06 -9.812987E-07 -2.265117E-06 +8.344442E-06 
 -2.542326E-06 -6.642222E-08 +1.523016E-06 -6.642222E-08 +8.823838E-08 +6.281884E-07 +1.523016E-06 +6.281884E-07 +2.454087E-06 
 -4.088027E-06 -4.003748E-06 -6.778051E-07 -4.003748E-06 -3.799584E-06 -1.653374E-06 -6.778051E-07 -1.653374E-06 +7.887611E-06 
 -1.346722E-08 +3.731913E-09 -8.572374E-09 +3.731913E-09 -1.248819E-08 -6.977558E-13 -8.572374E-09 -6.977558E-13 +2.595541E-08 
 -6.667698E-06 -2.184593E-07 -9.043541E-07 -2.184593E-07 +2.813279E-07 +1.345996E-06 -9.043541E-07 +1.345996E-06 +6.386370E-06 
 -1.024616E-04 +5.745024E-05 +1.687378E-05 +5.745024E-05 -3.082604E-05 -2.320513E-05 +1.687378E-05 -2.320513E-05 +1.332876E-04 
 -3.014799E-05 -5.221741E-05 +1.021783E-05 -5.221741E-05 -9.044344E-05 +1.769821E-05 +1.021783E-05 +1.769821E-05 +1.205914E-04 
 +4.522457E-08 +1.037945E-06 -8.863924E-07 +1.037945E-06 -2.927028E-06 -6.817684E-07 -8.863924E-07 -6.817684E-07 +2.881804E-06 
 -3.041052E-05 -5.362189E-06 +1.660513E-06 -5.362189E-06 -9.456770E-07 +2.927679E-07 +1.660513E-06 +2.927679E-07 +3.135620E-05 
 -7.849253E-06 -5.595800E-06 -5.746444E-08 -5.595800E-06 -3.989584E-06 +8.265969E-08 -5.746444E-08 +8.265969E-08 +1.183884E-05 
 +3.866945E-07 +1.063356E-06 -1.095320E-06 +1.063356E-06 -3.148764E-06 -1.672024E-06 -1.095320E-06 -1.672024E-06 +2.762070E-06 
 -4.289451E-08 +6.836380E-09 +5.158639E-12 +6.836380E-09 -4.354369E-08 -2.319365E-08 +5.158639E-12 -2.319365E-08 +8.643821E-08 
 -1.842305E-06 +5.174867E-07 +7.478096E-07 +5.174867E-07 -1.380083E-07 -4.212535E-08 +7.478096E-07 -4.212535E-08 +1.980314E-06 
 -1.657868E-08 -2.560369E-09 -1.990683E-09 -2.560369E-09 -2.333157E-08 -9.811756E-10 -1.990683E-09 -9.811756E-10 +3.991026E-08 
 -1.529883E-06 +6.167642E-07 +2.606022E-07 +6.167642E-07 -1.139396E-07 +3.720292E-07 +2.606022E-07 +3.720292E-07 +1.643823E-06 
 -2.939633E-04 +1.293246E-04 -3.964159E-05 +1.293246E-04 -4.399720E-05 +8.416077E-05 -3.964159E-05 +8.416077E-05 +3.379605E-04 
 -1.149446E-04 -1.641564E-04 -1.488380E-05 -1.641564E-04 -2.344406E-04 -2.125635E-05 -1.488380E-05 -2.125635E-05 +3.493852E-04 
 -7.004699E-06 +2.613661E-05 +7.270012E-06 +2.613661E-05 -9.754482E-05 -2.713175E-05 +7.270012E-06 -2.713175E-05 +1.045495E-04 
 -2.718907E-07 -3.377292E-08 +2.419202E-08 -3.377292E-08 +2.016685E-08 +9.349930E-08 +2.419202E-08 +9.349930E-08 +2.517238E-07 
 -1.808561E-08 +7.412328E-09 -3.769795E-09 +7.412328E-09 -1.098649E-08 -5.305689E-09 -3.769795E-09 -5.305689E-09 +2.907209E-08 
 -2.788483E-08 -2.932344E-09 -1.834226E-09 -2.932344E-09 -9.904912E-08 +8.602700E-09 -1.834226E-09 +8.602700E-09 +1.269339E-07 
 -2.147890E-06 +3.424540E-06 -1.009712E-06 +3.424540E-06 -5.403284E-06 +9.177922E-07 -1.009712E-06 +9.177922E-07 +7.551173E-06 
 -1.233307E-07 -4.833583E-08 -1.948811E-08 -4.833583E-08 -9.025684E-08 -5.759248E-10 -1.948811E-08 -5.759248E-10 +2.135875E-07 
 +1.147308E-07 +7.266438E-07 -9.169923E-07 +7.266438E-07 -2.872688E-06 +3.018043E-08 -9.169923E-07 +3.018043E-08 +2.757957E-06 
 -2.832443E-07 -7.539956E-08 +1.865105E-07 -7.539956E-08 -2.126215E-08 -1.029330E-08 +1.865105E-07 -1.029330E-08 +3.045065E-07 
 +5.358526E-08 -1.501409E-07 +2.559520E-07 -1.501409E-07 -1.240351E-06 -5.515372E-07 +2.559520E-07 -5.515372E-07 +1.186765E-06 
 -5.818477E-08 -2.157196E-08 -1.861350E-08 -2.157196E-08 -8.533958E-08 -2.505152E-08 -1.861350E-08 -2.505152E-08 +1.435243E-07 
 -2.874205E-08 +5.616370E-07 +6.330048E-07 +5.616370E-07 -1.570702E-06 -2.602206E-07 +6.330048E-07 -2.602206E-07 +1.599444E-06 
 -2.285898E-08 +8.092720E-09 +7.126625E-09 +8.092720E-09 -3.076261E-08 -1.703605E-08 +7.126625E-09 -1.703605E-08 +5.362159E-08 
 -1.303425E-05 -1.709051E-05 -2.520796E-06 -1.709051E-05 -2.223684E-05 -5.825773E-06 -2.520796E-06 -5.825773E-06 +3.527110E-05 
 -3.212281E-08 -5.170915E-08 -5.914076E-08 -5.170915E-08 +9.334995E-09 +4.347848E-10 -5.914076E-08 +4.347848E-10 +2.278781E-08 
 -3.525704E-08 -1.679526E-09 +2.239398E-09 -1.679526E-09 -4.102742E-08 -3.097724E-09 +2.239398E-09 -3.097724E-09 +7.628446E-08 
 -1.144049E-08 -9.633671E-10 -2.354062E-09 -9.633671E-10 -1.142518E-08 +7.249962E-09 -2.354062E-09 +7.249962E-09 +2.286567E-08 
 -5.877807E-08 -2.633582E-08 +2.348685E-09 -2.633582E-08 -5.299184E-08 +1.030513E-08 +2.348685E-09 +1.030513E-08 +1.117699E-07 
 -2.562645E-07 -2.782848E-06 +1.221711E-07 -2.782848E-06 -3.040091E-05 -9.702536E-09 +1.221711E-07 -9.702536E-09 +3.065717E-05 
 -2.703795E-04 -6.381878E-05 -4.724192E-05 -6.381878E-05 -5.613363E-06 -6.302168E-05 -4.724192E-05 -6.302168E-05 +2.759929E-04 
 -2.943941E-08 -5.447839E-08 -1.495677E-07 -5.447839E-08 -9.326645E-07 -5.012462E-07 -1.495677E-07 -5.012462E-07 +9.621040E-07 
 -5.277557E-08 -1.818034E-09 +1.957997E-08 -1.818034E-09 -5.569061E-08 -1.134616E-08 +1.957997E-08 -1.134616E-08 +1.084662E-07 
 -2.131464E-06 +2.695882E-06 +2.141799E-06 +2.695882E-06 -2.974131E-06 -9.020807E-07 +2.141799E-06 -9.020807E-07 +5.105595E-06 
 -3.684866E-05 -5.452204E-05 +1.244489E-05 -5.452204E-05 -7.790777E-05 +2.714412E-07 +1.244489E-05 +2.714412E-07 +1.147564E-04 
 -8.141055E-07 -1.334884E-06 +7.318635E-07 -1.334884E-06 -2.191360E-06 +8.116893E-07 +7.318635E-07 +8.116893E-07 +3.005466E-06 
 -2.895782E-05 +5.657439E-06 +5.450121E-07 +5.657439E-06 -9.559906E-07 +2.028972E-06 +5.450121E-07 +2.028972E-06 +2.991381E-05 
 -6.684995E-08 -1.916343E-08 +4.790533E-09 -1.916343E-08 -1.260741E-07 +1.316948E-08 +4.790533E-09 +1.316948E-08 +1.929240E-07 
 -1.550433E-08 -8.691105E-10 -6.606272E-09 -8.691105E-10 -1.228890E-08 -2.283503E-09 -6.606272E-09 -2.283503E-09 +2.779323E-08 
 -5.864336E-08 -3.985391E-08 -5.589412E-08 -3.985391E-08 -2.752207E-08 -1.015617E-08 -5.589412E-08 -1.015617E-08 +8.616542E-08 
 -4.166814E-07 -6.184113E-07 -1.549839E-07 -6.184113E-07 -5.792505E-07 +4.217575E-07 -1.549839E-07 +4.217575E-07 +9.959318E-07 
 -6.195228E-06 +5.102429E-06 +3.727429E-06 +5.102429E-06 -4.014278E-06 -1.524870E-06 +3.727429E-06 -1.524870E-06 +1.020951E-05 
 +2.649231E-06 +2.066309E-06 +7.353051E-06 +2.066309E-06 -2.292116E-05 +5.675360E-06 +7.353051E-06 +5.675360E-06 +2.027193E-05 
 -1.817175E-07 +8.507623E-07 +6.194742E-07 +8.507623E-07 -2.411020E-06 -1.686865E-07 +6.194742E-07 -1.686865E-07 +2.592737E-06 
 -2.603512E-06 +3.097477E-07 -9.465198E-07 +3.097477E-07 -3.047989E-09 -2.172794E-07 -9.465198E-07 -2.172794E-07 +2.606561E-06 
 -8.429492E-07 -3.358573E-06 +1.363445E-06 -3.358573E-06 -7.231807E-06 -2.556482E-06 +1.363445E-06 -2.556482E-06 +8.074756E-06 
 -5.491911E-08 -2.164319E-09 +1.848738E-08 -2.164319E-09 -2.135113E-08 -8.205128E-09 +1.848738E-08 -8.205128E-09 +7.627024E-08 
 -4.026535E-05 +1.742316E-05 +2.392606E-05 +1.742316E-05 -3.135470E-06 +5.611830E-06 +2.392606E-05 +5.611830E-06 +4.340082E-05 
 -2.149342E-08 +5.956240E-08 -1.293301E-08 +5.956240E-08 -6.645369E-07 +2.379902E-07 -1.293301E-08 +2.379902E-07 +6.860303E-07 
 -7.297562E-08 +1.212185E-08 -6.942365E-09 +1.212185E-08 -2.472578E-08 +3.726738E-09 -6.942365E-09 +3.726738E-09 +9.770141E-08 
 -6.818669E-08 -1.148875E-07 -1.048814E-07 -1.148875E-07 -1.734419E-07 -9.556071E-08 -1.048814E-07 -9.556071E-08 +2.416286E-07 
 -1.465695E-06 +1.459447E-06 -7.106479E-07 +1.459447E-06 -9.840635E-07 -5.364411E-07 -7.106479E-07 -5.364411E-07 +2.449758E-06 
 -8.840771E-06 -3.226968E-07 -9.587073E-08 -3.226968E-07 +1.234338E-07 -1.092099E-06 -9.587073E-08 -1.092099E-06 +8.717337E-06 
 +1.171165E-08 +3.531671E-08 +4.352973E-08 +3.531671E-08 -1.400326E-07 +9.545730E-08 +4.352973E-08 +9.545730E-08 +1.283209E-07 
 -2.354052E-07 -1.243201E-06 -1.813364E-06 -1.243201E-06 -3.355033E-06 -1.856828E-06 -1.813364E-06 -1.856828E-06 +3.590438E-06 
 -3.218751E-07 -1.304077E-08 -8.427858E-08 -1.304077E-08 +3.694844E-08 -1.221197E-07 -8.427858E-08 -1.221197E-07 +2.849266E-07 
 -1.512802E-06 +1.595320E-06 +8.690052E-07 +1.595320E-06 -1.710944E-06 -7.735927E-07 +8.690052E-07 -7.735927E-07 +3.223746E-06 
 -3.959283E-08 -1.711480E-08 +3.891397E-09 -1.711480E-08 -5.752996E-08 +2.083719E-08 +3.891397E-09 +2.083719E-08 +9.712279E-08 
 -4.790852E-08 +1.427507E-07 -8.618630E-08 +1.427507E-07 -5.399460E-07 +3.155482E-07 -8.618630E-08 +3.155482E-07 +5.878545E-07 
 -2.302692E-05 +6.325664E-05 +2.601426E-05 +6.325664E-05 -1.738000E-04 -7.147784E-05 +2.601426E-05 -7.147784E-05 +1.968269E-04 
 -2.375683E-05 +7.677372E-06 +7.198575E-06 +7.677372E-06 -1.575482E-06 +2.688643E-06 +7.198575E-06 +2.688643E-06 +2.533232E-05 
 -2.452522E-08 +3.347453E-09 -8.065220E-09 +3.347453E-09 -6.273838E-09 +3.943164E-09 -8.065220E-09 +3.943164E-09 +3.079905E-08 
 -5.248727E-07 +5.743152E-07 -2.135022E-07 +5.743152E-07 -4.395178E-07 -2.459960E-07 -2.135022E-07 -2.459960E-07 +9.643906E-07 
 +1.946243E-06 -1.420037E-07 -7.299488E-06 -1.420037E-07 -2.623315E-05 +9.030551E-06 -7.299488E-06 +9.030551E-06 +2.428690E-05 
 -1.708349E-08 -5.133162E-09 +2.848364E-09 -5.133162E-09 -1.256039E-08 +3.863051E-09 +2.848364E-09 +3.863051E-09 +2.964388E-08 
 -1.086728E-06 +7.246742E-07 +1.331376E-07 +7.246742E-07 -4.421934E-07 -3.493571E-07 +1.331376E-07 -3.493571E-07 +1.528921E-06 
 -3.442563E-08 +3.501267E-08 +2.512130E-08 +3.501267E-08 -2.105447E-07 +1.324110E-07 +2.512130E-08 +1.324110E-07 +2.449704E-07 
 -6.557377E-05 +6.301262E-06 +1.920510E-05 +6.301262E-06 +4.226753E-06 -2.000310E-05 +1.920510E-05 -2.000310E-05 +6.134701E-05 
 -5.436694E-08 +4.976463E-09 -1.889062E-08 +4.976463E-09 -1.402464E-08 +1.091210E-08 -1.889062E-08 +1.091210E-08 +6.839158E-08 
 -5.352846E-07 +6.547828E-07 +2.397894E-07 +6.547828E-07 -7.788313E-07 -1.149054E-07 +2.397894E-07 -1.149054E-07 +1.314116E-06 
 -8.931170E-06 -5.146795E-07 +3.425939E-06 -5.146795E-07 +9.014401E-08 -9.309155E-07 +3.425939E-06 -9.309155E-07 +8.841026E-06 
 -4.458596E-08 +2.277773E-08 +1.707195E-08 +2.277773E-08 -5.054160E-08 -1.289404E-08 +1.707195E-08 -1.289404E-08 +9.512756E-08 
 -9.688078E-08 +1.517511E-07 +9.672703E-08 +1.517511E-07 -2.764489E-07 -1.708539E-07 +9.672703E-08 -1.708539E-07 +3.733297E-07 
 -2.001049E-06 +4.242804E-07 +1.135880E-06 +4.242804E-07 -2.370608E-08 -7.290373E-07 +1.135880E-06 -7.290373E-07 +2.024755E-06 
 -9.261292E-07 -1.423751E-07 -7.194367E-08 -1.423751E-07 +3.305430E-08 -2.516407E-07 -7.194367E-08 -2.516407E-07 +8.930750E-07 
 -3.736346E-08 +6.619722E-09 -2.399307E-08 +6.619722E-09 -5.498192E-08 +1.320832E-08 -2.399307E-08 +1.320832E-08 +9.234538E-08 
 -1.441312E-07 +1.457783E-07 -1.012659E-07 +1.457783E-07 -9.208072E-08 -3.497929E-08 -1.012659E-07 -3.497929E-08 +2.362119E-07 
 -1.117423E-07 +4.325071E-07 -1.077971E-07 +4.325071E-07 -1.404884E-06 -2.888606E-07 -1.077971E-07 -2.888606E-07 +1.516626E-06 
 -3.085408E-08 +1.815798E-06 -1.667627E-06 +1.815798E-06 -4.634969E-06 -3.315988E-07 -1.667627E-06 -3.315988E-07 +4.665823E-06 
 -8.754265E-06 +2.404216E-05 +2.129948E-06 +2.404216E-05 -6.605867E-05 -5.853201E-06 +2.129948E-06 -5.853201E-06 +7.481294E-05 
 -1.845469E-06 +8.670248E-07 +4.000034E-08 +8.670248E-07 -2.401631E-07 +5.923904E-07 +4.000034E-08 +5.923904E-07 +2.085632E-06 
 -1.221217E-06 +4.837478E-07 +4.385307E-07 +4.837478E-07 -2.012054E-07 -2.628526E-07 +4.385307E-07 -2.628526E-07 +1.422422E-06 
 -6.274770E-08 +1.901547E-08 +9.137662E-09 +1.901547E-08 -4.708720E-08 -1.464946E-09 +9.137662E-09 -1.464946E-09 +1.098349E-07 
 -1.909041E-08 +5.802579E-08 +6.915564E-08 +5.802579E-08 -1.552809E-07 -8.489086E-08 +6.915564E-08 -8.489086E-08 +1.743714E-07 
 +4.168229E-08 -2.213980E-07 -2.323282E-07 -2.213980E-07 -8.705380E-07 +2.798380E-07 -2.323282E-07 +2.798380E-07 +8.288557E-07 
 -1.517508E-09 -3.200708E-07 +3.202998E-07 -3.200708E-07 -1.201057E-05 +7.409721E-10 +3.202998E-07 +7.409721E-10 +1.201208E-05 
 -8.522125E-07 +1.347119E-06 -1.138443E-07 +1.347119E-06 -1.675904E-06 +1.284762E-06 -1.138443E-07 +1.284762E-06 +2.528117E-06 
 -2.862430E-08 -1.115332E-08 +1.683966E-09 -1.115332E-08 -9.141127E-08 +2.493947E-08 +1.683966E-09 +2.493947E-08 +1.200356E-07 
 -5.943166E-08 +1.288360E-08 -6.459896E-09 +1.288360E-08 -4.242359E-08 +4.872901E-09 -6.459896E-09 +4.872901E-09 +1.018552E-07 
 -3.523345E-06 -9.730972E-06 +6.753183E-08 -9.730972E-06 -2.694527E-05 -2.861335E-08 +6.753183E-08 -2.861335E-08 +3.046862E-05 
 -2.519189E-07 +5.694194E-06 -4.287220E-06 +5.694194E-06 -2.796052E-05 -4.279559E-06 -4.287220E-06 -4.279559E-06 +2.821244E-05 
 -3.019963E-08 -1.081175E-08 +1.428553E-08 -1.081175E-08 -3.372320E-08 +1.507102E-08 +1.428553E-08 +1.507102E-08 +6.392283E-08 
 -1.208919E-04 -1.057638E-05 +1.024259E-05 -1.057638E-05 -9.279618E-07 +8.970333E-07 +1.024259E-05 +8.970333E-07 +1.218199E-04 
 -8.157062E-07 -7.309941E-07 -3.753944E-07 -7.309941E-07 -4.107864E-07 +2.652102E-07 -3.753944E-07 +2.652102E-07 +1.226493E-06 
 -8.295924E-06 -6.529321E-06 -2.141675E-06 -6.529321E-06 -5.117966E-06 -1.126506E-06 -2.141675E-06 -1.126506E-06 +1.341389E-05 
 -6.138075E-06 +1.316057E-05 -2.277493E-06 +1.316057E-05 -2.822400E-05 +4.883288E-06 -2.277493E-06 +4.883288E-06 +3.436208E-05 
 +5.131489E-08 +4.536109E-07 +4.526419E-07 +4.536109E-07 -2.900883E-06 +1.265608E-06 +4.526419E-07 +1.265608E-06 +2.849568E-06 
 -1.726433E-08 +1.209507E-09 -8.350996E-09 +1.209507E-09 -8.220180E-09 +1.967866E-09 -8.350996E-09 +1.967866E-09 +2.548451E-08 
 -1.069637E-04 -6.999757E-05 -4.583485E-05 -6.999757E-05 -4.386841E-05 -4.819880E-05 -4.583485E-05 -4.819880E-05 +1.508321E-04 
 -2.978590E-07 +1.735481E-07 +2.597029E-08 +1.735481E-07 -2.144129E-07 -1.024799E-07 +2.597029E-08 -1.024799E-07 +5.122719E-07 
 -4.137977E-05 -4.931318E-05 +1.277775E-05 -4.931318E-05 -5.877021E-05 +1.522835E-05 +1.277775E-05 +1.522835E-05 +1.001500E-04 
 -2.055729E-08 -7.798378E-09 -3.153341E-09 -7.798378E-09 -2.831950E-08 -9.629292E-09 -3.153341E-09 -9.629292E-09 +4.887679E-08 
 +7.510713E-08 -9.582319E-08 -3.906826E-07 -9.582319E-08 -1.362028E-06 -5.436800E-07 -3.906826E-07 -5.436800E-07 +1.286921E-06 
 -1.941059E-07 -6.533709E-07 -3.326402E-08 -6.533709E-07 -1.328061E-06 +1.148065E-06 -3.326402E-08 +1.148065E-06 +1.522167E-06 
 -3.199016E-07 +1.205481E-08 +1.970389E-07 +1.205481E-08 +6.109084E-09 +7.221782E-08 +1.970389E-07 +7.221782E-08 +3.137926E-07 
 -6.511698E-08 +6.594975E-08 +6.792256E-08 +6.594975E-08 -7.174382E-08 -4.146843E-08 +6.792256E-08 -4.146843E-08 +1.368608E-07 
 -3.511751E-05 -6.481521E-07 -6.188447E-06 -6.481521E-07 -8.827369E-09 +5.428654E-07 -6.188447E-06 +5.428654E-07 +3.512634E-05 
 -4.895321E-07 -2.187306E-06 -1.090540E-06 -2.187306E-06 -8.514339E-06 -1.031619E-06 -1.090540E-06 -1.031619E-06 +9.003871E-06 
 -2.818641E-08 -5.586148E-10 +3.864606E-09 -5.586148E-10 -1.851540E-08 -1.613557E-09 +3.864606E-09 -1.613557E-09 +4.670181E-08 
 -3.047655E-08 -9.067911E-09 -1.024821E-08 -9.067911E-09 -2.151030E-08 -3.500613E-09 -1.024821E-08 -3.500613E-09 +5.198685E-08 
 -7.686913E-06 +1.280867E-06 -2.626682E-07 +1.280867E-06 +3.134223E-07 +2.042783E-06 -2.626682E-07 +2.042783E-06 +7.373490E-06 
 -1.491662E-05 +1.604093E-05 -1.235414E-05 +1.604093E-05 -1.562990E-05 +4.835470E-06 -1.235414E-05 +4.835470E-06 +3.054651E-05 
 -1.100122E-07 +2.314480E-08 +8.784321E-09 +2.314480E-08 -1.098871E-07 -1.140415E-09 +8.784321E-09 -1.140415E-09 +2.198992E-07 
 -1.852922E-06 -1.911254E-06 -1.207770E-06 -1.911254E-06 -1.925021E-06 -7.807261E-07 -1.207770E-06 -7.807261E-07 +3.777943E-06 
 -3.900681E-08 +1.076224E-08 -1.416707E-08 +1.076224E-08 -3.427676E-08 +5.614429E-09 -1.416707E-08 +5.614429E-09 +7.328357E-08 
 -2.287932E-08 -8.146314E-09 -1.317520E-08 -8.146314E-09 -3.103648E-08 -1.422765E-08 -1.317520E-08 -1.422765E-08 +5.391580E-08 
 -1.304940E-08 +7.660423E-09 +6.004631E-09 +7.660423E-09 -2.959806E-08 -4.984191E-09 +6.004631E-09 -4.984191E-09 +4.264746E-08 
 -4.239205E-07 +9.807809E-08 -1.596188E-07 +9.807809E-08 -2.185415E-08 +1.712012E-07 -1.596188E-07 +1.712012E-07 +4.457746E-07 
 -1.363303E-05 +2.902954E-05 -9.064860E-07 +2.902954E-05 -5.876018E-05 +1.691793E-05 -9.064860E-07 +1.691793E-05 +7.239322E-05 
 -4.468917E-08 +2.284582E-09 -7.022377E-09 +2.284582E-09 -7.753968E-08 +2.483218E-08 -7.022377E-09 +2.483218E-08 +1.222289E-07 
 -4.705424E-09 +1.034560E-09 -2.189058E-09 +1.034560E-09 -5.746615E-09 +1.754262E-09 -2.189058E-09 +1.754262E-09 +1.045204E-08 
 -9.674688E-09 +2.261953E-10 +1.295852E-09 +2.261953E-10 -1.535605E-08 -7.426489E-09 +1.295852E-09 -7.426489E-09 +2.503074E-08 
 -3.546957E-06 -9.944195E-06 -2.432222E-07 -9.944195E-06 -2.388578E-05 -1.136784E-05 -2.432222E-07 -1.136784E-05 +2.743274E-05 
 -1.167892E-04 -9.799564E-05 -3.993474E-05 -9.799564E-05 -8.223051E-05 -3.350918E-05 -3.993474E-05 -3.350918E-05 +1.990197E-04 
 -2.678446E-05 +1.904360E-06 -1.827483E-06 +1.904360E-06 +2.137948E-06 +7.648450E-06 -1.827483E-06 +7.648450E-06 +2.464652E-05 
 -7.564923E-05 +2.753202E-05 -2.720306E-05 +2.753202E-05 -1.002689E-05 +9.900822E-06 -2.720306E-05 +9.900822E-06 +8.567612E-05 
 -3.869443E-06 +1.861180E-06 +1.604203E-06 +1.861180E-06 -5.051683E-07 +6.559671E-07 +1.604203E-06 +6.559671E-07 +4.374611E-06 
 -3.030076E-08 -7.957918E-09 +1.461527E-08 -7.957918E-09 -2.316118E-08 +1.221447E-08 +1.461527E-08 +1.221447E-08 +5.346194E-08 
 -2.114307E-07 +3.680553E-07 +1.338225E-07 +3.680553E-07 -5.837422E-07 -4.805073E-07 +1.338225E-07 -4.805073E-07 +7.951729E-07 
 -9.422845E-08 +1.977324E-07 -1.317453E-09 +1.977324E-07 -3.451470E-07 +2.509194E-07 -1.317453E-09 +2.509194E-07 +4.393754E-07 
 -4.288938E-05 +4.973758E-05 +2.041832E-05 +4.973758E-05 -5.343531E-05 -2.000960E-06 +2.041832E-05 -2.000960E-06 +9.632469E-05 
 -1.408531E-08 -7.021978E-09 +3.824507E-09 -7.021978E-09 -1.020563E-08 +3.225417E-09 +3.824507E-09 +3.225417E-09 +2.429095E-08 
 -1.164606E-07 +4.959704E-08 +3.743628E-09 +4.959704E-08 -8.495114E-08 -2.503597E-09 +3.743628E-09 -2.503597E-09 +2.014118E-07 
 -4.264817E-07 -4.178198E-07 +3.384570E-07 -4.178198E-07 -3.104534E-07 -3.624792E-08 +3.384570E-07 -3.624792E-08 +7.369352E-07 
 -2.051350E-08 +5.097950E-09 +1.073150E-09 +5.097950E-09 -5.856277E-08 +2.851523E-08 +1.073150E-09 +2.851523E-08 +7.907627E-08 
 -4.389301E-08 -9.572723E-09 +3.643931E-09 -9.572723E-09 -1.027038E-07 +4.683276E-08 +3.643931E-09 +4.683276E-08 +1.465968E-07 
 -9.364668E-07 +2.806947E-06 -2.374431E-06 +2.806947E-06 -4.702347E-06 +5.154376E-07 -2.374431E-06 +5.154376E-07 +5.638814E-06 
 -6.313433E-08 +8.731663E-09 -5.721341E-09 +8.731663E-09 -3.026205E-08 +5.991900E-09 -5.721341E-09 +5.991900E-09 +9.339638E-08 
 -2.205446E-09 +8.396419E-08 +1.197591E-07 +8.396419E-08 -3.258119E-06 -1.184622E-06 +1.197591E-07 -1.184622E-06 +3.260324E-06 
 -2.800377E-07 -5.412112E-07 -1.837413E-07 -5.412112E-07 -1.027762E-06 -7.573383E-07 -1.837413E-07 -7.573383E-07 +1.307799E-06 
 -1.704713E-07 -1.185225E-08 -9.714813E-08 -1.185225E-08 -5.522022E-09 +1.373979E-08 -9.714813E-08 +1.373979E-08 +1.759933E-07 
 -1.531068E-08 -1.948060E-06 -1.943937E-06 -1.948060E-06 -6.833044E-05 -6.081561E-09 -1.943937E-06 -6.081561E-09 +6.834575E-05 
 -1.562304E-04 +1.310917E-04 +2.940389E-05 +1.310917E-04 -1.100002E-04 -2.467304E-05 +2.940389E-05 -2.467304E-05 +2.662306E-04 
 -2.904572E-08 -4.040582E-07 -4.254194E-07 -4.040582E-07 -1.250455E-06 -1.733546E-07 -4.254194E-07 -1.733546E-07 +1.279501E-06 
 -4.016360E-07 +2.784675E-06 +1.256499E-06 +2.784675E-06 -1.205890E-05 +2.311493E-06 +1.256499E-06 +2.311493E-06 +1.246054E-05 
 -9.801875E-06 -2.345868E-05 -5.893618E-06 -2.345868E-05 -4.590069E-05 +1.058270E-05 -5.893618E-06 +1.058270E-05 +5.570257E-05 
 -1.218415E-07 +4.818212E-08 +3.407028E-08 +4.818212E-08 -4.298667E-08 -1.161094E-08 +3.407028E-08 -1.161094E-08 +1.648281E-07 
 -8.566302E-07 -1.894436E-07 +2.675536E-07 -1.894436E-07 -4.840904E-08 +3.191700E-07 +2.675536E-07 +3.191700E-07 +9.050392E-07 
 -2.972375E-08 -1.357406E-08 -1.077985E-08 -1.357406E-08 -8.634931E-08 -5.333511E-09 -1.077985E-08 -5.333511E-09 +1.160731E-07 
 -1.559944E-08 -1.602224E-09 -4.770499E-09 -1.602224E-09 -7.710748E-09 -7.754435E-11 -4.770499E-09 -7.754435E-11 +2.331019E-08 
 -3.393579E-08 -1.000573E-06 -5.366314E-07 -1.000573E-06 -3.050649E-06 +1.697397E-06 -5.366314E-07 +1.697397E-06 +3.084585E-06 
 -6.210844E-08 -2.077453E-08 +1.901199E-08 -2.077453E-08 -3.305384E-08 +8.729915E-09 +1.901199E-08 +8.729915E-09 +9.516228E-08 
 -4.968277E-08 -8.462680E-08 -1.931785E-09 -8.462680E-08 -3.158391E-07 -1.881559E-07 -1.931785E-09 -1.881559E-07 +3.655219E-07 
 -4.203730E-08 -8.679195E-09 -1.859206E-09 -8.679195E-09 -5.591970E-08 +1.080168E-08 -1.859206E-09 +1.080168E-08 +9.795699E-08 
 -1.068973E-05 +1.760641E-05 +7.643396E-06 +1.760641E-05 -2.512579E-05 +8.541539E-08 +7.643396E-06 +8.541539E-08 +3.581552E-05 
 -4.915909E-05 +1.324685E-04 +9.976038E-06 +1.324685E-04 -3.320190E-04 -1.248745E-04 +9.976038E-06 -1.248745E-04 +3.811781E-04 
 -2.510084E-07 -4.121075E-08 +1.202926E-07 -4.121075E-08 -7.115047E-08 +2.695261E-08 +1.202926E-07 +2.695261E-08 +3.221589E-07 
 -1.467080E-06 +1.790822E-06 -9.339736E-08 +1.790822E-06 -1.314836E-06 -1.447781E-06 -9.339736E-08 -1.447781E-06 +2.781916E-06 
 -3.160918E-08 -1.511665E-07 -8.017501E-08 -1.511665E-07 -7.276562E-08 -1.195763E-07 -8.017501E-08 -1.195763E-07 +1.043748E-07 
 -6.447974E-08 -1.790563E-08 +5.991746E-09 -1.790563E-08 -8.999481E-08 +1.028747E-08 +5.991746E-09 +1.028747E-08 +1.544745E-07 
 -3.279482E-08 +2.044931E-08 +5.730207E-10 +2.044931E-08 -5.236385E-08 +6.457993E-09 +5.730207E-10 +6.457993E-09 +8.515867E-08 
 -2.656407E-06 -1.072237E-05 +6.672645E-06 -1.072237E-05 -3.019548E-05 +1.411546E-06 +6.672645E-06 +1.411546E-06 +3.285188E-05 
 -5.751304E-08 -5.777489E-09 +1.368236E-09 -5.777489E-09 -4.312065E-08 +2.947592E-08 +1.368236E-09 +2.947592E-08 +1.006337E-07 
 -2.092863E-08 +4.756227E-09 -5.059702E-09 +4.756227E-09 -3.034982E-08 -1.498912E-08 -5.059702E-09 -1.498912E-08 +5.127845E-08 
 -9.495026E-07 -3.033044E-07 -1.787374E-07 -3.033044E-07 -2.509309E-08 +2.200142E-07 -1.787374E-07 +2.200142E-07 +9.745958E-07 
 -2.302387E-08 -9.795648E-08 +1.340938E-07 -9.795648E-08 -3.369231E-07 +1.887026E-07 +1.340938E-07 +1.887026E-07 +3.599470E-07 
 -9.239097E-06 -5.243551E-06 -7.140926E-07 -5.243551E-06 -2.151376E-06 +2.672774E-06 -7.140926E-07 +2.672774E-06 +1.139047E-05 
 +1.066575E-07 -3.934571E-08 +4.231234E-08 -3.934571E-08 -2.523674E-07 -1.757007E-07 +4.231234E-08 -1.757007E-07 +1.457099E-07 
 -3.749912E-04 +9.934084E-05 -1.254917E-05 +9.934084E-05 -2.305397E-05 +3.941060E-05 -1.254917E-05 +3.941060E-05 +3.980451E-04 
 -3.481342E-05 +4.835801E-05 +2.518174E-05 +4.835801E-05 -5.886035E-05 -4.353382E-06 +2.518174E-05 -4.353382E-06 +9.367377E-05 
 -1.993236E-08 +8.604904E-07 -6.570279E-07 +8.604904E-07 -8.652122E-06 -1.181209E-06 -6.570279E-07 -1.181209E-06 +8.672054E-06 
 +6.990192E-10 -1.853666E-08 -1.545964E-08 -1.853666E-08 -5.398259E-08 +1.800958E-08 -1.545964E-08 +1.800958E-08 +5.328357E-08 
 -8.586782E-09 +3.526601E-09 +5.328348E-09 +3.526601E-09 -2.400901E-08 -5.096766E-09 +5.328348E-09 -5.096766E-09 +3.259579E-08 
 -3.875980E-07 -4.501571E-07 +9.684379E-08 -4.501571E-07 -5.261639E-07 +1.278786E-07 +9.684379E-08 +1.278786E-07 +9.137618E-07 
 +1.555001E-06 -1.247812E-06 -6.598748E-06 -1.247812E-06 -2.031458E-05 -8.551357E-06 -6.598748E-06 -8.551357E-06 +1.875958E-05 
 -4.728489E-09 +1.925520E-09 +6.534442E-11 +1.925520E-09 -1.554016E-08 +4.937650E-09 +6.534442E-11 +4.937650E-09 +2.026865E-08 
 -6.941203E-09 +2.055761E-09 +2.158496E-09 +2.055761E-09 -1.758451E-08 -8.377512E-09 +2.158496E-09 -8.377512E-09 +2.452572E-08 
 -3.170480E-08 -1.351099E-09 +2.633430E-09 -1.351099E-09 -4.084972E-08 +1.574229E-08 +2.633430E-09 +1.574229E-08 +7.255452E-08 
 -1.214470E-05 +1.767703E-05 -1.102768E-06 +1.767703E-05 -2.246529E-05 -9.055586E-06 -1.102768E-06 -9.055586E-06 +3.460998E-05 
 -2.402846E-08 -6.225214E-09 -7.000600E-09 -6.225214E-09 -3.203051E-08 -1.163775E-08 -7.000600E-09 -1.163775E-08 +5.605898E-08 
 -6.123058E-06 +1.829693E-07 +1.513002E-06 +1.829693E-07 +5.356252E-07 -1.843286E-06 +1.513002E-06 -1.843286E-06 +5.587433E-06 
 -3.402273E-08 -1.778598E-08 +3.309217E-09 -1.778598E-08 -9.864264E-08 +1.039995E-08 +3.309217E-09 +1.039995E-08 +1.326654E-07 
 -1.668900E-08 -5.246169E-09 +3.029653E-09 -5.246169E-09 -3.253649E-08 +1.292104E-08 +3.029653E-09 +1.292104E-08 +4.922550E-08 
 -1.049960E-08 +2.119805E-09 +7.177818E-10 +2.119805E-09 -2.144799E-08 +3.647518E-09 +7.177818E-10 +3.647518E-09 +3.194759E-08 
 -1.294756E-08 -3.759278E-09 -6.353850E-09 -3.759278E-09 -1.007630E-08 -1.923801E-09 -6.353850E-09 -1.923801E-09 +2.302386E-08 
 -1.118426E-04 -1.332875E-04 -4.357997E-05 -1.332875E-04 -1.588465E-04 -5.193635E-05 -4.357997E-05 -5.193635E-05 +2.706891E-04 
 -3.010685E-05 -5.308167E-06 +5.238172E-06 -5.308167E-06 -9.385793E-07 +9.225421E-07 +5.238172E-06 +9.225421E-07 +3.104543E-05 
 +1.465504E-06 -1.539397E-06 -6.426184E-06 -1.539397E-06 -2.027418E-05 -7.475859E-06 -6.426184E-06 -7.475859E-06 +1.880868E-05 
 +5.036611E-09 +2.843810E-09 +4.602844E-08 +2.843810E-09 -1.514754E-07 +9.370766E-09 +4.602844E-08 +9.370766E-09 +1.464388E-07 
 -9.047594E-08 +1.415145E-08 +4.610004E-08 +1.415145E-08 -2.629766E-08 -4.281086E-09 +4.610004E-08 -4.281086E-09 +1.167736E-07 
 -7.773841E-06 +1.454261E-05 -1.261513E-06 +1.454261E-05 -2.362523E-05 -8.285516E-06 -1.261513E-06 -8.285516E-06 +3.139907E-05 
 -9.503741E-05 +1.675671E-05 -2.202781E-05 +1.675671E-05 -2.961173E-06 +3.884398E-06 -2.202781E-05 +3.884398E-06 +9.799859E-05 
 -2.502707E-08 -1.567249E-06 +1.084957E-06 -1.567249E-06 -9.244924E-06 -3.355987E-06 +1.084957E-06 -3.355987E-06 +9.269950E-06 
 -6.572939E-10 -2.114499E-11 +1.230831E-10 -2.114499E-11 -6.558163E-06 +6.762012E-07 +1.230831E-10 +6.762012E-07 +6.558821E-06 
 -1.754325E-08 -2.795933E-09 -8.063191E-09 -2.795933E-09 -1.331771E-08 -3.075548E-09 -8.063191E-09 -3.075548E-09 +3.086095E-08 
 -7.296008E-08 +3.438536E-08 -2.537204E-08 +3.438536E-08 -9.989778E-08 +2.637731E-08 -2.537204E-08 +2.637731E-08 +1.728579E-07 
 -3.403084E-08 -2.057342E-08 +6.978245E-09 -2.057342E-08 -9.982421E-08 +6.877093E-09 +6.978245E-09 +6.877093E-09 +1.338551E-07 
 -2.701412E-08 +4.237091E-09 +5.832105E-09 +4.237091E-09 -8.039896E-08 +5.039529E-08 +5.832105E-09 +5.039529E-08 +1.074131E-07 
 -3.841745E-06 +2.940326E-07 +1.466502E-07 +2.940326E-07 +2.152153E-07 -9.771654E-07 +1.466502E-07 -9.771654E-07 +3.626530E-06 
 -2.250317E-05 -1.299212E-05 -2.939837E-06 -1.299212E-05 -7.501172E-06 -1.697289E-06 -2.939837E-06 -1.697289E-06 +3.000434E-05 
 -6.345550E-08 -1.410080E-08 +2.040468E-08 -1.410080E-08 -3.569224E-08 +7.744519E-09 +2.040468E-08 +7.744519E-09 +9.914773E-08 
 -4.014775E-08 -1.140337E-08 -2.584852E-09 -1.140337E-08 -2.380048E-08 -7.378579E-10 -2.584852E-09 -7.378579E-10 +6.394824E-08 
 -3.934551E-07 -1.454463E-07 +1.059777E-07 -1.454463E-07 -3.888761E-07 +1.752121E-07 +1.059777E-07 +1.752121E-07 +7.823313E-07 
 -7.044159E-08 +2.719440E-08 -1.147884E-08 +2.719440E-08 -1.285274E-07 -4.469860E-08 -1.147884E-08 -4.469860E-08 +1.989690E-07 
 -4.657583E-07 +3.495125E-07 +2.260897E-07 +3.495125E-07 -2.755016E-07 -1.354459E-07 +2.260897E-07 -1.354459E-07 +7.412598E-07 
 -6.570535E-05 -1.216780E-05 -1.115958E-05 -1.216780E-05 -1.628420E-06 -8.655661E-06 -1.115958E-05 -8.655661E-06 +6.733378E-05 
 -2.799803E-06 +7.022448E-08 +1.031540E-06 +7.022448E-08 +4.832849E-09 +1.590365E-07 +1.031540E-06 +1.590365E-07 +2.794970E-06 
 -4.566520E-08 -2.810949E-09 -3.704483E-09 -2.810949E-09 -2.949023E-08 +1.775850E-09 -3.704483E-09 +1.775850E-09 +7.515543E-08 
 -4.993633E-08 -1.198514E-09 +5.677089E-09 -1.198514E-09 -2.628692E-08 +2.413270E-09 +5.677089E-09 +2.413270E-09 +7.622325E-08 
 +8.420907E-08 +2.703152E-07 -7.526170E-07 +2.703152E-07 -4.864190E-06 +9.117735E-07 -7.526170E-07 +9.117735E-07 +4.779981E-06 
 -2.452185E-08 +2.588868E-09 -1.120681E-08 +2.588868E-09 -1.601446E-08 +5.193727E-09 -1.120681E-08 +5.193727E-09 +4.053631E-08 
 -3.062237E-06 -1.572024E-06 +3.956773E-07 -1.572024E-06 -6.231576E-07 +1.033176E-06 +3.956773E-07 +1.033176E-06 +3.685394E-06 
 -3.090508E-07 +6.959009E-07 -3.213426E-07 +6.959009E-07 -1.106252E-06 -1.956489E-07 -3.213426E-07 -1.956489E-07 +1.415303E-06 
 -1.999546E-05 -1.461914E-05 +2.883579E-06 -1.461914E-05 -9.318455E-06 -4.285867E-06 +2.883579E-06 -4.285867E-06 +2.931392E-05 
 -1.649115E-07 -2.553213E-07 +1.199920E-07 -2.553213E-07 -3.167922E-07 -7.880258E-08 +1.199920E-07 -7.880258E-08 +4.817037E-07 
 -7.565845E-07 +3.005959E-07 +1.985864E-07 +3.005959E-07 +3.441934E-08 +2.708349E-07 +1.985864E-07 +2.708349E-07 +7.221652E-07 
 -5.475572E-06 -9.248245E-07 -1.551321E-06 -9.248245E-07 +4.826186E-07 +1.611413E-06 -1.551321E-06 +1.611413E-06 +4.992953E-06 
 -3.191853E-05 +9.775927E-06 +4.408690E-06 +9.775927E-06 -4.814833E-07 +7.786043E-06 +4.408690E-06 +7.786043E-06 +3.240001E-05 
 -1.871986E-06 -2.171849E-06 -4.974116E-07 -2.171849E-06 -1.250341E-06 +1.463492E-06 -4.974116E-07 +1.463492E-06 +3.122327E-06 
 -3.144234E-07 -1.171534E-06 +4.010215E-08 -1.171534E-06 -4.372726E-06 +1.485606E-07 +4.010215E-08 +1.485606E-07 +4.687149E-06 
 -2.822372E-08 -1.864185E-09 +1.642211E-08 -1.864185E-09 -5.193219E-09 +8.404618E-09 +1.642211E-08 +8.404618E-09 +3.341694E-08 
 -2.837353E-05 +1.048941E-05 +3.012039E-07 +1.048941E-05 -7.889413E-07 +9.387736E-06 +3.012039E-07 +9.387736E-06 +2.916247E-05 
 -4.069765E-08 +5.959763E-08 -5.686224E-08 +5.959763E-08 -1.830256E-07 +9.627725E-08 -5.686224E-08 +9.627725E-08 +2.237233E-07 
 -2.557795E-06 +2.328223E-06 -1.691430E-06 +2.328223E-06 -1.942944E-06 +2.311352E-07 -1.691430E-06 +2.311352E-07 +4.500738E-06 
 -8.383545E-06 -1.192927E-06 +3.110862E-06 -1.192927E-06 -1.714235E-07 -4.961896E-08 +3.110862E-06 -4.961896E-08 +8.554968E-06 
 -9.898240E-09 -7.232915E-10 -1.772308E-09 -7.232915E-10 -2.143163E-08 +7.402097E-09 -1.772308E-09 +7.402097E-09 +3.132987E-08 
 +3.931259E-08 -1.068527E-07 +2.592741E-07 -1.068527E-07 -1.105746E-06 -7.153071E-07 +2.592741E-07 -7.153071E-07 +1.066434E-06 
 -6.946400E-08 -7.728667E-09 +2.121206E-08 -7.728667E-09 -3.375019E-08 +3.664517E-09 +2.121206E-08 +3.664517E-09 +1.032142E-07 
 -4.290216E-08 +3.307871E-07 +3.372313E-07 +3.307871E-07 -5.320883E-07 -4.729829E-08 +3.372313E-07 -4.729829E-08 +5.749905E-07 
 -3.874024E-08 -5.795537E-08 -6.442507E-08 -5.795537E-08 -9.434669E-08 -4.812593E-08 -6.442507E-08 -4.812593E-08 +1.330869E-07 
 -9.234673E-05 -3.361102E-05 +2.197694E-07 -3.361102E-05 -1.223454E-05 +8.065101E-08 +2.197694E-07 +8.065101E-08 +1.045813E-04 
 -5.056056E-07 +7.258843E-07 -4.122117E-07 +7.258843E-07 -6.191994E-07 -2.182702E-07 -4.122117E-07 -2.182702E-07 +1.124805E-06 
 -3.229202E-06 -8.779459E-06 -6.171135E-08 -8.779459E-06 -1.833296E-05 -1.124753E-05 -6.171135E-08 -1.124753E-05 +2.156216E-05 
 -7.940761E-08 +3.583592E-07 -3.055037E-07 +3.583592E-07 -5.018886E-07 -2.186785E-08 -3.055037E-07 -2.186785E-08 +5.812963E-07 
 -1.612222E-08 -4.459141E-08 +2.480054E-08 -4.459141E-08 -2.621755E-07 +1.444482E-07 +2.480054E-08 +1.444482E-07 +2.782977E-07 
 -7.295255E-05 -3.300691E-05 -5.132994E-06 -3.300691E-05 -1.174666E-05 -1.885449E-05 -5.132994E-06 -1.885449E-05 +8.469920E-05 
 -1.118763E-04 +8.091088E-05 -7.935128E-06 +8.091088E-05 -4.204062E-05 -4.473504E-05 -7.935128E-06 -4.473504E-05 +1.539169E-04 
 -2.305948E-04 +7.678474E-06 +4.354919E-05 +7.678474E-06 +6.923285E-06 +3.941685E-05 +4.354919E-05 +3.941685E-05 +2.236715E-04 
 +2.585177E-07 +1.183539E-06 -1.733732E-06 +1.183539E-06 -9.958947E-06 -3.374569E-06 -1.733732E-06 -3.374569E-06 +9.700429E-06 
 -8.192244E-08 -1.907570E-08 +7.071894E-09 -1.907570E-08 -1.234114E-07 +3.824211E-09 +7.071894E-09 +3.824211E-09 +2.053339E-07 
 -2.959856E-08 +1.285736E-08 -8.853770E-09 +1.285736E-08 -3.543197E-08 +2.198233E-08 -8.853770E-09 +2.198233E-08 +6.503053E-08 
 -6.810468E-07 +9.247104E-07 -4.761470E-07 +9.247104E-07 -7.870436E-07 -2.747074E-07 -4.761470E-07 -2.747074E-07 +1.468090E-06 
 -9.574231E-08 +2.658592E-08 -5.617585E-08 +2.658592E-08 -2.177527E-08 +2.781696E-08 -5.617585E-08 +2.781696E-08 +1.175176E-07 
 +2.430200E-07 +6.905391E-07 +1.467346E-06 +6.905391E-07 -8.569334E-06 +1.912221E-06 +1.467346E-06 +1.912221E-06 +8.326314E-06 
 -1.474846E-07 +1.106258E-08 -1.922524E-08 +1.106258E-08 -1.053141E-07 +5.689845E-09 -1.922524E-08 +5.689845E-09 +2.527986E-07 
 -1.030136E-06 +1.974787E-07 -3.542522E-07 +1.974787E-07 +9.370640E-08 -3.299349E-07 -3.542522E-07 -3.299349E-07 +9.364292E-07 
 -1.684231E-04 +1.822592E-04 +5.570257E-05 +1.822592E-04 -1.748733E-04 +2.985042E-05 +5.570257E-05 +2.985042E-05 +3.432963E-04 
 -2.275333E-06 +1.847095E-06 -8.213685E-07 +1.847095E-06 -1.419046E-06 +9.981740E-08 -8.213685E-07 +9.981740E-08 +3.694379E-06 
 +6.886838E-08 -5.637797E-08 -2.318604E-07 -5.637797E-08 -6.429132E-07 -1.452475E-07 -2.318604E-07 -1.452475E-07 +5.740448E-07 
 -3.790605E-07 +1.414500E-06 +1.538513E-07 +1.414500E-06 -5.279025E-06 -5.742637E-07 +1.538513E-07 -5.742637E-07 +5.658085E-06 
 -2.948655E-07 -6.583823E-07 -1.491697E-07 -6.583823E-07 -1.517144E-06 -6.363944E-07 -1.491697E-07 -6.363944E-07 +1.812009E-06 
 -3.650219E-06 +5.513772E-06 +3.280641E-06 +5.513772E-06 -6.867337E-06 -5.160500E-07 +3.280641E-06 -5.160500E-07 +1.051755E-05 
 -3.026166E-08 +4.608257E-09 +9.308246E-09 +4.608257E-09 -1.314360E-08 -5.086792E-09 +9.308246E-09 -5.086792E-09 +4.340526E-08 
 -1.025668E-05 -2.558071E-06 -1.726240E-06 -2.558071E-06 -5.858480E-07 -1.211537E-06 -1.726240E-06 -1.211537E-06 +1.084253E-05 
 -2.137668E-07 -2.908125E-07 -4.617204E-07 -2.908125E-07 -8.164553E-07 -1.039746E-07 -4.617204E-07 -1.039746E-07 +1.030222E-06 
 -5.533167E-06 -6.052313E-07 -4.500040E-07 -6.052313E-07 +2.984969E-07 +1.359583E-06 -4.500040E-07 +1.359583E-06 +5.234670E-06 
 -6.185125E-08 -3.304030E-08 -1.605273E-08 -3.304030E-08 -7.936241E-08 -4.236486E-08 -1.605273E-08 -4.236486E-08 +1.412137E-07 
 -4.215958E-06 +3.995168E-06 -1.989454E-06 +3.995168E-06 -3.337182E-06 -6.852499E-08 -1.989454E-06 -6.852499E-08 +7.553139E-06 
 +5.447341E-07 +4.425570E-06 -5.578089E-06 +4.425570E-06 -2.847087E-05 -2.032428E-06 -5.578089E-06 -2.032428E-06 +2.792613E-05 
 -7.938282E-06 -5.986371E-06 -2.190847E-06 -5.986371E-06 -4.457730E-06 -7.892402E-07 -2.190847E-06 -7.892402E-07 +1.239601E-05 
 -4.577732E-09 -1.207983E-09 -7.052797E-10 -1.207983E-09 -1.155473E-08 +1.350387E-09 -7.052797E-10 +1.350387E-09 +1.613246E-08 
 -4.726269E-08 +5.948787E-09 +3.906434E-09 +5.948787E-09 -2.206286E-08 -4.115701E-09 +3.906434E-09 -4.115701E-09 +6.932554E-08 
 -1.392851E-05 -1.659920E-05 -3.236157E-06 -1.659920E-05 -1.978228E-05 -3.856760E-06 -3.236157E-06 -3.856760E-06 +3.371078E-05 
 -1.409442E-07 +1.941840E-08 +3.914587E-08 +1.941840E-08 +3.005608E-08 -6.729586E-08 +3.914587E-08 -6.729586E-08 +1.108881E-07 
 -4.039991E-08 -3.368291E-09 +6.128975E-09 -3.368291E-09 -2.627791E-08 +1.148187E-10 +6.128975E-09 +1.148187E-10 +6.667781E-08 
 -1.168831E-06 -3.436045E-06 +2.658454E-06 -3.436045E-06 -6.296995E-06 +6.198390E-07 +2.658454E-06 +6.198390E-07 +7.465826E-06 
 -8.259289E-07 +5.700646E-07 -4.713092E-07 +5.700646E-07 -2.045078E-07 -1.845437E-07 -4.713092E-07 -1.845437E-07 +1.030437E-06 
 -8.274880E-08 +1.369406E-09 +9.855686E-09 +1.369406E-09 -3.748655E-08 -3.990528E-09 +9.855686E-09 -3.990528E-09 +1.202354E-07 
 -2.933889E-05 +1.006659E-05 +5.680242E-06 +1.006659E-05 -3.443579E-06 -1.292131E-06 +5.680242E-06 -1.292131E-06 +3.278247E-05 
 -1.844825E-08 -1.850354E-09 -2.092333E-09 -1.850354E-09 -9.539037E-09 +6.247292E-10 -2.092333E-09 +6.247292E-10 +2.798729E-08 
 -2.853262E-06 -1.054365E-07 -1.021034E-06 -1.054365E-07 -7.644624E-09 -1.869615E-07 -1.021034E-06 -1.869615E-07 +2.860906E-06 
 -9.364134E-05 +1.178139E-04 +4.570315E-05 +1.178139E-04 -1.434312E-04 -2.220363E-05 +4.570315E-05 -2.220363E-05 +2.370725E-04 
 -9.058796E-09 +2.848770E-09 +1.940335E-09 +2.848770E-09 -8.268215E-09 -3.664761E-09 +1.940335E-09 -3.664761E-09 +1.732701E-08 
 -1.204103E-08 +2.111063E-09 +6.588111E-09 +2.111063E-09 -8.368886E-09 -4.369587E-10 +6.588111E-09 -4.369587E-10 +2.040992E-08 
 -9.180745E-05 -6.428386E-05 +3.039050E-05 -6.428386E-05 -4.501282E-05 +2.127912E-05 +3.039050E-05 +2.127912E-05 +1.368203E-04 
 -5.100049E-05 -2.732145E-05 -1.500753E-05 -2.732145E-05 -1.327651E-05 +1.677461E-06 -1.500753E-05 +1.677461E-06 +6.427700E-05 
 -1.557118E-06 +3.541497E-06 -1.381818E-06 +3.541497E-06 -7.713402E-06 +1.236678E-06 -1.381818E-06 +1.236678E-06 +9.270520E-06 
 -5.069759E-06 +1.351201E-05 +7.699846E-06 +1.351201E-05 -2.831053E-05 -1.780266E-06 +7.699846E-06 -1.780266E-06 +3.338029E-05 
 -3.299202E-07 -7.023478E-07 -3.758712E-07 -7.023478E-07 -8.759450E-07 +2.157251E-07 -3.758712E-07 +2.157251E-07 +1.205865E-06 
 -5.479368E-07 +1.375938E-07 -1.942201E-07 +1.375938E-07 -2.074503E-08 +1.455601E-07 -1.942201E-07 +1.455601E-07 +5.686818E-07 
 -7.487284E-08 -1.783605E-08 +5.170809E-09 -1.783605E-08 -1.942721E-08 +2.023918E-09 +5.170809E-09 +2.023918E-09 +9.430005E-08 
 +1.285564E-07 -1.147574E-07 -4.432193E-07 -1.147574E-07 -1.223126E-06 -2.640373E-07 -4.432193E-07 -2.640373E-07 +1.094569E-06 
 -8.018017E-06 -9.353857E-07 -1.538856E-06 -9.353857E-07 +2.247214E-07 -1.823375E-06 -1.538856E-06 -1.823375E-06 +7.793295E-06 
 -3.943314E-05 -4.164605E-05 +5.913696E-06 -4.164605E-05 -3.345951E-05 -2.164472E-05 +5.913696E-06 -2.164472E-05 +7.289265E-05 
 -6.679594E-05 +1.311319E-05 -1.505162E-05 +1.311319E-05 -2.019545E-06 -3.451126E-06 -1.505162E-05 -3.451126E-06 +6.881548E-05 
 -1.178271E-07 -9.387500E-09 +4.130529E-08 -9.387500E-09 -7.186551E-08 +1.890273E-09 +4.130529E-08 +1.890273E-09 +1.896926E-07 
 -1.148102E-06 -9.443464E-07 -1.795413E-07 -9.443464E-07 -5.363923E-07 +4.946032E-07 -1.795413E-07 +4.946032E-07 +1.684494E-06 
 -1.329279E-08 +2.880795E-09 -5.617070E-09 +2.880795E-09 -5.629114E-09 +2.889700E-09 -5.617070E-09 +2.889700E-09 +1.892190E-08 
 -3.773316E-07 +4.289898E-07 -2.459769E-08 +4.289898E-07 -2.898463E-07 +3.991827E-07 -2.459769E-08 +3.991827E-07 +6.671779E-07 
 -1.131171E-06 +1.269116E-06 -2.813910E-07 +1.269116E-06 -8.895192E-07 -7.479555E-07 -2.813910E-07 -7.479555E-07 +2.020690E-06 
 -6.999155E-06 -1.150721E-05 -7.654660E-06 -1.150721E-05 -1.392815E-05 -4.399184E-07 -7.654660E-06 -4.399184E-07 +2.092731E-05 
 -1.770935E-07 -4.236931E-08 +1.739754E-08 -4.236931E-08 -1.351325E-07 +1.852283E-08 +1.739754E-08 +1.852283E-08 +3.122260E-07 
 -2.787594E-08 +1.093589E-08 +3.324170E-09 +1.093589E-08 -2.817611E-08 -2.166824E-09 +3.324170E-09 -2.166824E-09 +5.605205E-08 
 -1.710348E-06 +3.714768E-06 +3.498452E-07 +3.714768E-06 -7.132292E-06 -3.679318E-06 +3.498452E-07 -3.679318E-06 +8.842640E-06 
 -3.679730E-06 +4.370940E-06 -1.547873E-06 +4.370940E-06 -5.069686E-06 +2.951347E-06 -1.547873E-06 +2.951347E-06 +8.749415E-06 
 -2.801414E-08 -2.380412E-08 +8.715265E-09 -2.380412E-08 -4.185593E-08 +1.244474E-08 +8.715265E-09 +1.244474E-08 +6.987007E-08 
 -5.252544E-07 +6.989711E-08 +2.999842E-07 +6.989711E-08 -1.149791E-08 -6.856730E-08 +2.999842E-07 -6.856730E-08 +5.367523E-07 
 -4.382920E-08 -1.117167E-08 +2.729172E-09 -1.117167E-08 -5.950161E-08 -1.131378E-08 +2.729172E-09 -1.131378E-08 +1.033308E-07 
 -1.339185E-06 -9.094319E-08 +5.501250E-07 -9.094319E-08 +4.192407E-08 -2.449457E-07 +5.501250E-07 -2.449457E-07 +1.297261E-06 
 +8.241232E-09 +4.945543E-08 -1.024649E-07 +4.945543E-08 -4.353439E-07 +1.510691E-07 -1.024649E-07 +1.510691E-07 +4.271027E-07 
 -2.776099E-07 +1.688076E-06 -9.863727E-07 +1.688076E-06 -5.936049E-06 -5.387369E-07 -9.863727E-07 -5.387369E-07 +6.213658E-06 
 -3.776097E-07 +1.969402E-06 -1.512153E-07 +1.969402E-06 -1.029573E-05 -2.524407E-08 -1.512153E-07 -2.524407E-08 +1.067334E-05 
 -8.841666E-07 -2.689726E-07 +3.235061E-07 -2.689726E-07 -8.801556E-08 +1.352750E-07 +3.235061E-07 +1.352750E-07 +9.721822E-07 
 -8.796659E-07 +1.942896E-06 +5.184329E-08 +1.942896E-06 -4.289705E-06 +2.436397E-08 +5.184329E-08 +2.436397E-08 +5.169371E-06 
 -9.554920E-08 +4.423688E-08 +4.266713E-08 +4.423688E-08 -1.043286E-07 -4.669141E-08 +4.266713E-08 -4.669141E-08 +1.998778E-07 
 -4.250841E-08 +6.195912E-08 +3.767168E-08 +6.195912E-08 -7.991783E-08 +5.311653E-09 +3.767168E-08 +5.311653E-09 +1.224262E-07 
 -1.543820E-06 +2.790593E-06 +2.259961E-07 +2.790593E-06 -2.838275E-06 +2.753378E-06 +2.259961E-07 +2.753378E-06 +4.382095E-06 
 -1.356723E-05 +1.636169E-05 +1.420818E-06 +1.636169E-05 -1.912434E-05 +2.755796E-06 +1.420818E-06 +2.755796E-06 +3.269157E-05 
 -3.964107E-08 +1.067846E-08 -8.360187E-09 +1.067846E-08 -3.530749E-08 +1.303200E-08 -8.360187E-09 +1.303200E-08 +7.494855E-08 
 -1.475275E-07 -8.347949E-07 +2.426314E-07 -8.347949E-07 -4.734682E-06 +1.375633E-06 +2.426314E-07 +1.375633E-06 +4.882209E-06 
 -8.359385E-06 -1.577023E-06 +1.717201E-07 -1.577023E-06 -2.455421E-07 -6.400608E-07 +1.717201E-07 -6.400608E-07 +8.604927E-06 
 -6.483066E-06 +3.133381E-05 +2.114844E-05 +3.133381E-05 -1.282341E-04 -3.339803E-05 +2.114844E-05 -3.339803E-05 +1.347172E-04 
 -6.584269E-08 -6.402766E-09 +6.039671E-09 -6.402766E-09 -8.040968E-08 +1.278835E-08 +6.039671E-09 +1.278835E-08 +1.462524E-07 
 -1.696219E-07 -5.199360E-07 +2.028743E-07 -5.199360E-07 -7.928587E-07 -3.776328E-07 +2.028743E-07 -3.776328E-07 +9.624806E-07 
 -1.936417E-07 +1.063017E-07 +7.999635E-08 +1.063017E-07 -5.502492E-07 +3.339437E-08 +7.999635E-08 +3.339437E-08 +7.438910E-07 
 -1.031779E-06 +2.324486E-06 +1.139498E-06 +2.324486E-06 -5.535796E-06 -2.062272E-06 +1.139498E-06 -2.062272E-06 +6.567575E-06 
 -1.691084E-06 +8.603855E-07 -6.317017E-07 +8.603855E-07 -1.363084E-07 -4.707430E-07 -6.317017E-07 -4.707430E-07 +1.827393E-06 
 -2.764606E-07 -1.162466E-06 -1.631720E-07 -1.162466E-06 -5.114902E-06 -1.945688E-06 -1.631720E-07 -1.945688E-06 +5.391363E-06 
 -7.302669E-06 -4.451459E-06 -7.848806E-07 -4.451459E-06 -1.851671E-06 +2.365781E-06 -7.848806E-07 +2.365781E-06 +9.154341E-06 
 -2.229834E-07 +4.780151E-07 -9.695368E-08 +4.780151E-07 -7.325249E-07 -3.725988E-07 -9.695368E-08 -3.725988E-07 +9.555083E-07 
 -3.036852E-07 +3.403073E-08 +5.196831E-08 +3.403073E-08 +2.122084E-08 -1.077925E-07 +5.196831E-08 -1.077925E-07 +2.824644E-07 
 -9.603729E-05 -3.164832E-05 +2.333670E-05 -3.164832E-05 -8.651010E-06 -6.376573E-06 +2.333670E-05 -6.376573E-06 +1.046883E-04 
 -7.232007E-08 +4.603508E-08 +2.427404E-08 +4.603508E-08 -5.745602E-08 -1.504013E-08 +2.427404E-08 -1.504013E-08 +1.297761E-07 
 -5.111678E-07 +6.015168E-07 -5.581533E-07 +6.015168E-07 -7.045699E-07 +4.519012E-07 -5.581533E-07 +4.519012E-07 +1.215738E-06 
 +3.685190E-07 +1.101536E-07 -1.132040E-06 +1.101536E-07 -3.039562E-06 -1.133664E-06 -1.132040E-06 -1.133664E-06 +2.671043E-06 
 -3.611467E-06 -1.792583E-06 -1.818185E-06 -1.792583E-06 -7.609819E-07 -1.781955E-06 -1.818185E-06 -1.781955E-06 +4.372449E-06 
 -3.218973E-07 +2.308598E-07 +1.908541E-07 +2.308598E-07 -2.288862E-07 -2.028452E-07 +1.908541E-07 -2.028452E-07 +5.507835E-07 
 -1.800946E-06 +8.040794E-07 +2.952144E-07 +8.040794E-07 -3.470393E-07 -2.959772E-07 +2.952144E-07 -2.959772E-07 +2.147985E-06 
 -4.182963E-05 -9.446672E-06 -7.187913E-06 -9.446672E-06 -2.032263E-06 -3.774149E-06 -7.187913E-06 -3.774149E-06 +4.386189E-05 
 -9.842175E-05 -6.026767E-05 -3.409453E-05 -6.026767E-05 -3.542085E-05 -6.165891E-06 -3.409453E-05 -6.165891E-06 +1.338426E-04 
 -5.877094E-09 +7.297464E-10 +2.205253E-09 +7.297464E-10 -1.159929E-08 -5.526447E-09 +2.205253E-09 -5.526447E-09 +1.747639E-08 
 -2.578396E-08 +2.167529E-09 -6.554362E-09 +2.167529E-09 -3.900034E-08 +1.354857E-08 -6.554362E-09 +1.354857E-08 +6.478430E-08 
 -2.246773E-06 -1.139461E-06 +5.550055E-07 -1.139461E-06 -3.350689E-07 -5.361783E-07 +5.550055E-07 -5.361783E-07 +2.581842E-06 
 -5.161521E-07 +2.504480E-06 +8.672940E-07 +2.504480E-06 -1.184233E-05 -2.059443E-06 +8.672940E-07 -2.059443E-06 +1.235849E-05 
 -7.998203E-07 +1.876807E-07 +2.503463E-07 +1.876807E-07 +1.004931E-07 +2.801099E-07 +2.503463E-07 +2.801099E-07 +6.993272E-07 
 -1.466062E-05 +5.470780E-05 +1.543897E-05 +5.470780E-05 -2.041742E-04 -5.762209E-05 +1.543897E-05 -5.762209E-05 +2.188348E-04 
 -2.791888E-05 -1.035331E-05 -5.273415E-06 -1.035331E-05 -8.146606E-07 +7.529108E-06 -5.273415E-06 +7.529108E-06 +2.873354E-05 
 -3.029754E-06 +2.519838E-06 +1.243065E-06 +2.519838E-06 -1.571222E-06 +6.271361E-07 +1.243065E-06 +6.271361E-07 +4.600977E-06 
 -7.204450E-07 +2.646147E-07 +8.743716E-08 +2.646147E-07 -2.080296E-08 +2.371275E-07 +8.743716E-08 +2.371275E-07 +7.412480E-07 
 -8.762389E-05 -3.117720E-05 -3.808279E-06 -3.117720E-05 -7.737284E-06 -1.927155E-05 -3.808279E-06 -1.927155E-05 +9.536117E-05 
 -6.149833E-07 -2.328613E-07 +2.562113E-07 -2.328613E-07 +1.906649E-08 -1.857888E-07 +2.562113E-07 -1.857888E-07 +5.959168E-07 
 -7.077742E-08 -5.824955E-09 -2.700256E-09 -5.824955E-09 -3.276141E-08 +2.796855E-10 -2.700256E-09 +2.796855E-10 +1.035388E-07 
 -4.379938E-08 +2.182940E-09 +5.531455E-09 +2.182940E-09 -2.999204E-08 -4.223989E-09 +5.531455E-09 -4.223989E-09 +7.379143E-08 
 -1.497833E-06 +2.915151E-06 +1.535145E-06 +2.915151E-06 -5.663111E-06 -3.858196E-06 +1.535145E-06 -3.858196E-06 +7.160944E-06 
 -2.914192E-07 -2.313666E-08 +1.100306E-07 -2.313666E-08 +1.705784E-08 +1.067767E-07 +1.100306E-07 +1.067767E-07 +2.743614E-07 
 +1.153801E-07 +4.871674E-08 +3.055454E-07 +4.871674E-08 -8.472383E-07 -4.978988E-08 +3.055454E-07 -4.978988E-08 +7.318582E-07 
 -1.005223E-07 +3.696874E-10 -1.000202E-08 +3.696874E-10 -4.371859E-08 +1.097532E-10 -1.000202E-08 +1.097532E-10 +1.442409E-07 
 -9.516357E-05 -6.663420E-05 +3.316962E-05 -6.663420E-05 -4.665803E-05 +2.322595E-05 +3.316962E-05 +2.322595E-05 +1.418216E-04 
 -5.820894E-05 -1.020670E-04 +7.206120E-06 -1.020670E-04 -1.719325E-04 -2.777540E-05 +7.206120E-06 -2.777540E-05 +2.301414E-04 
 -4.978286E-05 -4.978269E-05 +1.390979E-05 -4.978269E-05 -4.978284E-05 +1.390971E-05 +1.390979E-05 +1.390971E-05 +9.956570E-05 
 -3.009428E-08 -5.328064E-09 +1.096911E-09 -5.328064E-09 -2.178373E-08 -3.737539E-09 +1.096911E-09 -3.737539E-09 +5.187801E-08 
 +6.670345E-08 +7.442366E-07 +7.345041E-07 +7.442366E-07 -2.295421E-06 +3.535929E-07 +7.345041E-07 +3.535929E-07 +2.228717E-06 
 -2.752906E-06 -8.499112E-07 -8.448800E-07 -8.499112E-07 -2.114535E-07 -7.167458E-07 -8.448800E-07 -7.167458E-07 +2.964359E-06 
 -2.564777E-06 -3.110004E-06 +2.764072E-06 -3.110004E-06 -2.784275E-06 +4.584047E-07 +2.764072E-06 +4.584047E-07 +5.349052E-06 
 +3.388072E-07 -1.677369E-07 +1.024805E-06 -1.677369E-07 -3.128903E-06 +2.772289E-07 +1.024805E-06 +2.772289E-07 +2.790096E-06 
 -1.120494E-07 +3.962608E-09 +1.522705E-08 +3.962608E-09 -5.227346E-08 -1.232294E-08 +1.522705E-08 -1.232294E-08 +1.643228E-07 
 -1.589823E-07 -1.642515E-09 +9.990055E-08 -1.642515E-09 -1.843490E-08 -4.293005E-08 +9.990055E-08 -4.293005E-08 +1.774172E-07 
 -3.104860E-07 -1.236934E-07 -1.966970E-07 -1.236934E-07 -2.085831E-07 -3.731825E-08 -1.966970E-07 -3.731825E-08 +5.190691E-07 
 -3.997665E-07 -3.869730E-07 +2.615711E-08 -3.869730E-07 -2.823607E-07 +2.826536E-07 +2.615711E-08 +2.826536E-07 +6.821272E-07 
 -1.686452E-08 +7.494823E-10 +2.415227E-09 +7.494823E-10 -6.161228E-08 -2.962988E-08 +2.415227E-09 -2.962988E-08 +7.847681E-08 
 -1.015813E-05 +4.102414E-07 -2.139328E-06 +4.102414E-07 +4.599949E-07 +2.286533E-06 -2.139328E-06 +2.286533E-06 +9.698137E-06 
 -7.874688E-07 +1.879640E-06 -9.408019E-07 +1.879640E-06 -4.235681E-06 +9.800939E-07 -9.408019E-07 +9.800939E-07 +5.023150E-06 
 -2.990377E-05 +1.660068E-06 -6.322012E-10 +1.660068E-06 -1.312117E-09 +1.660046E-06 -6.322012E-10 +1.660046E-06 +2.990508E-05 
 +2.632147E-07 -2.832573E-07 +1.647101E-06 -2.832573E-07 -8.336688E-06 +2.516945E-06 +1.647101E-06 +2.516945E-06 +8.073473E-06 
 -9.262261E-08 +4.015738E-08 -8.141308E-10 +4.015738E-08 -1.268404E-07 -2.170713E-08 -8.141308E-10 -2.170713E-08 +2.194630E-07 
 -2.519207E-05 +4.445634E-06 -4.441857E-06 +4.445634E-06 -2.117563E-09 +5.297021E-06 -4.441857E-06 +5.297021E-06 +2.519419E-05 
 -3.930169E-08 +1.481671E-07 -4.777478E-08 +1.481671E-07 -5.826834E-07 +2.203112E-07 -4.777478E-08 +2.203112E-07 +6.219851E-07 
 -1.577146E-05 +1.172209E-05 -1.568397E-06 +1.172209E-05 -4.685156E-06 -7.952799E-06 -1.568397E-06 -7.952799E-06 +2.045662E-05 
 -1.008573E-04 -1.427094E-04 +8.711695E-06 -1.427094E-04 -1.950286E-04 +5.757084E-05 +8.711695E-06 +5.757084E-05 +2.958859E-04 
 -8.435797E-06 +2.723514E-06 +2.070086E-06 +2.723514E-06 -7.065137E-07 +6.255988E-07 +2.070086E-06 +6.255988E-07 +9.142311E-06 
 -4.413425E-05 -3.703249E-05 +9.648264E-06 -3.703249E-05 -3.107441E-05 +8.095369E-06 +9.648264E-06 +8.095369E-06 +7.520867E-05 
 -1.934476E-05 +1.530654E-05 +1.028434E-05 +1.530654E-05 -9.013074E-06 +2.103006E-06 +1.028434E-05 +2.103006E-06 +2.835784E-05 
 -1.735133E-08 +6.973143E-09 +2.420032E-10 +6.973143E-09 -2.968666E-08 -4.087217E-09 +2.420032E-10 -4.087217E-09 +4.703800E-08 
 -6.477749E-09 -1.079542E-09 -3.131063E-09 -1.079542E-09 -1.490179E-08 -4.590695E-09 -3.131063E-09 -4.590695E-09 +2.137953E-08 
 -1.166124E-08 -3.596235E-09 -4.556546E-09 -3.596235E-09 -2.385038E-08 +2.402550E-09 -4.556546E-09 +2.402550E-09 +3.551162E-08 
 -1.938359E-05 +3.690685E-05 -1.985337E-05 +3.690685E-05 -5.072154E-05 -4.336541E-06 -1.985337E-05 -4.336541E-06 +7.010513E-05 
 +7.491362E-08 +2.579044E-07 -8.372504E-07 +2.579044E-07 -5.054970E-06 +1.884903E-06 -8.372504E-07 +1.884903E-06 +4.980056E-06 
 -9.100552E-06 -1.264511E-08 -7.281137E-08 -1.264511E-08 +2.713534E-07 +1.555028E-06 -7.281137E-08 +1.555028E-06 +8.829199E-06 
 -1.796072E-08 -3.102494E-07 -2.162726E-07 -3.102494E-07 -2.916218E-05 +1.060746E-05 -2.162726E-07 +1.060746E-05 +2.918014E-05 
 -3.147311E-08 -1.708710E-08 +1.867685E-10 -1.708710E-08 -5.333067E-08 +2.864217E-08 +1.867685E-10 +2.864217E-08 +8.480378E-08 
 -5.381186E-08 +1.261419E-07 -4.184125E-08 +1.261419E-07 -3.329954E-07 +1.304940E-07 -4.184125E-08 +1.304940E-07 +3.868073E-07 
 -6.996670E-06 +1.979980E-05 +2.428685E-06 +1.979980E-05 -5.225228E-05 +8.456303E-06 +2.428685E-06 +8.456303E-06 +5.924895E-05 
 -3.839305E-07 +3.611639E-08 +2.048051E-07 +3.611639E-08 +1.132672E-08 +6.556333E-08 +2.048051E-07 +6.556333E-08 +3.726038E-07 
 -1.469149E-07 +1.075803E-07 +6.282559E-08 +1.075803E-07 -7.980765E-08 -5.313125E-08 +6.282559E-08 -5.313125E-08 +2.267226E-07 
 -8.944784E-07 -8.434923E-07 -2.576028E-07 -8.434923E-07 -6.850975E-07 -6.931879E-07 -2.576028E-07 -6.931879E-07 +1.579576E-06 
 -5.897746E-08 +7.269955E-09 +1.176909E-08 +7.269955E-09 -4.449878E-08 -1.368957E-08 +1.176909E-08 -1.368957E-08 +1.034762E-07 
 -2.518234E-06 -3.633155E-06 +1.819926E-06 -3.633155E-06 -3.860220E-06 -6.430753E-07 +1.819926E-06 -6.430753E-07 +6.378455E-06 
 -1.120413E-04 -2.086536E-05 +1.249236E-05 -2.086536E-05 -2.969161E-06 -8.012780E-06 +1.249236E-05 -8.012780E-06 +1.150105E-04 
 -5.951000E-08 +5.443953E-09 -5.151348E-09 +5.443953E-09 -3.588877E-08 +2.737155E-09 -5.151348E-09 +2.737155E-09 +9.539878E-08 
 -8.517592E-07 -1.870290E-06 -4.397147E-07 -1.870290E-06 -3.855062E-06 +1.596147E-07 -4.397147E-07 +1.596147E-07 +4.706821E-06 
 -1.282372E-07 -1.697918E-07 -1.712690E-07 -1.697918E-07 -2.085826E-07 -1.231690E-07 -1.712690E-07 -1.231690E-07 +3.368198E-07 
 -1.136562E-06 +1.486734E-06 +3.426503E-07 +1.486734E-06 -1.696094E-06 +4.088944E-07 +3.426503E-07 +4.088944E-07 +2.832656E-06 
 -8.387335E-06 -2.692088E-05 -2.146197E-05 -2.692088E-05 -6.430080E-05 -1.571926E-05 -2.146197E-05 -1.571926E-05 +7.268814E-05 
 -3.890619E-08 -1.902323E-08 -1.953494E-09 -1.902323E-08 -4.580471E-08 -5.589297E-09 -1.953494E-09 -5.589297E-09 +8.471090E-08 
 -1.584076E-07 -4.180700E-08 -7.407160E-08 -4.180700E-08 -6.030078E-08 -3.877047E-08 -7.407160E-08 -3.877047E-08 +2.187084E-07 
 -4.373620E-08 -3.345426E-08 +4.667665E-08 -3.345426E-08 -4.167769E-07 +9.098090E-08 +4.667665E-08 +9.098090E-08 +4.605131E-07 
 -8.995835E-09 +4.445675E-09 +9.047276E-10 +4.445675E-09 -1.518198E-08 -1.436713E-09 +9.047276E-10 -1.436713E-09 +2.417781E-08 
 -2.822699E-08 +1.200994E-09 +2.689713E-09 +1.200994E-09 -7.873165E-08 +2.255399E-08 +2.689713E-09 +2.255399E-08 +1.069586E-07 
 -2.696945E-07 +4.868477E-07 +4.096879E-07 +4.868477E-07 -5.322881E-07 -1.706545E-08 +4.096879E-07 -1.706545E-08 +8.019827E-07 
 -2.501666E-07 +1.119411E-06 -3.407434E-07 +1.119411E-06 -3.656685E-06 -9.188369E-07 -3.407434E-07 -9.188369E-07 +3.906851E-06 
 -5.376531E-06 +4.048944E-06 -4.718198E-07 +4.048944E-06 -2.885749E-06 -8.191300E-07 -4.718198E-07 -8.191300E-07 +8.262280E-06 
 -1.363557E-04 -3.605752E-05 +6.708958E-05 -3.605752E-05 -3.995786E-06 -1.328439E-05 +6.708958E-05 -1.328439E-05 +1.403515E-04 
 -9.826705E-06 +5.703639E-07 -1.070283E-06 +5.703639E-07 +6.251253E-07 +2.559391E-06 -1.070283E-06 +2.559391E-06 +9.201580E-06 
 -1.730752E-06 -2.012769E-06 -1.284305E-06 -2.012769E-06 -2.301673E-06 -1.986853E-06 -1.284305E-06 -1.986853E-06 +4.032425E-06 
 -4.515086E-08 +9.740705E-09 +2.657659E-10 +9.740705E-09 -7.462147E-08 -7.805837E-09 +2.657659E-10 -7.805837E-09 +1.197723E-07 
 -2.802199E-05 +1.560426E-05 -3.357725E-06 +1.560426E-05 -6.354997E-06 +1.088729E-05 -3.357725E-06 +1.088729E-05 +3.437699E-05 
 -3.351660E-08 +4.190358E-09 -1.991633E-08 +4.190358E-09 -3.740034E-08 -4.498431E-09 -1.991633E-08 -4.498431E-09 +7.091694E-08 
 -7.012249E-07 -2.512156E-06 -1.601116E-06 -2.512156E-06 -5.201402E-06 +3.007237E-07 -1.601116E-06 +3.007237E-07 +5.902627E-06 
 -1.915630E-07 +1.073356E-08 -8.175165E-08 +1.073356E-08 -4.018165E-08 -2.766915E-08 -8.175165E-08 -2.766915E-08 +2.317447E-07 
 +1.466421E-08 -1.489687E-08 -2.577874E-08 -1.489687E-08 -4.429389E-08 -1.765732E-08 -2.577874E-08 -1.765732E-08 +2.962969E-08 
 -3.700583E-08 +5.935070E-09 -9.903535E-09 +5.935070E-09 -1.213860E-08 +2.733286E-09 -9.903535E-09 +2.733286E-09 +4.914443E-08 
 -2.463670E-06 +6.482416E-07 -1.136032E-06 +6.482416E-07 -7.109035E-08 -2.575061E-07 -1.136032E-06 -2.575061E-07 +2.534761E-06 
 +2.166439E-08 -2.096181E-08 +5.949881E-08 -2.096181E-08 -1.719090E-07 -1.825888E-08 +5.949881E-08 -1.825888E-08 +1.502446E-07 
 -1.203192E-06 +7.616297E-07 -4.597346E-08 +7.616297E-07 -4.780559E-07 -6.522293E-08 -4.597346E-08 -6.522293E-08 +1.681248E-06 
 -4.482570E-07 +1.201679E-07 +5.799690E-08 +1.201679E-07 +5.609090E-10 -1.798820E-07 +5.799690E-08 -1.798820E-07 +4.476961E-07 
 -6.643835E-08 +1.088035E-08 -2.799500E-08 +1.088035E-08 -6.684671E-08 +3.386178E-08 -2.799500E-08 +3.386178E-08 +1.332851E-07 
 -9.545598E-09 -2.864478E-09 -2.540078E-09 -2.864478E-09 -1.658447E-08 -5.871932E-09 -2.540078E-09 -5.871932E-09 +2.613006E-08 
 -4.066435E-07 -3.731648E-07 -2.080566E-07 -3.731648E-07 -3.301975E-07 -4.182427E-07 -2.080566E-07 -4.182427E-07 +7.368411E-07 
 -3.177428E-07 +8.903921E-07 -6.243658E-07 +8.903921E-07 -2.303068E-06 +8.154971E-07 -6.243658E-07 +8.154971E-07 +2.620811E-06 
 -2.259834E-06 -1.178272E-08 -1.540367E-07 -1.178272E-08 +1.543933E-07 +5.724273E-07 -1.540367E-07 +5.724273E-07 +2.105441E-06 
 -7.357378E-07 +2.394319E-06 -1.247985E-06 +2.394319E-06 -7.716887E-06 +2.844667E-06 -1.247985E-06 +2.844667E-06 +8.452625E-06 
 -3.578772E-06 -4.213181E-06 -2.018229E-06 -4.213181E-06 -2.410799E-06 +1.891138E-06 -2.018229E-06 +1.891138E-06 +5.989571E-06 
 -1.343267E-07 +7.899661E-08 -4.181576E-08 +7.899661E-08 -2.361960E-08 +8.686134E-08 -4.181576E-08 +8.686134E-08 +1.579463E-07 
 -1.516985E-08 +1.092223E-09 +4.932973E-09 +1.092223E-09 -1.332442E-08 -7.919471E-09 +4.932973E-09 -7.919471E-09 +2.849428E-08 
 -1.337378E-06 -1.022296E-06 -1.800856E-07 -1.022296E-06 -4.169895E-07 -9.662764E-07 -1.800856E-07 -9.662764E-07 +1.754368E-06 
 -6.255774E-05 -6.639790E-05 -3.986854E-05 -6.639790E-05 -5.331772E-05 +7.018443E-06 -3.986854E-05 +7.018443E-06 +1.158755E-04 
 -4.780301E-06 +4.717758E-06 +1.567510E-06 +4.717758E-06 -4.272695E-06 -3.495311E-06 +1.567510E-06 -3.495311E-06 +9.052995E-06 
 -3.073987E-07 -3.465706E-06 +2.069196E-07 -3.465706E-06 -3.961804E-05 +2.384800E-06 +2.069196E-07 +2.384800E-06 +3.992544E-05 
 -1.080051E-07 +2.968462E-07 -3.159480E-07 +2.968462E-07 -8.155315E-07 +8.680473E-07 -3.159480E-07 +8.680473E-07 +9.235366E-07 
 -8.243764E-08 -4.000141E-09 -2.315949E-08 -4.000141E-09 -3.175539E-08 -5.368445E-09 -2.315949E-08 -5.368445E-09 +1.141930E-07 
 -6.173449E-08 +4.224741E-08 -5.474899E-09 +4.224741E-08 -7.438162E-08 +6.442753E-09 -5.474899E-09 +6.442753E-09 +1.361161E-07 
 -7.481583E-05 -4.810916E-05 -4.467893E-05 -4.810916E-05 -2.033001E-05 +7.237919E-06 -4.467893E-05 +7.237919E-06 +9.514584E-05 
 -2.242550E-06 +4.265696E-06 +2.309957E-06 +4.265696E-06 -5.875177E-06 +4.801072E-07 +2.309957E-06 +4.801072E-07 +8.117727E-06 
 -7.723168E-06 -2.970906E-05 +2.631936E-06 -2.970906E-05 -1.016947E-04 -2.715819E-05 +2.631936E-06 -2.715819E-05 +1.094178E-04 
 -7.203048E-08 +8.766967E-09 -2.066068E-08 +8.766967E-09 -2.706672E-08 +5.694701E-09 -2.066068E-08 +5.694701E-09 +9.909721E-08 
 +3.536757E-09 +5.436696E-10 -6.916892E-08 +5.436696E-10 -2.212860E-07 -6.281533E-08 -6.916892E-08 -6.281533E-08 +2.177492E-07 
 -8.915978E-06 +2.879800E-06 +4.630109E-07 +2.879800E-06 -3.643430E-07 -2.460918E-06 +4.630109E-07 -2.460918E-06 +9.280321E-06 
 -1.017435E-07 +4.380117E-08 +5.504887E-09 +4.380117E-08 -6.353291E-08 -1.061638E-08 +5.504887E-09 -1.061638E-08 +1.652764E-07 
 -3.081086E-07 -2.275765E-07 -2.039420E-07 -2.275765E-07 -1.831585E-07 -1.838217E-07 -2.039420E-07 -1.838217E-07 +4.912671E-07 
 -9.899621E-07 +8.248828E-07 +1.755867E-07 +8.248828E-07 -5.684128E-07 -5.896999E-07 +1.755867E-07 -5.896999E-07 +1.558375E-06 
 -4.870706E-06 -4.477059E-06 +2.783696E-07 -4.477059E-06 -4.084955E-06 -2.778371E-07 +2.783696E-07 -2.778371E-07 +8.955661E-06 
 -4.081007E-06 +8.213438E-08 +1.584383E-06 +8.213438E-08 +9.479981E-08 +6.438298E-07 +1.584383E-06 +6.438298E-07 +3.986208E-06 
 -4.544025E-07 -1.132961E-06 -1.987711E-07 -1.132961E-06 -1.420625E-06 +1.175030E-06 -1.987711E-07 +1.175030E-06 +1.875028E-06 
 -4.884463E-08 -3.890231E-08 -5.444148E-08 -3.890231E-08 -4.609045E-08 -2.291508E-08 -5.444148E-08 -2.291508E-08 +9.493507E-08 
 -2.270769E-08 +4.992975E-09 -3.628957E-09 +4.992975E-09 -1.189582E-08 +2.925526E-09 -3.628957E-09 +2.925526E-09 +3.460350E-08 
 -1.324873E-07 -1.024783E-07 +5.337010E-08 -1.024783E-07 -1.498592E-07 +1.123266E-07 +5.337010E-08 +1.123266E-07 +2.823465E-07 
 -5.653787E-07 -5.952171E-07 -5.311646E-07 -5.952171E-07 -8.309417E-07 -4.804113E-07 -5.311646E-07 -4.804113E-07 +1.396320E-06 
 -9.463074E-06 +1.538281E-06 -7.088796E-07 +1.538281E-06 +3.444604E-08 +1.804448E-06 -7.088796E-07 +1.804448E-06 +9.428628E-06 
 -7.878186E-05 +1.389014E-05 -4.692707E-06 +1.389014E-05 -2.455348E-06 +8.244762E-07 -4.692707E-06 +8.244762E-07 +8.123721E-05 
 -2.298344E-06 +2.251851E-06 +1.560339E-06 +2.251851E-06 -2.107189E-06 -7.820357E-07 +1.560339E-06 -7.820357E-07 +4.405534E-06 
 -2.385846E-08 +2.946453E-09 -1.172602E-08 +2.946453E-09 -1.249843E-08 +4.143313E-09 -1.172602E-08 +4.143313E-09 +3.635688E-08 
 -3.532880E-08 +1.303426E-07 -6.631575E-10 +1.303426E-07 -3.229539E-07 -2.404614E-07 -6.631575E-10 -2.404614E-07 +3.582827E-07 
 -2.606366E-06 -6.626096E-08 -4.593353E-07 -6.626096E-08 -5.683741E-10 +5.575625E-08 -4.593353E-07 +5.575625E-08 +2.606934E-06 
 -5.684119E-08 +1.460116E-09 -7.489969E-09 +1.460116E-09 -3.704646E-08 -3.783549E-09 -7.489969E-09 -3.783549E-09 +9.388765E-08 
 +3.198723E-08 -1.131505E-07 -2.139261E-07 -1.131505E-07 -3.833040E-07 -1.603586E-07 -2.139261E-07 -1.603586E-07 +3.513168E-07 
 -6.615126E-08 +1.179273E-07 -1.108306E-08 +1.179273E-07 -3.778756E-07 -2.984092E-07 -1.108306E-08 -2.984092E-07 +4.440269E-07 
 -2.992511E-08 -1.405235E-08 -1.424164E-08 -1.405235E-08 -1.702266E-08 -8.805324E-09 -1.424164E-08 -8.805324E-09 +4.694778E-08 
 -9.273445E-05 +3.278149E-11 -2.118684E-05 +3.278149E-11 -2.647985E-09 -1.029534E-09 -2.118684E-05 -1.029534E-09 +9.273710E-05 
 -1.576074E-05 +1.530468E-05 -1.120469E-06 +1.530468E-05 -1.106277E-05 +1.124263E-05 -1.120469E-06 +1.124263E-05 +2.682351E-05 
 -3.867266E-08 -8.450925E-09 +2.871889E-09 -8.450925E-09 -1.557442E-08 +4.740867E-09 +2.871889E-09 +4.740867E-09 +5.424709E-08 
 -1.812358E-07 -1.213473E-06 -1.342395E-06 -1.213473E-06 -4.202368E-06 -1.483044E-06 -1.342395E-06 -1.483044E-06 +4.383604E-06 
 -2.174911E-07 -3.049807E-07 -2.897808E-07 -3.049807E-07 -2.293749E-07 +5.927681E-09 -2.897808E-07 +5.927681E-09 +4.468660E-07 
 -3.224559E-06 +1.571352E-06 -2.270593E-07 +1.571352E-06 -6.302618E-07 +8.533136E-07 -2.270593E-07 +8.533136E-07 +3.854821E-06 
 -2.369267E-06 -1.190160E-06 +1.119504E-07 -1.190160E-06 -5.529973E-07 -3.081527E-07 +1.119504E-07 -3.081527E-07 +2.922264E-06 
 -4.211354E-06 -5.484014E-07 -1.072659E-06 -5.484014E-07 +1.584335E-07 +8.578394E-07 -1.072659E-06 +8.578394E-07 +4.052920E-06 
 -8.946166E-06 +2.358250E-05 +1.062168E-05 +2.358250E-05 -4.986560E-05 +1.733262E-06 +1.062168E-05 +1.733262E-06 +5.881177E-05 
 -4.243635E-05 -5.057157E-05 -3.387095E-06 -5.057157E-05 -6.027044E-05 -4.036754E-06 -3.387095E-06 -4.036754E-06 +1.027068E-04 
 -1.321787E-04 +1.109108E-04 -5.396529E-06 +1.109108E-04 -9.306544E-05 +4.528438E-06 -5.396529E-06 +4.528438E-06 +2.252441E-04 
 -5.410768E-05 +6.199526E-05 -1.821201E-05 +6.199526E-05 -6.866237E-05 +3.840772E-05 -1.821201E-05 +3.840772E-05 +1.227700E-04 
 -9.110930E-06 -3.039462E-06 +5.316620E-07 -3.039462E-06 -4.739605E-07 +2.458153E-06 +5.316620E-07 +2.458153E-06 +9.584890E-06 
 -1.865198E-08 -7.826049E-09 -4.077199E-09 -7.826049E-09 -4.452196E-08 -1.823239E-08 -4.077199E-09 -1.823239E-08 +6.317394E-08 
 -2.877625E-07 +3.022061E-07 +2.083041E-07 +3.022061E-07 -3.465736E-07 -2.786416E-07 +2.083041E-07 -2.786416E-07 +6.343362E-07 
 -3.517689E-05 +2.654373E-05 -8.298418E-06 +2.654373E-05 -1.391342E-05 +2.408640E-05 -8.298418E-06 +2.408640E-05 +4.909031E-05 
 -1.877704E-06 +1.389662E-06 -3.345114E-07 +1.389662E-06 -5.390579E-07 +1.372264E-06 -3.345114E-07 +1.372264E-06 +2.416762E-06 
 -5.103755E-06 +5.595719E-06 -4.172321E-06 +5.595719E-06 -5.647800E-06 +1.829077E-06 -4.172321E-06 +1.829077E-06 +1.075156E-05 
 +1.773597E-08 -1.662846E-08 -1.055406E-07 -1.662846E-08 -2.459434E-07 -1.133307E-07 -1.055406E-07 -1.133307E-07 +2.282074E-07 
 -7.243085E-08 -1.915914E-08 -2.444816E-08 -1.915914E-08 -5.055782E-08 -1.046796E-08 -2.444816E-08 -1.046796E-08 +1.229887E-07 
 -3.318122E-05 -6.220309E-06 -1.233145E-05 -6.220309E-06 +1.405344E-06 +7.441687E-06 -1.233145E-05 +7.441687E-06 +3.177587E-05 
 -1.701832E-08 +8.619654E-09 -6.916425E-09 +8.619654E-09 -2.060756E-08 +3.543807E-09 -6.916425E-09 +3.543807E-09 +3.762587E-08 
 -2.886339E-06 +3.057720E-06 +1.618759E-06 +3.057720E-06 -2.847097E-06 -1.006872E-07 +1.618759E-06 -1.006872E-07 +5.733436E-06 
 -7.354110E-05 -1.141917E-04 -2.998163E-05 -1.141917E-04 -1.547223E-04 +2.730276E-05 -2.998163E-05 +2.730276E-05 +2.282634E-04 
 -2.819442E-05 -6.091854E-05 -2.286654E-06 -6.091854E-05 -1.250945E-04 +2.681818E-05 -2.286654E-06 +2.681818E-05 +1.532890E-04 
 -1.798700E-08 +1.063384E-07 -6.839597E-08 +1.063384E-07 -3.004806E-07 -1.030602E-07 -6.839597E-08 -1.030602E-07 +3.184676E-07 
 +7.184293E-08 +1.871834E-07 +2.084378E-07 +1.871834E-07 -5.995057E-07 +2.895653E-07 +2.084378E-07 +2.895653E-07 +5.276627E-07 
 -7.323411E-06 +3.414810E-06 +6.720736E-07 +3.414810E-06 -1.592699E-06 -3.132633E-07 +6.720736E-07 -3.132633E-07 +8.916111E-06 
 -2.199607E-05 +1.023092E-05 +2.657865E-07 +1.023092E-05 -4.512768E-06 -2.682242E-06 +2.657865E-07 -2.682242E-06 +2.650884E-05 
 -1.503431E-07 +3.074884E-08 +4.759119E-08 +3.074884E-08 -9.098285E-08 -1.238478E-08 +4.759119E-08 -1.238478E-08 +2.413260E-07 
 -1.988890E-06 +2.370137E-06 -7.465758E-07 +2.370137E-06 -2.824728E-06 +8.896619E-07 -7.465758E-07 +8.896619E-07 +4.813618E-06 
 -1.179468E-08 +2.970599E-09 -3.858747E-09 +2.970599E-09 -7.864377E-09 +4.860520E-09 -3.858747E-09 +4.860520E-09 +1.965906E-08 
 -8.734942E-07 +7.311382E-07 +3.393223E-07 +7.311382E-07 -5.971668E-07 -4.469852E-07 +3.393223E-07 -4.469852E-07 +1.470661E-06 
 -3.039206E-07 +1.843101E-08 -1.723310E-07 +1.843101E-08 -6.444715E-09 +2.239320E-09 -1.723310E-07 +2.239320E-09 +3.103654E-07 
 -5.645570E-06 -4.952526E-06 +6.266282E-07 -4.952526E-06 -3.256466E-06 -2.579693E-06 +6.266282E-07 -2.579693E-06 +8.902036E-06 
 -5.022809E-06 +1.109735E-05 +6.999287E-06 +1.109735E-05 -2.039235E-05 -3.199702E-06 +6.999287E-06 -3.199702E-06 +2.541516E-05 
 -5.114182E-05 +4.736780E-05 +1.656620E-06 +4.736780E-05 -4.034897E-05 -1.964249E-05 +1.656620E-06 -1.964249E-05 +9.149079E-05 
 -2.622755E-05 -4.539345E-05 +2.957480E-08 -4.539345E-05 -7.554252E-05 -1.773128E-05 +2.957480E-08 -1.773128E-05 +1.017701E-04 
 -3.593410E-08 -1.668204E-08 -1.193270E-08 -1.668204E-08 -8.057963E-08 -4.625356E-09 -1.193270E-08 -4.625356E-09 +1.165137E-07 
 -3.525119E-08 +1.075517E-08 +4.502542E-09 +1.075517E-08 -5.807377E-08 +3.624681E-09 +4.502542E-09 +3.624681E-09 +9.332496E-08 
 -1.406747E-06 +8.657453E-07 -8.232466E-07 +8.657453E-07 -2.142962E-07 -3.301107E-07 -8.232466E-07 -3.301107E-07 +1.621043E-06 
 -6.505982E-08 +1.210644E-09 +2.525343E-09 +1.210644E-09 -4.118549E-08 -1.926991E-09 +2.525343E-09 -1.926991E-09 +1.062453E-07 
 -3.344533E-06 +2.782309E-06 +8.247992E-08 +2.782309E-06 -2.040160E-06 -1.304440E-06 +8.247992E-08 -1.304440E-06 +5.384693E-06 
 -2.488773E-05 +4.304810E-05 -2.383560E-07 +4.304810E-05 -6.378341E-05 -3.077639E-05 -2.383560E-07 -3.077639E-05 +8.867114E-05 
 -1.154826E-07 +1.074834E-06 -7.132522E-07 +1.074834E-06 -5.039969E-06 -2.599042E-07 -7.132522E-07 -2.599042E-07 +5.155451E-06 
 -3.820883E-08 -6.136261E-09 -1.169175E-08 -6.136261E-09 -2.857258E-08 +1.625887E-08 -1.169175E-08 +1.625887E-08 +6.678140E-08 
 -3.654824E-08 -2.903260E-07 -1.202548E-07 -2.903260E-07 -1.941709E-06 +1.026097E-08 -1.202548E-07 +1.026097E-08 +1.978257E-06 
 -6.069129E-08 +1.166577E-08 -1.067771E-08 +1.166577E-08 -3.472279E-08 +1.651575E-08 -1.067771E-08 +1.651575E-08 +9.541408E-08 
 -1.060848E-07 +3.405722E-07 -1.782641E-07 +3.405722E-07 -4.485921E-07 -1.720939E-07 -1.782641E-07 -1.720939E-07 +5.546769E-07 
 -1.921875E-07 -1.871903E-07 -9.874327E-08 -1.871903E-07 -9.309579E-08 +8.110876E-08 -9.874327E-08 +8.110876E-08 +2.852832E-07 
 -3.864341E-08 +6.026954E-09 -7.707275E-09 +6.026954E-09 -4.846726E-08 +9.699711E-09 -7.707275E-09 +9.699711E-09 +8.711067E-08 
 +1.979234E-07 +6.551138E-08 -7.495577E-07 +6.551138E-08 -3.003330E-06 -2.425319E-07 -7.495577E-07 -2.425319E-07 +2.805407E-06 
 -1.484808E-08 +1.812881E-08 -7.869484E-09 +1.812881E-08 -3.501565E-08 -4.722985E-09 -7.869484E-09 -4.722985E-09 +4.986373E-08 
 -6.702961E-09 +2.370777E-09 +4.477013E-09 +2.370777E-09 -6.570508E-09 -1.905892E-09 +4.477013E-09 -1.905892E-09 +1.327347E-08 
 -1.865573E-08 +8.137778E-09 +8.306946E-10 +8.137778E-09 -3.650722E-08 -1.631879E-08 +8.306946E-10 -1.631879E-08 +5.516295E-08 
 -6.960363E-08 +1.329770E-08 -1.423130E-08 +1.329770E-08 -6.132192E-08 +2.319803E-09 -1.423130E-08 +2.319803E-09 +1.309255E-07 
 -3.789895E-07 -1.460337E-07 -1.302835E-07 -1.460337E-07 -1.011202E-08 +1.014872E-07 -1.302835E-07 +1.014872E-07 +3.891016E-07 
 +1.336147E-07 -1.756501E-06 -2.151895E-06 -1.756501E-06 -8.151840E-06 -5.561092E-07 -2.151895E-06 -5.561092E-07 +8.018225E-06 
 -1.258546E-08 -2.807198E-09 -1.621715E-09 -2.807198E-09 -1.047077E-08 -7.203127E-10 -1.621715E-09 -7.203127E-10 +2.305624E-08 
 -2.231225E-08 -1.949888E-07 +8.237389E-08 -1.949888E-07 -7.572376E-07 -3.480593E-07 +8.237389E-08 -3.480593E-07 +7.795499E-07 
 -3.079886E-06 +3.982600E-06 +1.808301E-06 +3.982600E-06 -3.281181E-06 +1.431968E-06 +1.808301E-06 +1.431968E-06 +6.361066E-06 
 -9.260600E-06 -2.303271E-06 +1.632033E-06 -2.303271E-06 -2.052809E-09 -1.932704E-06 +1.632033E-06 -1.932704E-06 +9.262652E-06 
 -9.023231E-07 +2.101901E-06 +1.539701E-07 +2.101901E-06 -4.876973E-06 +7.282495E-08 +1.539701E-07 +7.282495E-08 +5.779297E-06 
 -3.248042E-06 -1.700709E-06 -1.237007E-06 -1.700709E-06 -9.187433E-07 -8.501917E-07 -1.237007E-06 -8.501917E-07 +4.166785E-06 
 -1.405672E-06 +3.229043E-06 -1.887547E-06 +3.229043E-06 -5.060117E-06 -2.784503E-07 -1.887547E-06 -2.784503E-07 +6.465790E-06 
 -7.973231E-07 +6.554882E-07 +3.075710E-07 +6.554882E-07 -4.067300E-07 +1.753306E-07 +3.075710E-07 +1.753306E-07 +1.204053E-06 
 -6.337689E-08 +1.391562E-08 +5.403617E-09 +1.391562E-08 -1.926270E-08 +5.975021E-10 +5.403617E-09 +5.975021E-10 +8.263959E-08 
 -6.760239E-07 -1.486942E-07 -3.984815E-07 -1.486942E-07 -4.584307E-08 -5.585400E-08 -3.984815E-07 -5.585400E-08 +7.218670E-07 
 -1.535777E-07 -9.000566E-07 -2.758193E-07 -9.000566E-07 -5.411045E-06 -2.004550E-06 -2.758193E-07 -2.004550E-06 +5.564623E-06 
 -4.131355E-07 +4.529803E-07 -4.505728E-07 +4.529803E-07 -5.885915E-07 +2.665028E-07 -4.505728E-07 +2.665028E-07 +1.001727E-06 
 -8.611468E-05 -1.229813E-04 -4.515867E-05 -1.229813E-04 -1.756378E-04 -6.449510E-05 -4.515867E-05 -6.449510E-05 +2.617525E-04 
 -2.438066E-06 -1.450960E-06 -1.006407E-06 -1.450960E-06 -8.678356E-07 -6.568993E-07 -1.006407E-06 -6.568993E-07 +3.305902E-06 
 -1.649816E-07 -9.443125E-08 +9.691291E-08 -9.443125E-08 -8.149712E-09 -4.799478E-08 +9.691291E-08 -4.799478E-08 +1.731313E-07 
 -9.496070E-08 +2.515058E-08 +7.753725E-09 +2.515058E-08 -3.898226E-08 -3.564013E-09 +7.753725E-09 -3.564013E-09 +1.339430E-07 
 -9.989253E-07 -1.239936E-06 +4.537472E-07 -1.239936E-06 -1.501693E-06 +1.610947E-07 +4.537472E-07 +1.610947E-07 +2.500618E-06 
 -1.142070E-05 +2.862791E-06 +1.040723E-06 +2.862791E-06 -1.878698E-07 +2.230844E-06 +1.040723E-06 +2.230844E-06 +1.160857E-05 
 +4.478015E-08 +5.109409E-07 -6.773887E-07 +5.109409E-07 -2.216600E-06 +2.944527E-07 -6.773887E-07 +2.944527E-07 +2.171820E-06 
 -2.709397E-08 -7.792940E-09 +1.312042E-08 -7.792940E-09 +1.080945E-08 -1.352642E-08 +1.312042E-08 -1.352642E-08 +1.628452E-08 
 -6.162640E-09 +3.217401E-08 -2.699370E-09 +3.217401E-08 -2.616861E-07 -9.688495E-08 -2.699370E-09 -9.688495E-08 +2.678487E-07 
 -1.280975E-06 -8.839838E-06 -3.935223E-06 -8.839838E-06 -4.820001E-05 +1.055693E-06 -3.935223E-06 +1.055693E-06 +4.948098E-05 
 -5.025060E-05 +6.214891E-05 -8.294710E-06 +6.214891E-05 -6.790176E-05 -2.250646E-05 -8.294710E-06 -2.250646E-05 +1.181524E-04 
 -3.481444E-08 +1.064608E-08 +1.167123E-08 +1.064608E-08 -5.118288E-08 -1.539171E-08 +1.167123E-08 -1.539171E-08 +8.599732E-08 
 -5.279615E-06 -2.877278E-06 -1.748589E-07 -2.877278E-06 -1.537574E-06 +3.766702E-07 -1.748589E-07 +3.766702E-07 +6.817189E-06 
 -3.298739E-07 -4.854332E-07 +6.013969E-08 -4.854332E-07 -4.543685E-07 -3.998271E-07 +6.013969E-08 -3.998271E-07 +7.842424E-07 
 -1.406730E-08 +1.761623E-10 +3.519354E-09 +1.761623E-10 -9.759593E-09 +5.463626E-09 +3.519354E-09 +5.463626E-09 +2.382689E-08 
 -1.552179E-07 +9.084762E-07 -9.137112E-07 +9.084762E-07 -2.235152E-06 +4.481145E-07 -9.137112E-07 +4.481145E-07 +2.390370E-06 
 -5.665059E-08 +2.011109E-08 +7.430432E-09 +2.011109E-08 -1.079451E-07 -4.150165E-08 +7.430432E-09 -4.150165E-08 +1.645957E-07 
 +2.938351E-07 +1.522965E-06 -2.114909E-06 +1.522965E-06 -1.146239E-05 -3.852007E-06 -2.114909E-06 -3.852007E-06 +1.116855E-05 
 +1.760115E-08 -4.029615E-09 +9.919028E-09 -4.029615E-09 -6.715834E-08 +4.166229E-08 +9.919028E-09 +4.166229E-08 +4.955719E-08 
 -3.247067E-06 -1.544134E-06 +1.099394E-06 -1.544134E-06 -5.979277E-07 +1.291945E-06 +1.099394E-06 +1.291945E-06 +3.844995E-06 
 -8.607271E-07 -1.457244E-06 +9.808297E-07 -1.457244E-06 -2.307594E-06 +8.122249E-07 +9.808297E-07 +8.122249E-07 +3.168321E-06 
 -9.762194E-08 +2.286994E-08 +2.852474E-08 +2.286994E-08 -3.014085E-07 +3.269499E-08 +2.852474E-08 +3.269499E-08 +3.990305E-07 
 -2.370196E-05 -1.023559E-05 +8.455516E-06 -1.023559E-05 -4.134139E-06 +6.629255E-06 +8.455516E-06 +6.629255E-06 +2.783609E-05 
 -4.351477E-05 -6.061123E-07 -2.791499E-10 -6.061123E-07 -5.917805E-10 -6.061985E-07 -2.791499E-10 -6.061985E-07 +4.351537E-05 
 -7.381555E-06 +3.019922E-06 -3.770655E-06 +3.019922E-06 -5.091573E-07 -1.166583E-06 -3.770655E-06 -1.166583E-06 +7.890712E-06 
 +7.881513E-06 +7.033849E-06 -3.001398E-05 +7.033849E-06 -1.202465E-04 -2.620132E-05 -3.001398E-05 -2.620132E-05 +1.123650E-04 
 -4.328822E-07 -4.407964E-08 -7.854015E-09 -4.407964E-08 +5.601826E-08 +1.539188E-07 -7.854015E-09 +1.539188E-07 +3.768639E-07 
 -2.299442E-04 +8.369252E-05 +7.477021E-05 +8.369252E-05 -3.046371E-05 -2.721473E-05 +7.477021E-05 -2.721473E-05 +2.604079E-04 
 -7.096413E-06 +4.604008E-06 -1.278204E-06 +4.604008E-06 -2.971654E-06 +1.267230E-06 -1.278204E-06 +1.267230E-06 +1.006807E-05 
 -5.054883E-07 +1.685593E-07 +2.914778E-07 +1.685593E-07 -1.080392E-08 +8.566600E-08 +2.914778E-07 +8.566600E-08 +5.162922E-07 
 -1.642291E-04 +4.092701E-05 -3.394587E-05 +4.092701E-05 -8.732488E-06 +2.475485E-05 -3.394587E-05 +2.475485E-05 +1.729615E-04 
 -2.283423E-05 +2.411436E-05 -2.485337E-05 +2.411436E-05 -1.821501E-05 +3.996844E-06 -2.485337E-05 +3.996844E-06 +4.104923E-05 
 -6.036542E-09 -2.568028E-07 -3.662675E-07 -2.568028E-07 -2.902888E-06 -1.053146E-06 -3.662675E-07 -1.053146E-06 +2.908925E-06 
 -9.732810E-05 +1.255852E-04 -7.063223E-05 +1.255852E-04 -1.564431E-04 +4.965608E-05 -7.063223E-05 +4.965608E-05 +2.537712E-04 
 -4.452287E-06 +6.308022E-07 -1.483490E-06 +6.308022E-07 +5.258752E-07 +1.865985E-06 -1.483490E-06 +1.865985E-06 +3.926411E-06 
 -5.352752E-06 -1.205861E-06 -9.662180E-07 -1.205861E-06 +1.210836E-07 +1.248689E-06 -9.662180E-07 +1.248689E-06 +5.231669E-06 
 -2.749100E-08 -5.522476E-10 +6.208274E-09 -5.522476E-10 -3.983685E-08 -1.393968E-09 +6.208274E-09 -1.393968E-09 +6.732785E-08 
 +2.464758E-07 -1.741911E-07 +6.558004E-07 -1.741911E-07 -1.456557E-06 +4.392649E-07 +6.558004E-07 +4.392649E-07 +1.210081E-06 
 -1.245107E-07 +6.396856E-08 +3.355400E-08 +6.396856E-08 -1.004788E-07 -3.125673E-08 +3.355400E-08 -3.125673E-08 +2.249894E-07 
 -3.304617E-08 +5.511134E-08 -4.676148E-08 +5.511134E-08 -9.932690E-08 +5.747318E-08 -4.676148E-08 +5.747318E-08 +1.323731E-07 
 -6.507258E-08 +5.476817E-08 +3.331746E-08 +5.476817E-08 -4.060517E-08 -6.435717E-08 +3.331746E-08 -6.435717E-08 +1.056778E-07 
 -4.719565E-08 +6.269209E-10 -1.601127E-08 +6.269209E-10 -2.845503E-08 -2.890080E-09 -1.601127E-08 -2.890080E-09 +7.565068E-08 
 -2.675093E-08 -1.089865E-08 -4.732173E-09 -1.089865E-08 -2.693414E-08 -8.090575E-10 -4.732173E-09 -8.090575E-10 +5.368507E-08 
 -6.388108E-07 -9.029967E-07 -2.594706E-07 -9.029967E-07 -7.965149E-07 +4.953342E-07 -2.594706E-07 +4.953342E-07 +1.435326E-06 
 -5.277551E-05 +5.997592E-05 +1.904601E-05 +5.997592E-05 -5.216172E-05 +2.066586E-05 +1.904601E-05 +2.066586E-05 +1.049372E-04 
 -2.770188E-05 +1.070470E-05 +1.010145E-06 +1.070470E-05 -2.914859E-06 +5.731483E-06 +1.010145E-06 +5.731483E-06 +3.061674E-05 
 -3.593231E-06 -9.826192E-07 +1.268395E-06 -9.826192E-07 -1.504031E-07 +1.068280E-06 +1.268395E-06 +1.068280E-06 +3.743634E-06 
 +9.887544E-08 +1.513630E-07 -3.643598E-07 +1.513630E-07 -1.076394E-06 +9.488519E-08 -3.643598E-07 +9.488519E-08 +9.775184E-07 
 -3.697542E-08 -5.033143E-10 +3.362048E-09 -5.033143E-10 -2.094662E-08 -1.599713E-09 +3.362048E-09 -1.599713E-09 +5.792203E-08 
 -8.930886E-05 +7.493830E-05 -9.830775E-06 +7.493830E-05 -6.288150E-05 +8.248639E-06 -9.830775E-06 +8.248639E-06 +1.521904E-04 
 -1.430892E-05 +1.105917E-05 +1.923792E-06 +1.105917E-05 -4.345095E-06 -1.043346E-05 +1.923792E-06 -1.043346E-05 +1.865401E-05 
 -1.134679E-08 +1.082067E-07 +7.424261E-08 +1.082067E-07 -9.251399E-07 -1.534407E-07 +7.424261E-08 -1.534407E-07 +9.364867E-07 
 -7.525908E-08 -2.735896E-07 +1.287769E-07 -2.735896E-07 -9.949737E-07 +1.495246E-07 +1.287769E-07 +1.495246E-07 +1.070233E-06 
 +9.284577E-08 +2.262331E-07 -2.712256E-07 +2.262331E-07 -7.858320E-07 -3.112235E-07 -2.712256E-07 -3.112235E-07 +6.929862E-07 
 -1.991510E-08 +6.609105E-09 +9.062709E-09 +6.609105E-09 -1.252302E-08 +4.216714E-09 +9.062709E-09 +4.216714E-09 +3.243812E-08 
 -5.340335E-05 +9.249622E-05 +3.892261E-07 +9.249622E-05 -1.602090E-04 -6.751573E-07 +3.892261E-07 -6.751573E-07 +2.136123E-04 
 -6.932968E-06 -6.282850E-06 +1.960319E-06 -6.282850E-06 -5.692450E-06 +1.110797E-06 +1.960319E-06 +1.110797E-06 +1.262542E-05 
 -8.477010E-07 -2.166606E-07 +1.111155E-07 -2.166606E-07 +4.917078E-08 -2.800411E-07 +1.111155E-07 -2.800411E-07 +7.985302E-07 
 -3.051653E-07 -5.333345E-07 -3.539128E-07 -5.333345E-07 -4.803787E-07 +1.196358E-07 -3.539128E-07 +1.196358E-07 +7.855439E-07 
 -2.893376E-08 +6.317295E-09 +7.121633E-09 +6.317295E-09 -2.643613E-08 -1.390801E-08 +7.121633E-09 -1.390801E-08 +5.536990E-08 
 -1.907204E-06 -5.246128E-07 -6.905358E-07 -5.246128E-07 -1.033973E-08 +3.683026E-07 -6.905358E-07 +3.683026E-07 +1.917544E-06 
 -1.198362E-07 -2.010889E-08 +5.219021E-09 -2.010889E-08 -6.651174E-08 -1.294603E-09 +5.219021E-09 -1.294603E-09 +1.863479E-07 
 -5.871141E-08 +1.404534E-08 -9.810545E-08 +1.404534E-08 -5.404451E-07 -2.627339E-07 -9.810545E-08 -2.627339E-07 +5.991566E-07 
 -6.711691E-06 -2.227144E-06 +2.960661E-06 -2.227144E-06 -6.206482E-07 -4.019521E-08 +2.960661E-06 -4.019521E-08 +7.332339E-06 
 -5.086740E-08 -1.055235E-08 -7.991066E-10 -1.055235E-08 -3.713988E-08 -5.843828E-09 -7.991066E-10 -5.843828E-09 +8.800728E-08 
 -3.541481E-08 -5.869320E-09 +1.732165E-09 -5.869320E-09 -2.725054E-08 +3.400809E-09 +1.732165E-09 +3.400809E-09 +6.266535E-08 
 -6.838441E-06 -4.909271E-06 -1.413443E-06 -4.909271E-06 -3.523517E-06 -1.166307E-06 -1.413443E-06 -1.166307E-06 +1.036196E-05 
 -1.779763E-08 -1.094674E-08 +3.469137E-09 -1.094674E-08 -2.492611E-08 +1.088132E-08 +3.469137E-09 +1.088132E-08 +4.272374E-08 
 -1.467799E-07 +3.126610E-07 -6.927780E-08 +3.126610E-07 -6.479220E-07 +2.928649E-07 -6.927780E-08 +2.928649E-07 +7.947019E-07 
 -2.657410E-07 -7.388246E-07 -4.014383E-07 -7.388246E-07 -1.090428E-06 +2.766294E-07 -4.014383E-07 +2.766294E-07 +1.356169E-06 
 -2.464518E-07 +3.687502E-07 +3.503908E-07 +3.687502E-07 -6.002310E-07 -3.085184E-07 +3.503908E-07 -3.085184E-07 +8.466828E-07 
 -4.982014E-08 -6.821494E-08 -6.358972E-08 -6.821494E-08 -1.139974E-07 -6.127382E-08 -6.358972E-08 -6.127382E-08 +1.638176E-07 
 -5.388636E-05 -7.097479E-05 +2.466669E-05 -7.097479E-05 -8.240658E-05 -7.976775E-06 +2.466669E-05 -7.976775E-06 +1.362929E-04 
 -1.045294E-07 +2.065387E-07 -3.718790E-08 +2.065387E-07 -2.043727E-07 -1.873897E-07 -3.718790E-08 -1.873897E-07 +3.089021E-07 
 -2.356279E-08 +1.849267E-08 +8.285668E-09 +1.849267E-08 -3.973279E-08 -1.079732E-08 +8.285668E-09 -1.079732E-08 +6.329558E-08 
 -7.086587E-08 +4.794007E-08 +2.570725E-08 +4.794007E-08 -1.190306E-07 -3.169814E-08 +2.570725E-08 -3.169814E-08 +1.898965E-07 
 -8.766569E-09 +2.445676E-10 -1.174150E-10 +2.445676E-10 -1.333629E-08 -2.169675E-09 -1.174150E-10 -2.169675E-09 +2.210286E-08 
 -1.279226E-04 +1.087541E-04 +1.240777E-05 +1.087541E-04 -8.961133E-05 +1.442865E-05 +1.240777E-05 +1.442865E-05 +2.175339E-04 
 -1.422597E-08 +1.317656E-06 +1.291405E-06 +1.317656E-06 -2.998889E-05 +1.193010E-07 +1.291405E-06 +1.193010E-07 +3.000311E-05 
 -1.668886E-06 +1.352726E-06 -6.656893E-07 +1.352726E-06 -1.079898E-06 +7.900687E-07 -6.656893E-07 +7.900687E-07 +2.748784E-06 
 -1.739312E-06 +3.748350E-06 +2.614906E-06 +3.748350E-06 -7.248473E-06 -2.136754E-06 +2.614906E-06 -2.136754E-06 +8.987785E-06 
 -2.973697E-08 -1.526390E-09 -8.060183E-10 -1.526390E-09 -5.857074E-08 +5.952769E-09 -8.060183E-10 +5.952769E-09 +8.830771E-08 
 +2.208128E-07 -1.046199E-06 +1.368159E-06 -1.046199E-06 -3.904036E-06 +1.775332E-09 +1.368159E-06 +1.775332E-09 +3.683223E-06 
 -1.467905E-07 -1.024652E-06 +2.546845E-07 -1.024652E-06 -4.528428E-06 -1.902829E-06 +2.546845E-07 -1.902829E-06 +4.675218E-06 
 -1.020900E-07 -3.236935E-08 +3.436036E-08 -3.236935E-08 -9.627863E-08 +2.355375E-08 +3.436036E-08 +2.355375E-08 +1.983686E-07 
 -3.258408E-05 +5.745394E-06 -8.430976E-06 +5.745394E-06 -1.013623E-06 +1.486704E-06 -8.430976E-06 +1.486704E-06 +3.359770E-05 
 -5.571773E-08 -1.079176E-09 -1.495794E-08 -1.079176E-09 -1.993113E-08 +7.328073E-09 -1.495794E-08 +7.328073E-09 +7.564886E-08 
 -1.447094E-06 +2.913575E-06 -1.507867E-07 +2.913575E-06 -5.216970E-06 +2.514418E-06 -1.507867E-07 +2.514418E-06 +6.664064E-06 
 -9.646328E-08 +1.175410E-08 +1.270037E-08 +1.175410E-08 -1.956715E-07 +1.432818E-08 +1.270037E-08 +1.432818E-08 +2.921348E-07 
 -6.362995E-08 -5.226548E-08 -2.114618E-08 -5.226548E-08 -3.944653E-08 -3.804142E-08 -2.114618E-08 -3.804142E-08 +1.030765E-07 
 -4.290943E-06 -6.360136E-07 +1.329301E-07 -6.360136E-07 -3.358170E-08 -4.961497E-07 +1.329301E-07 -4.961497E-07 +4.324525E-06 
 -1.314472E-08 -1.761250E-09 -2.455382E-09 -1.761250E-09 -1.172617E-08 +5.351443E-10 -2.455382E-09 +5.351443E-10 +2.487089E-08 
 -1.004220E-04 +1.770676E-05 +3.146120E-05 +1.770676E-05 -3.124831E-06 -5.548626E-06 +3.146120E-05 -5.548626E-06 +1.035468E-04 
 -9.128003E-07 +2.123457E-06 +8.541756E-08 +2.123457E-06 -4.254361E-06 -2.220337E-06 +8.541756E-08 -2.220337E-06 +5.167161E-06 
 -3.117270E-05 +5.496327E-06 +5.113275E-07 +5.496327E-06 -9.706033E-07 -9.083701E-08 +5.113275E-07 -9.083701E-08 +3.214330E-05 
 -5.722812E-06 -1.189788E-05 +1.723775E-06 -1.189788E-05 -2.405721E-05 -9.966084E-07 +1.723775E-06 -9.966084E-07 +2.978003E-05 
 -1.322794E-06 -2.047828E-06 -7.958671E-07 -2.047828E-06 -3.010255E-06 -3.269977E-07 -7.958671E-07 -3.269977E-07 +4.333049E-06 
 -3.971848E-06 -1.222975E-06 +1.777132E-06 -1.222975E-06 -2.850066E-07 -1.560092E-07 +1.777132E-06 -1.560092E-07 +4.256855E-06 
 -1.791663E-08 +8.890203E-09 -1.026458E-09 +8.890203E-09 -1.248674E-08 +7.589757E-09 -1.026458E-09 +7.589757E-09 +3.040336E-08 
 -1.209675E-08 +3.318188E-09 -5.446571E-09 +3.318188E-09 -1.293227E-08 +4.155502E-09 -5.446571E-09 +4.155502E-09 +2.502902E-08 
 -1.550359E-05 +1.069154E-05 +1.530929E-06 +1.069154E-05 -7.115120E-06 -3.486809E-06 +1.530929E-06 -3.486809E-06 +2.261871E-05 
 -7.294369E-08 +6.612287E-09 -8.205650E-09 +6.612287E-09 -3.620116E-08 -6.000375E-10 -8.205650E-09 -6.000375E-10 +1.091448E-07 
 -3.965722E-07 +7.765112E-07 +7.017781E-07 +7.765112E-07 -8.497589E-07 -5.901267E-08 +7.017781E-07 -5.901267E-08 +1.246331E-06 
 -5.154551E-08 -7.582658E-09 -3.756425E-09 -7.582658E-09 -4.666080E-08 -7.419790E-09 -3.756425E-09 -7.419790E-09 +9.820630E-08 
 -1.256173E-05 -1.760722E-05 -2.167028E-06 -1.760722E-05 -2.382892E-05 -8.643723E-06 -2.167028E-06 -8.643723E-06 +3.639065E-05 
 +2.079851E-07 -2.421785E-07 +9.661717E-07 -2.421785E-07 -4.448120E-06 -1.385602E-06 +9.661717E-07 -1.385602E-06 +4.240135E-06 
 -2.559333E-05 +1.167631E-05 +2.663679E-06 +1.167631E-05 -5.041428E-06 -4.197906E-06 +2.663679E-06 -4.197906E-06 +3.063476E-05 
 -1.359513E-07 +9.898287E-08 +3.914936E-08 +9.898287E-08 -2.663930E-07 -7.652309E-08 +3.914936E-08 -7.652309E-08 +4.023443E-07 
 -6.993178E-09 +3.343512E-09 +1.266460E-09 +3.343512E-09 -1.174723E-08 -1.000631E-09 +1.266460E-09 -1.000631E-09 +1.874041E-08 
 -1.846900E-06 +3.996789E-06 +1.496831E-06 +3.996789E-06 -6.048877E-06 +1.633137E-06 +1.496831E-06 +1.633137E-06 +7.895777E-06 
 -1.526090E-05 +3.740302E-05 -2.262637E-05 +3.740302E-05 -8.592496E-05 +2.758151E-05 -2.262637E-05 +2.758151E-05 +1.011859E-04 
 -1.293610E-08 -6.991698E-09 -4.092640E-09 -6.991698E-09 -1.136176E-08 -2.883964E-09 -4.092640E-09 -2.883964E-09 +2.429786E-08 
 -5.414647E-08 -5.278372E-08 +4.913902E-08 -5.278372E-08 -9.812739E-08 +3.341282E-08 +4.913902E-08 +3.341282E-08 +1.522739E-07 
 -3.550122E-10 +2.708128E-07 +2.708186E-07 +2.708128E-07 -2.505249E-06 -1.547597E-10 +2.708186E-07 -1.547597E-10 +2.505604E-06 
 -9.529732E-09 +1.324079E-09 -2.903113E-09 +1.324079E-09 -7.374514E-09 -3.010258E-09 -2.903113E-09 -3.010258E-09 +1.690425E-08 
 -2.051072E-06 -2.177690E-06 +7.658439E-07 -2.177690E-06 -2.215869E-06 +1.499226E-06 +7.658439E-07 +1.499226E-06 +4.266941E-06 
 -2.555714E-05 +1.104724E-05 +2.992890E-06 +1.104724E-05 -4.255800E-06 -5.313193E-06 +2.992890E-06 -5.313193E-06 +2.981294E-05 
 -3.689073E-06 -9.938556E-07 +5.677820E-07 -9.938556E-07 +8.034979E-08 -9.824491E-07 +5.677820E-07 -9.824491E-07 +3.608723E-06 
 -9.039948E-07 +1.605937E-06 -1.111780E-07 +1.605937E-06 -1.624113E-06 -1.591092E-06 -1.111780E-07 -1.591092E-06 +2.528108E-06 
 -6.555028E-06 -2.698073E-06 -8.418810E-07 -2.698073E-06 -1.408388E-07 +2.247298E-06 -8.418810E-07 +2.247298E-06 +6.695866E-06 
 -8.078249E-06 +3.178521E-05 +1.257126E-05 +3.178521E-05 -6.792257E-05 +2.483041E-05 +1.257126E-05 +2.483041E-05 +7.600082E-05 
 -3.081883E-07 -2.807541E-07 -1.881354E-07 -2.807541E-07 -2.509334E-07 -2.786400E-07 -1.881354E-07 -2.786400E-07 +5.591218E-07 
 -4.408685E-05 -3.338901E-05 +7.562660E-06 -3.338901E-05 -2.270377E-05 -7.558615E-06 +7.562660E-06 -7.558615E-06 +6.679061E-05 
 -5.503604E-07 -7.650723E-08 +3.150407E-07 -7.650723E-08 -1.953263E-08 +2.284717E-08 +3.150407E-07 +2.284717E-08 +5.698930E-07 
 -4.426065E-06 -2.006107E-06 -6.266959E-07 -2.006107E-06 -6.412782E-07 +8.940157E-07 -6.266959E-07 +8.940157E-07 +5.067342E-06 
 -1.003770E-07 -1.816790E-08 -1.081949E-08 -1.816790E-08 -4.694211E-08 -9.885142E-09 -1.081949E-08 -9.885142E-09 +1.473191E-07 
 +1.883009E-07 +1.359366E-07 +8.546655E-07 +1.359366E-07 -3.727341E-06 +1.557306E-06 +8.546655E-07 +1.557306E-06 +3.539040E-06 
 -8.172133E-05 -1.771732E-06 +5.213282E-06 -1.771732E-06 +4.899000E-06 -1.942634E-05 +5.213282E-06 -1.942634E-05 +7.682233E-05 
 -7.930041E-08 -2.904570E-08 -3.379217E-09 -2.904570E-08 -1.121151E-07 -1.312238E-08 -3.379217E-09 -1.312238E-08 +1.914155E-07 
 -2.370418E-05 +8.527995E-06 +1.053167E-06 +8.527995E-06 -2.843147E-06 -2.851986E-06 +1.053167E-06 -2.851986E-06 +2.654733E-05 
 -1.054661E-07 +9.381104E-09 -8.434599E-09 +9.381104E-09 -3.055780E-08 +4.188538E-09 -8.434599E-09 +4.188538E-09 +1.360238E-07 
 -5.381546E-06 +6.500811E-07 +1.013937E-06 +6.500811E-07 +8.794180E-08 +8.459138E-07 +1.013937E-06 +8.459138E-07 +5.293604E-06 
 -2.348600E-04 -3.353887E-04 +2.893893E-05 -3.353887E-04 -4.790034E-04 +4.131826E-05 +2.893893E-05 +4.131826E-05 +7.138634E-04 
 -1.581276E-07 -7.429005E-08 -6.707958E-08 -7.429005E-08 -8.104554E-08 -8.561467E-08 -6.707958E-08 -8.561467E-08 +2.391732E-07 
